
units lj                  # Use reduced LJ style units
atom_style atomic         # Uncharged point particles
atom_modify map hash      # Needed for indexing of clusters etc
                          # Used to be able to find where atoms are in relation to each other.

lattice fcc 1.0 spacing 1 1 1
Lattice spacing in x,y,z = 1.5874011 1.5874011 1.5874011
region box block 0 10 0 10 0 10 units lattice
create_box 2 box
Created orthogonal box = (0.0000000 0.0000000 0.0000000) to (15.874011 15.874011 15.874011)
  3 by 4 by 4 MPI processor grid
create_atoms 1 box
Created 4000 atoms
  using lattice units in orthogonal box = (0.0000000 0.0000000 0.0000000) to (15.874011 15.874011 15.874011)
  create_atoms CPU = 0.003 seconds
set type 1 type/fraction 2 0.03 78393
Setting atom values ...
  125 settings made for type/fraction
mass 1 1.0
mass 2 1.0
pair_style lj/cut  3.5
pair_modify tail  yes
pair_coeff 1  1  1.0  1.0   # Intearaction between 1 and 1 set with epsilon = 1 and sigma = 1
pair_coeff 1  2  1.5  0.8
pair_coeff 2  2  0.5  0.88

write_data data.0
System init for write_data ...
Neighbor list info ...
  update every 1 steps, delay 10 steps, check yes
  max neighbors/atom: 2000, page size: 100000
  master list distance cutoff = 3.8
  ghost atom cutoff = 3.8
  binsize = 1.9, bins = 9 9 9
  1 neighbor lists, perpetual/occasional/extra = 1 0 0
  (1) pair lj/cut, perpetual
      attributes: half, newton on
      pair build: half/bin/atomonly/newton
      stencil: half/bin/3d
      bin: standard
WARNING: Not all mixed pair coeffs generated from mixing. Use write_data with 'pair ij' option to store all pair coeffs. (../write_data.cpp:312)


#############################
#   M E L T   S Y S T E M   #
#############################

velocity all create 2.4 6583654 mom yes dist gaussian # Assign velocities
                                                    # Temperature 2.4, random number seed, zero linear momentum
                                                                                # Gaussian distribution

timestep 0.002   # simulation timestep
thermo 1000       # output thermodynamic data every 1000 steps bf 100

# Define a fix  in this case with index 1 applied to all
# particles in the simulation. This fix is for simulations
# in the anisotropic NPT ensemble. Note that we use the MTK
# correction.
fix 1 all npt temp 2.4 2.4 0.1 iso 5.68 5.68 0.5 mtk yes tchain 5 pchain 5 # Use NPT ensemble
                                                                         # Set temperature and pressure and damping
                                                                         # Numbers of thermostats in chain and in barostat
run 10000          # run for 10000 steps
Per MPI rank memory allocation (min/avg/max) = 3.642 | 3.644 | 3.648 Mbytes
Step Temp E_pair E_mol TotEng Press Volume 
       0          2.4    -8.178823            0    -4.579723   -2.4950487         4000 
    1000    2.3865829   -4.4932907            0  -0.91431139    5.5470051    5089.2972 
    2000    2.3811924   -4.3985395            0  -0.82764391    5.8234873    5112.9177 
    3000    2.4298526   -4.3869547            0  -0.74308699    5.5395171    5164.5311 
    4000    2.3912046   -4.4111682            0  -0.82525795     5.426198    5166.9367 
    5000    2.4368233   -4.4368771            0  -0.78255592    5.5998498    5125.1533 
    6000    2.4259484   -4.4487658            0  -0.81075296     5.801855    5094.3636 
    7000    2.4097357   -4.4647011            0  -0.85100119    5.6181586    5101.0101 
    8000    2.3522127   -4.4524094            0  -0.92497241     5.635187    5106.5076 
    9000    2.3754408   -4.4082416            0  -0.84597117    5.7814685    5110.9641 
   10000    2.3949875   -4.4155281            0  -0.82394497    5.7472167    5116.9712 
Loop time of 2.09246 on 48 procs for 10000 steps with 4000 atoms

Performance: 825823.478 tau/day, 4779.071 timesteps/s
99.6% CPU use with 48 MPI tasks x no OpenMP threads

MPI task timing breakdown:
Section |  min time  |  avg time  |  max time  |%varavg| %total
---------------------------------------------------------------
Pair    | 0.85728    | 0.91783    | 0.97387    |   2.8 | 43.86
Neigh   | 0.16642    | 0.1734     | 0.1941     |   1.1 |  8.29
Comm    | 0.63408    | 0.71875    | 0.78447    |   4.7 | 34.35
Output  | 0.00024209 | 0.000247   | 0.00030933 |   0.0 |  0.01
Modify  | 0.22913    | 0.26815    | 0.30176    |   4.4 | 12.81
Other   |            | 0.01409    |            |       |  0.67

Nlocal:        83.3333 ave          93 max          73 min
Histogram: 2 0 3 6 8 10 8 7 2 2
Nghost:        1389.65 ave        1413 max        1372 min
Histogram: 4 6 5 7 8 6 4 5 2 1
Neighs:        7435.94 ave        8656 max        5960 min
Histogram: 1 1 1 5 12 9 12 4 1 2

Total # of neighbors = 356925
Ave neighs/atom = 89.231250
Neighbor list builds = 903
Dangerous builds = 188

# Equilibrate just above the melting temperature to avoid step fn in T

fix 1 all npt temp 1.25 1.25 0.1 iso 5.68 5.68 0.5 mtk yes tchain 5 pchain 5
run 2000
Per MPI rank memory allocation (min/avg/max) = 3.643 | 3.645 | 3.648 Mbytes
Step Temp E_pair E_mol TotEng Press Volume 
   10000    2.3949875   -4.4155281            0  -0.82394497    5.7472167    5116.9712 
   11000    1.2506412   -5.8998563            0   -4.0243635    5.7937407    4249.4559 
   12000    1.2331856   -5.9095685            0   -4.0602525    6.0016892    4224.8885 
Loop time of 0.457232 on 48 procs for 2000 steps with 4000 atoms

Performance: 755852.352 tau/day, 4374.146 timesteps/s
99.6% CPU use with 48 MPI tasks x no OpenMP threads

MPI task timing breakdown:
Section |  min time  |  avg time  |  max time  |%varavg| %total
---------------------------------------------------------------
Pair    | 0.20243    | 0.21122    | 0.22398    |   1.3 | 46.20
Neigh   | 0.030597   | 0.031958   | 0.034757   |   0.4 |  6.99
Comm    | 0.14543    | 0.15804    | 0.17255    |   1.8 | 34.56
Output  | 5.6098e-05 | 5.7496e-05 | 7.7795e-05 |   0.0 |  0.01
Modify  | 0.04668    | 0.051513   | 0.056271   |   1.1 | 11.27
Other   |            | 0.004441   |            |       |  0.97

Nlocal:        83.3333 ave          90 max          76 min
Histogram: 2 1 6 5 2 15 5 8 2 2
Nghost:        1584.12 ave        1611 max        1562 min
Histogram: 2 6 5 10 5 6 5 4 3 2
Neighs:        9010.90 ave        9736 max        8309 min
Histogram: 4 4 4 2 9 8 7 4 3 3

Total # of neighbors = 432523
Ave neighs/atom = 108.13075
Neighbor list builds = 142
Dangerous builds = 6

#############################
# L I N E A R  Q U E N C H  #
#############################

# Define solid atoms. This closely follows ten Wolde  Ruiz-Montero and Frenkel  Faraday Discuss  1996  104  93-110
# Compute components of the per-atom q6 vector
compute q6 all orientorder/atom degrees 1 6 components 6 nnn NULL cutoff 1.3 # compute the Q6 parameter.
                                                                             # Use all neighbours within 1.3 unit cell.

# get number of connections
compute coord_number all coord/atom orientorder q6 0.5

# An atom is solid if it has 8 or more connections (of a possible 14)
variable is_solid atom c_coord_number>=8
group solid dynamic all var is_solid    # Must be dynamic to update
dynamic group solid defined

# do clustering
compute cluster solid cluster/atom 1.3 # Create a cluster where all atoms within are solid and max 1.3 units from another member

# define chunks one chunk per cluster
compute clus_chunks solid chunk/atom c_cluster nchunk every compress yes  # Says which atoms are in which chunk

# count the size of each chunk
compute size_chunks solid property/chunk clus_chunks count


# Find the maximum entry in the vector of chunk sizes
variable max_n equal max(c_size_chunks)


# Thermo style which includes this variable
# thermo_style custom step temp pe vol v_max_n

thermo ${N}  # Print the thermo information every 100 steps
thermo 1000  

# Reset the npt fix at a lower temperature (below freezing)
fix 1  all npt temp  ${temp} ${temp}  0.1  iso  5.68  5.68  0.5  mtk yes tchain  5  pchain  5
fix 1  all npt temp  0.45 ${temp}  0.1  iso  5.68  5.68  0.5  mtk yes tchain  5  pchain  5
fix 1  all npt temp  0.45 0.45  0.1  iso  5.68  5.68  0.5  mtk yes tchain  5  pchain  5

dump dmp2 all dcd ${N} traj.dcd
dump dmp2 all dcd 1000 traj.dcd


compute msd all msd com yes
variable twopoint equal c_msd[4]/6/(step*dt+1.0e-6)
fix 9 all vector 10 c_msd[4]
variable fit equal slope(f_9)/6/(10*dt)
thermo_style custom step temp pe c_msd[4] v_twopoint v_fit v_max_n

fix 1 all npt temp 1.25 ${temp} 0.1 iso 5.68 5.68 0.5 mtk yes tchain 5 pchain 5
fix 1 all npt temp 1.25 0.45 0.1 iso 5.68 5.68 0.5 mtk yes tchain 5 pchain 5
run 5000000 # 5000000  # Run for this many steps
Neighbor list info ...
  update every 1 steps, delay 10 steps, check yes
  max neighbors/atom: 2000, page size: 100000
  master list distance cutoff = 3.8
  ghost atom cutoff = 3.8
  binsize = 1.9, bins = 9 9 9
  4 neighbor lists, perpetual/occasional/extra = 1 3 0
  (1) pair lj/cut, perpetual
      attributes: half, newton on
      pair build: half/bin/atomonly/newton
      stencil: half/bin/3d
      bin: standard
  (2) compute orientorder/atom, occasional
      attributes: full, newton on
      pair build: full/bin/atomonly
      stencil: full/bin/3d
      bin: standard
  (3) compute coord/atom, occasional
      attributes: full, newton on
      pair build: full/bin/atomonly
      stencil: full/bin/3d
      bin: standard
  (4) compute cluster/atom, occasional
      attributes: full, newton on
      pair build: full/bin/atomonly
      stencil: full/bin/3d
      bin: standard
Per MPI rank memory allocation (min/avg/max) = 9.734 | 9.739 | 9.746 Mbytes
Step Temp PotEng c_msd[4] v_twopoint v_fit v_max_n 
   12000    1.2331856   -5.9095685 2.7730433e-30 1.9257244e-32 8.3333333e+20            4 
   13000    1.2529893   -5.9408133   0.58092503 0.0037238782  0.047912906            2 
   14000    1.2400856   -5.9513046    1.1114855 0.0066159851  0.045613613            4 
   15000     1.279549   -5.9697555     1.649905 0.0091661385  0.045228599            6 
   16000    1.2557745   -5.9574035    2.1965264  0.011440242  0.045076246            2 
   17000     1.226362   -5.9380029    2.7685554   0.01357135  0.045077505            4 
   18000    1.2352158   -5.9313377    3.2689728  0.015134133  0.045282542            3 
   19000    1.2626102   -5.9679474    3.9231357  0.017206735  0.045620378            2 
   20000     1.254382   -5.9651592    4.4528803  0.018553667  0.046131473            4 
   21000    1.2850375   -5.9842792    4.9280733  0.019555846   0.04610371            5 
   22000    1.2385238   -5.9321699    5.5457257  0.021006536  0.045911164            3 
   23000    1.2124129   -5.9451626    6.0133348  0.021787444  0.045793269            2 
   24000    1.2594597   -5.9368714    6.5228099  0.022648645  0.045492955            3 
   25000    1.2338338   -5.9829387    7.0796715  0.023598904  0.045439948            4 
   26000    1.2657704   -5.9373968    7.6426102  0.024495545  0.045435394            5 
   27000    1.2426291   -5.9693071    8.0362904  0.024803365  0.045198416            3 
   28000    1.2762793   -5.9074418    8.5333346  0.025396829  0.044908444            5 
   29000     1.262437   -5.9587281     9.023526  0.025929672  0.044609252            5 
   30000    1.2323733   -5.9623044    9.4898069  0.026360574  0.044349772            4 
   31000    1.2043906   -5.9930825    10.031066  0.026965232  0.044136482            2 
   32000    1.2233164   -5.9283141    10.576599  0.027543227  0.044002802            2 
   33000    1.2724602   -5.9383168    11.112063  0.028060764  0.043860998            1 
   34000    1.2485324   -5.9610411    11.512628  0.028217224  0.043714962            4 
   35000    1.2395685   -5.9297778    12.143147  0.028912255  0.043578995            4 
   36000     1.239132   -5.9212613    12.778096  0.029578927  0.043585808            2 
   37000    1.2103752   -5.9569941    13.378643  0.030132078  0.043686421            2 
   38000    1.2437528   -5.9588954    13.912554  0.030509987  0.043784841            4 
   39000    1.2378089   -5.9287165    14.502869  0.030989035  0.043882122            1 
   40000    1.2364629   -5.9849882    14.968136  0.031183615  0.043952689            2 
   41000    1.2369355   -5.9582548    15.600274  0.031707874   0.04406015            4 
   42000    1.2374728   -5.9628905    16.238815  0.032219871  0.044204028            3 
   43000     1.231626   -5.9565761    16.930077  0.032810226  0.044377574            2 
   44000    1.2426927   -6.0144879    17.306502  0.032777465  0.044502697            3 
   45000    1.2227854   -5.9210598    18.032094  0.033392766  0.044604518            3 
   46000    1.2410931   -5.9190745     18.71212  0.033898768  0.044756136            2 
   47000    1.2264625   -5.9183943    19.119581  0.033899967  0.044885559            2 
   48000    1.2676804   -5.9756334    19.681713   0.03416964   0.04499362            2 
   49000    1.2411262   -5.9719903    20.235794  0.034414616   0.04508709            3 
   50000    1.2424676   -5.9448024    20.587876  0.034313127  0.045146882            2 
   51000    1.2626011   -5.9582554    21.081379  0.034446698  0.045137096            3 
   52000     1.248089   -5.9557567    21.485666  0.034432157  0.045107277            3 
   53000    1.2238195   -5.9109064    22.002094  0.034594487  0.045076976            2 
   54000    1.2289701   -5.9525062    22.377572  0.034533289   0.04501385            1 
   55000    1.2512985   -5.9642806    22.956137  0.034782026  0.044951048            1 
   56000    1.2330308   -5.9814098    23.431918  0.034868925  0.044869918            5 
   57000    1.2761465   -5.9180424    24.039517  0.035145493  0.044804135            3 
   58000     1.203683   -5.9441671    24.540854  0.035259848  0.044759873            2 
   59000    1.2248917   -5.9829471     25.05736  0.035391751  0.044704193            2 
   60000    1.2330637   -5.9695685    25.710279   0.03570872  0.044668001            3 
   61000    1.2438682   -5.9791832    26.244435  0.035853053  0.044653266            3 
   62000    1.2391174   -5.9712993    26.850718  0.036089675  0.044653817            5 
   63000    1.2331978   -5.9305768    27.383391  0.036221416  0.044650558            6 
   64000    1.2515915   -5.9723694    28.131498  0.036629555  0.044672939            2 
   65000    1.2301196   -5.9471555    28.687683  0.036779081  0.044717118            2 
   66000    1.2300672   -5.9594041    29.047271  0.036675847   0.04473563            4 
   67000    1.2164428   -5.9741799    29.464157  0.036646962  0.044729884            4 
   68000    1.2807923   -5.9475159    29.935917  0.036686173  0.044720847            4 
   69000    1.2593271   -5.9827896    30.357713  0.036663904  0.044689952            5 
   70000    1.2678382   -5.9856537    30.990038  0.036892902  0.044668362            2 
   71000    1.2331356   -5.9305899    31.697743  0.037203924   0.04465385            2 
   72000    1.2616937   -5.9540026     32.22139  0.037293276  0.044651321            2 
   73000    1.2162204   -5.9778419    32.827553  0.037474375  0.044647086            5 
   74000    1.2383044   -5.9660242    32.930139   0.03708349  0.044636993            4 
   75000    1.2433788   -5.9659029    33.756433  0.037507147  0.044619132            2 
   76000    1.2258397   -5.9436374    34.245844  0.037550267  0.044601805            2 
   77000    1.2401432   -5.9899621    34.752808  0.037611264  0.044591356            2 
   78000    1.2348722   -6.0101379    35.341802  0.037758335   0.04458544            4 
   79000     1.233205   -5.9705649    35.752472  0.037713578  0.044582564            6 
   80000    1.2365006   -5.9478904    36.487328  0.038007634  0.044583124            3 
   81000    1.2182975   -5.9634446    37.035063  0.038101917  0.044586197            2 
   82000    1.2591313   -5.9890581    37.542628  0.038153077  0.044585557            2 
   83000    1.2578282   -6.0003213    38.099342  0.038252352  0.044579912            4 
   84000    1.2401293   -6.0051102    38.840955  0.038532694   0.04459812            2 
   85000    1.2867187   -5.9582199    39.212422  0.038443551  0.044613971            3 
   86000     1.239047   -5.9423499    39.959825  0.038720761  0.044629394            3 
   87000    1.2206938   -5.9329182    40.435984  0.038731786  0.044646589            2 
   88000    1.2182919   -5.9861911    40.893108  0.038724534  0.044659094            3 
   89000    1.2333822   -5.9738566    41.716634  0.039060518   0.04467764            1 
   90000    1.2350998   -5.9826236    42.123084  0.039002855  0.044703556            3 
   91000    1.2490099   -5.9843997    42.886276  0.039273146  0.044733587            3 
   92000    1.2096152   -5.9622886    43.470445  0.039375403  0.044771213            2 
   93000    1.2182665   -5.9525401    43.753978  0.039206073  0.044801543            8 
   94000    1.2416399   -5.9689277     44.37073  0.039335754  0.044823972            4 
   95000      1.24668   -6.0018008    45.072223  0.039537037  0.044844111            3 
   96000    1.2358564   -5.9367858    45.922273  0.039863084  0.044879688            1 
   97000    1.2295811   -5.9774879     46.31642  0.039790738   0.04492359            7 
   98000    1.2802064   -5.9288204    47.044844  0.040004119    0.0449644            3 
   99000    1.2060021   -5.9685677    47.483344  0.039969145  0.045002849            3 
  100000    1.2450526   -5.9641325    48.091774  0.040076478  0.045035043            5 
  101000    1.2325504   -5.9784068    48.266385  0.039823749  0.045058078            2 
  102000    1.2412249   -5.9487447       49.187  0.040185457  0.045086413            3 
  103000    1.2478506   -5.9877945    49.591637  0.040122683  0.045116102            5 
  104000    1.2591276   -5.9561434    50.060549  0.040112619  0.045136193            3 
  105000    1.2087894   -5.9955809    50.385643  0.039988606  0.045150919            3 
  106000    1.2206266   -5.9769229    50.879778  0.039999825  0.045159438            2 
  107000    1.2252159    -5.990747    51.343945  0.039987496  0.045160983            2 
  108000    1.2501709   -6.0037028    52.096484  0.040197904  0.045168564            3 
  109000    1.2346458   -5.9914311     52.16048  0.039878043  0.045165176            3 
  110000    1.2247786   -5.9874116    52.784773  0.039988464  0.045158471            5 
  111000    1.2397475   -5.9735457    53.311033  0.040023298   0.04515466            3 
  112000    1.2265524   -6.0107829    53.700475   0.03995571  0.045143526            3 
  113000     1.217199    -5.999534     54.70556  0.040343333  0.045135235            6 
  114000     1.254501   -5.9220753    54.863272  0.040104731   0.04512714            2 
  115000    1.2140402   -5.9596874    55.249709  0.040036021  0.045110382            3 
  116000    1.2254557   -6.0054126    55.852443  0.040123881  0.045091827            2 
  117000      1.22511   -5.9834206    56.223259  0.040045056  0.045073527            3 
  118000    1.2395229   -5.9764977    56.461881   0.03987421  0.045045731            2 
  119000    1.2505854   -5.9793101    57.063546  0.039960466  0.045017523            5 
  120000    1.2424285   -5.9893652    57.694253  0.040065453  0.044989683            2 
  121000    1.2117974   -5.9701348    58.176042  0.040066144   0.04496528            4 
  122000    1.2154476   -5.9817838    58.722022   0.04011067  0.044946948           14 
  123000    1.2537185   -5.9598204     59.54228  0.040340298  0.044932979            3 
  124000    1.2445517   -5.9722565    60.111577  0.040397565   0.04492474            9 
  125000    1.2461779    -5.989444    60.638208  0.040425472  0.044915848            5 
  126000    1.2370755   -5.9604374    61.461526  0.040649157  0.044915489            1 
  127000    1.2260492   -6.0441561    61.774218  0.040534264  0.044909545            4 
  128000    1.2583678   -5.9829566    62.449162  0.040657006  0.044909199            1 
  129000    1.2134402   -5.9952138     63.24079  0.040853223  0.044913042            5 
  130000    1.2402924   -6.0215317     63.52105  0.040718622  0.044916495            1 
  131000     1.248838   -5.9519399    64.274169  0.040886876  0.044915701            3 
  132000    1.2434257   -5.9608812    64.820905  0.040922289  0.044918675            4 
  133000    1.2475033    -5.991227    65.288336  0.040907479  0.044925762            4 
  134000    1.2265898   -5.9500544    65.669161   0.04083903  0.044925997            2 
  135000    1.2450393   -5.9709498    66.187483  0.040856471  0.044922273            3 
  136000    1.2144924   -5.9878081    66.703624  0.040872318  0.044918106            3 
  137000    1.2463942   -5.9953628     67.18673   0.04086784  0.044911348            2 
  138000    1.2268309   -6.0153459    67.851146  0.040972914  0.044904612            2 
  139000    1.2139477   -6.0234964    68.093652  0.040823532  0.044898914            5 
  140000    1.2278006   -5.9851154    68.618333  0.040844245  0.044892627            2 
  141000    1.2218663   -5.9720044    69.389752  0.041010492  0.044884193            2 
  142000    1.2249261   -5.9825379    70.039289  0.041102869  0.044880165            3 
  143000    1.2452837   -5.9762295    70.573051  0.041126486  0.044875319            5 
  144000    1.2374228   -5.9742931    71.116962  0.041155649  0.044875364            6 
  145000    1.2380825   -6.0060154    71.544928  0.041117775  0.044879266            4 
  146000    1.2210266   -5.9701622    72.277162  0.041254088  0.044880588            3 
  147000    1.2479751    -5.964271    72.539477  0.041122152  0.044881621            3 
  148000    1.2274416   -5.9880082    73.244475  0.041241258  0.044877758            3 
  149000    1.2254108     -6.01406    73.613539  0.041170883  0.044873397            5 
  150000    1.2312602   -5.9856203    73.905666  0.041058703  0.044867526            6 
  151000    1.2485062   -5.9950823    74.317592  0.041014123  0.044860852            3 
  152000     1.250678   -5.9492707    75.224816  0.041241675  0.044854215            2 
  153000    1.2337251    -5.987037    75.795182  0.041282779  0.044852639            4 
  154000    1.2043346   -5.9744861    76.123631  0.041192441  0.044847206            2 
  155000    1.2057115   -5.9930086     76.47983  0.041118188  0.044836172            2 
  156000    1.2379646   -6.0148702    76.818438   0.04103549  0.044823783            5 
  157000    1.2018173   -5.9944897    77.291393  0.041025155  0.044807517            2 
  158000    1.2315468   -5.9777022    77.566703  0.040910708  0.044789308            3 
  159000     1.203769   -5.9666259    78.000196  0.040880606  0.044767176            2 
  160000    1.2218993   -6.0203867    78.541703  0.040907137  0.044746775            3 
  161000    1.2267619   -5.9563565     79.45572  0.041126149  0.044728828            3 
  162000    1.1992033   -6.0052208    79.928241   0.04111535  0.044713402            4 
  163000    1.2272536   -5.9853853    80.157974  0.040980559  0.044693437            3 
  164000    1.2474975     -5.98204    80.389762  0.040848456  0.044672674            3 
  165000     1.227532   -5.9969002      81.0253  0.040921869  0.044648802            3 
  166000     1.219514   -5.9963628    81.933457  0.041131253  0.044631572            2 
  167000    1.2172229   -6.0082787    82.367318  0.041101456  0.044613802            5 
  168000    1.2327291   -6.0125985    83.022723  0.041181906  0.044598681            2 
  169000    1.2119994   -6.0112658    83.334251  0.041091839  0.044582887            3 
  170000     1.258926    -5.969764    83.902918  0.041128881  0.044567682            3 
  171000    1.2075946    -6.010305    84.379486  0.041120607   0.04455308            2 
  172000    1.2339794   -6.0002158    85.168779  0.041263943  0.044539423            2 
  173000    1.2314901   -6.0008422    85.740742  0.041300935  0.044528493            3 
  174000    1.2263437   -5.9724004     86.11838  0.041244435  0.044517009            2 
  175000    1.2126086   -6.0301096    86.211817  0.041053246  0.044504472            4 
  176000    1.2172351    -5.990413     87.08935  0.041235488  0.044491147            4 
  177000    1.2279795   -5.9722138    87.279232  0.041091917  0.044473826            2 
  178000    1.2206638   -5.9648491    88.027754  0.041211495  0.044460488            3 
  179000    1.2256804   -6.0118736    88.338842   0.04112609  0.044446145            3 
  180000    1.2460013   -5.9855461    89.223009  0.041306948  0.044432894            3 
  181000    1.2206813   -5.9879863    89.989243  0.041431511  0.044423666            1 
  182000    1.2460703   -6.0308787     90.07244   0.04124196  0.044415721            2 
  183000    1.2171153   -5.9917183    90.652291  0.041280643  0.044403383            4 
  184000    1.2030047   -5.9915937    91.216374  0.041311764  0.044390491            4 
  185000    1.1971321    -6.023395    91.625763  0.041272866  0.044378567            1 
  186000    1.2322322   -5.9665328    92.452491  0.041421367  0.044367394            6 
  187000    1.2063045   -5.9760687    92.842124  0.041373496  0.044354936            7 
  188000    1.2331143   -6.0026144    93.359471  0.041382744  0.044344097           11 
  189000    1.2305831   -6.0030917    94.239489  0.041551803  0.044335874            5 
  190000    1.2414001   -6.0083259    94.230027  0.041328959   0.04432842            4 
  191000    1.2128784   -5.9899541    95.052764  0.041471537  0.044320993            5 
  192000    1.2225113   -6.0047428    95.819424  0.041588292  0.044310651            3 
  193000    1.2140467   -5.9858572    95.929424  0.041420304  0.044303748            5 
  194000    1.2455311   -5.9837298    97.019527  0.041675054  0.044301592            3 
  195000    1.2008719   -5.9929268     97.61163  0.041714371  0.044299903            1 
  196000    1.2034959   -5.9824042    98.301525  0.041794866  0.044300687            3 
  197000    1.2161827    -5.977408     98.95938   0.04186099  0.044301218            1 
  198000    1.2254402    -5.991197    98.861364  0.041608318  0.044299525            4 
  199000    1.2504011   -6.0272444    99.530502  0.041679439  0.044296002            5 
  200000     1.225436    -5.958977    100.16125  0.041733854  0.044294597            2 
  201000    1.2223183   -5.9410885    101.40941  0.042043703   0.04429636            3 
  202000    1.2200026   -5.9936109    101.62777  0.041925647  0.044299255            4 
  203000    1.2205834   -6.0106125    101.89086  0.041827116  0.044300555            2 
  204000    1.1829658   -5.9569764    102.75763  0.041976158  0.044302153            2 
  205000    1.2247865   -6.0237846    102.78184  0.041781236  0.044301991            2 
  206000    1.2098197   -6.0161716    103.20982  0.041751544   0.04430085            3 
  207000    1.2013621   -5.9667674    103.99169   0.04186461  0.044297788            4 
  208000    1.1967697   -5.9809819    103.66113  0.041530901   0.04429142            6 
  209000    1.2152689   -5.9860457    104.12165   0.04151581  0.044281977            2 
  210000    1.1979415   -5.9928333    105.28834  0.041781088  0.044276712            2 
  211000    1.1825703   -5.9877813     105.7143  0.041751304  0.044272943            3 
  212000    1.2280708   -6.0379641    106.42596  0.041834102  0.044268762            3 
  213000    1.2010973   -5.9861934    106.99283   0.04185948  0.044263146            5 
  214000    1.2205823   -6.0217967    107.31347  0.041788736  0.044258607            2 
  215000     1.185696   -6.0668775     107.7071  0.041746938  0.044255118            4 
  216000    1.1939665   -5.9946538    108.57422  0.041888201  0.044253297            4 
  217000     1.203396   -6.0035424     109.3268  0.041984178  0.044254993            3 
  218000    1.2137231   -5.9924982    109.59459  0.041893956   0.04425424            4 
  219000    1.2537128   -5.9877455    110.32755  0.041981566   0.04425281            5 
  220000    1.2107163   -6.0067951    111.13418   0.04209628  0.044251719            2 
  221000    1.2176204   -5.9952905    111.47737  0.042035209  0.044250761            2 
  222000    1.2004728   -5.9994184    112.11805  0.042086357  0.044249204            2 
  223000    1.2127594   -5.9648977    111.96274  0.041839589  0.044244593            4 
  224000    1.2207062   -6.0389913    112.10206  0.041704635  0.044238745            4 
  225000    1.2378114    -6.034637     112.5682  0.041691927  0.044231534            2 
  226000    1.2014126   -6.0068735     112.8234  0.041601548   0.04421921            3 
  227000    1.2214717   -6.0050278    113.45862  0.041651476  0.044207361            3 
  228000    1.2157245   -5.9849554    114.10209  0.041703978  0.044196291            4 
  229000    1.2175913   -6.0229176    114.75347  0.041758905  0.044185888            3 
  230000     1.220478   -6.0123853    115.03344  0.041678782  0.044175338            2 
  231000    1.2213903   -6.0018185    115.61162  0.041706932  0.044166032            5 
  232000     1.210535   -6.0345336    116.10568  0.041704626   0.04415576            3 
  233000    1.2229956   -5.9867882    117.14211  0.041896319  0.044148233            2 
  234000    1.2344178   -5.9981788    117.16224  0.041724443  0.044141122            2 
  235000    1.2226547   -6.0119599    118.10865  0.041882501  0.044133638            4 
  236000    1.2272392   -5.9856378    118.41366  0.041812733  0.044126779            4 
  237000    1.2026299   -6.0117205    118.97449  0.041833506  0.044121154            3 
  238000    1.2063831   -6.0332282    119.65802  0.041897066   0.04411284            4 
  239000    1.2254803   -6.0179135    119.88301  0.041800213  0.044103509            3 
  240000    1.2346416   -6.0249519    119.90919  0.041635135  0.044093963            3 
  241000    1.2052726   -5.9894534    121.06689  0.041862687   0.04408538            3 
  242000    1.1998774   -6.0164408    120.95001  0.041649452  0.044075982            4 
  243000    1.2146865   -6.0500289    121.51366  0.041671352  0.044065775            2 
  244000    1.1979676    -6.014717    122.38072  0.041796695  0.044056712            3 
  245000    1.2079607   -6.0156954    122.55984  0.041687021   0.04404703            3 
  246000    1.1894851   -6.0128058    122.53486    0.0415091   0.04403613            2 
  247000    1.1920036    -5.989778    123.03978  0.041511396  0.044023769            4 
  248000    1.1987512   -5.9960036    123.61344  0.041536773  0.044008295            3 
  249000    1.2189805   -6.0329788    123.81957  0.041438946  0.043991563            3 
  250000    1.2305581    -5.998589    124.34992  0.041449974  0.043974025            4 
  251000    1.2135797   -6.0114257    124.82045  0.041441053  0.043957806            7 
  252000    1.2096976   -5.9668876    125.63621  0.041546366  0.043944426            2 
  253000    1.2276424   -5.9945167    125.98744  0.041497838  0.043930686            3 
  254000    1.2217485   -6.0527049    126.78621  0.041596525  0.043916092            3 
  255000     1.230657   -5.9802018    127.36221  0.041621636  0.043902969            2 
  256000     1.191065   -6.0401988    127.49431  0.041502052   0.04389054            3 
  257000    1.2221938    -6.037482    128.07034  0.041527348  0.043878478            3 
  258000    1.2013664   -6.0243753    129.28775   0.04175961  0.043869297            3 
  259000    1.2296277   -5.9972041    130.23068  0.041901763  0.043862096            2 
  260000    1.1776763   -5.9933969    130.46098  0.041814416    0.0438565            3 
  261000    1.2021588    -5.954803    130.72662  0.041739023  0.043849632            7 
  262000    1.2031702   -6.0576429     130.9789  0.041659955  0.043840084            4 
  263000    1.2038949    -6.038299    131.75137  0.041746314    0.0438297            2 
  264000    1.2219191   -5.9938275    132.22646  0.041738149   0.04382156            2 
  265000    1.1981944   -5.9731327    133.00334   0.04182495  0.043812622            3 
  266000    1.2121448   -5.9969956    133.36636   0.04178144   0.04380458            2 
  267000    1.2284113   -6.0372689    133.38033  0.041629317  0.043797622            6 
  268000    1.1801854   -6.0262799    134.65818  0.041871324  0.043791031            3 
  269000    1.1854298   -6.0340107    135.60688  0.042009567  0.043785491            5 
  270000     1.215279   -6.0137097    136.24359  0.042050491   0.04378059            6 
  271000    1.2242572   -6.0143142    136.37748  0.041936494  0.043777317            2 
  272000    1.2098766   -6.0186156    136.76496   0.04190103  0.043773192            2 
  273000    1.1921714   -6.0099044    137.49797  0.041971296  0.043768192            3 
  274000    1.1802429   -6.0524719    137.86988  0.041931228  0.043763709            3 
  275000    1.1731163   -6.0767807    137.59287   0.04169481  0.043756474            4 
  276000    1.1951715   -6.0097527    138.66242  0.041866673  0.043749565            2 
  277000    1.2242899   -6.0063247    138.78424  0.041752178  0.043743653            9 
  278000    1.2196194   -6.0047246    139.46589  0.041806321  0.043737613            4 
  279000    1.1883583   -6.0219485    140.27445  0.041897982  0.043730355            2 
  280000     1.195317   -6.0126477    141.24692  0.042037773  0.043725318            3 
  281000    1.2045321   -6.0213219    141.35691  0.041920793  0.043719213            2 
  282000    1.1910151   -6.0658855    140.45376  0.041505247  0.043710163            7 
  283000    1.2123709   -6.0331202    141.57254  0.041688027  0.043699348            3 
  284000    1.2123318   -6.0120764    141.59818   0.04154876  0.043688435            2 
  285000     1.193818   -6.0459174    142.02779  0.041528593  0.043676194            5 
  286000    1.2260547   -6.0347795    142.25648  0.041450024  0.043661919            2 
  287000    1.2254426   -5.9891958    143.30391  0.041609729  0.043647893            2 
  288000    1.2021933   -5.9794128    143.82632  0.041616413  0.043633067            3 
  289000    1.1901137   -6.0383976    143.29572  0.041319413  0.043617997            3 
  290000    1.1797491   -5.9919745    143.94573  0.041363714  0.043601498            3 
  291000     1.216147   -6.0183583    144.53091   0.04138915  0.043586756            2 
  292000    1.2254667   -5.9953959    145.23133  0.041447299  0.043571848            5 
  293000    1.1961003   -6.0413723    145.32337  0.041332015  0.043556799            2 
  294000    1.2129832   -6.0655361    146.10903  0.041414125  0.043542985            2 
  295000    1.2120206   -6.0202439     146.9465  0.041510312  0.043529544            3 
  296000    1.2101434   -6.0169973    146.95853   0.04137346  0.043517742            2 
  297000    1.1983653   -6.0419753    147.30929  0.041332574  0.043503185            2 
  298000    1.1842876    -5.987713    148.00679  0.041388923  0.043489234            3 
  299000    1.1838301   -6.0407798    148.12175   0.04128254  0.043473569            3 
  300000    1.1792821   -6.0333808    148.84691  0.041346364  0.043457078            1 
  301000    1.2157413   -6.0553661    149.27891    0.0413286  0.043441172            4 
  302000    1.1879218   -6.0314043    149.85985  0.041352055   0.04342481            1 
  303000    1.2000225   -6.0237051    150.35312  0.041351243  0.043408336            3 
  304000    1.2067207   -6.0481432    150.72334  0.041316705  0.043392163            3 
  305000    1.2136625   -6.0466142    150.99404  0.041255201  0.043377328            3 
  306000    1.2074492   -6.0425108    151.74206  0.041324089  0.043360514            3 
  307000    1.2023195   -6.0370471    151.96479  0.041249944  0.043344919           10 
  308000    1.1790948   -5.9761828    152.60081  0.041288097  0.043328562            3 
  309000    1.2166102   -6.0012131    153.39424  0.041368456  0.043313122            4 
  310000    1.1783933   -6.0440752    153.35399   0.04122419  0.043297504            4 
  311000    1.2182125   -6.0367781     153.3103   0.04107993   0.04328223            2 
  312000    1.2050222   -6.0737439    154.28613  0.041208902  0.043265553            3 
  313000     1.213766   -6.0729185    155.08565  0.041290108  0.043248302            6 
  314000    1.1741949   -6.0580531    154.27274  0.040942872  0.043231452            4 
  315000    1.2177746   -6.0178987    154.88625  0.040975199  0.043212767            2 
  316000    1.1946967   -6.0300478    155.75792  0.041075402   0.04319451            8 
  317000    1.2285299   -6.0382014    155.99688  0.041008643  0.043176498            4 
  318000    1.1773012   -6.0172198    156.64927  0.041050648  0.043157976            2 
  319000    1.1744058   -6.0702552    156.44033  0.040867379   0.04313758            4 
  320000    1.2048031   -6.0368468    157.82297  0.041099732  0.043118088            3 
  321000    1.1988582   -6.0339219     158.1568  0.041058358  0.043099681            3 
  322000    1.2002346   -6.0178245    158.82873  0.041104743    0.0430821            5 
  323000    1.2204272   -5.9982417    158.95307  0.041009564  0.043064777            3 
  324000    1.2078635   -6.0398402    159.65659  0.041063937  0.043047678            3 
  325000     1.200039   -6.0247174     159.8362   0.04098364  0.043030283            3 
  326000    1.2242482   -6.0683768    160.76103  0.041094332  0.043013249            3 
  327000    1.1989561   -6.0090281    160.88225  0.040999553  0.042996083            4 
  328000    1.1787466   -6.0566084    161.29684  0.040979889  0.042978322            2 
  329000    1.1867849   -6.0451638     161.8173  0.040987159  0.042960685            2 
  330000    1.2072043    -6.038909    162.68916  0.041083122  0.042943349            3 
  331000    1.1911552   -6.0593294    162.73434  0.040970378  0.042926299            4 
  332000     1.191556   -6.0221114    163.04541  0.040925052  0.042910093            1 
  333000    1.1927243   -6.0713951     163.2899  0.040863337  0.042892596            3 
  334000     1.204545   -6.0365119    164.10283  0.040943819  0.042874715            3 
  335000    1.1817731   -6.0078587    164.38614  0.040892075  0.042857318            2 
  336000    1.2021476   -6.0152084    164.69001  0.040845737  0.042839241            3 
  337000    1.2143303   -6.0625145    165.03337  0.040809438  0.042821505            3 
  338000    1.2128455   -6.0173379    166.51443  0.041053854  0.042804645            4 
  339000    1.2152068    -6.055171    166.03234  0.040814243  0.042789045            1 
  340000    1.1734483   -6.0170431    167.11903  0.040960547  0.042772573            2 
  341000    1.1724894   -6.0279879    167.80073   0.04100702  0.042756871            3 
  342000    1.1816431   -6.0402008    167.22027  0.040745679  0.042740411            3 
  343000     1.197387    -6.005818    168.36502  0.040905009  0.042723495            4 
  344000    1.1941797   -5.9879187    168.94325  0.040926175  0.042707309            4 
  345000     1.187197    -6.072882    168.54714   0.04071187  0.042690013            5 
  346000    1.1921307   -6.0477301    168.82301  0.040660647  0.042672115            7 
  347000    1.2156213   -6.0443239    169.75895   0.04076824  0.042653562            4 
  348000    1.2043932   -6.0252857    169.89247  0.040683063  0.042634412            2 
  349000    1.1776852   -6.0686986    170.36243  0.040678709  0.042614793            4 
  350000     1.189282   -6.0812883    170.58628   0.04061578  0.042595604            5 
  351000    1.2121573    -6.042651    171.40146  0.040693603  0.042577429            3 
  352000    1.1770781      -6.0563    172.44164  0.040824251  0.042561325            5 
  353000     1.194184   -6.0584399     172.4887  0.040719712  0.042543795            9 
  354000    1.1735677   -6.0465767    172.66036  0.040645094  0.042525212            6 
  355000    1.1827032   -6.0721719    173.19975  0.040657218  0.042507478            5 
  356000    1.2031562   -6.0728654    173.27437  0.040560479  0.042490068            4 
  357000     1.183131   -6.0285431    174.97271  0.040843304  0.042473886            5 
  358000    1.2028434   -6.0095385     175.4895  0.040849511  0.042460447            2 
  359000    1.2174142   -6.0595004     175.8417   0.04081748  0.042446383            5 
  360000    1.2051489   -6.0451071    176.49508  0.040855342  0.042433067            2 
  361000    1.1822694    -5.974771    177.91908  0.041070887  0.042420453            2 
  362000     1.169602   -6.0211972    177.69661  0.040906217  0.042408216            3 
  363000    1.2060759   -6.0842784    178.04634  0.040873815  0.042395702            4 
  364000    1.1976116   -5.9956764    179.12675  0.041008871  0.042383859            2 
  365000    1.1731228   -6.0379322    180.08673  0.041115691  0.042372936            4 
  366000     1.184553   -6.0194211    180.36702  0.041067172  0.042362875            4 
  367000    1.2185959   -6.0374557    180.92585  0.041082163  0.042354194            4 
  368000    1.2045162   -6.0439714    181.72907  0.041152417  0.042346643            1 
  369000     1.180215    -6.049574     181.8014  0.041057228  0.042339324            3 
  370000    1.1904541    -6.053975    182.28448  0.041055063  0.042330354            2 
  371000    1.1812985    -6.045136    182.38648  0.040967314  0.042321802            9 
  372000    1.1984673   -6.0483561    183.14032  0.041026058  0.042313146            3 
  373000    1.1950972   -6.0716515    183.38344  0.040970385  0.042304248            2 
  374000    1.1436811   -6.0465676    184.37544  0.041081872  0.042295444            4 
  375000     1.178358   -6.0512138    185.25799  0.041168441  0.042287445            2 
  376000    1.1732717   -6.0483998    185.57711  0.041129679  0.042279932            2 
  377000    1.2036554   -6.0568289    186.17254  0.041152196  0.042273179            5 
  378000    1.1846395   -6.0305304     186.5996  0.041137478  0.042266106            9 
  379000    1.2265899   -6.0400609    186.94348  0.041104548  0.042258387            2 
  380000    1.1943743   -6.0428593    187.76676  0.041176922  0.042252038            3 
  381000    1.1910911   -6.0576339    187.59011  0.041030208  0.042244625            2 
  382000    1.1956942   -6.0345102     189.0401  0.041239114  0.042237822            4 
  383000    1.2167276   -6.0442426    188.97286  0.041116811  0.042231442            3 
  384000    1.2017728    -6.040056    189.57296  0.041139966  0.042225719            5 
  385000    1.1868627   -6.0049183    190.63542  0.041263078  0.042219261            4 
  386000    1.1718676   -6.0731938     190.6081  0.041150281  0.042213058            2 
  387000    1.1626285   -6.0438567    191.53946  0.041244501  0.042207644            2 
  388000    1.1762571   -6.0190934    191.99867  0.041236827  0.042203426            2 
  389000    1.1854975   -6.0348588    192.48039  0.041234018  0.042197988            4 
  390000      1.16291   -6.0506608    192.93088  0.041224547  0.042191652            3 
  391000     1.209441   -6.0087003    193.51169    0.0412429  0.042187522            5 
  392000    1.2018304   -6.0707671    193.40076  0.041114107  0.042182272            4 
  393000    1.1731565    -6.055688    194.36892  0.041214785   0.04217637            3 
  394000    1.2019106   -6.0295776    195.22053  0.041290298  0.042170806            3 
  395000    1.2003864   -6.0671164    195.41925   0.04122769  0.042166054            3 
  396000    1.2028775   -6.0136481    196.34697  0.041318806  0.042162503            6 
  397000    1.1940955   -6.0686816    196.71675   0.04129235  0.042159904            2 
  398000    1.1817167   -6.0363888    197.15042  0.041279402  0.042157489            5 
  399000    1.1673543   -6.0506325     197.6585  0.041282059  0.042155163            6 
  400000    1.1721955   -6.0519173    198.13614  0.041278362  0.042153366            4 
  401000    1.2014009   -6.0690053    198.52555  0.041256348  0.042151793            6 
  402000    1.1797485   -6.0456159    199.29812  0.041313873   0.04214915            2 
  403000    1.1633767   -6.0437417    200.33397  0.041425553  0.042146733            4 
  404000      1.18679   -6.0886343    200.08511  0.041271682  0.042144289            2 
  405000    1.1832533   -6.0682365    201.41979    0.0414444  0.042141996            4 
  406000    1.1842858   -6.0366515    201.24385  0.041306208  0.042138887            2 
  407000    1.1798383   -6.0194743    202.26559   0.04141392  0.042137005            4 
  408000    1.1873857   -6.0905326    202.20095  0.041299214  0.042135368            4 
  409000    1.1584258   -6.0826234    202.93194  0.041347177  0.042132464            3 
  410000    1.1861447   -6.0719843    202.82757  0.041225116  0.042129178            3 
  411000    1.1774833   -6.0667869    203.14903   0.04118999  0.042125492            3 
  412000    1.1451954   -6.0543517    203.92521  0.041247009  0.042122706            5 
  413000    1.1731642   -6.0464177    205.14807  0.041393879  0.042120198            3 
  414000    1.1966844   -6.0712734     204.5015  0.041163748  0.042116708            4 
  415000    1.1787248   -6.0617458     204.9104  0.041146667  0.042111825            2 
  416000    1.2144817   -6.0171266    206.65946  0.041398129  0.042108097            2 
  417000    1.1906158   -6.0481979    206.72358  0.041311667  0.042105116            3 
  418000    1.1809962   -6.0381235    207.09065  0.041286014  0.042103128            3 
  419000    1.1586557   -6.0511017    208.38696  0.041445299  0.042101939            3 
  420000    1.1905529   -6.0163463    209.09918  0.041487933  0.042100673            3 
  421000    1.1838221   -6.0532196    209.42455  0.041453791  0.042098306            6 
  422000    1.2162895    -6.068798    209.83538  0.041436686  0.042095064            2 
  423000     1.185318   -6.0643757    209.51744  0.041276091  0.042092212            2 
  424000     1.194881   -6.0979777    210.38172  0.041348608  0.042089566            5 
  425000     1.186261   -6.0291815    210.68949  0.041311664  0.042088125            5 
  426000    1.1678728   -6.0517511    212.35278  0.041540058  0.042087542            5 
  427000     1.175929    -6.071623    212.53752  0.041478829  0.042086813            3 
  428000     1.174606   -6.0302223    213.61935  0.041592552  0.042086536            4 
  429000    1.1913198   -6.0446408    213.26577  0.041426917  0.042086078            2 
  430000    1.1869028    -6.061744    214.01173  0.041475141   0.04208487            4 
  431000     1.209654   -6.0350093    214.51175   0.04147559  0.042083265            3 
  432000    1.2067755    -6.077436    215.32252  0.041535981  0.042081924            2 
  433000    1.1732267   -6.0713745    214.42691  0.041267688  0.042080532            3 
  434000    1.1768555   -6.0858086    214.92786  0.041268791   0.04207793            8 
  435000    1.1882763   -6.0775152    216.02439  0.041383982  0.042076127            4 
  436000    1.1783426   -6.0661172    216.71394  0.041420861  0.042073885            5 
  437000    1.1749136   -6.0721947    216.64891  0.041313674  0.042072128            6 
  438000    1.1794107   -6.0725281    217.83984  0.041445936   0.04206997            5 
  439000     1.178578   -6.0488829    218.04041    0.0413896  0.042068535            7 
  440000    1.1739557   -6.0563483     218.7063  0.041421647  0.042068128            3 
  441000    1.1844284   -6.0263684    219.90844  0.041554882  0.042067573            2 
  442000    1.1919558   -6.0677906    219.92614  0.041464204  0.042067557            5 
  443000    1.1520208   -6.0867892     220.8321  0.041541027  0.042067389            2 
  444000    1.2067243   -6.0454049    221.12109  0.041501706  0.042067215            4 
  445000    1.1867327   -6.0282873    221.53814  0.041486542  0.042067851            2 
  446000    1.1875328    -6.044766    222.61151  0.041594079   0.04206878            4 
  447000    1.1599734   -6.0376756    223.25202  0.041620437  0.042070489            5 
  448000    1.1781607   -6.0170377    223.80762  0.041630881  0.042071916            2 
  449000    1.1755087   -6.0801239    223.96742  0.041567821  0.042072958            5 
  450000    1.1952773   -6.0336393     224.9773  0.041662464  0.042073199            3 
  451000    1.1599983   -6.0536009    224.86256  0.041548884  0.042073817            3 
  452000    1.1645844   -6.0599045    225.68164  0.041607972  0.042074091            1 
  453000    1.1948911   -6.0477624    226.06471  0.041586591  0.042074292            4 
  454000    1.1850619   -6.0566029     225.9934  0.041481902  0.042074598            4 
  455000    1.1740075   -6.1158803    226.55963  0.041494438  0.042073812            3 
  456000     1.188926   -6.0463194    228.11242  0.041687212  0.042073335            6 
  457000    1.1752718   -6.0805841    227.41799  0.041469363  0.042072007            5 
  458000    1.1714032   -6.0604892    226.97443  0.041298114  0.042070255            2 
  459000    1.1626616   -6.0681242     227.5956  0.041320915  0.042068364            3 
  460000    1.1857893   -6.0760494     228.4246  0.041381268  0.042066248            3 
  461000     1.191032   -6.0610568    228.61493  0.041325909  0.042064037            4 
  462000     1.193808   -6.0619269     229.3598  0.041370816  0.042061644            4 
  463000    1.1605068   -6.0568964    229.81591  0.041363554  0.042059788            6 
  464000    1.1566529   -6.0108694    230.13521  0.041331755  0.042057153            6 
  465000    1.1872175   -6.0640554    230.37976  0.041286695  0.042054263            3 
  466000    1.1775363   -6.0622349    230.66541  0.041249179  0.042050272            3 
  467000    1.1877085   -6.0690005    231.11979  0.041241933  0.042046894            4 
  468000    1.1871281   -6.0932058    231.18336  0.041165128  0.042043746            2 
  469000    1.1564579   -6.0588952    231.85441   0.04119659  0.042039957            3 
  470000     1.182302   -6.0695105    232.68766  0.041256678  0.042035827            3 
  471000    1.1904376   -6.0515215    232.39547  0.041117387  0.042031683            4 
  472000    1.1777955   -6.0318747    233.34424  0.041197782  0.042027396            2 
  473000    1.2045833   -6.1105979    234.30299  0.041279597  0.042022717            5 
  474000    1.1749806   -6.0312112    234.59706  0.041244209  0.042018169            5 
  475000    1.1734778   -6.0534374    234.72201  0.041179299   0.04201405            4 
  476000    1.1920935   -6.0816828    235.45744   0.04122154  0.042009814            2 
  477000     1.184456   -6.0805837    235.76334  0.041188564  0.042005593            2 
  478000    1.1815608   -6.0648286    236.03067  0.041149001  0.042001496            2 
  479000    1.1643403   -6.0931354    236.56862  0.041156683   0.04199721            4 
  480000    1.1843018   -6.0573656    237.67517  0.041263051  0.041993671            3 
  481000    1.1767428   -6.0716472    237.87474   0.04121184  0.041989898            3 
  482000    1.1670651   -6.0659815    239.52235  0.041411195  0.041987323            4 
  483000    1.1641201   -6.0945089    239.16719   0.04126418  0.041984614            2 
  484000    1.2070454   -6.1012507    239.85452  0.041297266  0.041982148            3 
  485000    1.1788469   -6.1000487    239.15387   0.04109173  0.041979758            3 
  486000    1.1745607   -6.1022037    240.07389  0.041164933  0.041976525            3 
  487000    1.1933905   -6.1042201    240.66866  0.041182179  0.041973005            4 
  488000    1.1687953   -6.1169139    241.16612   0.04118274  0.041968618            4 
  489000    1.1816336   -6.0641706    242.04581  0.041248434  0.041964968            3 
  490000     1.187492    -6.061106    241.85729  0.041132193  0.041960734            2 
  491000    1.1715788   -6.0660591    242.38682  0.041138292  0.041956354            5 
  492000    1.1367843   -6.0920641    242.97384  0.041154106   0.04195285            7 
  493000    1.1752077   -6.0685439    243.41751  0.041145623  0.041949368            4 
  494000    1.1625463   -6.0690715    244.45723  0.041237724  0.041946183            2 
  495000    1.1660508   -6.0478353      244.565  0.041172558  0.041942911            2 
  496000    1.1707716   -6.0697058      245.893  0.041312668   0.04194031            4 
  497000    1.1718313   -6.0648349    245.25846  0.041123148   0.04193661            3 
  498000    1.1710775   -6.0375862    245.86253  0.041141655  0.041932774            5 
  499000    1.1620582   -6.0902172    246.07498  0.041094685  0.041928728            3 
  500000    1.1564841    -6.067411      247.074     0.041179   0.04192546            2 
  501000    1.1558038   -6.0921553    247.91237  0.041236255  0.041922373            3 
  502000    1.1594612   -6.0873371    248.13452   0.04119099  0.041919117            3 
  503000    1.1621256   -6.0951183    249.04164  0.041259384   0.04191615            2 
  504000    1.1771733   -6.0961554    248.50675  0.041089079  0.041912742            4 
  505000    1.1572328    -6.093624    249.43048  0.041160145  0.041909649            2 
  506000    1.1672432   -6.1070983    250.79933  0.041304237  0.041906232            3 
  507000     1.168234   -6.0933955    250.17373  0.041119942  0.041903119            4 
  508000    1.1634368   -6.1070967     250.9856  0.041172179   0.04189971            2 
  509000    1.1941404   -6.0710229    252.20165  0.041290382  0.041896523            3 
  510000    1.1760494   -6.0817692    252.47314   0.04125378  0.041893142            5 
  511000    1.1792154   -6.0829973    251.41984  0.041001278  0.041889853            3 
  512000    1.1954875   -6.1037223     252.7534  0.041138248  0.041885412            3 
  513000    1.1746124   -6.1008071    252.82852   0.04107026  0.041881595            6 
  514000    1.1827602   -6.0634332    253.70062  0.041131748  0.041877523            3 
  515000    1.1583189   -6.0844658    253.90318  0.041084658  0.041872805            4 
  516000    1.1528199   -6.0923961    254.85855  0.041159326  0.041868599            6 
  517000    1.1524851   -6.0701348    254.58403  0.041035466  0.041863838            4 
  518000     1.173704   -6.0793901    254.48406  0.040940164  0.041858195            5 
  519000    1.1710491   -6.0789678    255.65361   0.04104907  0.041853346            2 
  520000    1.1916887   -6.0714037    255.77564  0.040989686  0.041848749            5 
  521000    1.1764438   -6.0981905    256.18665  0.040976752  0.041844077            5 
  522000    1.1592174   -6.0670844     257.2747   0.04107195  0.041838675            3 
  523000    1.1803686   -6.0826316    256.18017  0.040819021   0.04183276            3 
  524000    1.1640163   -6.0750721    257.37353  0.040930905  0.041826581            5 
  525000    1.1706888   -6.0851212    256.87169  0.040773284   0.04182036            4 
  526000    1.1604847   -6.0726277    259.04542  0.041040149  0.041814691            4 
  527000    1.1601634   -6.0859005     259.6703  0.041061085  0.041809765            4 
  528000    1.1389831   -6.1157485     259.2392  0.040915278  0.041805252            2 
  529000    1.1723849   -6.0579949    260.76232  0.041077871  0.041800552            3 
  530000    1.1515999   -6.1204586    260.96203  0.041031766  0.041795946            3 
  531000     1.149134   -6.0755097    262.54364  0.041202706  0.041791567           10 
  532000    1.1588777   -6.1090988    261.47082  0.040957209  0.041787129            4 
  533000    1.1562585   -6.0994964    262.08332  0.040976128  0.041782856            3 
  534000     1.164678   -6.1038104    263.26565  0.041083903  0.041778401            3 
  535000    1.1469707   -6.1038644    265.13216  0.041297844  0.041774809            4 
  536000    1.1647932   -6.1152929    263.35651  0.040944732   0.04177061            3 
  537000    1.1515395   -6.0570244     264.7952  0.041091744  0.041766602            2 
  538000    1.1653687   -6.0471717    264.62042  0.040988294  0.041762731            4 
  539000    1.1688833   -6.0893987    265.28506  0.041015006  0.041758543            7 
  540000    1.1654193    -6.128949    264.64543  0.040840345  0.041754238            3 
  541000     1.174813   -6.0532335    265.79595  0.040942074  0.041748481            4 
  542000    1.1344497   -6.0668212    266.07467  0.040909389  0.041743105            3 
  543000     1.162205   -6.1213403    265.94269  0.040813795  0.041736627            6 
  544000    1.1775448   -6.1018565    265.69373  0.040700633  0.041730564            4 
  545000    1.1435482   -6.1057835    267.26779  0.040866635  0.041724185            4 
  546000    1.1823138   -6.0923729    268.18604  0.040931936  0.041717861            3 
  547000    1.1844836   -6.0902486     268.2376   0.04086496  0.041712654            5 
  548000    1.1659953   -6.0687298    268.68052  0.040857744  0.041707399            3 
  549000     1.166316   -6.0847653    269.17174  0.040857884  0.041702351            4 
  550000    1.1589946   -6.1560502    268.79717  0.040726843  0.041696634            4 
  551000    1.1439233   -6.1107687    269.63197  0.040779185  0.041690818            3 
  552000    1.1727928    -6.093828    271.22659  0.040946044  0.041684668            4 
  553000     1.163319    -6.116848    270.63175  0.040782362   0.04167898            2 
  554000    1.1575282   -6.0966585    271.09842  0.040778944  0.041673384            2 
  555000    1.1478645   -6.0980196    271.56362  0.040775319   0.04166775            3 
  556000    1.1347584   -6.0784489    273.21115  0.040948913  0.041661792            3 
  557000    1.1682403     -6.03569    273.56587  0.040928466  0.041657091            5 
  558000    1.1785015   -6.1014262    273.75985  0.040884088   0.04165192            3 
  559000    1.1797289   -6.0998368    274.52564   0.04092511  0.041646696            2 
  560000    1.1903687   -6.0986394    274.04734  0.040780854  0.041640918            6 
  561000     1.150852   -6.0713822    275.00974   0.04085112  0.041635404            1 
  562000     1.161276   -6.1381006    274.93777  0.040767759  0.041630199            2 
  563000    1.1749204   -6.0997593     276.0348  0.040857726  0.041624704            2 
  564000    1.1630997   -6.1435382    275.13086  0.040651722  0.041618516            3 
  565000    1.1594925   -6.1147145    275.73766  0.040669271  0.041612763            7 
  566000    1.1439185   -6.0800829    277.52398  0.040860422   0.04160704            3 
  567000      1.13335   -6.0993797    276.87825  0.040693453  0.041601184            3 
  568000     1.165266   -6.0914615    277.36301   0.04069293  0.041595249            4 
  569000    1.1476111   -6.1225803    278.20414  0.040744601  0.041588748            6 
  570000     1.185513   -6.1268335    278.57783  0.040727752  0.041581849            4 
  571000    1.1575716   -6.1135059    277.68219  0.040525714  0.041575248            2 
  572000      1.15906   -6.1071221    279.35802  0.040699012  0.041568507            3 
  573000    1.1331064   -6.0841634    280.00292  0.040721775  0.041561678            3 
  574000    1.1530385   -6.1020464     281.1104  0.040811615  0.041555469            2 
  575000    1.1449488   -6.1226687    280.52734  0.040656135  0.041549482            5 
  576000    1.1430338   -6.0820586    281.91913  0.040786911  0.041543409            7 
  577000    1.1589821   -6.1018583    282.16115  0.040751177  0.041537347            7 
  578000      1.15067   -6.0949994    282.02431  0.040660945  0.041531005            5 
  579000    1.1826344   -6.1339792    282.58047  0.040670765   0.04152467            5 
  580000    1.1677638   -6.0721011    283.37836  0.040715281  0.041518484            3 
  581000    1.1562211   -6.0985327    284.23171    0.0407676  0.041512628            4 
  582000    1.1468745   -6.0824413    284.74083  0.040770451  0.041507291            5 
  583000    1.1715148   -6.1263237    284.65952  0.040688896  0.041501809            3 
  584000    1.1379979   -6.1128782    286.29895  0.040853161  0.041496556            2 
  585000    1.1504845   -6.1220266    285.75437   0.04070575  0.041491631            5 
  586000    1.1600305   -6.1141968    286.51369  0.040744268  0.041486476            3 
  587000    1.1795268   -6.1132704    287.18797   0.04077058  0.041482096            3 
  588000    1.1533317   -6.1034432    288.25092  0.040851888  0.041477121            3 
  589000    1.1327946   -6.1130526    287.81408  0.040720724  0.041471924            4 
  590000    1.1648578   -6.1106484    288.73164  0.040781305   0.04146661            2 
  591000    1.1480455   -6.1257044    288.02162  0.040612185  0.041461449            7 
  592000    1.1607509   -6.0998861    289.59979  0.040765736  0.041456361            4 
  593000    1.1680156   -6.1250476    289.57294  0.040693218  0.041451238            3 
  594000    1.1440922   -6.0795515    291.42009  0.040883851  0.041446962            5 
  595000    1.1634816   -6.0771334    292.40842   0.04095356   0.04144322            4 
  596000    1.1473934   -6.1286614    290.85869  0.040668162  0.041439139            4 
  597000    1.1717773   -6.0997157    291.87547   0.04074197  0.041434402            3 
  598000    1.1566355   -6.1129044    292.57269     0.040771  0.041429253            3 
  599000    1.1585323   -6.1138589    292.75026  0.040727638  0.041424086            4 
  600000    1.1484169   -6.1035366    293.99659   0.04083286  0.041419863            5 
  601000    1.1447816   -6.1184128    293.41159  0.040683803  0.041415194            6 
  602000    1.1720955   -6.0819225    294.27498  0.040735739  0.041409992           10 
  603000    1.1599905   -6.1304663    294.42686  0.040689173  0.041404252            4 
  604000    1.1454294   -6.0792917    294.98329  0.040698577  0.041398671            4 
  605000    1.1529877   -6.1138954    295.28418  0.040672752  0.041393088            3 
  606000    1.1419095   -6.0774748     295.2738  0.040604208  0.041387342            4 
  607000    1.1582623   -6.1036121    296.12647  0.040654375  0.041381415            2 
  608000    1.1234431   -6.0848885    296.83227  0.040684247  0.041375809            4 
  609000    1.1872414   -6.1283639    297.09864  0.040653891  0.041370192            4 
  610000    1.1182056    -6.117032    297.33497  0.040619532  0.041364853            4 
  611000    1.1718545   -6.1108398    297.66742  0.040598393  0.041359187            3 
  612000    1.1382159   -6.0850532    298.66549  0.040667959  0.041353749            3 
  613000    1.1535878   -6.0567599    298.41533  0.040567609  0.041347916            4 
  614000    1.1284729    -6.130163    299.84853  0.040696055  0.041341808            2 
  615000    1.1327572   -6.1007805     298.4543  0.040440962  0.041335365            4 
  616000    1.1675566    -6.115262    299.72498  0.040547211  0.041329128            3 
  617000    1.2023648    -6.142916    299.65538  0.040472094   0.04132358            2 
  618000    1.1435902   -6.1180141    301.04518  0.040594011  0.041317645            5 
  619000    1.1293055   -6.1029351    300.65095  0.040475357  0.041311062            3 
  620000    1.1574311   -6.1144195    300.91714  0.040445852  0.041305096            5 
  621000    1.1152004   -6.0963601    302.50065  0.040593216  0.041298502            2 
  622000    1.1773088   -6.1012674    302.72877  0.040558517  0.041292081            3 
  623000    1.1441197   -6.1275372    303.07182  0.040539302  0.041285783            4 
  624000    1.1574965   -6.1022832    302.71658  0.040426894  0.041279584            2 
  625000     1.146042   -6.0552388    304.24786  0.040566381  0.041273195            2 
  626000     1.153215   -6.1520137    303.16519  0.040357454  0.041266327            4 
  627000    1.1554983   -6.1138766    303.12219  0.040287372  0.041258508            6 
  628000    1.1453919   -6.1352906    303.75312  0.040306943  0.041251047            3 
  629000    1.1656399   -6.0964551    304.85396  0.040388707  0.041243563            2 
  630000    1.1640505   -6.1028817    304.97925  0.040341171  0.041236199            5 
  631000    1.1389225   -6.0935342    304.93746   0.04027172  0.041229043            5 
  632000    1.1535507   -6.1066076    306.61386  0.040429043  0.041221505            3 
  633000     1.165456   -6.0695212    306.56831  0.040359178  0.041214625            4 
  634000    1.1452731   -6.0856249    307.53993  0.040423229  0.041207698            3 
  635000    1.1042037   -6.1765463    306.13939  0.040175772  0.041200288            4 
  636000    1.1450894   -6.1183134    306.51691  0.040162069  0.041192274            8 
  637000     1.166953   -6.1425055    306.38159  0.040081318  0.041183899            4 
  638000    1.1651965   -6.1339695    306.77096  0.040069352  0.041174775            5 
  639000    1.1553455   -6.1660269      306.909  0.040024648  0.041165884            4 
  640000    1.1391039    -6.122094    308.20973  0.040131475  0.041157136            4 
  641000    1.1242057   -6.1249328    308.91499  0.040160555  0.041148434            4 
  642000    1.1578645    -6.081502       308.95  0.040102544  0.041139473            4 
  643000    1.1706016   -6.0842773    310.37669  0.040225076  0.041130412            4 
  644000    1.1461178   -6.1457578    308.99009   0.03998319  0.041121539            4 
  645000    1.1497355   -6.1163688    310.61341  0.040130931   0.04111209            3 
  646000    1.1465753   -6.1127284    310.43319  0.040045561  0.041102985            2 
  647000    1.1609904   -6.1301205    310.73606  0.040022676  0.041093557            2 
  648000    1.1574586   -6.1525006    310.46048  0.039925473  0.041083591            5 
  649000    1.1584055    -6.123053    311.52978  0.040001255  0.041073748            9 
  650000     1.154219      -6.1174    311.84259  0.039979819  0.041063814            3 
  651000    1.1392676   -6.1210964    312.01742  0.039940785  0.041054166            5 
  652000    1.1701712   -6.1028358    314.17786  0.040155656   0.04104557            4 
  653000    1.1614982   -6.1207702    313.49388  0.040006876    0.0410371            4 
  654000    1.1337105   -6.1180796    314.89577  0.040124334  0.041028336            8 
  655000    1.1481717   -6.1218674    315.32577  0.040117782  0.041019826            3 
  656000    1.1643393   -6.1045613    314.37109  0.039935351   0.04101097            3 
  657000     1.127289    -6.154062     315.1763    0.0399767  0.041001785            2 
  658000    1.1819504   -6.1348346    316.02785   0.04002379   0.04099289            6 
  659000    1.1292003   -6.1028919    316.20715   0.03998573  0.040983415            4 
  660000    1.1502502   -6.0975285    316.52378  0.039965124  0.040974273            5 
  661000    1.1671984   -6.1211649     316.5535  0.039908409  0.040965379            7 
  662000    1.1597364   -6.1436849    318.08335  0.040040704  0.040956651            3 
  663000    1.1319537    -6.148024    317.97817   0.03996709  0.040948058            4 
  664000    1.1527832   -6.1393465     318.5787  0.039982267  0.040939393            4 
  665000     1.135558   -6.1343053    318.36862  0.039895817  0.040930766            5 
  666000    1.1608061    -6.134825    320.33011  0.040081345  0.040922045            3 
  667000     1.149567   -6.1282593    319.62544  0.039933214  0.040913458            4 
  668000     1.159277   -6.1437921    319.64675  0.039876092  0.040905089            3 
  669000    1.1358575   -6.1022405    321.53211  0.040051334  0.040896206            4 
  670000    1.1650621   -6.1081431     321.4519  0.039981579  0.040887562            2 
  671000    1.1491222   -6.1340065    322.14552  0.040008137  0.040878945            5 
  672000    1.1139598   -6.1325278    321.14161  0.039824108  0.040870957            3 
  673000    1.1203074   -6.1371835    321.76531  0.039842163  0.040862495            5 
  674000    1.1314943   -6.1202312    322.62218  0.039888994  0.040853168           15 
  675000    1.1121837   -6.1371732     323.2564  0.039908198  0.040844303            2 
  676000    1.1357018   -6.0808143    323.90574  0.039929208  0.040835254            2 
  677000    1.1672964   -6.1620765      322.806  0.039734859  0.040826297            4 
  678000    1.1205523   -6.1283048    324.15006  0.039841453  0.040817248            4 
  679000     1.100312   -6.0934135    324.02587  0.039767534  0.040807935            4 
  680000    1.1436433   -6.1117632    324.57264  0.039776059  0.040798908            3 
  681000    1.1406849   -6.1413477    324.54529  0.039714304  0.040789434            2 
  682000    1.1385103   -6.1309204    325.34304  0.039753548  0.040780223            3 
  683000    1.1309131   -6.1331633     325.4754  0.039711493   0.04077067            3 
  684000    1.1487915   -6.1491126    325.41657  0.039646268  0.040760905            3 
  685000    1.1481245   -6.1701639    326.22667  0.039686943  0.040750996            2 
  686000    1.1306673   -6.1546821    326.75543  0.039693322  0.040741255            5 
  687000    1.1297887   -6.1522902    327.72722  0.039753423  0.040731383            1 
  688000    1.1279383   -6.1279497    327.56401  0.039675874  0.040721836            3 
  689000    1.1540307   -6.1427704    327.77669  0.039644011  0.040712008            5 
  690000    1.1528892   -6.0945486     328.0122     0.039615  0.040702256            2 
  691000    1.1351717    -6.122772     328.9705  0.039673239  0.040692544            5 
  692000    1.1414813   -6.1350791    329.53187   0.03968351  0.040683363            5 
  693000    1.1170279    -6.123446    329.08641  0.039572681  0.040673702            4 
  694000    1.1535431    -6.091143    330.38244  0.039671283  0.040663807            3 
  695000    1.1481393   -6.0960452    330.43541  0.039620553  0.040654421            7 
  696000    1.1246268   -6.1650611    330.61156  0.039584718  0.040644713            6 
  697000     1.143745   -6.1490142    331.27158  0.039606836  0.040634675            3 
  698000    1.1162907   -6.1504823     331.3159  0.039555384  0.040624329            2 
  699000     1.166052   -6.1170417    331.57048  0.039529146  0.040613927            3 
  700000    1.1477395   -6.1304385    331.39428    0.0394517  0.040603371            3 
  701000    1.1424319   -6.1360087    331.23915  0.039376979  0.040592179            7 
  702000    1.1274066    -6.143684    332.06955  0.039419463  0.040580732            9 
  703000    1.1179762   -6.0874547    333.59084  0.039543722  0.040570378            4 
  704000    1.1771815   -6.1201515    332.47409   0.03935536  0.040559978            2 
  705000    1.1439539   -6.1652766    333.98065  0.039477619  0.040548738            3 
  706000    1.1418683   -6.0893163    333.69028  0.039387427  0.040537796            3 
  707000    1.1187993    -6.143315    334.64297  0.039444008  0.040526488            3 
  708000    1.1498192   -6.1430287    334.22971  0.039339655   0.04051546            3 
  709000     1.127608    -6.151504    334.96386  0.039370458  0.040504316            4 
  710000    1.1274973   -6.0974754    335.47701  0.039375236  0.040493214            5 
  711000    1.1360124    -6.128876    335.50401  0.039323021  0.040482164            4 
  712000    1.1349034   -6.1704976    335.73598  0.039294942  0.040471102            3 
  713000    1.1440167   -6.1384115     335.1184  0.039167649  0.040459335            6 
  714000    1.1052171   -6.1472191    335.72256  0.039183306  0.040447581            3 
  715000    1.1243827   -6.1687369    336.92068  0.039268145  0.040435525            4 
  716000    1.1432776   -6.1712501    336.00937  0.039107236  0.040423716            6 
  717000    1.1497946   -6.1564252    337.08244  0.039177411  0.040411855            7 
  718000    1.1143329   -6.1536007    337.81509   0.03920788  0.040399961            3 
  719000    1.1278201   -6.1353344    338.65183  0.039250328  0.040388044            2 
  720000    1.1317246   -6.1693457    338.19113  0.039142491  0.040376139            4 
  721000    1.1369533   -6.1271905     338.2375  0.039093563  0.040364179            9 
  722000    1.1019737   -6.1363617    339.49058  0.039184046  0.040352268            4 
  723000     1.140325   -6.1504355     340.7272  0.039272384  0.040340436            4 
  724000    1.1435017   -6.1739834    340.18471  0.039155699   0.04032893            3 
  725000    1.1345854   -6.1167463    341.29722  0.039229566  0.040317927            5 
  726000    1.1460225   -6.1365982    341.40184  0.039187539  0.040306852            4 
  727000    1.1108646    -6.113353    342.07508  0.039210807   0.04029596            3 
  728000    1.1423603   -6.1315268    343.17852  0.039283255  0.040285368            4 
  729000    1.1497915   -6.1372937    343.03508  0.039212972  0.040274743            2 
  730000    1.1278708   -6.1700495    343.24629  0.039183367  0.040263741            7 
  731000    1.1375337   -6.1215685    344.47423  0.039269748  0.040253176            4 
  732000    1.1407511   -6.1190813    344.19695  0.039184534  0.040243065            5 
  733000    1.1224168   -6.1625474    344.29274  0.039141967  0.040232486            6 
  734000     1.106982   -6.1325626    345.13381  0.039184129  0.040222032            3 
  735000    1.1414832   -6.1524004    345.67024  0.039191637  0.040211023            4 
  736000    1.1293332   -6.1578814    345.49591  0.039118649  0.040200386            6 
  737000    1.1196062   -6.1478034    346.51621  0.039180937  0.040189474            5 
  738000    1.1271864   -6.1469386    346.60727  0.039138129  0.040178672            5 
  739000    1.1166542   -6.1434612    347.73994  0.039212894  0.040167675            2 
  740000    1.1344349   -6.1240969    348.07415   0.03919754  0.040156923            4 
  741000    1.1472039   -6.1464573    348.09969  0.039147513  0.040146535            2 
  742000    1.1467468   -6.1396658    348.65216  0.039156801  0.040135855            3 
  743000    1.1308374   -6.1869111     347.1176  0.038931988  0.040125158            4 
  744000    1.1487822   -6.1439098    349.69333   0.03916816  0.040114657            3 
  745000    1.1294713   -6.1318307    349.14277  0.039054001  0.040104216            4 
  746000    1.1403728   -6.1478222    350.54334  0.039158104  0.040094025            3 
  747000    1.1409132   -6.1285393    350.70808  0.039124061  0.040084353            2 
  748000    1.1453126   -6.1154746     350.3835  0.039035595  0.040074297            8 
  749000    1.1172821   -6.1791365    350.57089  0.039004326  0.040064139            3 
  750000     1.142409   -6.1745984    350.58002  0.038953336  0.040053393            3 
  751000    1.1424239   -6.1643976    351.34583  0.038986443  0.040043253            2 
  752000    1.1489197   -6.1686106    351.75736  0.038980204  0.040033114            3 
  753000    1.1080183    -6.094491    353.17291  0.039085094  0.040022895            8 
  754000    1.1263446   -6.1488365    354.45164  0.039174584  0.040013533            5 
  755000    1.1310161   -6.1928998    351.79695  0.038829685  0.040003298            3 
  756000    1.1417049   -6.1736834    354.15914  0.039038706  0.039992941            8 
  757000    1.1354546    -6.145385    354.62065   0.03903794  0.039983223            2 
  758000    1.1259534   -6.1482958     354.9095  0.039018195  0.039973059            6 
  759000    1.1427631   -6.1765746    354.77252  0.038951748  0.039963249            2 
  760000    1.1233801   -6.1582685    356.45075  0.039084512  0.039953226            5 
  761000    1.1239788   -6.1036912    357.14248  0.039108901  0.039943515            7 
  762000    1.1104941   -6.1556936     356.8056  0.039020734  0.039934218            2 
  763000    1.1242073   -6.1789757    355.80866   0.03886071  0.039924352            3 
  764000    1.1202523   -6.1375592    357.66802  0.039012655  0.039914323            3 
  765000    1.1496723   -6.1426434    358.06869  0.039005304  0.039904359            9 
  766000    1.1210514   -6.1877421    357.84204  0.038929726  0.039894562            5 
  767000    1.1519274   -6.1637932    359.19213  0.039025655   0.03988479            9 
  768000    1.1218758   -6.1317799    359.68961   0.03902882  0.039875096            4 
  769000    1.1280212   -6.1413563    359.15802  0.038920462  0.039865818            5 
  770000     1.151738   -6.1706333    360.14077  0.038976274  0.039856389            4 
  771000    1.1489428    -6.159792    360.72909   0.03898931  0.039846857            3 
  772000    1.1213129   -6.1354416    361.31858  0.039002438  0.039837281            3 
  773000    1.1423546   -6.1960372    360.19946  0.038831334   0.03982782            3 
  774000    1.1393825   -6.1565395    362.18999  0.038995477  0.039818035            6 
  775000    1.1406072   -6.1427785    361.78966  0.038902114  0.039808252            5 
  776000    1.1413706   -6.1619794    361.89489  0.038863283  0.039798158            2 
  777000    1.1303467   -6.1268079    363.10733    0.0389433  0.039788372            3 
  778000    1.1241916     -6.13919    363.22534  0.038905885  0.039778375            5 
  779000    1.1143848   -6.1657326    362.26015   0.03875269  0.039768188            5 
  780000    1.1270513   -6.1654737     362.8901   0.03877031  0.039757841            4 
  781000    1.1236106   -6.1644813    363.30735  0.038765188  0.039747685            4 
  782000    1.1280617   -6.1469241    364.94812  0.038890464  0.039737148            4 
  783000    1.1051849   -6.1842577    364.32358  0.038774328  0.039726998            4 
  784000    1.1616711    -6.153791    364.48118  0.038741622   0.03971691            3 
  785000    1.1288254   -6.1392023    365.38619  0.038788343  0.039706735            4 
  786000    1.1430118   -6.1437193    365.76093  0.038778724  0.039696672            4 
  787000    1.1224565    -6.152661     366.6075  0.038819092  0.039686928            3 
  788000    1.1144246   -6.1563056    368.15842  0.038933843  0.039677676            6 
  789000    1.1283011   -6.1544723    367.89379  0.038856547  0.039668372            3 
  790000    1.1116929   -6.1562646    368.38007  0.038858657   0.03965912            7 
  791000    1.1263576   -6.1657949    369.94434   0.03897433  0.039649891            3 
  792000    1.1341255   -6.1360104    369.20914  0.038847764  0.039641235            4 
  793000    1.1267522   -6.1286487    370.74086  0.038959737  0.039632233            3 
  794000    1.1210252   -6.1444119    371.24673  0.038963763  0.039623643            5 
  795000    1.1353855   -6.1826535    371.41373  0.038932257  0.039614815            3 
  796000    1.1058218   -6.1892777    371.56041  0.038898703  0.039605954            5 
  797000    1.1167289   -6.1564942    371.61679  0.038855791  0.039596995            3 
  798000    1.0716534   -6.1359819     372.2525  0.038873485  0.039588141            4 
  799000    1.1048001   -6.1814969    371.78977  0.038776571  0.039579093            4 
  800000     1.135781   -6.1459127    371.40727  0.038688257  0.039569781            4 
  801000    1.1346375   -6.1173482    373.15411  0.038821693  0.039560379            3 
  802000    1.1308001   -6.1758072    370.66292  0.038514435  0.039550725            5 
  803000    1.1496484   -6.1236364    372.20603  0.038626612  0.039540383            4 
  804000    1.1153184   -6.1726432    372.56347  0.038615616  0.039530173            2 
  805000     1.137808   -6.1385767     374.0512  0.038721656  0.039519776            4 
  806000    1.1320358   -6.1795096    373.87174   0.03865506  0.039509644            9 
  807000    1.1263464   -6.1650121    373.82395  0.038602225  0.039499026            5 
  808000    1.1320865   -6.1284876    373.39971  0.038510696  0.039488362            3 
  809000    1.1419874   -6.1501391    373.60358  0.038484093  0.039477475            4 
  810000    1.1163241   -6.1728734     372.9787  0.038372294  0.039466689            6 
  811000     1.123821   -6.1448156     374.6158  0.038493197  0.039455955            9 
  812000    1.0832971   -6.1747667    374.82693  0.038467459  0.039445055            4 
  813000    1.1102397   -6.1783345    375.83029   0.03852299  0.039434412            5 
  814000    1.1221032   -6.1788831    376.01302  0.038494371  0.039423826            3 
  815000    1.1101442   -6.1557468    374.94502  0.038337937  0.039413199           11 
  816000    1.1437057   -6.1745783    376.15926  0.038414957  0.039402738            3 
  817000    1.1393786   -6.1465825    376.92625   0.03844617  0.039391706            5 
  818000     1.124411   -6.1528242    377.92077  0.038500486  0.039380925            2 
  819000    1.1168457   -6.1683414    377.74577   0.03843567  0.039370593            5 
  820000    1.1363801   -6.1993557    379.50823  0.038567909  0.039360504            7 
  821000    1.1201052   -6.1705451    380.04832  0.038575753  0.039350711            2 
  822000     1.136176   -6.1720858    379.27964  0.038450896  0.039340744            3 
  823000    1.1046734   -6.1638636    379.99485  0.038476595  0.039330526            5 
  824000    1.1300228   -6.1660824    381.36917  0.038568889  0.039320383            2 
  825000    1.1079202   -6.1709581    380.23488  0.038407564  0.039310155            6 
  826000    1.1423863       -6.204    380.15124  0.038352627  0.039299778            2 
  827000    1.1346763   -6.1744132    382.71852  0.038564946   0.03928944           12 
  828000       1.1083   -6.1778076    380.82141  0.038327437  0.039279371            5 
  829000    1.1159214   -6.1594049    381.98645  0.038398316  0.039269236            4 
  830000    1.0942925   -6.1611458    383.28155  0.038482083  0.039259145            5 
  831000    1.1170826   -6.1708769    381.68146  0.038275316  0.039249042            7 
  832000    1.1400929   -6.1604067    383.67573   0.03842906  0.039239032            4 
  833000     1.109183   -6.1818332    383.57616  0.038372966  0.039229224            3 
  834000    1.0937317   -6.1570789    385.04172  0.038473393  0.039219502            2 
  835000    1.1106912   -6.1670966     384.2967  0.038352964  0.039209663            6 
  836000    1.1095998   -6.1720054    384.07078  0.038284568  0.039199416            5 
  837000    1.1315021   -6.1889388    386.41994  0.038472714  0.039189165            6 
  838000    1.1188072   -6.1569627      385.517  0.038337013  0.039179303            3 
  839000    1.1020286   -6.1682158    385.79092  0.038318526  0.039169505            3 
  840000    1.1103028   -6.1714999    385.79201  0.038273017  0.039159975            6 
  841000    1.1181768    -6.187305    385.76677  0.038225007  0.039149814            3 
  842000    1.1398022      -6.1772    387.81489  0.038382313  0.039139557            6 
  843000    1.1384549   -6.2025896    387.93973  0.038349124  0.039129434            3 
  844000    1.1288235   -6.1775622    387.54575  0.038264786   0.03911936            7 
  845000    1.1404505   -6.1532725    388.43367  0.038307068  0.039109394            7 
  846000    1.1336024   -6.1671704    388.78287  0.038296185  0.039099538            3 
  847000    1.1563364   -6.2125706    387.56661  0.038131308  0.039089671            2 
  848000    1.1328904   -6.2056663    387.99935  0.038128866    0.0390795            3 
  849000    1.1264376    -6.180425    390.09354  0.038289511  0.039069672            5 
  850000    1.1257406   -6.1620538    392.02096  0.038433428  0.039060193            5 
  851000     1.103988   -6.1863132     391.0598  0.038294144  0.039050608            6 
  852000     1.093988   -6.1564392    391.26244  0.038269018  0.039041177            2 
  853000    1.1240991   -6.1782297    392.27062  0.038322647   0.03903144            5 
  854000    1.1128493   -6.1759194    391.79824  0.038231678  0.039022245            4 
  855000    1.1023371   -6.1979891    392.18583   0.03822474  0.039012769            2 
  856000    1.0957536   -6.1654742    393.92266  0.038349168  0.039003574            3 
  857000    1.1228434   -6.1672024    393.47119  0.038260521  0.038994013            1 
  858000     1.102754   -6.1910881    393.75778  0.038243762  0.038984794            4 
  859000    1.0994371   -6.1815341    393.70247  0.038193876  0.038975468            8 
  860000    1.1234063   -6.1981068    395.04648  0.038279698  0.038966035            4 
  861000    1.1270962   -6.2001154    394.14679  0.038148161  0.038957018            8 
  862000    1.0859361   -6.1758139    396.70998    0.0383517  0.038947631            7 
  863000    1.1253415   -6.1682782    394.84778  0.038127441  0.038938037            3 
  864000    1.1029843   -6.1930034    395.30862   0.03812776  0.038928126            3 
  865000    1.1258467   -6.1978802    394.92346  0.038046576  0.038918131            5 
  866000    1.1084336   -6.1892322    396.70306   0.03817389  0.038908268            6 
  867000    1.0965069   -6.1817337    395.98842  0.038061171  0.038898568            4 
  868000    1.1149546   -6.1783845    395.24076  0.037945541  0.038888539            9 
  869000    1.1403865   -6.1844158    396.40055  0.038013095  0.038878826            3 
  870000    1.1045051   -6.1978735    397.63151  0.038087309  0.038869179            5 
  871000    1.1269675   -6.1649984    398.47668  0.038124444   0.03885953            4 
  872000    1.1097372   -6.1957906    399.14471  0.038144564   0.03884996            3 
  873000    1.1137494   -6.2141386    398.63911  0.038052607  0.038840403            4 
  874000    1.1003607   -6.1740406    399.83164  0.038122773  0.038830813            5 
  875000     1.108721   -6.1979263    400.49838  0.038142703  0.038821567            5 
  876000    1.1332635   -6.2006125    400.14069  0.038065134   0.03881252            4 
  877000    1.1163157   -6.2132169    402.18588  0.038216067  0.038803597            4 
  878000    1.1193334   -6.2294175    401.50322  0.038107747  0.038794836            3 
  879000    1.0950711    -6.204459    402.20817  0.038131225  0.038786117            3 
  880000    1.1002455   -6.1678739    402.38468   0.03810461   0.03877753            4 
  881000    1.1199245   -6.1893859    403.73483  0.038189068   0.03876872            3 
  882000    1.1063605     -6.22606    404.05829  0.038176331  0.038760021            2 
  883000    1.1310611   -6.1712561    405.00716  0.038222646  0.038751371            5 
  884000    1.1067995   -6.1719159    404.77187  0.038157228  0.038742937            5 
  885000    1.1379352   -6.1972609    405.52016  0.038184573  0.038734305            4 
  886000     1.112537   -6.2023924    404.78858  0.038072666  0.038725566            4 
  887000    1.1134628   -6.1844723    405.43173  0.038090166  0.038716583            5 
  888000    1.0979977   -6.1826908    405.90762  0.038091931  0.038707672           10 
  889000    1.1082801   -6.1753752    406.11635   0.03806865  0.038698984            3 
  890000    1.1101446   -6.1935344    406.81201  0.038091012  0.038690328            3 
  891000    1.0952685   -6.1694742    408.62619  0.038217938  0.038681706            3 
  892000    1.1086264   -6.2179941    406.87329  0.038011332  0.038673102            5 
  893000    1.0873808   -6.1740387    408.35054   0.03810662  0.038664609            2 
  894000     1.079373    -6.172688    408.45751  0.038073966  0.038655806            5 
  895000    1.1087484   -6.1813826    408.95995  0.038078208  0.038647146            3 
  896000    1.1428403   -6.1926829    408.80477  0.038021277  0.038638378            4 
  897000    1.0954786   -6.1626803    410.28379  0.038116294  0.038629664            4 
  898000    1.0990721   -6.1972628    409.05768  0.037960067  0.038620834            5 
  899000    1.1237864   -6.1416733     409.2926  0.037939618  0.038612269            5 
  900000    1.1062001   -6.2257802    410.95089  0.038051008  0.038603678            4 
  901000    1.1368147   -6.1637557    410.96251  0.038009851  0.038595083            5 
  902000    1.0857199   -6.1731798    411.15596  0.037985584  0.038586717            3 
  903000     1.103949   -6.1947779    411.97468  0.038019073  0.038578122            2 
  904000    1.0938955   -6.1743776    412.79848  0.038052957  0.038569195            3 
  905000    1.1348039   -6.1846974    411.31721  0.037874513  0.038560556            2 
  906000    1.0929502   -6.1933493    411.58827  0.037857641  0.038551361            3 
  907000    1.1242825   -6.2040422    413.38218  0.037980722  0.038542192           17 
  908000    1.1100226   -6.1982707    411.57791  0.037773303  0.038533053            3 
  909000     1.092762   -6.2022287    412.79795  0.037843597  0.038523676            4 
  910000    1.1017621   -6.2010321    413.67074  0.037881936  0.038514555            2 
  911000    1.1159158   -6.1836931    412.49133  0.037732467   0.03850546            3 
  912000     1.122962   -6.1995551      415.209  0.037939419  0.038496096            3 
  913000     1.119622   -6.1845901    414.20255  0.037806001  0.038486931            3 
  914000    1.1026528   -6.1974742    415.55616  0.037888053  0.038477879            6 
  915000    1.1094523    -6.208204    415.85145  0.037873538  0.038468994            8 
  916000    1.1161195   -6.2054838    414.60602  0.037718889  0.038459887            7 
  917000    1.0863684    -6.196298    416.30962  0.037832572  0.038450556            3 
  918000    1.0993278   -6.2337797    415.03821  0.037675945  0.038441451            3 
  919000     1.086139   -6.2071128    416.88834  0.037802715  0.038432125            4 
  920000    1.0969286    -6.192517    415.67465  0.037651689  0.038422547           16 
  921000    1.1159127   -6.2218398    417.26868  0.037755038  0.038413135            6 
  922000    1.1020699   -6.2298055    415.50164  0.037554378   0.03840375            3 
  923000     1.094609   -6.1906454    418.31756  0.037767927  0.038394405            4 
  924000    1.1348116   -6.1711616    418.09273  0.037706775  0.038385148            6 
  925000    1.0784495   -6.1709119    418.70042  0.037720758  0.038375642            3 
  926000    1.0886351   -6.2090034    419.11426  0.037717266  0.038366344            3 
  927000    1.0948798   -6.1861877    420.13911  0.037768708  0.038357035            5 
  928000    1.0789419   -6.1627618    419.91255  0.037707664  0.038347978            2 
  929000    1.1004097   -6.1918937    419.75122  0.037652603  0.038338831            3 
  930000    1.0999742   -6.2208352    419.96693  0.037631445  0.038329623            3 
  931000    1.1224513   -6.1950301    420.21474  0.037613206  0.038320475            4 
  932000    1.1141445   -6.2679192    420.05572   0.03755863  0.038311116            8 
  933000    1.1405261   -6.1752938    422.14802  0.037705254  0.038301922            2 
  934000    1.1164132   -6.2061551    420.90393  0.037553884  0.038293106            4 
  935000    1.1030919    -6.207774    423.70457   0.03776333  0.038284006            4 
  936000    1.0955258   -6.2174576    423.97555  0.037747111  0.038274977            4 
  937000    1.1167443   -6.1632877    425.18827  0.037814681  0.038266252           10 
  938000     1.124717    -6.213157    424.26804  0.037692611  0.038257769            7 
  939000    1.1052004   -6.2114315    424.64264  0.037685715  0.038248819            4 
  940000    1.1030675   -6.1772126    424.49249  0.037632313  0.038239822            2 
  941000    1.1330869   -6.1760885     423.7744  0.037528728  0.038230901            4 
  942000    1.0904132   -6.2177092    424.07793  0.037515741  0.038221614            5 
  943000    1.1047605     -6.24203    424.66246  0.037527612  0.038212196            9 
  944000    1.0989203   -6.1896654    424.40205   0.03746487  0.038203031            3 
  945000    1.1066775   -6.2034962    426.10175   0.03757511  0.038193724            5 
  946000    1.0958565   -6.2172654    426.33586  0.037556013  0.038184774            2 
  947000    1.1052925   -6.1977793    427.97709  0.037660779  0.038175805            5 
  948000    1.0813939   -6.2092321    427.15405  0.037548703   0.03816684            3 
  949000    1.1080716   -6.2169365      428.776  0.037651563  0.038157831            2 
  950000    1.1100894   -6.1804086      429.375  0.037664473  0.038149367            9 
  951000    1.1347807    -6.226332    428.75453  0.037570498  0.038140809            3 
  952000    1.1109319   -6.1852817    429.91764  0.037632847  0.038132222            5 
  953000    1.0590234   -6.1838722    430.14469  0.037613212  0.038123611            2 
  954000    1.1004731   -6.2226665    430.06499  0.037566823   0.03811513            4 
  955000    1.1121098   -6.2154635    430.35704   0.03755297  0.038106811            6 
  956000    1.0977622   -6.2269898    431.26036   0.03759243  0.038097924            6 
  957000    1.0849525   -6.1953704    431.03945  0.037533912  0.038089432            6 
  958000    1.0866682   -6.2140015    432.38872  0.037612101  0.038081067            4 
  959000     1.107756   -6.2233914    432.24893  0.037560734  0.038072565            9 
  960000    1.1094236   -6.1956598    432.41508  0.037536031   0.03806392            5 
  961000    1.1130056   -6.1885358    430.88761  0.037364517  0.038055073            2 
  962000    1.1028511   -6.1887097    432.53192  0.037468115  0.038046185            3 
  963000    1.1025243   -6.2129334    432.51454  0.037427703  0.038037465            5 
  964000    1.1049128   -6.2140283    433.58319  0.037481258  0.038028536            5 
  965000    1.1079314   -6.1940917    434.64562  0.037534164  0.038019769            5 
  966000    1.0940685   -6.2134054    433.58252  0.037403599  0.038010724            4 
  967000    1.1031308    -6.212444     432.3598  0.037259548  0.038001668            5 
  968000    1.0777856   -6.2165967     433.5887   0.03732685   0.03799227            5 
  969000    1.1193449    -6.193976    434.55496  0.037371428  0.037983051            3 
  970000    1.0682728   -6.2096285    434.60874  0.037337521  0.037973893            7 
  971000      1.11027   -6.1972652    435.31614  0.037359779  0.037964621            6 
  972000    1.1055272   -6.2200628    435.81956  0.037364503  0.037955653            4 
  973000    1.1139058   -6.2130974    436.29366  0.037366706  0.037946808            7 
  974000    1.0851294   -6.2382271     437.2139  0.037407076  0.037937811            6 
  975000    1.1035089   -6.2185254    435.86343  0.037253285  0.037928529            2 
  976000    1.1016853   -6.2377513    438.57473  0.037446613  0.037919269            9 
  977000    1.1309307   -6.1991087    437.40519  0.037308529  0.037910397            3 
  978000    1.0909822   -6.2305245    437.46127  0.037275159  0.037901284            3 
  979000    1.0913979   -6.2233421    438.10461  0.037291846  0.037892003            2 
  980000    1.0970556   -6.2084405    437.84401  0.037231633  0.037882626            5 
  981000    1.1073736   -6.2236661    438.11884  0.037217027  0.037873259            4 
  982000    1.0757235   -6.1997582    436.84434  0.037070972  0.037863714            3 
  983000    1.0916131   -6.1947468    438.41372  0.037166304  0.037853972            3 
  984000    1.0808949   -6.1904804    438.65254  0.037148759  0.037844436            4 
  985000    1.1026233   -6.2283349    439.93305  0.037219378  0.037834914            6 
  986000    1.0852856   -6.2330433    439.75932  0.037166947  0.037825264            9 
  987000    1.0911338   -6.2067867    439.32002  0.037092201  0.037815673            7 
  988000    1.0869195   -6.2330129    440.05476  0.037116629  0.037806212            6 
  989000    1.0892718   -6.2207569    440.18382  0.037089974  0.037796707            4 
  990000    1.1208466    -6.213667    441.54859  0.037167389  0.037787386            8 
  991000    1.1128158   -6.2199418    442.32033   0.03719478  0.037778114            2 
  992000    1.1336052   -6.2004924    443.52679  0.037258635   0.03776915            4 
  993000    1.0874315   -6.1642814    442.26827  0.037115498  0.037760114            2 
  994000    1.1244621   -6.1910626    444.17262  0.037237812  0.037751278            3 
  995000    1.0666172   -6.2201728    443.49906  0.037143975   0.03774217            3 
  996000    1.0898319   -6.2249774    443.74697  0.037127423  0.037732958            4 
  997000    1.0915063   -6.2312992    443.44023  0.037064547  0.037723539            6 
  998000    1.0966275   -6.2042531    444.76142  0.037137727  0.037714106            4 
  999000    1.0889183   -6.2200831    444.19103  0.037052972  0.037704527            9 
 1000000    1.0958221   -6.2039234    445.63015  0.037135846  0.037694914            7 
 1001000    1.0731535   -6.2099656     443.8391  0.036949642  0.037685312            5 
 1002000     1.094333   -6.2136371    445.46444  0.037047941  0.037675979            5 
 1003000    1.0818438   -6.2373118     444.3966  0.036922283   0.03766617            5 
 1004000    1.1121384   -6.2495304    446.26055  0.037040218  0.037656424            5 
 1005000    1.1030285   -6.2579571    446.49583  0.037022872  0.037646818            3 
 1006000    1.1167196   -6.2393241    447.42591  0.037063114  0.037637344            3 
 1007000    1.0809875   -6.2588123    445.43914  0.036861895  0.037628088            5 
 1008000    1.0910996   -6.2006102    446.25504  0.036892778  0.037618615            2 
 1009000    1.0851081   -6.2153741    448.79989  0.037066393  0.037609183            6 
 1010000    1.0960946   -6.1988689    447.76672  0.036944449  0.037600065            6 
 1011000    1.0871726   -6.2666777    448.72786   0.03698713  0.037590713           14 
 1012000    1.0880311   -6.2631298     448.7963  0.036956217  0.037581289            3 
 1013000     1.083777   -6.2421371    447.56706  0.036818613  0.037571956            8 
 1014000    1.1007205    -6.197172    450.46073  0.037020113  0.037562504            3 
 1015000    1.0822622   -6.2315838    450.03124  0.036948378  0.037553064            3 
 1016000     1.080401   -6.2268967    450.64388   0.03696226  0.037543657            3 
 1017000    1.1003091   -6.1877818    451.28414  0.036978379  0.037534473            6 
 1018000    1.0874429   -6.1950359    451.22396  0.036937129  0.037525226            5 
 1019000    1.1093454   -6.2438271    451.13777  0.036893831  0.037515993            4 
 1020000    1.0862358   -6.1781043    451.55785  0.036891981  0.037506785            8 
 1021000    1.1073768   -6.2488014    451.10357   0.03681877  0.037497508            5 
 1022000    1.0990997   -6.2746022    452.67707  0.036911046  0.037488215            4 
 1023000    1.1119359   -6.2339594    454.06733  0.036988215  0.037479081            4 
 1024000    1.0684233   -6.2176039    455.02643  0.037030146  0.037470085            2 
 1025000    1.1014496   -6.2574692    454.58289  0.036957958  0.037461151            5 
 1026000    1.1156876   -6.2439128    453.48374  0.036832663  0.037452052            7 
 1027000     1.098183   -6.2192697    454.92553  0.036913788  0.037443219            7 
 1028000    1.0980893   -6.2345676    455.34564  0.036911936  0.037434377            4 
 1029000    1.1069754   -6.2803292    455.78324  0.036911503  0.037425386            5 
 1030000    1.0628531   -6.2191694    456.70247  0.036950038  0.037416741            6 
 1031000     1.064664   -6.2386231    456.55456  0.036902244  0.037408079            3 
 1032000    1.0737564   -6.1860287    456.53131  0.036864608  0.037399448            5 
 1033000    1.0804896    -6.272662    456.36727  0.036815688  0.037391029           10 
 1034000    1.0817244   -6.2373651    459.24925  0.037012351   0.03738275            5 
 1035000    1.0852887   -6.2216408    459.45525  0.036993176  0.037374395            3 
 1036000    1.1008744   -6.2304549     459.1172  0.036930277  0.037366173            5 
 1037000    1.0713126   -6.2379609    459.45043  0.036921442  0.037357921            5 
 1038000    1.0952086   -6.2068027    460.06418  0.036935146  0.037349578            3 
 1039000    1.0724029   -6.2140046    460.91095  0.036967513  0.037341286            3 
 1040000    1.0597607   -6.2394055     459.9645   0.03685613  0.037333097            2 
 1041000    1.1058564   -6.2435532    460.64626  0.036875301   0.03732472            4 
 1042000     1.081429   -6.2389755    459.46801  0.036745682  0.037316279            2 
 1043000    1.0772015   -6.2572735    460.68518    0.0368077  0.037307554            4 
 1044000    1.0823896   -6.2273504     461.7056  0.036853896  0.037298909            8 
 1045000    1.1076961   -6.2739612    461.02885  0.036764661  0.037290188            4 
 1046000    1.0740179    -6.267073    461.54531  0.036770659  0.037281478            5 
 1047000     1.106576   -6.2593612    463.32656  0.036877313  0.037272937            3 
 1048000    1.0651872    -6.226523     461.8823  0.036727282   0.03726455            4 
 1049000    1.0944455   -6.2005964    463.77406  0.036842553   0.03725611            5 
 1050000    1.0791309    -6.220607    463.94183   0.03682078  0.037247682           12 
 1051000     1.085096   -6.2675366    463.24367  0.036730389  0.037239143            4 
 1052000    1.1186667    -6.250186    463.46571  0.036713063  0.037230681            4 
 1053000    1.0690371   -6.2379579    464.24478  0.036739853  0.037222031            5 
 1054000    1.0638557   -6.2427884    464.21435  0.036702589  0.037213373            6 
 1055000    1.1042676   -6.1933327    464.94988  0.036725899  0.037204698            4 
 1056000    1.0599692    -6.232454    465.66531  0.036747578  0.037196028            2 
 1057000    1.0831497   -6.2423987    466.37493  0.036768759   0.03718749            5 
 1058000    1.0911412    -6.222713    465.33594  0.036652169  0.037178842            2 
 1059000    1.0832618   -6.2139177    467.18892  0.036763371  0.037170206            3 
 1060000    1.0747351   -6.2436917     466.4914  0.036673852  0.037161655            4 
 1061000    1.0580226   -6.2229454    466.46828  0.036637471  0.037153029            8 
 1062000    1.0927066   -6.2172373    468.01015   0.03672396  0.037144377            5 
 1063000    1.0751154    -6.243825    468.11695  0.036697785   0.03713594            5 
 1064000    1.0791755   -6.2410619    469.07057  0.036737983  0.037127262           11 
 1065000    1.0566513   -6.2117537    468.23405  0.036638032  0.037118708            7 
 1066000    1.0792171   -6.2544418    468.31851  0.036610265  0.037109992            5 
 1067000    1.0815834   -6.2523049    469.21951  0.036646322  0.037101334            4 
 1068000    1.0968947   -6.1989928    469.19439  0.036610049  0.037092574            5 
 1069000    1.0736411   -6.2422415    469.76499  0.036620283  0.037083846            5 
 1070000    1.0688553   -6.2343697    469.53092  0.036567829  0.037075063            4 
 1071000      1.09016    -6.215157    469.58129  0.036537605  0.037066124            5 
 1072000    1.0824093   -6.2445048    470.25815  0.036556137  0.037057425            4 
 1073000    1.0731469   -6.2783877    468.90439   0.03641693   0.03704842            6 
 1074000    1.0895886   -6.2764871    469.30176  0.036413854  0.037039425            4 
 1075000     1.055226    -6.256223     471.7202  0.036567457   0.03703054            5 
 1076000    1.0723037   -6.2441447    470.97139  0.036475479  0.037021714            7 
 1077000    1.0766523   -6.2322161    471.79917  0.036505661   0.03701274            3 
 1078000    1.0851259    -6.222023    473.94845  0.036637945  0.037003677            6 
 1079000    1.0987519   -6.2713179    473.07381  0.036536439  0.036994859            5 
 1080000     1.078218   -6.2461442    472.90759  0.036489783  0.036986041            4 
 1081000    1.0662448    -6.249416    471.18005  0.036322853  0.036977183            6 
 1082000    1.0726738   -6.2553422    473.86834  0.036496329  0.036968106            6 
 1083000    1.0552619    -6.227821    473.63663  0.036444801  0.036959012            7 
 1084000    1.0506198   -6.2276213    473.39598  0.036392679  0.036949979            2 
 1085000    1.0936858   -6.2567077    474.76188  0.036464046  0.036941134            7 
 1086000    1.0750116   -6.2300601      475.301  0.036471839  0.036932188            5 
 1087000    1.0671969   -6.2499876    476.12179  0.036501211  0.036923247            4 
 1088000    1.0920137    -6.276528    474.26426  0.036325388  0.036914077            6 
 1089000    1.0705487   -6.2728401     474.5368  0.036312886  0.036905094            3 
 1090000    1.0580417   -6.2231454    476.27496  0.036412458  0.036896028            5 
 1091000    1.0793954   -6.2943081    476.83803  0.036422092  0.036886978            6 
 1092000    1.0900149   -6.2710076    477.12521  0.036410654  0.036877706            6 
 1093000     1.065254   -6.2481089    476.09786  0.036299013  0.036868584            7 
 1094000    1.0794924   -6.2645723    476.49305  0.036295936  0.036859456            4 
 1095000    1.0790094   -6.2425456    476.97631  0.036299567  0.036850138            4 
 1096000    1.0731766   -6.2407636    476.59903  0.036237761  0.036840856            5 
 1097000     1.084184   -6.2255334    478.39328  0.036341027  0.036831446            4 
 1098000    1.0984761    -6.251006    477.82753  0.036264992  0.036822138            4 
 1099000    1.0770282   -6.2405029    478.41827  0.036276787   0.03681295            3 
 1100000    1.0560084   -6.2705963    477.83298  0.036199469   0.03680349            4 
 1101000    1.0994265   -6.2575676    477.79117  0.036163425   0.03679401            4 
 1102000    1.1107677   -6.2604326     479.1237  0.036231374  0.036784816            3 
 1103000    1.0719124   -6.2772373    479.45456  0.036223524  0.036775687            5 
 1104000    1.0834243   -6.2609163    479.54107  0.036197243  0.036766469            6 
 1105000    1.0610705   -6.2625505    479.23942  0.036141736  0.036757111            3 
 1106000    1.0794086   -6.2204674     481.8361  0.036304709  0.036748019            3 
 1107000     1.073103   -6.2843986     480.6005  0.036178899  0.036738862            5 
 1108000    1.0768858   -6.2371973    480.87181  0.036166652  0.036729499            7 
 1109000    1.0789602   -6.2469367    481.94231  0.036214481  0.036720424            7 
 1110000     1.087371   -6.2255357    481.69128  0.036163009  0.036711218            3 
 1111000    1.0673628   -6.2102333    482.89597   0.03622082  0.036702099           11 
 1112000    1.0592293   -6.2493699    481.91646  0.036114843  0.036692748            4 
 1113000    1.0688233   -6.2541767    481.79032   0.03607295  0.036683198            4 
 1114000    1.0646294   -6.2381722    483.97793  0.036204214  0.036673904            5 
 1115000    1.0773052    -6.253081    483.46157  0.036133151  0.036664746            4 
 1116000     1.073034   -6.2188407     483.5599  0.036108117   0.03665555            5 
 1117000    1.0731375   -6.2782236    484.36592  0.036135923  0.036646487           11 
 1118000    1.0732088   -6.2580352    484.57553  0.036119225  0.036637518            4 
 1119000    1.0744847   -6.2701314    484.38659  0.036072877  0.036628451            5 
 1120000    1.0752587   -6.2230634    485.73096  0.036140696  0.036619272            5 
 1121000    1.0592662    -6.261293    485.68311  0.036104899  0.036610337            4 
 1122000    1.0913827    -6.281918     486.1482  0.036107263  0.036601201            6 
 1123000    1.0762717   -6.2493577    486.90133  0.036130998   0.03659221            2 
 1124000    1.0767233   -6.2578856    487.46311  0.036140504  0.036583164            5 
 1125000    1.0942777   -6.2706185     484.8179  0.035912437  0.036574074            9 
 1126000    1.0913521    -6.272924    487.65497   0.03609051  0.036565216            3 
 1127000    1.0862696   -6.2437227    487.07392  0.036015522  0.036556414            3 
 1128000    1.0871141   -6.2654463    489.11865  0.036134652  0.036547561            6 
 1129000     1.070258   -6.2264759    489.02388  0.036095651  0.036538813            3 
 1130000    1.0787136   -6.2295227    490.49854  0.036172459  0.036530129            5 
 1131000    1.0826863   -6.2557687    489.44866   0.03606312  0.036521349            6 
 1132000    1.0840593   -6.2878119    490.22204  0.036088195  0.036512703            9 
 1133000    1.0609736   -6.2365604     490.7971  0.036098639   0.03650396            2 
 1134000    1.0805261   -6.2337229    492.79255  0.036213445  0.036495457            5 
 1135000    1.0668119   -6.2890429    492.46037  0.036157149  0.036486695            4 
 1136000    1.0628108   -6.2571691    491.05783  0.036022435  0.036477931            2 
 1137000    1.0870965   -6.2528803    491.43853  0.036018655  0.036469083            5 
 1138000    1.0565847   -6.2815151    491.17192  0.035967481  0.036460103            5 
 1139000    1.0687632   -6.2580166    492.82162  0.036056601  0.036451075            2 
 1140000    1.0781934   -6.2568337    492.53688  0.036004158  0.036442056            4 
 1141000     1.086096   -6.3054431    491.81307  0.035919739   0.03643277            8 
 1142000    1.0696691   -6.2727547    491.99429   0.03590151  0.036423807            2 
 1143000    1.0928646   -6.2633019    493.40538  0.035972979  0.036414974            5 
 1144000    1.0667761   -6.2817059    492.94654  0.035908111  0.036406287            8 
 1145000    1.0910292   -6.2712989    495.24417  0.036043972  0.036397519            3 
 1146000    1.0821459   -6.2539892    493.58162  0.035891625  0.036388755            4 
 1147000    1.0794707   -6.2678602    494.66224  0.035938843  0.036379957            3 
 1148000    1.0547027   -6.2666267    496.60292  0.036048412  0.036371123            3 
 1149000    1.0881008   -6.2778139    494.85629   0.03589036  0.036362407            5 
 1150000    1.0939469   -6.2743035    494.31585  0.035819989  0.036353587            5 
 1151000    1.0663643   -6.2707143    495.77409  0.035894446  0.036344703            4 
 1152000     1.071554   -6.2708786    495.91309  0.035873343  0.036335779            4 
 1153000    1.0610132   -6.2858579    497.46327  0.035954269  0.036326786            5 
 1154000    1.0908649   -6.2539259    497.37145  0.035916483  0.036317882            4 
 1155000    1.0769914   -6.2402296    498.10375  0.035938221  0.036309064            5 
 1156000    1.0600841   -6.3020782    496.37586  0.035782573  0.036300139            8 
 1157000    1.1018468   -6.2634225    498.68135    0.0359177  0.036291437            5 
 1158000    1.0612855   -6.2404015    497.41596  0.035795622  0.036282756            4 
 1159000    1.0726363   -6.2899986     497.1036  0.035742278  0.036273864            3 
 1160000    1.0899217   -6.2717781    497.73397  0.035756751   0.03626503            6 
 1161000    1.0775424   -6.2564739    499.32527  0.035840172   0.03625624            7 
 1162000    1.0796435   -6.2807674    499.61532  0.035830129   0.03624744           11 
 1163000    1.0571995   -6.2706085    500.22246  0.035842825  0.036238986            5 
 1164000    1.0594522   -6.2478691     500.8336  0.035855785  0.036230307            5 
 1165000    1.0495676    -6.258107    502.11317  0.035916536   0.03622166            5 
 1166000    1.0585416   -6.3014502    501.29913  0.035827553   0.03621293            3 
 1167000    1.0684047    -6.267967    500.42452  0.035734399  0.036204217            8 
 1168000    1.0455076   -6.2718182    501.78047  0.035800547  0.036195462            3 
 1169000    1.0677624   -6.2660551    501.77965  0.035769864  0.036186508            4 
 1170000    1.0718701   -6.2350492     502.1094  0.035762778  0.036177356            7 
 1171000     1.080087   -6.2638975    502.44928  0.035756425  0.036168697            5 
 1172000    1.0562689   -6.2363826    504.78391  0.035891916  0.036160236            5 
 1173000    1.0760192   -6.2680202     500.9329  0.035587731  0.036151686            5 
 1174000    1.0651057   -6.3069243    502.50711  0.035669159  0.036142962            6 
 1175000    1.0741378    -6.263898    505.31041  0.035837617  0.036134516            2 
 1176000    1.0560036   -6.2869053    505.29797  0.035806262  0.036125952            4 
 1177000    1.0386653   -6.2746225    504.57972  0.035724987   0.03611735            9 
 1178000    1.0595219   -6.2481634    504.07612  0.035659035   0.03610875            4 
 1179000    1.0524837   -6.2975956    505.94726  0.035761045  0.036100026            5 
 1180000    1.0660499   -6.2688476    504.19056  0.035606678  0.036091129            6 
 1181000    1.0806238   -6.2567934    505.01026  0.035634368  0.036082327            5 
 1182000    1.0668924   -6.2691189    506.97759  0.035742921  0.036073451            3 
 1183000    1.0404052   -6.2804157    504.13914   0.03551276  0.036064539            8 
 1184000    1.0620603   -6.2935039      505.869  0.035604519  0.036055442            5 
 1185000    1.0913695    -6.269333    504.89006   0.03550563  0.036046427            4 
 1186000    1.0826614   -6.2542936    506.52596  0.035590638  0.036037216            2 
 1187000     1.063892   -6.2856188    506.99215  0.035593383  0.036028216            6 
 1188000    1.0743284   -6.2495327    505.78994  0.035479093  0.036018952            2 
 1189000    1.0711098   -6.2737498    506.09652   0.03547074  0.036009675            4 
 1190000    1.0482037   -6.2836337    506.76454  0.035487713   0.03600048            2 
 1191000    1.0465681   -6.2547476    507.62124  0.035517859  0.035991254            4 
 1192000    1.0712361   -6.2529597     509.8701  0.035645281  0.035982362            5 
 1193000    1.0513318   -6.2790813    507.44611  0.035446082  0.035973429            5 
 1194000    1.0440544   -6.2879287    508.87286  0.035515973  0.035964387            5 
 1195000    1.0429118   -6.2549039    508.50048  0.035460285  0.035955204            3 
 1196000    1.0579158   -6.2766242    508.62466  0.035439288  0.035945906            4 
 1197000    1.0532921   -6.3093042    506.98256  0.035295361  0.035936369            3 
 1198000    1.0466029   -6.2581517    508.42384  0.035366155  0.035926824            4 
 1199000    1.0792059   -6.2869368    509.48145  0.035410164  0.035917465            5 
 1200000    1.0640385   -6.3095389     510.8086   0.03547282  0.035908268            6 
 1201000    1.0634767   -6.2729569     509.2404  0.035334472  0.035898917            4 
 1202000    1.0469807   -6.2759236    510.22294  0.035373193  0.035889551            6 
 1203000     1.052323   -6.2821778    509.03585  0.035261558  0.035880063            4 
 1204000    1.0471564   -6.2462699    511.22396  0.035383718  0.035870857            3 
 1205000    1.0508239   -6.2580101      509.987  0.035268811  0.035861499            6 
 1206000    1.0588121   -6.2663451    510.85355  0.035299443  0.035852103            2 
 1207000    1.0613316   -6.3002718     511.7054  0.035329011  0.035842776            3 
 1208000    1.0607097   -6.2897303      512.361  0.035344992  0.035833326            4 
 1209000    1.0556652   -6.3146574     511.6069  0.035263779  0.035823972            8 
 1210000    1.0707695   -6.2490594    512.71761   0.03531113  0.035814617            9 
 1211000    1.0658521   -6.2676171    512.77024  0.035285593  0.035805332            5 
 1212000    1.0536055   -6.2630424    512.18175  0.035216017  0.035796037            2 
 1213000    1.0555315   -6.2648527    510.88112  0.035097631  0.035786584            6 
 1214000    1.0592209    -6.271583    513.67786  0.035260699  0.035776992            3 
 1215000    1.0321002   -6.2684219     513.1895  0.035198183  0.035767395            5 
 1216000    1.0442601   -6.2771345    514.50669  0.035259505   0.03575795            6 
 1217000    1.0551623   -6.3001694    514.21122    0.0352103  0.035748093            6 
 1218000    1.0385524   -6.2864986    513.23286  0.035114454  0.035738322           10 
 1219000    1.0743977   -6.2620722    514.77212  0.035190875  0.035728713            4 
 1220000    1.0414222   -6.2916014    515.78212  0.035231019  0.035719101            3 
 1221000    1.0552391   -6.2899607    514.62585  0.035123249  0.035709451            6 
 1222000    1.0504642   -6.2704785    514.72991  0.035101603  0.035699988           13 
 1223000    1.0348132   -6.2470607    516.74698  0.035210342  0.035690351            5 
 1224000    1.0695354   -6.2654085     516.5799    0.0351702  0.035680867            3 
 1225000    1.0463167   -6.2331968     515.2977  0.035054265  0.035671228            6 
 1226000    1.0466928   -6.3068519    516.37461  0.035098872  0.035661452            3 
 1227000    1.0491549   -6.2953211    515.64765  0.035020895  0.035651792            6 
 1228000    1.0641698   -6.2998096    516.76051  0.035067896   0.03564204            4 
 1229000    1.0314941   -6.2822512    516.55675  0.035025546  0.035632262            3 
 1230000    1.0675485   -6.3435215    516.56766  0.034997809   0.03562244            2 
 1231000    1.0440183   -6.3116875    516.13891  0.034940354  0.035612635            6 
 1232000    1.0593273   -6.3204158     517.1822  0.034982562  0.035602927            7 
 1233000    1.0714761   -6.2769158    517.15176  0.034952133  0.035593277            7 
 1234000    1.0566143   -6.2921531    517.10239  0.034920474  0.035583532            8 
 1235000    1.0499033   -6.3235976    518.99281  0.035019758  0.035573622            4 
 1236000     1.051934   -6.3070158    518.77919  0.034977022  0.035564007            4 
 1237000    1.0528314   -6.2838694    518.69912  0.034943352  0.035554353           13 
 1238000    1.0488635   -6.2555034    519.88729  0.034995106  0.035544688            4 
 1239000    1.0467935   -6.2785965    518.52145  0.034874996  0.035535006            4 
 1240000    1.0540309   -6.3037855    519.82978  0.034934797  0.035525227            8 
 1241000    1.0749686   -6.2807755    520.11581  0.034925854  0.035515376            3 
 1242000    1.0411891   -6.3015088    520.08317  0.034895543  0.035505611            4 
 1243000    1.0636568   -6.2988235    519.27667    0.0348134  0.035495901            8 
 1244000    1.0400726   -6.2622654    520.36968  0.034858633  0.035486082            6 
 1245000    1.0646826     -6.29278    522.26854  0.034957734  0.035476435            4 
 1246000    1.0399349   -6.3134716    521.41475  0.034872576   0.03546688            7 
 1247000    1.0666906   -6.2671078    523.14226  0.034960055  0.035457484            5 
 1248000    1.0513958   -6.2765887    522.70716  0.034902989  0.035448191            4 
 1249000    1.0600421   -6.2901242    523.36865  0.034919179  0.035438715            4 
 1250000    1.0383891   -6.2873076     522.3655  0.034824366  0.035429265            5 
 1251000    1.0735374   -6.2870245    523.96733  0.034903233  0.035419685            4 
 1252000    1.0517593   -6.2948778     524.9039  0.034937693   0.03541007            8 
 1253000     1.031137   -6.2828863    524.45073  0.034879671  0.035400662            5 
 1254000    1.0386778   -6.3205708    524.07375  0.034826804  0.035391428            5 
 1255000    1.0743237   -6.2863486    524.57189  0.034832131  0.035381997            2 
 1256000    1.0452252    -6.305069    525.64623  0.034875679  0.035372462            5 
 1257000    1.0543419   -6.2816178    526.53404  0.034906791  0.035363044            3 
 1258000     1.070601   -6.3059029    527.01465   0.03491088  0.035353789            3 
 1259000    1.0557845   -6.2968547    527.06331  0.034886372  0.035344493            3 
 1260000    1.0454269   -6.3093959    526.58782  0.034827237  0.035335033            7 
 1261000    1.0429005    -6.327051    526.88315  0.034819135  0.035325855            8 
 1262000    1.0600349   -6.3039745     527.9614  0.034862744  0.035316716            3 
 1263000    1.0618148   -6.2982869      528.427  0.034865862  0.035307674            4 
 1264000    1.0425278   -6.2840338    528.49947  0.034843056  0.035298549            6 
 1265000    1.0321628   -6.3167599    528.72945  0.034830662  0.035289467            5 
 1266000    1.0620093   -6.2805288    529.43409  0.034849532  0.035280276            3 
 1267000    1.0490138   -6.2776129    530.43408  0.034887798  0.035271221            7 
 1268000    1.0220899   -6.3214131    530.51153  0.034865374  0.035262142            4 
 1269000    1.0358689   -6.3018191    529.72309  0.034786123  0.035252939            4 
 1270000    1.0705642   -6.2795624    531.59244  0.034881393  0.035244018            2 
 1271000     1.027637   -6.2686816    530.94099  0.034811237  0.035235001            2 
 1272000    1.0422272   -6.3122781    532.08923  0.034859095  0.035225989            4 
 1273000    1.0685723   -6.2756817    532.69731  0.034871518  0.035217133            4 
 1274000    1.0415872    -6.313894     530.6413  0.034709661  0.035208182            5 
 1275000    1.0569486   -6.3201107     530.7331  0.034688438    0.0351991            4 
 1276000    1.0441648   -6.2713343    532.98392  0.034808249  0.035190099            2 
 1277000    1.0620623   -6.3585337    532.57331  0.034754197  0.035181186            4 
 1278000    1.0373391    -6.282865     534.0544  0.034823579  0.035172273            5 
 1279000     1.053085   -6.2667265    533.48477  0.034759237  0.035163333            5 
 1280000    1.0519559   -6.3038368    534.45965   0.03479555  0.035154453            4 
 1281000    1.0416003   -6.2979087     533.1822  0.034685285  0.035145615           10 
 1282000    1.0425793    -6.294866    534.53527  0.034746182  0.035136877            8 
 1283000    1.0426693   -6.2996666    536.67508  0.034858085  0.035128159            3 
 1284000    1.0244867   -6.3239895    536.24884  0.034803273  0.035119525            6 
 1285000    1.0323708   -6.2864231     537.1774  0.034836407  0.035110841            5 
 1286000     1.078412   -6.3144917    536.92664  0.034793069  0.035102157            4 
 1287000    1.0546821   -6.3177226    536.80953  0.034758452  0.035093638            8 
 1288000    1.0604504   -6.3054327       537.67  0.034787138  0.035085061            4 
 1289000    1.0353506    -6.287435    537.79995  0.034768551  0.035076625            2 
 1290000    1.0356095   -6.3054074    537.04324  0.034692716  0.035068093            3 
 1291000     1.028019   -6.2856765     537.2429  0.034678731  0.035059459            3 
 1292000     1.044602   -6.3118838    538.26349  0.034717717  0.035050806            8 
 1293000    1.0388346   -6.3310548    539.90493  0.034796657  0.035042297            5 
 1294000    1.0831605   -6.2860138    539.75805  0.034760307  0.035033805            3 
 1295000    1.0470387   -6.2686224    539.30885  0.034704559  0.035025449            9 
 1296000    1.0462332   -6.3218009    538.76323  0.034642698  0.035017033            6 
 1297000    1.0710296   -6.2921372    540.24009  0.034710877  0.035008588            3 
 1298000     1.058134   -6.3048945    540.02144  0.034670098  0.035000145            7 
 1299000    1.0630272   -6.2964521     542.1927  0.034782698  0.034991632            7 
 1300000    1.0410916   -6.3256574    540.84235  0.034669381  0.034983085            7 
 1301000    1.0429147   -6.2850938    541.16284  0.034663261  0.034974495            8 
 1302000    1.0213552   -6.2969574    541.79797   0.03467729  0.034966034            4 
 1303000      1.02253   -6.2911817    540.53413  0.034569847  0.034957454            4 
 1304000    1.0335542   -6.3281038    541.19097  0.034585312  0.034948791            5 
 1305000    1.0501897   -6.3256284    542.24075  0.034625846  0.034940146            7 
 1306000    1.0264797   -6.3450332      543.068  0.034652119  0.034931536            4 
 1307000    1.0431991   -6.3282195    542.30329  0.034576848  0.034922922           12 
 1308000    1.0397476   -6.3105817     544.3027  0.034677797  0.034914506            4 
 1309000    1.0297936   -6.2856431    544.37497  0.034655906  0.034906041            6 
 1310000    1.0243231   -6.3194527     543.5849  0.034579192  0.034897489            4 
 1311000     1.051402   -6.3143118    544.28915  0.034597582  0.034888928            3 
 1312000    1.0463866   -6.2623305    545.21887  0.034630264  0.034880328            5 
 1313000     1.031081    -6.270171    545.34899  0.034612147  0.034871826            4 
 1314000    1.0673454   -6.3485811    545.64766  0.034604748  0.034863331            8 
 1315000    1.0421134   -6.3002679    545.91065  0.034595098  0.034854697            5 
 1316000    1.0469505   -6.3227432    546.02805  0.034576244  0.034846136            3 
 1317000    1.0435157   -6.2932464    546.56128  0.034583731  0.034837591            5 
 1318000    1.0403938   -6.2750114    547.71931   0.03463071  0.034829196            4 
 1319000    1.0260177    -6.311143    546.70682  0.034540487  0.034820854            4 
 1320000    1.0398029   -6.3418314     546.5112   0.03450197  0.034812351            6 
 1321000    1.0515182   -6.2590407    550.05021  0.034699105   0.03480417            4 
 1322000    1.0448165   -6.3194189    547.24809  0.034496223  0.034795973            7 
 1323000    1.0598725    -6.337816    547.88873  0.034510502  0.034787788            3 
 1324000    1.0397437   -6.2886489    549.92161  0.034612387  0.034779564            5 
 1325000    1.0460044   -6.3403403    549.07396  0.034532953  0.034771494            3 
 1326000    1.0253419   -6.3272568    550.35299  0.034587292  0.034763517            5 
 1327000    1.0393693   -6.3426809    549.30577  0.034495464   0.03475529            4 
 1328000    1.0298302   -6.3220687    550.38331  0.034537105  0.034746937            4 
 1329000    1.0500289   -6.3308948    549.20921  0.034437498   0.03473881            7 
 1330000    1.0257943   -6.2701877    551.21181  0.034537081  0.034730587            5 
 1331000    1.0316547   -6.3285144    550.94813  0.034494624  0.034722429            3 
 1332000    1.0308862   -6.3490649    551.12269  0.034479648  0.034714276            6 
 1333000    1.0532847   -6.3015338    551.33594  0.034467113  0.034706014            6 
 1334000    1.0169546   -6.3318436    552.64193  0.034522859  0.034697768            5 
 1335000    1.0496071   -6.3219408    551.59811  0.034431842  0.034689495            3 
 1336000    1.0425565   -6.3160065     552.1383  0.034439764  0.034681239            6 
 1337000    1.0419715   -6.3315863    553.95648   0.03452733  0.034672993            7 
 1338000    1.0461421    -6.309685    554.05885  0.034507901  0.034664886            3 
 1339000    1.0263692   -6.3187903    552.41267  0.034379678  0.034656686            4 
 1340000    1.0413692   -6.3081269     553.7624   0.03443796    0.0346485            4 
 1341000    1.0354552   -6.3073347    554.90739  0.034483432   0.03464039            5 
 1342000    1.0267525   -6.3423993    555.24202  0.034478516  0.034632275            4 
 1343000    1.0346591   -6.3588174    553.77189  0.034361621  0.034624017            4 
 1344000    1.0452246   -6.2902864    553.98435  0.034349228  0.034615609            4 
 1345000    1.0530705   -6.3180924     556.0536  0.034451896  0.034607351            4 
 1346000    1.0440805   -6.3448324    553.97046  0.034297329  0.034599033            5 
 1347000    1.0272246   -6.3376857    555.39999  0.034360306  0.034590914            7 
 1348000    1.0477063   -6.3246595    555.65714  0.034350714   0.03458296            4 
 1349000    1.0456895    -6.297096    556.93019  0.034403891  0.034574901            4 
 1350000    1.0376583   -6.3016676    556.08962   0.03432652  0.034566797            6 
 1351000    1.0175212   -6.3353563    556.43562  0.034322454   0.03455857            8 
 1352000    1.0441363   -6.2859775      557.526  0.034364275  0.034550496            2 
 1353000    1.0503314    -6.319642    557.32232  0.034326332  0.034542322            8 
 1354000    1.0384515   -6.3365344    557.53061    0.0343138  0.034534238           11 
 1355000    1.0378032   -6.3331495    557.25101   0.03427128  0.034525946            6 
 1356000    1.0363822   -6.3159014    556.84936  0.034221323  0.034517818            4 
 1357000    1.0252284   -6.3610755    558.92525  0.034323585  0.034509691            3 
 1358000    1.0160465   -6.3334664    559.84181  0.034354554  0.034501478           10 
 1359000    1.0646061   -6.2970633    559.66309  0.034318316  0.034493403            5 
 1360000    1.0575447   -6.3071515    560.10925   0.03432042  0.034485253            5 
 1361000    1.0268048   -6.3320335    558.13972  0.034174609  0.034477038            7 
 1362000    1.0385395   -6.3382936    558.73335  0.034185839  0.034468792            8 
 1363000    1.0396217   -6.3319105    559.76881  0.034224065  0.034460391            5 
 1364000     1.042832   -6.3266771    559.83667   0.03420312  0.034452201            5 
 1365000    1.0202968   -6.3373933    560.94048   0.03424545  0.034443968            4 
 1366000    1.0291914   -6.2834062     561.7812  0.034271669  0.034435579            4 
 1367000     1.036833   -6.3242928    561.70419  0.034241904  0.034427333            6 
 1368000    1.0052341   -6.3324886    561.31251  0.034193014  0.034418999            7 
 1369000    1.0156824   -6.3381337    561.59723  0.034185368  0.034410802            4 
 1370000     1.058715   -6.3018957    563.42608   0.03427166  0.034402647            3 
 1371000    1.0179963   -6.2980466    561.34189  0.034119979  0.034394437            4 
 1372000    1.0347595   -6.3849276     560.9092  0.034068829  0.034385905            4 
 1373000    1.0192832   -6.3442829    562.01236  0.034110971  0.034377559            3 
 1374000   0.99580064   -6.3205532    561.96813  0.034083463  0.034369316            7 
 1375000     1.031962   -6.3325261    562.95381  0.034118413  0.034361106            7 
 1376000    1.0080969   -6.3529662    564.87823  0.034210164  0.034352889            5 
 1377000    1.0231471   -6.3111011    565.09597  0.034198497  0.034344681            2 
 1378000    1.0268046    -6.317863    565.73399  0.034212264  0.034336642            5 
 1379000    1.0377803   -6.3204623    566.24026  0.034218048  0.034328695            4 
 1380000    1.0568696   -6.3688651     564.9014  0.034112403  0.034320656            3 
 1381000    1.0312382    -6.352034    566.38946  0.034177496  0.034312446            4 
 1382000    1.0206694   -6.2864752    565.28497  0.034086165   0.03430439            3 
 1383000      1.01207   -6.3265148    565.34861  0.034065354  0.034296474            5 
 1384000    1.0167022   -6.3370363    566.38015  0.034102851  0.034288242            5 
 1385000    1.0200527   -6.3236548    564.96526  0.033993096  0.034280099            4 
 1386000    1.0303246   -6.2894552    565.45208   0.03399784  0.034271989            8 
 1387000    1.0247103    -6.341312    566.00466  0.034006529  0.034263789            8 
 1388000    1.0605379   -6.3173597    566.38159  0.034004658  0.034255645            7 
 1389000     1.038109   -6.3488404    567.49862  0.034047194  0.034247556            4 
 1390000    1.0192626    -6.360539    569.85876  0.034164194  0.034239642            2 
 1391000    1.0559799     -6.31774    568.67347  0.034068624  0.034231804            8 
 1392000    1.0281814   -6.3099133    569.07443  0.034068153  0.034223892            2 
 1393000    1.0322212   -6.3100762    568.15626  0.033988769  0.034215905            9 
 1394000    1.0382563   -6.3023026    570.53643  0.034106673  0.034208009            6 
 1395000    1.0042932   -6.3536255    569.59597  0.034026043  0.034199991            8 
 1396000     1.024152   -6.3791026    566.78667   0.03383397   0.03419168            6 
 1397000   0.98753093    -6.349646    568.53865   0.03391426  0.034183314            4 
 1398000    1.0348055   -6.3786625    567.84967  0.033848931  0.034174924            9 
 1399000     1.049566   -6.3105985    568.80861  0.033881857  0.034166521            4 
 1400000    1.0316179   -6.3653487    569.87491  0.033921125  0.034158264            4 
 1401000    1.0197121   -6.3176284    569.01375   0.03384569  0.034150184            8 
 1402000    1.0398669   -6.3541048    569.58851  0.033855713  0.034142015            5 
 1403000    1.0388653   -6.3479576    569.99724  0.033855859   0.03413362            2 
 1404000    1.0386713   -6.3304553    569.35117  0.033793398  0.034125228            6 
 1405000    1.0223563   -6.3311352    570.90648  0.033861594  0.034116712            3 
 1406000    1.0224046   -6.3548902    571.65051  0.033881609  0.034108491            7 
 1407000    1.0292072   -6.3513803    572.69744  0.033919535  0.034100327            4 
 1408000    1.0198245   -6.3104929    572.76636  0.033899524  0.034092162            8 
 1409000    1.0126738   -6.3340791    571.54198   0.03380305   0.03408385            3 
 1410000    1.0195662   -6.3403848    571.95193  0.033803305  0.034075622            5 
 1411000    1.0268035   -6.3234672    571.93196  0.033778169   0.03406727            7 
 1412000    1.0228156   -6.3481645    573.24211  0.033831569  0.034058957            4 
 1413000    1.0062656    -6.359678    574.83765  0.033901725  0.034050741            6 
 1414000    1.0209552   -6.3182501    572.74114  0.033754193  0.034042406           10 
 1415000    1.0532788   -6.3254776    573.50258  0.033775182  0.034034084            7 
 1416000    1.0401758   -6.3455197    574.16503  0.033790315  0.034025733            8 
 1417000    1.0332185    -6.339031    574.84343  0.033806365  0.034017375            6 
 1418000    1.0490161   -6.3737154     575.3447  0.033811983  0.034008919            5 
 1419000    1.0091562   -6.3550639    575.42139  0.033792659  0.034000535            4 
 1420000   0.98727168   -6.3648661    575.10678  0.033750398  0.033992242            3 
 1421000    1.0450548    -6.348339    576.08717  0.033784141   0.03398391            9 
 1422000    1.0417708    -6.332599    575.94349  0.033751962  0.033975569            6 
 1423000    1.0106877   -6.3145446    577.32704  0.033809267  0.033967259            6 
 1424000    1.0000177    -6.365522     574.5786  0.033624684  0.033958881            5 
 1425000    1.0376337   -6.3378814    576.68264  0.033724131  0.033950364            7 
 1426000    1.0245126    -6.344137    577.47359  0.033746703     0.033942            3 
 1427000    1.0266134   -6.3680554    577.58974  0.033729837  0.033933681            4 
 1428000    1.0307116   -6.3384725    577.95128  0.033727316  0.033925503            6 
 1429000    1.0331489    -6.332492    578.99455  0.033764553    0.0339173            3 
 1430000     1.029691   -6.3278638     576.9895  0.033624097  0.033909052            5 
 1431000    1.0236908   -6.3561136    576.02097  0.033544198  0.033900847            5 
 1432000    1.0327243   -6.3725638    578.85488  0.033685689  0.033892403            5 
 1433000    1.0177738   -6.3859165    578.73616  0.033655278  0.033884038            7 
 1434000    1.0348265   -6.3562042    578.65498  0.033627091  0.033875554            9 
 1435000    1.0560283   -6.3206674    577.58042  0.033541255  0.033867013            5 
 1436000    1.0116163   -6.3638621    579.10186   0.03360619  0.033858569            7 
 1437000    1.0222047   -6.3851765    578.61739  0.033554708  0.033849951            7 
 1438000     1.033719   -6.3310128    578.72634  0.033537688  0.033841245            6 
 1439000     1.030202   -6.3498909    579.92298   0.03358368  0.033832651            3 
 1440000    1.0102287   -6.3608402    580.23248  0.033578268  0.033824104            6 
 1441000    1.0111785   -6.3831532    578.86767  0.033476039  0.033815437            3 
 1442000    1.0276912   -6.3390782    579.28663  0.033477036  0.033806867            6 
 1443000     1.026066   -6.3864547     579.4984  0.033466066  0.033798372            6 
 1444000    1.0071298   -6.3181006    583.02639  0.033646491  0.033789986            6 
 1445000   0.99385875   -6.3250402    581.33573  0.033525705  0.033781495           10 
 1446000    1.0370435   -6.3286398    582.43411   0.03356582   0.03377292            6 
 1447000    1.0175367   -6.3607489    583.40156  0.033598339  0.033764519            4 
 1448000    1.0287729   -6.3715902      582.456  0.033520718   0.03375617            6 
 1449000    1.0187128     -6.37455    581.20746   0.03342578   0.03374777            4 
 1450000   0.99003962   -6.3529467    584.24591  0.033577351  0.033739321            5 
 1451000    1.0325211   -6.3507363    584.04129  0.033542459  0.033731029            3 
 1452000    1.0309278   -6.3463114    584.52481  0.033547108  0.033722789            5 
 1453000    1.0305267   -6.3434887    583.94622  0.033490836  0.033714512            4 
 1454000     1.012193    -6.350184    584.21482  0.033483197  0.033706097           13 
 1455000    1.0189473   -6.3523388    585.53696  0.033535909  0.033697944           11 
 1456000    1.0256898   -6.3349606     584.5663  0.033457321  0.033689803            4 
 1457000    1.0121125   -6.3630427    583.52627  0.033374872  0.033681557           15 
 1458000       1.0176   -6.3564372     585.5337  0.033466718   0.03367337            3 
 1459000    1.0266928   -6.3630266    585.47009  0.033440147  0.033665244            8 
 1460000    1.0232732   -6.3502921    586.77013  0.033491446  0.033657075            4 
 1461000    1.0271052   -6.3905295    586.35003   0.03344456  0.033648941            6 
 1462000    1.0227634   -6.3891691     587.2388  0.033472344  0.033640823           10 
 1463000    1.0372684   -6.3612516    586.74136   0.03342113  0.033632794            6 
 1464000    1.0214587   -6.3336769     588.0666  0.033473736  0.033624788            5 
 1465000     1.033506   -6.3661799    587.58887  0.033423713  0.033616792            5 
 1466000    1.0036103   -6.3631361    589.25791  0.033495789  0.033608702            7 
 1467000    1.0054687    -6.358115    588.10762  0.033407613  0.033600599            4 
 1468000     1.022839   -6.3698936     588.7054  0.033418789  0.033592434            7 
 1469000    1.0112704   -6.3151611    587.88454  0.033349475  0.033584291            4 
 1470000   0.99988633   -6.3260739    588.74951  0.033375822  0.033576133            5 
 1471000    1.0270685   -6.3568066    589.42778  0.033391558  0.033567889            6 
 1472000     1.004753   -6.3331997    589.11456  0.033351141  0.033559683            4 
 1473000    1.0197604   -6.3404541    591.11024  0.033441403  0.033551615            4 
 1474000    1.0172082    -6.346847    588.59072  0.033276273  0.033543562            3 
 1475000    1.0244559   -6.3736895    589.36834  0.033297646   0.03353541           11 
 1476000    1.0236881   -6.3645855    589.48321  0.033281572  0.033527204            7 
 1477000    1.0275864   -6.3550156    593.16716   0.03346689  0.033518982            6 
 1478000    1.0026919   -6.3657919    591.35677  0.033342172  0.033510823            7 
 1479000    1.0043023   -6.3314886    591.43548  0.033324063  0.033502738            3 
 1480000    1.0300025   -6.3629464    592.70023  0.033372761  0.033494559            6 
 1481000    1.0204768   -6.3787317    591.30099  0.033271494  0.033486328            5 
 1482000    1.0209659   -6.3450458     592.0335  0.033290233  0.033478056            8 
 1483000    1.0071451   -6.3459821    594.59439  0.033411687  0.033469744            6 
 1484000    1.0165224   -6.3584578    592.80012  0.033288417  0.033461619            5 
 1485000    1.0146223   -6.3254647    593.71701  0.033317453  0.033453499            4 
 1486000    1.0061683   -6.3473337    593.45438  0.033280304  0.033445442            7 
 1487000    1.0188881   -6.3506932    594.55286  0.033319483  0.033437353            7 
 1488000    1.0142735   -6.3553492     595.4313  0.033346287  0.033429166           11 
 1489000    1.0348046   -6.3724138    592.88856  0.033181585  0.033420732            3 
 1490000   0.99525995   -6.3551591    591.90041   0.03310405  0.033412321            6 
 1491000    1.0365328   -6.3095582    593.22436  0.033155844  0.033403896            4 
 1492000    1.0264721   -6.3427717    591.86257  0.033057561  0.033395458            3 
 1493000   0.98789128   -6.3649667    591.15885   0.03299614  0.033386778            4 
 1494000    1.0274838   -6.3161796    595.88052  0.033237423  0.033378293            7 
 1495000    1.0231971   -6.3595031    593.33158  0.033073109  0.033369742            4 
 1496000    1.0107616   -6.3558298    593.93333  0.033084521  0.033361181            3 
 1497000     1.024261   -6.3544508    594.80508  0.033110949  0.033352529            5 
 1498000   0.99834757   -6.3562733    595.12543  0.033106666  0.033343977            7 
 1499000    1.0148524   -6.3713578    595.82462   0.03312345  0.033335419            7 
 1500000    1.0187188   -6.3913339    596.23042  0.033123912  0.033326911            4 
 1501000    1.0029011   -6.3369512    597.46912  0.033170615  0.033318441            5 
 1502000    1.0105629   -6.3630798    595.32871  0.033029778  0.033310137            3 
 1503000    1.0056929   -6.3603034     597.1616  0.033109425    0.0333017            6 
 1504000    1.0258705   -6.3118154    598.06416   0.03313742  0.033293542            5 
 1505000    1.0387776   -6.3850176    596.62213  0.033035556  0.033285386            4 
 1506000    1.0151855   -6.3353339    597.87544   0.03308297  0.033277166           11 
 1507000    1.0067273   -6.3953587    598.37537  0.033088662  0.033268961            9 
 1508000    1.0379905   -6.3452554    599.22905  0.033113895  0.033260612            5 
 1509000    1.0100725   -6.4128137    598.16827  0.033033371  0.033252179            5 
 1510000    1.0015925   -6.3643652    599.04257  0.033059745  0.033243712            5 
 1511000    1.0215443   -6.3693364    598.78747  0.033023796  0.033235463            3 
 1512000      1.00343   -6.3785007    599.78908  0.033057158  0.033227257            4 
 1513000   0.99904636   -6.3945526    599.31173  0.033009018  0.033219005            4 
 1514000    1.0230589   -6.4029392    598.99377  0.032969714  0.033210669            4 
 1515000   0.98234342   -6.3550802    600.91956  0.033053881  0.033202469            8 
 1516000    1.0003107    -6.333549    600.72859   0.03302158  0.033194394            7 
 1517000    1.0043796    -6.381424    600.50235  0.032987384   0.03318631            6 
 1518000    1.0030672   -6.4050411    600.02447   0.03293942  0.033178177            5 
 1519000    1.0231051   -6.3658162    601.90089  0.033020676  0.033170111           11 
 1520000   0.99458204   -6.3739636    602.81499  0.033049068  0.033162029            6 
 1521000   0.99147431   -6.3831933    603.26703  0.033052106  0.033154118            2 
 1522000    1.0076992   -6.3326546    603.95464  0.033068037  0.033146187            4 
 1523000    1.0011138   -6.3907899    601.64105  0.032919734  0.033138334            8 
 1524000    1.0178219   -6.3593642     603.4933  0.032999415  0.033130497            3 
 1525000   0.98120045   -6.3544875    605.17549  0.033069699  0.033122578            3 
 1526000      1.03376   -6.3518473    605.39202  0.033059853  0.033114778            2 
 1527000   0.99207457   -6.3916219     604.8156  0.033006745  0.033107069            6 
 1528000   0.99781488   -6.4080669    605.65402   0.03303087  0.033099169            5 
 1529000    1.0114598    -6.375687    606.29524  0.033044214  0.033091372            6 
 1530000    1.0043871   -6.3710531    605.05342  0.032954979  0.033083546            7 
 1531000    1.0141082   -6.4023088    604.78978  0.032919104   0.03307568           21 
 1532000    1.0087379   -6.3491821    606.72018  0.033002621  0.033067845            9 
 1533000    1.0032087   -6.3921366    604.84997  0.032879429  0.033060065           11 
 1534000    1.0255635   -6.3824097    606.15927  0.032929122  0.033052246           10 
 1535000    1.0128638   -6.3492499    607.54386  0.032982837  0.033044427            4 
 1536000    1.0062437   -6.3923334    607.27068  0.032946543  0.033036741            7 
 1537000   0.98905973    -6.384697    606.99931  0.032910394  0.033029027           10 
 1538000    1.0149486   -6.3784676    609.62649  0.033031344  0.033021319            7 
 1539000   0.99770014   -6.4085873    609.28061  0.032991153  0.033013751            3 
 1540000    1.0109103   -6.3810848    608.83113  0.032945408  0.033006232            7 
 1541000    1.0194314   -6.3754314    610.46512   0.03301239  0.032998749            6 
 1542000    1.0098062   -6.4057779    609.27106  0.032926451  0.032991153            5 
 1543000    1.0176791   -6.3817396    610.66448  0.032980367  0.032983538           11 
 1544000    0.9820912   -6.3922924    609.49586  0.032895934  0.032975793            5 
 1545000    1.0036048   -6.3778163    609.62752  0.032881743  0.032968114            8 
 1546000    1.0094006   -6.3618663    612.13926  0.032995864  0.032960453            5 
 1547000   0.99003092   -6.4238054    610.62408  0.032892915  0.032952769           11 
 1548000    1.0294228   -6.3992724    609.89605  0.032832475  0.032945049            5 
 1549000   0.97508268   -6.3379905    612.85911  0.032970686  0.032937546            6 
 1550000    1.0056315   -6.3826784    611.84842  0.032895076  0.032930091            4 
 1551000    1.0125194   -6.3645706    612.08543  0.032886602  0.032922382            2 
 1552000   0.99717393   -6.3626261    610.80991  0.032796924  0.032914715           10 
 1553000    1.0029346   -6.4150509    611.97776  0.032838472  0.032906949            7 
 1554000    1.0082519   -6.3642645     610.8903  0.032759025  0.032899214            7 
 1555000    0.9951866   -6.3932268    613.24946  0.032864387  0.032891487           17 
 1556000     1.000288   -6.3678203    613.03942  0.032832017  0.032883715            6 
 1557000   0.99175617   -6.4184039    610.85018  0.032693758  0.032875904            5 
 1558000   0.98003282   -6.3874842    615.26286  0.032908797  0.032868085            5 
 1559000    1.0169859   -6.3501424    614.27721  0.032835002  0.032860391            4 
 1560000   0.99038582   -6.3579162    615.44989  0.032876597  0.032852775            7 
 1561000   0.98328149   -6.3772583    613.13875  0.032732156   0.03284503            5 
 1562000    1.0159153   -6.3612056     614.4718  0.032782319  0.032837246           10 
 1563000   0.99225393   -6.3617009    615.06792  0.032793128  0.032829586            4 
 1564000    1.0095391   -6.3972058    614.68052   0.03275152  0.032821841            5 
 1565000    1.0112955    -6.363068     617.1555   0.03286238  0.032814124            4 
 1566000   0.99224935   -6.3951482    615.64409  0.032760967  0.032806553            4 
 1567000   0.98062689   -6.4054206    615.09712  0.032710972  0.032798839            3 
 1568000   0.98361664    -6.364034    616.38867  0.032758751  0.032791086            9 
 1569000    1.0031932    -6.386332    616.58086  0.032748081  0.032783361            5 
 1570000   0.98421311   -6.3784188    615.15736  0.032651665  0.032775526            5 
 1571000   0.99269804   -6.3838173    615.71355  0.032660383  0.032767763           15 
 1572000    1.0155685   -6.3777035    616.59737  0.032686459  0.032759915            7 
 1573000    1.0015417   -6.3809425    618.66395  0.032775161  0.032752142            4 
 1574000    1.0352248   -6.3955438    616.54024  0.032641902  0.032744484            7 
 1575000    1.0099024   -6.3607396    617.78874  0.032687235  0.032736721            4 
 1576000   0.98266057    -6.417219     617.0371   0.03262675  0.032728985            4 
 1577000    1.0125065   -6.3993354     617.2343  0.032616482  0.032721201           10 
 1578000   0.99826565   -6.4257798     617.6546  0.032618008  0.032713376            5 
 1579000   0.98813246   -6.4078349    617.51052  0.032589747  0.032705509            4 
 1580000   0.99421294   -6.3824959    618.21874  0.032606473  0.032697688            4 
 1581000    0.9771461   -6.3935599    618.28313  0.032589244  0.032689872            5 
 1582000    1.0093922   -6.3976861    619.00972  0.032606917  0.032682055            5 
 1583000    1.0014856   -6.3837497    620.08038  0.032642682  0.032674371            6 
 1584000   0.97436658   -6.3758731    620.24704  0.032630842  0.032666736            5 
 1585000    1.0037641   -6.3510759    621.65998  0.032684542  0.032659105            9 
 1586000   0.99231617   -6.3853066    620.70726  0.032613874  0.032651446            4 
 1587000    1.0035471   -6.4295739    621.83348  0.032652462  0.032643758            6 
 1588000   0.98186952   -6.3821771    622.27099  0.032654859  0.032636111            7 
 1589000    0.9983636   -6.3929713    621.31334  0.032584085  0.032628439            3 
 1590000   0.99469421   -6.3822192    620.53563  0.032522832  0.032620778            4 
 1591000    1.0060439   -6.4102199    619.98819  0.032473716  0.032612994            5 
 1592000    1.0040926    -6.370415    621.38328  0.032526344  0.032605235            3 
 1593000    1.0068472   -6.3798318    621.37739  0.032505618  0.032597473            2 
 1594000   0.99197601   -6.4085061    621.06444  0.032468864  0.032589642            4 
 1595000   0.99231415    -6.390635    621.79579  0.032486718  0.032581695           12 
 1596000   0.99302344   -6.3853454    620.53451  0.032400507  0.032573896            5 
 1597000   0.98802311   -6.4230442    621.09403  0.032409415  0.032565982            8 
 1598000   0.99105928   -6.3953572    620.86199  0.032377033  0.032558002            6 
 1599000   0.98908175     -6.38478    625.00085  0.032572485  0.032550081            3 
 1600000   0.97843156   -6.4103389    621.95515  0.032393497  0.032542123            6 
 1601000    0.9800103   -6.4116436    621.78958  0.032364646  0.032534116            4 
 1602000   0.99171534   -6.4160668    621.17977  0.032312722   0.03252605            7 
 1603000   0.98472912   -6.3666684    623.14899  0.032394936  0.032517947            4 
 1604000   0.98811026   -6.3916768    622.27042  0.032329095  0.032509817            7 
 1605000    1.0044432   -6.3789786    622.04314  0.032297152  0.032501733            3 
 1606000   0.97692617   -6.4057178    621.55009  0.032251458  0.032493568            3 
 1607000   0.98720477   -6.4129369    621.91053   0.03225008  0.032485318            5 
 1608000    1.0109415   -6.4220272    622.02822  0.032236123  0.032476991            4 
 1609000    1.0117701   -6.4042444    623.00559  0.032266708  0.032468881            6 
 1610000   0.99218475   -6.4065643    623.58943  0.032276886  0.032460648            9 
 1611000   0.99996466   -6.4155518    622.33752  0.032192092  0.032452517            5 
 1612000   0.97827022   -6.4036037    623.01731  0.032207264   0.03244433            5 
 1613000   0.98829521   -6.4085757     622.9133  0.032181923   0.03243606            7 
 1614000     1.009505   -6.3580149    624.51354  0.032244607  0.032427746            5 
 1615000    1.0144463   -6.4067136    625.98774  0.032300709  0.032419472            6 
 1616000    1.0192123   -6.4448436    623.09251   0.03213142   0.03241112           10 
 1617000   0.98413873   -6.3979223    626.46872  0.032285545  0.032402762            6 
 1618000    0.9683868   -6.3976895    623.26479  0.032100576  0.032394447            6 
 1619000    1.0055558   -6.4325721    623.70221  0.032103264  0.032386026           24 
 1620000   0.99327879    -6.384687    626.77596  0.032241562  0.032377679           12 
 1621000   0.99269515   -6.4258723    623.43112  0.032049718  0.032369279            7 
 1622000   0.97630817   -6.4005839    625.93063  0.032158376  0.032360968            5 
 1623000    1.0094672   -6.4080913    625.49202  0.032116041  0.032352535            6 
 1624000   0.98214048   -6.3816745    626.22981  0.032134124  0.032344369            5 
 1625000   0.99024589   -6.3986349    626.95018  0.032151292   0.03233624            4 
 1626000   0.98372229   -6.3986952    628.01352  0.032186015  0.032328061            9 
 1627000   0.99621602   -6.4315374    627.91929  0.032161406  0.032319968            2 
 1628000   0.99610676   -6.3946778    626.27708   0.03205759  0.032311785            6 
 1629000   0.97226473   -6.4171388    629.96097  0.032226364  0.032303602            5 
 1630000   0.97376341   -6.3998797    629.97086  0.032207099  0.032295499            9 
 1631000   0.96547999    -6.446931    626.16828  0.031993066  0.032287285           10 
 1632000   0.98699028   -6.3893687    629.55847  0.032146572  0.032279203            7 
 1633000    1.0029788   -6.4225756    629.11721  0.032104369  0.032271118            6 
 1634000    1.0229129   -6.4280807    630.89432  0.032175353  0.032263169            7 
 1635000   0.96402529   -6.4034913    630.13457  0.032116951  0.032255142            8 
 1636000   0.99838725   -6.4222335    629.79355  0.032079948  0.032247117            7 
 1637000   0.97750152   -6.3924165    631.61102  0.032152872   0.03223911            4 
 1638000   0.99819518    -6.370509     632.2727  0.032166906  0.032231159            4 
 1639000    1.0029182   -6.3833038       632.57  0.032162396  0.032223148            3 
 1640000    1.0028248   -6.4116864    630.83259  0.032054501  0.032215229            3 
 1641000   0.98966232   -6.4088468    632.85005  0.032137419  0.032207173            4 
 1642000   0.98434624   -6.4004357    632.12256  0.032080926  0.032199056            9 
 1643000   0.98460375   -6.3612094    633.87352  0.032150209  0.032191209            7 
 1644000   0.98583929   -6.4388053    631.61674  0.032016258   0.03218322            9 
 1645000   0.97962959   -6.3864197    634.15669  0.032125466  0.032175355            4 
 1646000   0.99414969   -6.4631262    633.47912  0.032071644  0.032167352            5 
 1647000   0.96728683   -6.4097338    632.00986  0.031977831  0.032159324            5 
 1648000   0.98371995    -6.424902     632.7712  0.031996926  0.032151265            3 
 1649000   0.99193417   -6.3802041    632.56374  0.031967037  0.032143237            5 
 1650000   0.97917328   -6.3914424    635.64853  0.032103461  0.032135226            6 
 1651000   0.98896968   -6.3883641    635.10752  0.032056709  0.032127218           14 
 1652000   0.97882484     -6.39872    635.32576  0.032048313  0.032119196            7 
 1653000     1.003011   -6.4172093    634.53622  0.031989122  0.032111093            9 
 1654000    1.0026046   -6.3987646    634.59106  0.031972545  0.032103007            9 
 1655000   0.99597918   -6.4122403    634.28899  0.031938016  0.032094954            6 
 1656000   0.96147411   -6.4207941    634.27335  0.031917942  0.032086882            5 
 1657000    0.9777737   -6.4251865    634.50226  0.031910192  0.032078694            8 
 1658000   0.95914588   -6.4176303    632.88538  0.031809679  0.032070506            5 
 1659000   0.96535361   -6.3970604    635.72254  0.031933019  0.032062329            4 
 1660000    1.0150039   -6.4189411    635.28399  0.031891766  0.032054169            7 
 1661000    1.0055994   -6.4035619    634.48266  0.031832363   0.03204611            5 
 1662000    0.9945214   -6.4268993    636.16155   0.03189739  0.032038026            4 
 1663000   0.99772392   -6.4038418    635.90743  0.031865475      0.03203            4 
 1664000   0.99035074   -6.4321522    635.45204   0.03182352  0.032021979            6 
 1665000   0.98561545   -6.4123711    638.39291  0.031951597  0.032013982           10 
 1666000   0.97537495   -6.4301003    639.01314  0.031963443  0.032006092            8 
 1667000   0.97030044   -6.4250795    637.18283  0.031852771  0.031998094            6 
 1668000   0.96381848   -6.4099158    637.03469  0.031826274  0.031990025           12 
 1669000   0.99158734   -6.3763572    637.01695  0.031806319  0.031981941            5 
 1670000   0.97766359   -6.4023129    638.26619  0.031849611   0.03197377           11 
 1671000   0.98848876   -6.4202057    639.92426  0.031913239  0.031965718            5 
 1672000   0.98658809   -6.4472796    638.70047  0.031833157   0.03195776            4 
 1673000   0.98470938   -6.4049549    639.78555  0.031868179  0.031949598            6 
 1674000   0.97473099     -6.43742     639.1689  0.031818444  0.031941482            6 
 1675000   0.97436216    -6.417101     638.3344   0.03175793  0.031933432            3 
 1676000   0.97042386   -6.4009884    639.69599  0.031806682  0.031925337            6 
 1677000   0.98939029   -6.4299251    640.60702  0.031832987  0.031917384            9 
 1678000    0.9955211   -6.4100308    638.31648  0.031700262  0.031909224            6 
 1679000   0.97871772   -6.4508531    640.25959  0.031777824  0.031901048           10 
 1680000   0.96063819   -6.4034228    640.32278  0.031762043  0.031892887           12 
 1681000    1.0134819   -6.4520076    639.47483  0.031701112  0.031884842            4 
 1682000   0.97797181   -6.3915627    640.31716  0.031723997  0.031876817            4 
 1683000   0.96596195   -6.4037832    641.93946  0.031785475  0.031868788            6 
 1684000   0.98780919   -6.3919731    640.65567  0.031703072  0.031860744            5 
 1685000   0.98373327   -6.4277341    640.01934  0.031652787  0.031852586            9 
 1686000   0.99473243   -6.4163659    639.82041   0.03162418  0.031844455            4 
 1687000   0.97182896   -6.4189562    641.79321  0.031702885  0.031836287            8 
 1688000   0.97781038   -6.4319082    642.73501  0.031730599  0.031828268            3 
 1689000   0.97574034   -6.4336455    643.56289  0.031752659   0.03182024            7 
 1690000   0.99431144   -6.4190729    643.19957  0.031715955  0.031812165            4 
 1691000   0.97340875   -6.4216199    644.18553  0.031745788  0.031804064            4 
 1692000   0.96761165   -6.4243169    644.06524  0.031721101  0.031796076            3 
 1693000   0.96303323   -6.4243849    643.02813  0.031651316  0.031788063            5 
 1694000   0.96899799   -6.4507952    642.36252  0.031599888  0.031780002            5 
 1695000   0.97887948   -6.4511968    642.62719  0.031594257  0.031771987            6 
 1696000   0.97917267   -6.4288559    643.07872  0.031597814  0.031763972            3 
 1697000    0.9656412   -6.4268124    644.95054  0.031671113  0.031755969           10 
 1698000   0.97601882    -6.421985    645.59669  0.031684172  0.031747912            5 
 1699000   0.97585336   -6.4259094    643.87458  0.031581056  0.031739936            7 
 1700000   0.97416627   -6.4400364    645.15581  0.031625285  0.031732047            4 
 1701000   0.97778465   -6.4310998    646.85872  0.031690119  0.031724192            7 
 1702000   0.98730824   -6.3977095    647.91341   0.03172314  0.031716429            4 
 1703000    0.9888812   -6.4174799    647.21883  0.031670524  0.031708704            7 
 1704000   0.98485442   -6.4360096    645.75145  0.031580177  0.031700913            7 
 1705000   0.96513145   -6.4484871    647.14057  0.031629549  0.031693017            9 
 1706000    1.0113804   -6.4290444    647.95708  0.031650893  0.031685194            9 
 1707000   0.97336685   -6.4317972     649.0398  0.031685208   0.03167742            7 
 1708000   0.96508371   -6.4044716    647.75167  0.031603809  0.031669649            4 
 1709000   0.98271646   -6.4258453    648.53898  0.031623707  0.031661959            4 
 1710000   0.98271513   -6.4338193     649.9511   0.03167403  0.031654165            9 
 1711000   0.97219712   -6.4242468    647.33736  0.031528217   0.03164633            6 
 1712000   0.97451638   -6.4351699     650.5061  0.031664043   0.03163864            5 
 1713000   0.96912379   -6.3906225    648.32104   0.03153926  0.031631033           10 
 1714000   0.97942043   -6.4421984    647.65529  0.031488491  0.031623264            8 
 1715000    0.9793343   -6.4261143    649.10093  0.031540376  0.031615445            5 
 1716000   0.96149207   -6.4263765    649.51757  0.031542228  0.031607541            6 
 1717000   0.99760053   -6.4493579    650.85652  0.031588843  0.031599801            3 
 1718000   0.98602428    -6.447483    650.04864  0.031531269   0.03159196            4 
 1719000   0.97153758   -6.4192599    651.56637  0.031586502  0.031584189            4 
 1720000   0.96117139   -6.4202791    652.77669  0.031626778  0.031576547            4 
 1721000    0.9803358   -6.4059369    650.77841  0.031511641  0.031569042            9 
 1722000   0.97921767   -6.3889399    652.86603  0.031594369  0.031561586            7 
 1723000   0.97575315   -6.4236264     650.7403   0.03147322  0.031554043            4 
 1724000   0.96515205   -6.4236412    652.79875  0.031554464  0.031546466            8 
 1725000   0.98316893   -6.4544969    651.92077  0.031493757   0.03153875            5 
 1726000   0.96840059   -6.4352139    653.01961  0.031528564  0.031531052            8 
 1727000   0.96909136   -6.4304266    654.08946  0.031561931  0.031523443            9 
 1728000   0.97791576   -6.4119001    653.20199  0.031500868  0.031515939            6 
 1729000   0.96445633   -6.4074455    657.04325  0.031667787  0.031508312            4 
 1730000    0.9819691   -6.4422255    655.17426  0.031559454  0.031500787            2 
 1731000   0.96377838   -6.4564836    654.08902  0.031488977  0.031493091            5 
 1732000   0.98774709   -6.4480076    654.43931  0.031487649    0.0314854            6 
 1733000   0.96439769   -6.4571479    654.68004  0.031481056  0.031477748            5 
 1734000   0.98875086   -6.4044575    655.30824  0.031493091  0.031470219            4 
 1735000   0.97962813   -6.4278094     655.6056  0.031489222  0.031462578           10 
 1736000   0.98912832   -6.4006818    656.40214  0.031509319  0.031454971           14 
 1737000   0.97540193   -6.4522754    655.73698  0.031459268  0.031447509            4 
 1738000   0.96367042   -6.4373945     656.6033  0.031482705  0.031439919           11 
 1739000   0.97556046   -6.4555835    657.25561   0.03149586  0.031432356            9 
 1740000    0.9726461   -6.4279343    656.93923  0.031462607  0.031424703           13 
 1741000   0.96857712   -6.4322232    656.07591  0.031403212  0.031417071            6 
 1742000   0.97097062   -6.4405145    657.32175  0.031444783  0.031409505            3 
 1743000   0.97462061   -6.4432244     657.4805  0.031434333  0.031402006           16 
 1744000   0.98083227    -6.437688    657.11489  0.031398838  0.031394488            3 
 1745000   0.98123486   -6.4355274    658.19215   0.03143229  0.031387066            4 
 1746000   0.98839238    -6.410537    659.65101  0.031483916  0.031379665            5 
 1747000   0.97967988   -6.4210791    658.19994  0.031396677   0.03137233           11 
 1748000   0.97276292   -6.4205171     659.7873  0.031454391  0.031364882            5 
 1749000   0.97953923    -6.440324    659.03137  0.031400389  0.031357403            4 
 1750000   0.97870771   -6.4661427    658.17615  0.031341722  0.031349975            8 
 1751000   0.96620782   -6.4545046    660.55515  0.031437043  0.031342575            5 
 1752000   0.98355645   -6.4458894    661.55079  0.031466457  0.031335146            6 
 1753000   0.95438211    -6.487396    659.69096  0.031360095  0.031327666            5 
 1754000   0.98654248   -6.4435166    661.12934  0.031410554  0.031320206            7 
 1755000   0.95323268   -6.4287886    660.51088   0.03136329  0.031312899            9 
 1756000   0.95418357   -6.4305854    661.16763  0.031376596  0.031305515            5 
 1757000   0.97845542   -6.4165783    660.46247  0.031325293  0.031298181            8 
 1758000   0.97694457    -6.448367    661.27764  0.031346115  0.031290817            8 
 1759000   0.96310064   -6.4341224    663.80098  0.031447839  0.031283471            7 
 1760000    0.9574856   -6.4681479     663.0263  0.031393291   0.03127624            6 
 1761000    0.9589539   -6.4291226    662.69426  0.031359751  0.031268957           12 
 1762000   0.98530639   -6.4916584    662.87303  0.031350408  0.031261635            3 
 1763000   0.94900801   -6.4361507    663.53749  0.031364033  0.031254495            5 
 1764000   0.96587893   -6.4438934    664.02783  0.031369417  0.031247294            4 
 1765000   0.99112763   -6.4302781    665.73706  0.031432345  0.031240113            4 
 1766000   0.98143442   -6.4205191    664.65285  0.031363385  0.031232977           11 
 1767000    0.9724145   -6.4333459    664.31144  0.031329534  0.031225873            4 
 1768000   0.96840207   -6.4100239    665.78841   0.03138143    0.0312188            4 
 1769000   0.97843087    -6.412835    664.43627  0.031299994  0.031211727            5 
 1770000   0.98136486   -6.4397613    664.00521  0.031262016  0.031204573            2 
 1771000   0.95687953   -6.4573815     663.2082  0.031206861  0.031197358           11 
 1772000   0.96051946   -6.4463411     664.8034  0.031264268  0.031190199            6 
 1773000   0.97133155    -6.455245    665.93829  0.031299976  0.031183056            5 
 1774000    0.9518859   -6.4464845    668.23374  0.031390161  0.031175821            4 
 1775000   0.96582009   -6.4388492    666.39073   0.03128595  0.031168651            7 
 1776000   0.96635863   -6.4414583    666.23734  0.031261136  0.031161377            5 
 1777000   0.95814056   -6.4562207    666.67109  0.031263885  0.031154132            7 
 1778000   0.97486584   -6.4494796    668.09301  0.031312946  0.031146867            7 
 1779000   0.95572415   -6.4735406    666.97672  0.031243054  0.031139589            7 
 1780000   0.95432116   -6.4378924    667.24089  0.031237869  0.031132435            5 
 1781000   0.98963443   -6.4212977    667.44538  0.031229898  0.031125261            5 
 1782000   0.97220169   -6.4583875    666.81923  0.031183092  0.031117922            5 
 1783000   0.96898567   -6.4589365     667.7212  0.031207758  0.031110572            5 
 1784000   0.95089291   -6.4466979    666.95752  0.031154593  0.031103348            6 
 1785000   0.96545833   -6.4417018    667.81214  0.031177037  0.031096092            6 
 1786000   0.98394869   -6.4293005    667.81389  0.031159663   0.03108884            6 
 1787000   0.95082783   -6.4577735    669.17799  0.031205838  0.031081526            8 
 1788000   0.95470874   -6.4352729    666.91755  0.031083033  0.031074255            6 
 1789000   0.95924819   -6.4479279    668.82707  0.031154606  0.031066984           13 
 1790000   0.97053737   -6.4590088    669.22795  0.031155864  0.031059681            9 
 1791000   0.95608213   -6.4650298    667.97991  0.031080398  0.031052475            9 
 1792000    0.9707516   -6.4672653     668.6788  0.031095554  0.031045222            8 
 1793000   0.94105437   -6.4819691    669.67711   0.03112461  0.031037956            6 
 1794000   0.94443087   -6.4484344    668.65127  0.031059609  0.031030671            8 
 1795000   0.96350377   -6.4153391    671.11868  0.031156856  0.031023349           17 
 1796000    0.9599799   -6.4428295    672.55776  0.031206281  0.031016128            6 
 1797000   0.96424009   -6.4490915    673.66594  0.031240305  0.031008991            6 
 1798000   0.95268534   -6.4656553    671.10769  0.031104361  0.031001759           12 
 1799000   0.94094304   -6.4795574    671.68284  0.031113713  0.030994498           11 
 1800000   0.97224786   -6.4855588    672.64717  0.031141072  0.030987326           10 
 1801000   0.96727477   -6.4579197    671.82048   0.03108553   0.03098017            5 
 1802000    0.9580208   -6.4346942    672.00608  0.031076863  0.030972892            4 
 1803000     0.975604    -6.465512    673.33155  0.031120889  0.030965749            8 
 1804000   0.94753163    -6.435868    670.63415  0.030979035  0.030958604            7 
 1805000   0.95342218   -6.4647105     671.5361  0.031003514  0.030951326            9 
 1806000   0.97585109   -6.4417529    673.92442  0.031096549  0.030944065            5 
 1807000   0.95509919    -6.465861    673.15942  0.031044061  0.030936802            5 
 1808000   0.95944612   -6.4835424    673.48912  0.031042087  0.030929442            6 
 1809000   0.95246067   -6.4391641    673.46551   0.03102384  0.030922094            5 
 1810000   0.97048709   -6.4692936    673.33196  0.031000551  0.030914813           17 
 1811000   0.95499002   -6.4879891    673.30786  0.030982324  0.030907684            5 
 1812000   0.96489408   -6.4528838    673.54716  0.030976231  0.030900467            7 
 1813000   0.98206999   -6.4400103    674.95872  0.031024026  0.030893223            5 
 1814000   0.96873212   -6.4111693    675.20269  0.031018132  0.030886048            9 
 1815000   0.96383217   -6.4457798    676.95915  0.031081688  0.030878995            7 
 1816000   0.98606102   -6.4746482    674.10539  0.030933617  0.030871867            7 
 1817000   0.96005552   -6.4698821    675.91503  0.030999588  0.030864735            6 
 1818000   0.93931798   -6.4282866    678.84476   0.03111683  0.030857606            6 
 1819000   0.92382626   -6.4491766    677.30738  0.031029292  0.030850549           15 
 1820000   0.96465789   -6.4516015    677.20259  0.031007445  0.030843472            7 
 1821000   0.96401564   -6.4724905     676.4873  0.030957683  0.030836415            6 
 1822000   0.96978063   -6.4738834    678.46266   0.03103104  0.030829271            4 
 1823000   0.94574219   -6.4490586     677.3694  0.030964043  0.030822157            6 
 1824000   0.94939977    -6.432335     676.3508   0.03090053  0.030815063            7 
 1825000   0.96130484   -6.4562025    677.83653   0.03095144  0.030808064            5 
 1826000   0.94467791   -6.4636678    678.52075  0.030965715  0.030800936            4 
 1827000   0.94514646   -6.4448844    678.25544  0.030936665  0.030793965           16 
 1828000   0.96903653   -6.4294024    678.04787  0.030910279  0.030786905            9 
 1829000   0.94799369   -6.4577973     679.5449  0.030961587  0.030779808            7 
 1830000   0.95130014   -6.4518354    678.48156  0.030896246  0.030772718            7 
 1831000   0.97922232   -6.4396424    680.65933  0.030978488  0.030765621            6 
 1832000   0.94720496   -6.4524666    678.95122   0.03088388  0.030758578            6 
 1833000   0.94851304   -6.4506653     680.6476  0.030944153  0.030751444            5 
 1834000   0.96503164   -6.4628139    678.64305  0.030836198  0.030744231            6 
 1835000    0.9735751   -6.4701666     678.3378  0.030805532  0.030736993            9 
 1836000   0.95261734   -6.4527251    678.33983  0.030788845  0.030729758            3 
 1837000   0.95299751   -6.4842941    679.69593  0.030833602  0.030722512            4 
 1838000   0.95320282   -6.4839594    680.26413  0.030842588  0.030715171           12 
 1839000   0.96121123   -6.4572991    678.53307  0.030747375  0.030707826            6 
 1840000   0.95706286   -6.4839441    679.30978  0.030765841  0.030700586            5 
 1841000   0.97909335   -6.4827765    679.10955  0.030740067  0.030693323            6 
 1842000    0.9703195   -6.4740758    679.74134  0.030751961  0.030686019            8 
 1843000   0.95771438   -6.4739453    680.10871  0.030751886  0.030678678            5 
 1844000   0.96375397   -6.5032363    680.22756   0.03074058  0.030671312            6 
 1845000   0.96500497   -6.4536776    681.59483  0.030785675  0.030663939            7 
 1846000   0.95631297   -6.4595392    682.00816  0.030787656  0.030656603           11 
 1847000   0.96522833   -6.5036589     680.0042  0.030680572  0.030649136           12 
 1848000   0.95771948   -6.4941383    681.03784  0.030710581  0.030641619           17 
 1849000   0.94185213    -6.486338    681.98577  0.030736694  0.030634283           14 
 1850000    0.9636376   -6.4946901    681.26445  0.030687588  0.030626958            5 
 1851000     0.960356   -6.4750954    682.02168    0.0307051  0.030619598            5 
 1852000   0.95419412   -6.4630729    682.12367   0.03069311   0.03061239            6 
 1853000   0.94169805   -6.4767645    683.42376  0.030735014  0.030605127            7 
 1854000   0.96116556   -6.4918635    679.76933  0.030554177  0.030597881            9 
 1855000   0.95271441   -6.4642339    682.67832  0.030668388  0.030590613            7 
 1856000   0.96206309   -6.4667086    684.67503  0.030741515  0.030583429            9 
 1857000   0.97148867   -6.4788683    683.96901  0.030693278  0.030576254           14 
 1858000   0.95511654   -6.4631458    684.20521  0.030687352  0.030569056            8 
 1859000   0.93605539   -6.4908898    685.23918  0.030717194  0.030561874            2 
 1860000   0.95709899   -6.4688323    685.41626  0.030708614   0.03055465            4 
 1861000    0.9527835   -6.4826571    682.83395   0.03057648  0.030547317            6 
 1862000   0.96797975   -6.4916952    683.92952  0.030609091  0.030539951            4 
 1863000   0.95662574   -6.4634197    683.69914  0.030582356  0.030532732           11 
 1864000   0.95491202   -6.4638879    687.12209  0.030718977  0.030525487            4 
 1865000    0.9472307   -6.4405354    687.29932  0.030710425  0.030518405            6 
 1866000   0.95045076   -6.4463428    687.31478  0.030694658   0.03051125            5 
 1867000   0.96754483   -6.4542477    685.93596  0.030616674  0.030504107            5 
 1868000   0.95268971   -6.5239117    684.29398  0.030527033  0.030496812           11 
 1869000   0.97286595   -6.4760731    686.65851  0.030616128   0.03048964            5 
 1870000     0.939571    -6.448611    687.88342  0.030654342  0.030482521            9 
 1871000   0.94344276   -6.5014255    686.65495  0.030583242  0.030475296            5 
 1872000   0.95409665   -6.4691329    686.96007  0.030580488  0.030468088            5 
 1873000   0.94746502   -6.5011136    687.02844  0.030567202   0.03046094            9 
 1874000   0.93528667   -6.5081737    688.43749  0.030613549  0.030453786            5 
 1875000   0.94707218   -6.4825929    688.92113  0.030618717  0.030446584            3 
 1876000   0.95782298   -6.4709756    688.10824  0.030566287  0.030439436            9 
 1877000   0.95191844   -6.4905763    687.85335  0.030538685  0.030432285            7 
 1878000   0.96043469   -6.4577381    690.11276  0.030622682  0.030425232            5 
 1879000    0.9468069   -6.4641382    689.02454  0.030558122  0.030418129            4 
 1880000   0.96625833   -6.5087352    689.00705  0.030541093  0.030411067           12 
 1881000   0.94059924   -6.4654586    690.87306  0.030607525  0.030404109            4 
 1882000   0.94131762   -6.4832946    688.70472   0.03049525  0.030397102           12 
 1883000   0.93127617   -6.5081216    691.17348  0.030588311  0.030390039            8 
 1884000   0.95530411   -6.4905358    690.58918  0.030546231  0.030383062           14 
 1885000   0.94684963   -6.4826203    692.28351   0.03060493   0.03037602            5 
 1886000   0.95645649   -6.4282739    690.36582  0.030503969  0.030369031            3 
 1887000   0.94304069   -6.4528093    692.53857  0.030583756  0.030362058            6 
 1888000   0.96417907   -6.4605446    690.44186  0.030475011  0.030354966           12 
 1889000   0.94509569   -6.5236128    689.13755  0.030401339  0.030347798           10 
 1890000   0.95628035   -6.4796922    691.93486  0.030508592  0.030340639            5 
 1891000   0.95112495   -6.4564484    691.94256  0.030492797  0.030333563            8 
 1892000   0.95637185   -6.4587244    693.65706  0.030552196  0.030326501            7 
 1893000   0.94835743   -6.4838792    693.85089  0.030544589  0.030319519            9 
 1894000   0.95197727   -6.4784162    694.27279  0.030547025  0.030312485            3 
 1895000   0.94139193   -6.4906295    694.16002  0.030525947  0.030305496            7 
 1896000   0.93554881   -6.5080877    692.30818  0.030428454  0.030298517            6 
 1897000   0.93598165   -6.4633346    692.99934  0.030442775  0.030291517            5 
 1898000   0.96156205   -6.4798326    694.75775   0.03050394  0.030284607            7 
 1899000   0.96627945    -6.467383    694.58737    0.0304804  0.030277655            9 
 1900000    0.9568006   -6.4961097    693.92443  0.030435282  0.030270662            9 
 1901000   0.97330064   -6.5006481    692.39632  0.030352285   0.03026361            7 
 1902000   0.93377939   -6.4884925    695.06311  0.030453168  0.030256597            9 
 1903000      0.95222   -6.4839855    695.63144  0.030462053  0.030249581            4 
 1904000   0.95263727   -6.4825262    695.65087  0.030446904  0.030242773            7 
 1905000   0.95238037    -6.489708    697.48135  0.030510995  0.030235919            7 
 1906000   0.93133317   -6.4933389    696.82348  0.030466224   0.03022908            7 
 1907000   0.91638721   -6.4807302    696.12387  0.030419676  0.030222186            8 
 1908000   0.96296959   -6.4943146    695.98683  0.030397748   0.03021521            9 
 1909000    0.9755625    -6.511719    698.61471  0.030496539  0.030208271            9 
 1910000    0.9645937    -6.499085    698.22127  0.030463406   0.03020138            8 
 1911000   0.93576094   -6.4874024    696.63778  0.030378413  0.030194535            4 
 1912000   0.93454645   -6.4395826    699.52943  0.030488556  0.030187731            6 
 1913000   0.95565794   -6.4670996    697.21139  0.030371641  0.030180845           18 
 1914000   0.94172056   -6.5003839    699.68282  0.030463376  0.030174078            8 
 1915000   0.96063064   -6.4735668    699.29175   0.03043045  0.030167297           11 
 1916000   0.93494611   -6.5069574    698.22082   0.03036799  0.030160471            7 
 1917000    0.9538825   -6.4981646    699.02605  0.030387152  0.030153599            8 
 1918000   0.94804366   -6.5213489    699.39585  0.030387376   0.03014675            5 
 1919000    0.9428265   -6.4978764    699.13746  0.030360321  0.030139947            7 
 1920000   0.94810452   -6.4764483     699.1466  0.030344904  0.030133103            5 
 1921000    0.9453769   -6.4943979     702.0061  0.030453154  0.030126229            7 
 1922000   0.93887027   -6.5037937    699.80686  0.030341955  0.030119316            9 
 1923000   0.94993134   -6.4890798    699.69077  0.030321146  0.030112363            9 
 1924000    0.9455864   -6.5045323    700.82362  0.030354453  0.030105418           10 
 1925000    0.9346534   -6.4938952    701.67922  0.030375724  0.030098614           11 
 1926000    0.9386731   -6.5044655     698.8578  0.030237876  0.030091704           12 
 1927000   0.93883337   -6.4733609    700.95372  0.030312823  0.030084721            8 
 1928000   0.93741342   -6.4874865    700.22883  0.030265769  0.030077705           31 
 1929000   0.95259579   -6.4695474    701.59112   0.03030893  0.030070718            5 
 1930000   0.93616846   -6.5027535    701.01697  0.030268435  0.030063809            7 
 1931000   0.96892068   -6.4739722    702.14273  0.030301343  0.030056877            9 
 1932000   0.92891094   -6.4595881    700.78571  0.030227127  0.030049906            4 
 1933000    0.9667467   -6.4877911    701.60776  0.030246929   0.03004283            4 
 1934000   0.94505326   -6.4985263    700.68043  0.030191332  0.030035791            5 
 1935000   0.95113257   -6.4882658    700.75264  0.030178839  0.030028788            5 
 1936000   0.94173236   -6.5153472    701.39223  0.030190781  0.030021713           10 
 1937000   0.93641966   -6.4981499    703.35995   0.03025985  0.030014691            6 
 1938000   0.93861102   -6.5292373    699.50966  0.030078675  0.030007684            7 
 1939000   0.93923691   -6.5088017    701.36509  0.030142904  0.030000498            9 
 1940000   0.94677873   -6.4890649    701.88221   0.03014958  0.029993454            5 
 1941000   0.92547519   -6.5048425    699.98984  0.030052801  0.029986311            6 
 1942000   0.95044771   -6.5178244    700.71096   0.03006827  0.029979148           12 
 1943000   0.92203968   -6.5198333    700.56119  0.030046371  0.029971951            6 
 1944000   0.94165885   -6.5135916    702.23083  0.030102488  0.029964755           23 
 1945000   0.95065291   -6.4947581    703.17582  0.030127499  0.029957658           10 
 1946000   0.94786954   -6.4908589    701.63671  0.030046108  0.029950524            5 
 1947000   0.93325599   -6.4993762     702.0323  0.030047608  0.029943436           12 
 1948000   0.94609017   -6.5175902    702.46094  0.030050519  0.029936296            9 
 1949000   0.94047285   -6.5012393    704.15196  0.030107404  0.029929106            7 
 1950000   0.95275278   -6.5323808    702.89104  0.030038079  0.029921921            5 
 1951000   0.93935024    -6.521349     701.6991  0.029971771  0.029914774            8 
 1952000   0.93024309   -6.5340753    703.64612  0.030039537  0.029907661            8 
 1953000   0.93358327   -6.4961339    703.83678  0.030032291  0.029900602            9 
 1954000   0.93530083    -6.489991    704.54908    0.0300473  0.029893523            8 
 1955000   0.93901861   -6.5015468    704.32493  0.030022376  0.029886381            8 
 1956000   0.91552045   -6.4894817    706.10226  0.030082748  0.029879247            7 
 1957000   0.94647319   -6.5262904    705.38438  0.030036807  0.029872165            4 
 1958000   0.96144902   -6.4928191    704.85809  0.029999068  0.029865039           16 
 1959000    0.9405622   -6.4792909    705.54876  0.030013134  0.029857829            6 
 1960000   0.93490801   -6.5428015     703.6488  0.029917041  0.029850703           12 
 1961000    0.9264131   -6.5075562    705.25552  0.029970063  0.029843576            6 
 1962000   0.93334746   -6.5044933    705.74712  0.029975668  0.029836495            5 
 1963000   0.94707931   -6.4893637    705.84592  0.029964591   0.02982947            3 
 1964000   0.94604582   -6.4800588     705.8627  0.029950047  0.029822352            8 
 1965000   0.92619886   -6.5101962    709.32983  0.030081842  0.029815202            5 
 1966000   0.93324304   -6.4988417    706.92841  0.029964751  0.029808072            3 
 1967000   0.94194243   -6.5155681    707.47875  0.029972833   0.02980104            6 
 1968000   0.94156787   -6.5207595    708.03535  0.029981172  0.029793983            9 
 1969000    0.9375807   -6.5035304    708.33151   0.02997848  0.029787023           14 
 1970000    0.9455628   -6.4809384    710.14417  0.030039939  0.029780018           11 
 1971000   0.93468731   -6.5134846    705.25857  0.029818137  0.029772872            7 
 1972000   0.93994151   -6.5091279    706.46195  0.029853869  0.029765727            6 
 1973000   0.93775438    -6.536853    707.06284  0.029864117  0.029758508            5 
 1974000    0.9276747   -6.5062845    708.35852  0.029903686  0.029751331            9 
 1975000   0.95562905   -6.4707445    708.26971  0.029884798  0.029744247           14 
 1976000   0.93527887   -6.5200147     709.3615  0.029915718  0.029737147            5 
 1977000   0.93653049   -6.5093392    707.73641  0.029832086  0.029729972            4 
 1978000   0.92944494   -6.5241958    708.43063  0.029846252  0.029722779            6 
 1979000   0.94481033   -6.5105867    707.87466  0.029807759  0.029715494           13 
 1980000    0.9380893   -6.5240779    707.20833  0.029764661  0.029708297            6 
 1981000   0.92229168    -6.484538    710.93699  0.029906486  0.029701089            6 
 1982000   0.93032589   -6.4909955    707.94686  0.029765677  0.029693942           12 
 1983000   0.92982837   -6.5291692    709.51417  0.029816531  0.029686803            4 
 1984000   0.91314866   -6.5199687    708.67746  0.029766358  0.029679531           16 
 1985000   0.91590284   -6.5210547    710.89017  0.029844256  0.029672381           11 
 1986000   0.93592636   -6.5252744    711.88377   0.02987092   0.02966532            7 
 1987000   0.94031248   -6.5017222    709.13992  0.029740812  0.029658187            5 
 1988000   0.95313736   -6.5059324    713.09807   0.02989177  0.029651074            5 
 1989000   0.91471704   -6.5145263    708.66253  0.029690905  0.029643946            7 
 1990000   0.93044819   -6.5318984    708.89288  0.029685631  0.029636763            4 
 1991000   0.93681751   -6.4910086    712.89541  0.029838247  0.029629605            8 
 1992000   0.94990977   -6.4876159    714.01565  0.029870133  0.029622577           10 
 1993000   0.92874351   -6.4964463    712.63889  0.029797579  0.029615457           15 
 1994000   0.91493094   -6.5037482    712.63933  0.029782653  0.029608438           21 
 1995000   0.92948372   -6.5089792    712.55262  0.029764103  0.029601424           13 
 1996000   0.93634495   -6.4975592    714.37301  0.029825192    0.0295944            6 
 1997000   0.92705823    -6.492513    712.73313  0.029741827  0.029587412            7 
 1998000    0.9323152   -6.4825224    714.00969  0.029780184  0.029580361           13 
 1999000   0.94934283   -6.5090175    710.96041  0.029638169  0.029573289           13 
 2000000   0.93315578   -6.5423014    712.31298  0.029679708  0.029566252            4 
 2001000   0.92820009   -6.5370893    711.91706  0.029648386  0.029559088            8 
 2002000   0.91623521   -6.5330488    714.52468   0.02974212  0.029551947           13 
 2003000   0.92644831   -6.5041692    714.88852  0.029742408  0.029544881            5 
 2004000   0.94249498     -6.52434    713.41176  0.029666158  0.029537779           13 
 2005000   0.93584428   -6.4944689    713.88131  0.029670877  0.029530696            6 
 2006000    0.9159723   -6.4968531    714.38679  0.029677085  0.029523601            8 
 2007000    0.9286057   -6.5394205    715.06172  0.029690322  0.029516448            4 
 2008000   0.95969576   -6.5180232    713.99917   0.02963144   0.02950934            7 
 2009000   0.92136745   -6.5463114    714.22746   0.02962616  0.029502255            9 
 2010000   0.93241121   -6.5382302    715.64612  0.029670237  0.029495147           11 
 2011000   0.94485973   -6.4981438     716.9464  0.029709365   0.02948806            7 
 2012000   0.93308889   -6.5375162    717.78251  0.029729229  0.029481038            6 
 2013000   0.93527352   -6.5252189    717.05119  0.029684186  0.029473913            3 
 2014000   0.93019149   -6.5312821    717.52904  0.029689219  0.029466751            6 
 2015000   0.92162314   -6.5177439    715.22911  0.029579368  0.029459613            9 
 2016000   0.93103047   -6.4795232    716.91354  0.029634323  0.029452496            7 
 2017000   0.93188586   -6.5216709    715.47631  0.029560251  0.029445373            8 
 2018000   0.95306821   -6.5008426    716.50937  0.029588263  0.029438237            7 
 2019000   0.94115514   -6.5006855    717.60193  0.029618703  0.029431163            6 
 2020000   0.93748209   -6.5218814    715.96406  0.029536471  0.029424021            9 
 2021000   0.93438412   -6.4892627    719.57085  0.029670578  0.029416942            5 
 2022000   0.96330878   -6.5042641    715.49763  0.029488033  0.029409941            7 
 2023000   0.92237624   -6.5462811    716.26571  0.029505096  0.029402825           13 
 2024000   0.93431727   -6.5684078    716.69432  0.029508165  0.029395735           10 
 2025000   0.92455033   -6.5276881    717.29466  0.029518299  0.029388598            7 
 2026000   0.92913745    -6.525521    719.38565  0.029589736  0.029381477            6 
 2027000   0.93482742   -6.4987718    719.08055  0.029562595  0.029374461            7 
 2028000   0.95279931   -6.5176681    718.83382  0.029537879  0.029367436           10 
 2029000   0.93152529   -6.5341462    717.82656  0.029481952  0.029360397            4 
 2030000   0.91141075   -6.5009081    719.06542  0.029518285   0.02935335           13 
 2031000   0.91612253   -6.5115136     717.9689   0.02945876  0.029346257            7 
 2032000   0.92504699   -6.5171761    718.86654  0.029481075  0.029339231           13 
 2033000   0.94712483   -6.5021197    719.02937  0.029473249  0.029332111           21 
 2034000   0.92850226   -6.5686324    719.64483  0.029483974  0.029325054            8 
 2035000    0.9369343    -6.510495    721.51756  0.029546173   0.02931801           10 
 2036000   0.94163673   -6.5405797    721.33622   0.02952424  0.029311055           10 
 2037000   0.93531159   -6.5623295    719.55626  0.029436928  0.029304102            7 
 2038000   0.91487483   -6.5186423    721.50643  0.029502226  0.029297152            6 
 2039000   0.93931299   -6.5399261    719.45733  0.029404011  0.029290253            8 
 2040000   0.94196358   -6.5234109    720.00659  0.029412034  0.029283249            4 
 2041000   0.92689363   -6.5353316    720.37898  0.029412828   0.02927623            4 
 2042000   0.94554994   -6.5137477     722.0226    0.0294655  0.029269167            9 
 2043000   0.93747186    -6.550855     721.3263  0.029422675  0.029262118            6 
 2044000   0.92961372   -6.5180689    721.14692  0.029400967  0.029255076            5 
 2045000   0.92119841     -6.51054    721.62931  0.029406247  0.029248033            5 
 2046000   0.93067477   -6.5071021    721.46936   0.02938536  0.029241042           15 
 2047000   0.91163691   -6.5244972    722.92619  0.029430312  0.029234064            9 
 2048000    0.9324942     -6.53115    722.37993  0.029393715  0.029227062            7 
 2049000   0.92839093   -6.5212811    723.89892  0.029441147  0.029220002            4 
 2050000   0.91665802    -6.502455    722.70816  0.029378381  0.029213004            5 
 2051000   0.93078863   -6.5470207     722.3698  0.029350309  0.029205949            5 
 2052000   0.92456428    -6.515451      720.763  0.029270752  0.029198903            6 
 2053000   0.90735593   -6.5496288    724.54844  0.029410149  0.029191905            5 
 2054000   0.92899893   -6.5279328    722.52128  0.029313586  0.029184896            5 
 2055000   0.90933496   -6.5408929    724.89025  0.029395387   0.02917789           11 
 2056000   0.93964752   -6.5629457    722.27519  0.029275097  0.029170845            8 
 2057000   0.91282133   -6.5231266    721.60333  0.029233646  0.029163732            7 
 2058000   0.92865753   -6.5381472    722.70393  0.029264007  0.029156623            7 
 2059000   0.91955107   -6.5279165    725.19591  0.029350652  0.029149567           10 
 2060000   0.89831451   -6.5177594    723.85157  0.029282021  0.029142538            9 
 2061000   0.93869771   -6.5497955    724.43613  0.029291449  0.029135455           14 
 2062000   0.88658683   -6.5692399    723.25123  0.029229358  0.029128381            8 
 2063000   0.93373276   -6.5408265    725.17732  0.029292992  0.029121363            9 
 2064000   0.93975139   -6.5181206     725.9044  0.029308156  0.029114444            3 
 2065000    0.9239408   -6.5709768    723.71368  0.029205556  0.029107451            7 
 2066000   0.91565755   -6.5257045     724.9718  0.029242167   0.02910041            8 
 2067000   0.90723359   -6.5152725    727.26457  0.029320455  0.029093398            7 
 2068000    0.9456854   -6.5404567    725.97592  0.029254349  0.029086468            6 
 2069000   0.92574205   -6.4995147    726.70778  0.029269686  0.029079509            9 
 2070000   0.92769393   -6.5493625    724.77305  0.029177659  0.029072502           10 
 2071000   0.91662353   -6.5080957    729.05743  0.029335966  0.029065574           11 
 2072000   0.93283492   -6.5455274    725.73304  0.029188105  0.029058667           12 
 2073000   0.91053154   -6.5364154    726.23185  0.029194076  0.029051708            6 
 2074000   0.92748362   -6.5568084    725.65176  0.029156692  0.029044748            9 
 2075000   0.91845517   -6.4954468    728.44032  0.029254631  0.029037849           19 
 2076000   0.91317551   -6.5235962    729.55454  0.029285266  0.029030955            6 
 2077000   0.92172195   -6.5304985    727.55169  0.029190808  0.029024064           14 
 2078000   0.92631262   -6.5522686    729.80098  0.029266963  0.029017202            9 
 2079000   0.92684789   -6.5746037    729.44954  0.029238798  0.029010298            9 
 2080000   0.91476695   -6.5405294    728.76948  0.029197495  0.029003469           10 
 2081000    0.9077443   -6.5202861    731.05809  0.029275112  0.028996646            7 
 2082000   0.93840093   -6.5558318    728.90159  0.029174735  0.028989806            7 
 2083000   0.92044713    -6.576025    730.20729  0.029212966  0.028982964            7 
 2084000   0.91828228   -6.5654144    729.47557  0.029169689  0.028976121            5 
 2085000   0.94127126    -6.556946    729.71223  0.029165157  0.028969316            6 
 2086000   0.90768601    -6.561708    731.36809  0.029217326  0.028962499            9 
 2087000   0.91212928   -6.5352928    734.56951  0.029331157  0.028955766            4 
 2088000   0.91774995   -6.5431964    730.27675  0.029145783  0.028949089           11 
 2089000   0.89862698   -6.5337872    732.14679   0.02920643  0.028942345           12 
 2090000   0.92194511   -6.5482917    729.96442  0.029105439  0.028935677           13 
 2091000   0.90745885   -6.5430636    731.88594  0.029168099  0.028928907            4 
 2092000   0.93179492   -6.5475273    733.31754  0.029211183  0.028922215            9 
 2093000   0.90322509   -6.5342686    733.25086  0.029194572  0.028915516           12 
 2094000   0.92540523   -6.5685221    732.71243  0.029159202  0.028908803            7 
 2095000    0.9323085   -6.5259405    733.94697   0.02919439  0.028902096           35 
 2096000   0.92687421    -6.555277    733.53045  0.029163901  0.028895454           13 
 2097000   0.91006812   -6.5441397    733.32682  0.029141902  0.028888674            7 
 2098000   0.91817801   -6.5268708    732.36822  0.029089936  0.028881955            9 
 2099000   0.90748911   -6.5358842    732.87918  0.029096363  0.028875246           10 
 2100000   0.91837016   -6.5838354    733.80404  0.029119208  0.028868439           13 
 2101000   0.93660881   -6.5444724     732.2183  0.029042452  0.028861687            4 
 2102000   0.90990033   -6.5639232    733.68548  0.029086802  0.028854794           12 
 2103000   0.91714524   -6.5519653    734.70474  0.029113359  0.028848048           17 
 2104000   0.91394783   -6.5388217    733.76947  0.029062479  0.028841231            9 
 2105000   0.91144372   -6.5397854    736.59716  0.029160616  0.028834415            4 
 2106000   0.91628746   -6.5398287    735.99557  0.029122965  0.028827653            3 
 2107000   0.91813055   -6.5779947    733.02518  0.028991662  0.028820848            8 
 2108000   0.92659325   -6.5505748    735.23859  0.029065409  0.028814013           26 
 2109000   0.91563824   -6.5531417    735.30454  0.029054233    0.0288072            6 
 2110000    0.8857186   -6.5709944    734.73568  0.029017997  0.028800352            4 
 2111000   0.91583947   -6.5438102    733.08707  0.028939171  0.028793464           12 
 2112000   0.90033986   -6.5621657     734.6504  0.028987153  0.028786566            6 
 2113000   0.92275243   -6.5713033    733.94834  0.028945746  0.028779659            6 
 2114000   0.91173997   -6.5321041    735.30126  0.028985385  0.028772691            6 
 2115000   0.90835301   -6.5439262    735.48738  0.028979014  0.028765769            6 
 2116000   0.91162912   -6.5532295    734.73154  0.028935552  0.028758876            7 
 2117000   0.90871868   -6.5400657    734.84853  0.028926489  0.028751886           10 
 2118000    0.9218563   -6.5368728    734.51163  0.028899576  0.028744951            9 
 2119000   0.90532724   -6.5585418    735.60815   0.02892906  0.028738044            7 
 2120000   0.92307122   -6.5589861    735.08355  0.028894794  0.028731111           15 
 2121000   0.89829284   -6.5448504    734.10455  0.028842706  0.028724155           17 
 2122000   0.94594696   -6.5570442    735.07494  0.028867222  0.028717248            8 
 2123000   0.91075421   -6.5464782    737.14434  0.028934854  0.028710229           16 
 2124000   0.91237057   -6.5237483    736.97047   0.02891441  0.028703281           11 
 2125000   0.90794636    -6.550579    734.76628  0.028814364  0.028696308            7 
 2126000   0.90788927   -6.5563839    735.88367  0.028844609   0.02868938            5 
 2127000   0.91853324   -6.5375482    736.86525  0.028869505  0.028682349           13 
 2128000   0.89992408   -6.5473841    737.00216    0.0288613  0.028675446            2 
 2129000   0.92183802   -6.5554055    738.27531  0.028897577  0.028668524            8 
 2130000   0.91775425   -6.5793487    735.29867  0.028767553  0.028661552            7 
 2131000   0.90820565   -6.5373707    738.57108  0.028882022   0.02865465           12 
 2132000    0.9095196   -6.5917846    736.83441  0.028800594  0.028647745            4 
 2133000   0.90550334   -6.5863162    736.84509  0.028787509  0.028640713           10 
 2134000    0.8974904    -6.540979    737.80582  0.028811536  0.028633848            5 
 2135000   0.90383379   -6.5417878    737.87978  0.028800928  0.028626929            6 
 2136000   0.91882362   -6.5700793    740.02617  0.028871183  0.028620046            9 
 2137000   0.90806223   -6.6120936    740.25904  0.028866754  0.028613098            9 
 2138000    0.9121519   -6.5678669    736.48497   0.02870615  0.028606091           11 
 2139000   0.90942381   -6.5637921    736.90576  0.028709122  0.028599095            5 
 2140000   0.90266261   -6.5649162    738.03369   0.02873963  0.028592085           12 
 2141000   0.91803984   -6.5759851    737.77154  0.028716003  0.028585078           12 
 2142000   0.90842489   -6.5689422    738.41062   0.02872746  0.028578077           16 
 2143000    0.9058295   -6.5272734     741.3179  0.028827108  0.028571117            8 
 2144000   0.92132378    -6.548312    737.97137  0.028683589  0.028564112            4 
 2145000   0.88680745   -6.5798134    737.69087  0.028659319  0.028557088           12 
 2146000   0.92849813   -6.5668447    740.01544  0.028736232  0.028549999            9 
 2147000   0.89569578   -6.5669456    739.91328  0.028718882  0.028542982            7 
 2148000   0.90743275   -6.5705523    738.92635  0.028667223   0.02853589            9 
 2149000   0.91184915   -6.5846618    738.82332  0.028649888  0.028528764           13 
 2150000    0.9006585   -6.6004931    738.22033  0.028613191  0.028521637            4 
 2151000   0.90950007   -6.5515942    738.32881  0.028604092  0.028514532            7 
 2152000   0.90948008   -6.5604079    738.37002  0.028592395  0.028507445           24 
 2153000   0.90011113   -6.5655954    738.31313  0.028576913  0.028500279            8 
 2154000   0.90624376   -6.5453043     740.0944  0.028632559  0.028493192            8 
 2155000   0.91538362    -6.557084    742.10596  0.028697059  0.028486203            6 
 2156000    0.9094776   -6.5866735      740.686  0.028628865  0.028479151            8 
 2157000   0.89582307   -6.5785102    738.87393  0.028545585  0.028472117            7 
 2158000   0.89452413   -6.5941293    740.43656    0.0285927  0.028465016            6 
 2159000   0.88708719   -6.5734294    741.53687  0.028621926  0.028457961           13 
 2160000   0.90372877   -6.5768957    739.93475  0.028546866  0.028450881           19 
 2161000   0.92481855    -6.564312    741.38595  0.028589617  0.028443797           15 
 2162000   0.92859933   -6.5551639    743.62726  0.028662784  0.028436724            9 
 2163000   0.89904852   -6.5590714    741.57336  0.028570402   0.02842963            7 
 2164000   0.92074779   -6.5477034     742.8527  0.028606465  0.028422554            9 
 2165000   0.90393098   -6.5579804    741.40389  0.028537486  0.028415433           13 
 2166000    0.8990476   -6.5497318    742.48074  0.028565741  0.028408308            9 
 2167000   0.89464131    -6.557399    740.48582  0.028475843  0.028401084            5 
 2168000    0.8945314   -6.5784228    739.81847  0.028437057  0.028393919            5 
 2169000   0.90938812   -6.5743867    742.98822  0.028545729  0.028386752           15 
 2170000   0.89315733   -6.5808326    740.76634  0.028447248  0.028379533            9 
 2171000   0.92663614   -6.5990733    740.74412  0.028433292  0.028372312            6 
 2172000   0.90309159   -6.5939608    742.41451  0.028484289  0.028365137            7 
 2173000   0.88924145   -6.5808939    741.39183  0.028431962  0.028357925           15 
 2174000   0.89903448   -6.5569344    744.12381  0.028523605  0.028350715           15 
 2175000   0.90081238    -6.552892    742.31606  0.028441228   0.02834347           16 
 2176000    0.8893843    -6.586202    742.26503  0.028426204   0.02833625            9 
 2177000   0.90568151   -6.5844507    742.28785   0.02841402   0.02832897            8 
 2178000   0.89477966    -6.542265    742.05024  0.028391882  0.028321751            5 
 2179000   0.90647147   -6.5854624    742.82913   0.02840864  0.028314582            8 
 2180000   0.90080797   -6.5749211    741.41021  0.028341369  0.028307347            7 
 2181000   0.90067304   -6.5878675     742.6506  0.028375768  0.028300072            8 
 2182000   0.90625601   -6.5996727    741.00216  0.028299808   0.02829275           14 
 2183000   0.89773492   -6.5942898    742.82191  0.028356311  0.028285425           14 
 2184000   0.89453745   -6.5357997    743.64863  0.028374871  0.028278103           10 
 2185000   0.89084993   -6.5913521    743.38502  0.028351831  0.028270818           12 
 2186000   0.88876438   -6.5931291    744.01527  0.028362888  0.028263581           10 
 2187000   0.90972651   -6.5578872    745.95208  0.028423719  0.028256425            4 
 2188000     0.901159   -6.5793875    742.81527  0.028291258  0.028249243            8 
 2189000    0.9048424   -6.5858127    743.98209  0.028322753  0.028242079            8 
 2190000   0.90131645   -6.5432959    746.26185   0.02839657  0.028234976            6 
 2191000   0.90445158   -6.5425451    746.90409  0.028408036  0.028227872           15 
 2192000   0.90456103   -6.5651894     746.6122  0.028383979  0.028220733            6 
 2193000   0.89104433   -6.5612992    746.52411  0.028367689  0.028213578           11 
 2194000   0.90141041   -6.5913907    745.76344  0.028325868  0.028206465           14 
 2195000   0.89792334   -6.5661347    745.61252  0.028307233  0.028199284            9 
 2196000   0.90710412   -6.5674322    745.76426  0.028300101   0.02819216           12 
 2197000   0.87458537   -6.5652899    747.69178  0.028360332  0.028184964           11 
 2198000   0.89516369   -6.5841099    744.70278  0.028234106  0.028177753            7 
 2199000   0.87906009   -6.6233375    744.31592  0.028206606  0.028170501            9 
 2200000   0.90469708   -6.5740237     745.7531  0.028248224  0.028163214           10 
 2201000    0.8985204   -6.5823766    745.17916  0.028213659  0.028155941           14 
 2202000   0.89944192   -6.5749391    747.72919   0.02829735  0.028148722            8 
 2203000   0.92128275   -6.5197465    746.21157  0.028227098   0.02814156            5 
 2204000   0.89916469   -6.6195717    744.49311  0.028149316  0.028134346           13 
 2205000    0.9080309    -6.569688    746.21055  0.028201457  0.028127148            7 
 2206000   0.88475847   -6.5898862    749.02958  0.028295164  0.028119965           10 
 2207000   0.88706883    -6.568018    746.27756  0.028178431  0.028112697            4 
 2208000   0.88738923   -6.5599593    746.19327  0.028162488  0.028105455            7 
 2209000   0.89341191   -6.5665865     747.5139  0.028199559   0.02809823           12 
 2210000   0.88187151   -6.5848168    748.63882  0.028229217  0.028091034            7 
 2211000   0.89485751   -6.5732913     747.0632  0.028157063  0.028083813            8 
 2212000   0.89879576   -6.5953298    746.85698  0.028136565  0.028076494            9 
 2213000   0.89314692    -6.582045    748.00822  0.028167202  0.028069314            9 
 2214000   0.89129508   -6.6060328    746.48441  0.028097125  0.028062085            9 
 2215000   0.89856461   -6.5662816    749.12511  0.028183789   0.02805481            6 
 2216000   0.90471774    -6.595715    749.03692  0.028167754  0.028047639            7 
 2217000   0.89606941   -6.5924975    748.42536  0.028132061  0.028040474            7 
 2218000    0.9166663   -6.5909678    750.38846  0.028193134  0.028033336            6 
 2219000   0.91763932   -6.5640719    751.04256  0.028204993  0.028026259            6 
 2220000   0.87851016   -6.5758231    750.43841   0.02816961  0.028019212           12 
 2221000   0.89519081   -6.5492684    749.90889  0.028137059  0.028012064            5 
 2222000   0.89024483   -6.5721836    751.76204  0.028193896  0.028004908            5 
 2223000   0.90975218     -6.59501    749.85906  0.028109876  0.027997789            8 
 2224000    0.8858475   -6.5757093    749.67136  0.028090204   0.02799067            5 
 2225000   0.89176527   -6.5589741     751.8206  0.028158075  0.027983577            6 
 2226000   0.88602187    -6.593097     751.2931  0.028125677  0.027976445           11 
 2227000    0.9003149    -6.591118    751.29345  0.028113061  0.027969272            5 
 2228000   0.89490822   -6.5844196    749.72933  0.028041941  0.027962178            5 
 2229000   0.88761229   -6.5595573    751.24262  0.028085936   0.02795514           17 
 2230000   0.89631071   -6.5928139    751.65366  0.028088702  0.027948076           12 
 2231000    0.9064058   -6.6160986    751.20881  0.028059495  0.027940956           10 
 2232000   0.90268323   -6.6111477    751.10071  0.028042888  0.027933881            7 
 2233000   0.89085615   -6.5758957    751.07934  0.028029532  0.027926861            7 
 2234000   0.90028433    -6.569794    754.47574  0.028143679  0.027919884           17 
 2235000   0.87992554   -6.5794667    752.43864  0.028055132  0.027912921            7 
 2236000   0.90378812   -6.6006748    755.03738  0.028139437  0.027905912           14 
 2237000   0.90635146   -6.6066164    752.62991  0.028037174  0.027898869            6 
 2238000   0.87816262   -6.5917614     752.4918  0.028019504  0.027891821            6 
 2239000   0.89971733   -6.5766621     755.7634  0.028128755   0.02788479            9 
 2240000   0.90835556   -6.5880284    753.13668  0.028018478  0.027877719            8 
 2241000    0.9004421   -6.5946502    756.38893  0.028126912  0.027870743            7 
 2242000   0.89997891   -6.5885793    754.72035  0.028052347  0.027863761            8 
 2243000    0.8741022   -6.5653767    754.39373  0.028027706   0.02785676            6 
 2244000    0.8820101     -6.54466    754.05867  0.028002773  0.027849801            8 
 2245000    0.8917946   -6.6103107    753.68333  0.027976367  0.027842769            7 
 2246000   0.89026768   -6.5783977    756.15774  0.028055719  0.027835763            6 
 2247000   0.88978231   -6.5940376      753.847  0.027957536  0.027828791            7 
 2248000    0.8913149    -6.614777    757.28176  0.028072426  0.027821788            5 
 2249000   0.90178141   -6.5680119    757.16711  0.028055695  0.027814868            4 
 2250000   0.89093807   -6.5526222    757.04081  0.028038549  0.027808022           11 
 2251000   0.92983471   -6.5897821     757.7009  0.028050529  0.027801111            6 
 2252000   0.90048363   -6.5905287    756.92616  0.028009405  0.027794282            7 
 2253000   0.89659384   -6.5969575    758.73214  0.028063772    0.0277874            6 
 2254000   0.91461975   -6.6022562    759.18952  0.028068231  0.027780597           20 
 2255000   0.89512376   -6.6112401      758.466  0.028029046  0.027773759           12 
 2256000   0.89990306   -6.6065255    758.06331  0.028001748  0.027766886           15 
 2257000   0.88860057   -6.6210083    756.03382  0.027914408  0.027759883            7 
 2258000   0.89709911   -6.5939027    755.38002  0.027877916  0.027752913           12 
 2259000   0.87563576   -6.5791035    757.65574  0.027949526  0.027745924           20 
 2260000   0.89902042   -6.5919514    756.84442  0.027907242  0.027738978           16 
 2261000   0.89249627    -6.574486    757.99097  0.027937158  0.027731968            8 
 2262000    0.8932243   -6.5981299    757.22871  0.027896725  0.027724993           12 
 2263000   0.89583007   -6.5906172    757.80877  0.027905758  0.027718031            8 
 2264000   0.87388882   -6.6002124    759.94235  0.027971965  0.027711043            9 
 2265000   0.88044496   -6.6188447    757.68733   0.02787665  0.027704092           10 
 2266000   0.89644766   -6.6037461    757.80446  0.027868655  0.027697099            9 
 2267000   0.89044646   -6.5875645    758.10369  0.027867361   0.02769014            7 
 2268000   0.88488511   -6.5985542    758.26396  0.027860963  0.027683216           13 
 2269000   0.87914315   -6.5614343    757.39151  0.027816641  0.027676273            7 
 2270000   0.90493433   -6.6022898    759.51247  0.027882249   0.02766929           17 
 2271000   0.88799831   -6.6067672    758.44232  0.027830703  0.027662321           12 
 2272000   0.89241417    -6.613838    759.27253  0.027848904  0.027655387           15 
 2273000   0.87763851   -6.5809962    760.46501  0.027880371  0.027648421            9 
 2274000   0.88133202   -6.5750699    758.38408  0.027791853  0.027641437            7 
 2275000   0.90409284   -6.5990465    757.91834  0.027762576  0.027634449           10 
 2276000    0.8990947   -6.6018557    756.96895  0.027715618  0.027627426           11 
 2277000   0.87987702   -6.6126994    759.47024  0.027794987  0.027620434            5 
 2278000   0.88556524   -6.6130019    759.15084  0.027771102  0.027613446           11 
 2279000   0.89333483   -6.6135729    759.28232  0.027763724  0.027606417            8 
 2280000   0.88135842   -6.5845998    760.70171  0.027803425  0.027599373           13 
 2281000   0.91089361    -6.605892    760.28419  0.027775982  0.027592426            7 
 2282000   0.87076672   -6.5983645    759.52411  0.027736054  0.027585471            6 
 2283000   0.89738935   -6.6167821     758.0854   0.02767139   0.02757844           11 
 2284000   0.88875313   -6.5976728    761.55195  0.027785754  0.027571489           11 
 2285000   0.87427816   -6.5943267    762.29778  0.027800794  0.027564556            6 
 2286000   0.90237411   -6.5926967    762.86494  0.027809308   0.02755766           14 
 2287000   0.88248696   -6.5845772    761.19641  0.027736351  0.027550794            9 
 2288000   0.89636506   -6.6066759    762.37953   0.02776732  0.027543888            7 
 2289000    0.8770757   -6.6351275    760.65392  0.027692366  0.027537019           24 
 2290000   0.88530304   -6.6096125      761.032  0.027694032  0.027530089            6 
 2291000   0.86345751   -6.6126226    761.36036  0.027693888  0.027523169           13 
 2292000   0.85970006   -6.6280477    762.37585  0.027718726  0.027516238            8 
 2293000   0.87233425   -6.6113411    762.02176   0.02769377  0.027509326            7 
 2294000   0.86748644   -6.5982964    762.39688  0.027695324  0.027502441           10 
 2295000   0.86463051   -6.6540137    760.96006  0.027631084  0.027495554           10 
 2296000   0.87793589   -6.6034892    762.65459  0.027680553  0.027488623            8 
 2297000   0.87866127   -6.6368638    764.33963  0.027729634  0.027481672           10 
 2298000   0.88562923   -6.5984993    764.22202  0.027713302  0.027474784            6 
 2299000   0.87713359   -6.5851161    764.14742  0.027698544  0.027467909           14 
 2300000   0.88601222   -6.5867317    762.94371  0.027642888  0.027461027            4 
 2301000   0.87350683   -6.5840618    765.65137  0.027728936  0.027454236           12 
 2302000   0.87472593   -6.6062105    763.80318  0.027649985  0.027447423            9 
 2303000   0.88755995   -6.5709068    764.14232   0.02765025  0.027440622            5 
 2304000   0.89774815   -6.6437142    763.71543  0.027622809  0.027433823           12 
 2305000   0.90342949   -6.6320686    765.81441   0.02768671  0.027427026           10 
 2306000   0.86208113   -6.6089344    764.04974  0.027610933    0.0274202            8 
 2307000   0.88062773   -6.5906671    766.76289  0.027696969  0.027413408           11 
 2308000   0.87270394   -6.6297363    763.33404  0.027561166  0.027406553           11 
 2309000    0.8990136   -6.6242008    763.36279  0.027550267   0.02739965           13 
 2310000   0.87613724   -6.6241908    764.32008  0.027572874   0.02739279            9 
 2311000    0.8863904   -6.6019883    765.23085  0.027593785   0.02738591           10 
 2312000   0.89936738   -6.5680465    767.76171  0.027673072   0.02737903           17 
 2313000   0.86299335   -6.6152639    763.94486  0.027523593  0.027372115           13 
 2314000   0.90432491   -6.6026991     764.5732  0.027534327  0.027365163            8 
 2315000   0.86957874   -6.5966295    765.66059  0.027561576  0.027358262            9 
 2316000   0.89399155   -6.6253106    766.38888  0.027575881  0.027351393            5 
 2317000   0.88689139   -6.6173027    767.29111  0.027596429  0.027344491           11 
 2318000   0.88494829    -6.637219     766.6986  0.027563223  0.027337596           21 
 2319000   0.88003351    -6.616738    766.54368   0.02754577  0.027330767            7 
 2320000   0.86874965   -6.6123196    766.66913  0.027538403  0.027323817           10 
 2321000   0.88585577   -6.6063117    764.84539  0.027461058   0.02731686            9 
 2322000   0.85785969   -6.6598041    764.67117  0.027442979  0.027309866           15 
 2323000   0.87824076   -6.6630568    766.01257  0.027479286  0.027302828           12 
 2324000   0.88094021   -6.6270998    764.49415  0.027413015  0.027295831           16 
 2325000   0.88298859   -6.6276074    767.38007  0.027504662  0.027288924            8 
 2326000   0.87829129   -6.6417124    766.29173  0.027453845  0.027281968            5 
 2327000   0.88487909    -6.629669    767.58928  0.027488515  0.027274953           29 
 2328000   0.87362104   -6.6346259    766.36464  0.027432869  0.027267927           11 
 2329000   0.87921985   -6.5979543    768.66272  0.027503318  0.027260914           16 
 2330000   0.88339686   -6.6316126    768.33041  0.027479628  0.027253979            8 
 2331000   0.86487145   -6.6477838     766.5448  0.027404004  0.027246933            7 
 2332000   0.86907196   -6.6239062    765.56809   0.02735735   0.02723994           12 
 2333000   0.85857654   -6.5698546    769.89857  0.027500306  0.027233032           14 
 2334000   0.87032932   -6.5829293    766.85549  0.027379873  0.027226132            7 
 2335000   0.88548012   -6.6494246    766.95984  0.027371871  0.027219215            5 
 2336000   0.88099642   -6.6214001    767.84181  0.027391617  0.027212247           13 
 2337000   0.88426249   -6.6121702    769.30673  0.027432133  0.027205321            8 
 2338000   0.88385492    -6.590941    769.76519   0.02743674  0.027198371            8 
 2339000    0.8828868   -6.6098023    767.64976  0.027349642  0.027191428            4 
 2340000   0.86896386   -6.6334241    767.51346    0.0273331  0.027184452            8 
 2341000   0.86859918   -6.6389827    767.76695  0.027330448   0.02717749           10 
 2342000   0.88423755    -6.633238    768.04956  0.027328834  0.027170518            6 
 2343000   0.85818886   -6.6103554    770.19835  0.027393596  0.027163585           26 
 2344000   0.90350219   -6.6191509    771.39266  0.027424369  0.027156683           12 
 2345000   0.87860205   -6.6238512    769.85191  0.027357922   0.02714981            9 
 2346000   0.88890242   -6.6126348    769.87321  0.027347016   0.02714295            7 
 2347000   0.89689535   -6.6586378    770.17093  0.027345935  0.027136062            6 
 2348000    0.8621176   -6.6197058    771.17092   0.02736978    0.0271292           25 
 2349000    0.8919911   -6.6438511    771.13428  0.027356828  0.027122248            5 
 2350000   0.87524601   -6.6636831    769.80245  0.027297959  0.027115307            7 
 2351000   0.86987991   -6.6287223    770.89123  0.027324941  0.027108402           13 
 2352000   0.86873677   -6.6456053    769.86284  0.027276886  0.027101439            7 
 2353000   0.88270047   -6.6257116    771.46398     0.027322  0.027094461            7 
 2354000   0.86525172   -6.6366859    767.79831  0.027180626  0.027087524            5 
 2355000   0.88087859   -6.6003089    772.25037  0.027326623  0.027080609            8 
 2356000   0.85750203   -6.6101047    772.27669  0.027315955  0.027073759            5 
 2357000    0.8700246   -6.6004627    771.42558  0.027274274  0.027066868            9 
 2358000   0.87195828   -6.5916526    770.53778  0.027231333  0.027059885           20 
 2359000   0.87111706   -6.6373933    768.83647  0.027159689  0.027052865            7 
 2360000    0.8813388    -6.624972     771.4034  0.027238821  0.027045806            8 
 2361000   0.87912195   -6.6366785    770.69085  0.027202134  0.027038763            8 
 2362000   0.88786773   -6.6450818    770.10617  0.027169989  0.027031746           16 
 2363000   0.86779785   -6.6271672     771.1573   0.02719556  0.027024704           13 
 2364000   0.86825911   -6.6357387     770.6439  0.027165958  0.027017669            9 
 2365000   0.87841885   -6.6044767    771.92537  0.027199626   0.02701067           11 
 2366000   0.87434117   -6.6622153    773.13282  0.027230657  0.027003664            7 
 2367000   0.86620877   -6.6145633    772.69252  0.027203651  0.026996659           12 
 2368000    0.8931504   -6.6476148    771.20766  0.027139909  0.026989678            8 
 2369000   0.88434783   -6.6486622    772.72921  0.027181976  0.026982676           27 
 2370000   0.87042762   -6.6337788    772.33324  0.027156584   0.02697572            9 
 2371000   0.86650199   -6.6022973    774.22754  0.027211709  0.026968836            7 
 2372000   0.86522473   -6.6494894    773.23105  0.027165228  0.026961878           10 
 2373000   0.88094116   -6.6540494    770.22165  0.027048098  0.026954898            9 
 2374000   0.86842221   -6.6414798    773.47224  0.027150809  0.026947864           16 
 2375000   0.87816671   -6.6426826     771.9051  0.027084389  0.026940866            9 
 2376000   0.86170618   -6.6167212    772.16323  0.027082044  0.026933881            6 
 2377000   0.87206047   -6.6065374    772.61464  0.027086476  0.026926903           11 
 2378000   0.86109175    -6.635933    773.31364  0.027099581  0.026919927           10 
 2379000    0.8759695   -6.6372745    773.64075  0.027099648  0.026912931            6 
 2380000   0.88002657   -6.5932183    772.60982  0.027052165  0.026905929           14 
 2381000   0.88101062   -6.6436127    773.13838  0.027059302  0.026898916           10 
 2382000   0.87147106   -6.6305917    773.80799  0.027071368    0.0268919           19 
 2383000   0.89358702   -6.6460228    772.90201  0.027028326  0.026884886           12 
 2384000   0.86103617   -6.6143055    775.07106  0.027092808  0.026877935           10 
 2385000    0.8664908   -6.6775182    772.88024    0.0270049  0.026870923           18 
 2386000   0.86908712   -6.6468925    774.06253  0.027034875  0.026863963           17 
 2387000   0.86990603   -6.6300413    776.07561  0.027093828  0.026857018           17 
 2388000   0.87187628   -6.6556555    776.13719  0.027084631  0.026850057           18 
 2389000   0.88961783   -6.6435856    774.53151  0.027017284  0.026843063            9 
 2390000   0.89001881   -6.6470044    774.69638  0.027011729  0.026836065           12 
 2391000   0.87162531   -6.6488779     774.3693  0.026989032  0.026829052            9 
 2392000   0.86447487   -6.6752236    776.28828  0.027044603  0.026822103           12 
 2393000   0.86949096   -6.6334073    776.90783  0.027054876  0.026815173           13 
 2394000   0.85612369   -6.6266395    775.60475  0.026998216  0.026808249           14 
 2395000   0.87259283   -6.6323318     776.6285  0.027022564  0.026801326            6 
 2396000   0.85634262   -6.6735904    776.27503  0.026998993  0.026794414           40 
 2397000   0.87517595   -6.6398509    775.25602  0.026952302  0.026787484           15 
 2398000   0.86997881   -6.6185758    777.60223  0.027022596  0.026780591            4 
 2399000   0.85915638   -6.6370372    776.96795  0.026989299  0.026773758           21 
 2400000   0.86910797   -6.5965851    778.21282  0.027021278  0.026766968           10 
 2401000   0.86856304   -6.6535436    776.28998  0.026943287   0.02676013            7 
 2402000   0.86636944   -6.6629828    777.93621  0.026989183  0.026753247           11 
 2403000   0.85878865   -6.6449943    776.30017  0.026921215   0.02674632           14 
 2404000   0.87769192   -6.6477329    777.33664  0.026945946   0.02673945            9 
 2405000   0.86653384   -6.6235658    776.48079  0.026905086    0.0267326            3 
 2406000    0.8810857   -6.6623345    777.36116  0.026924396  0.026725722            7 
 2407000   0.84709319    -6.641033    777.23119   0.02690871  0.026718771           11 
 2408000   0.84576484   -6.6395626    776.71852  0.026879794  0.026711827           13 
 2409000   0.89029307    -6.670172    776.64503  0.026866094  0.026704884           18 
 2410000   0.88736339   -6.6305021    776.22305  0.026840354  0.026697976           12 
 2411000   0.88447092   -6.6481147    777.31065  0.026866813  0.026691113            7 
 2412000   0.86676946   -6.6363237    779.00047  0.026914057   0.02668423            8 
 2413000   0.86507602   -6.6217821    779.92771  0.026934926  0.026677323            8 
 2414000   0.86186441   -6.6266885    778.80911  0.026885153  0.026670426            6 
 2415000   0.87317812     -6.62041    779.36739  0.026893285  0.026663554            6 
 2416000   0.87291752   -6.6239685    779.14049  0.026874327  0.026656726            9 
 2417000   0.87093094   -6.6571408    778.03272  0.026825015  0.026649901           14 
 2418000   0.87940268    -6.688452    778.42683  0.026827503  0.026642956           15 
 2419000   0.87669157   -6.6483232    778.83535  0.026830486  0.026636062           14 
 2420000   0.85949128   -6.6481355    780.18474  0.026865866   0.02662921           19 
 2421000   0.85855656    -6.650994    778.31005   0.02679024   0.02662233           12 
 2422000   0.84834153   -6.6276164    779.74362  0.026828503  0.026615433            9 
 2423000   0.86436514   -6.6518109     778.4368  0.026772486  0.026608549           16 
 2424000   0.88091773   -6.6150916     780.8591  0.026844716  0.026601705            8 
 2425000   0.86516546   -6.6196591    779.84093  0.026798657  0.026594835            4 
 2426000   0.85304982    -6.632613    781.18638  0.026833827  0.026587972           15 
 2427000   0.88131811   -6.6048045    782.37908  0.026863723  0.026581188            9 
 2428000   0.84852363   -6.6281765    779.19412  0.026743346  0.026574432           14 
 2429000   0.87424622   -6.6051887     781.5824  0.026814272  0.026567652           19 
 2430000    0.8696962   -6.6561973    779.96032   0.02674761  0.026560852           20 
 2431000   0.85984045   -6.6381993    783.09203  0.026843961  0.026554026            9 
 2432000   0.85325943   -6.6273795    781.63892  0.026783132  0.026547204           12 
 2433000   0.86552986   -6.6182227    782.75619  0.026810392  0.026540401           12 
 2434000   0.86061578   -6.6759442    781.70396  0.026763351  0.026533543           18 
 2435000   0.86750337   -6.6707136    780.34274  0.026705775  0.026526695           13 
 2436000   0.85217692   -6.6480398    782.36614   0.02676403  0.026519852            7 
 2437000   0.85601757    -6.667013    781.00273  0.026706426   0.02651302           13 
 2438000   0.85225059   -6.6037231    783.29152  0.026773705  0.026506223           17 
 2439000    0.8654541   -6.6774427    779.96326  0.026649011  0.026499357           15 
 2440000   0.86581888   -6.6691052    781.64238  0.026695436  0.026492519           29 
 2441000   0.84220523   -6.6461741    782.51043  0.026714134  0.026485637            3 
 2442000   0.85134415   -6.6502685    782.21327  0.026693055  0.026478857           17 
 2443000   0.86676696   -6.6646905    783.87253  0.026738727  0.026472037            5 
 2444000    0.8437616   -6.6339371    784.83594  0.026760636  0.026465235            5 
 2445000   0.86846457   -6.6332922    784.55873  0.026740243  0.026458398           10 
 2446000   0.85922684   -6.6206551    782.80951  0.026669716  0.026451587           12 
 2447000   0.84681474    -6.631576    783.13632  0.026669947  0.026444762            6 
 2448000   0.87081195   -6.6576202    783.43673  0.026669279  0.026437894           11 
 2449000   0.85673367   -6.6396863    782.17291  0.026615384  0.026430971            6 
 2450000   0.87058368   -6.6352346    783.49303  0.026649423  0.026424103           16 
 2451000   0.85143576   -6.6408129    783.86621  0.026651238  0.026417222            7 
 2452000   0.85040031   -6.6284335    784.84972  0.026673794  0.026410349            5 
 2453000   0.85456971   -6.6578959    785.43297  0.026682734  0.026403519            8 
 2454000   0.85488416   -6.6822982    783.88229  0.026619203  0.026396657           19 
 2455000   0.86953957   -6.6285795    785.15116  0.026651431  0.026389792           35 
 2456000   0.86193699   -6.6376982    783.79919  0.026594706  0.026382889            6 
 2457000   0.86348071   -6.6551527    785.94766  0.026656751  0.026376037           12 
 2458000   0.84675274   -6.6583412    784.84737  0.026608604  0.026369194           14 
 2459000   0.85813698   -6.6833644    784.60053  0.026589417    0.0263623           11 
 2460000   0.85397432    -6.683001    782.12675  0.026494809  0.026355426           19 
 2461000   0.86567903   -6.6569767    782.70841  0.026503739  0.026348564           16 
 2462000   0.86661143   -6.6821813    784.87676  0.026566367  0.026341693           17 
 2463000   0.85927041   -6.6649646    782.60146  0.026478598  0.026334819           15 
 2464000   0.85308725   -6.6517109    786.21434  0.026590041  0.026327967            5 
 2465000   0.87255101   -6.6689895    786.26182  0.026580859  0.026321196           21 
 2466000   0.86292013   -6.6598363    784.60756  0.026514178  0.026314378           17 
 2467000   0.86377364   -6.6482746    783.52748  0.026466946  0.026307558            8 
 2468000   0.87544957   -6.6690822    786.53393  0.026557737  0.026300776           14 
 2469000   0.87668748   -6.6658466    786.34213  0.026540507  0.026293975            7 
 2470000   0.89267664   -6.6755431    785.86251   0.02651358  0.026287191           12 
 2471000   0.85339252   -6.6881528    785.12892   0.02647811  0.026280335            8 
 2472000   0.83896813   -6.6577704    786.11169  0.026500529  0.026273447           19 
 2473000   0.86815657   -6.6545093    786.70136  0.026509683  0.026266624           10 
 2474000   0.86585506   -6.6644396    786.36754  0.026487724  0.026259804            8 
 2475000   0.85531768   -6.6972835    783.63015  0.026384854  0.026252959           35 
 2476000   0.84090839   -6.6820026    783.77201  0.026378972  0.026246048           15 
 2477000   0.86391735   -6.6799587     784.7751  0.026402069  0.026239162            8 
 2478000   0.85092862   -6.6476181    785.60864  0.026419446  0.026232285           23 
 2479000   0.86222639   -6.6470714    787.40786   0.02646927  0.026225478            9 
 2480000    0.8390392   -6.6610074    787.54865  0.026463328  0.026218683           18 
 2481000   0.85434507   -6.6867427    787.20619  0.026441159  0.026211857            7 
 2482000   0.83896235   -6.6552007    787.92975  0.026454799  0.026205074           10 
 2483000   0.87358129   -6.6619161    788.84139  0.026474741   0.02619827           14 
 2484000   0.85625338   -6.6542248    788.28003  0.026445251  0.026191449           13 
 2485000   0.86234559   -6.6607989    789.30559     0.026469  0.026184639            9 
 2486000   0.86661056   -6.6344865    789.52104  0.026465575  0.026177901            9 
 2487000   0.86478808   -6.6766107    788.29808  0.026413955  0.026171163           10 
 2488000   0.84247554   -6.6843344    786.22499  0.026333902  0.026164318            7 
 2489000   0.84371142   -6.6542894    788.42119  0.026396853  0.026157492            6 
 2490000   0.83479728   -6.6723575    786.28871  0.026314883  0.026150634           18 
 2491000    0.8449717   -6.6609978    788.73139  0.026386036   0.02614383           10 
 2492000   0.84601742   -6.7028481    786.21962  0.026291453  0.026136963            5 
 2493000   0.84164484   -6.6633746    787.15295  0.026312106  0.026130072            9 
 2494000   0.84358064   -6.6513459    789.53255  0.026381066  0.026123153            8 
 2495000   0.84586593   -6.6844709    789.18902  0.026359019  0.026116279           16 
 2496000   0.85551109   -6.6828714    786.83849  0.026269982    0.0261094           11 
 2497000   0.85591141   -6.6844665    787.97246  0.026297305  0.026102519           10 
 2498000   0.86510303   -6.6427106    786.03501  0.026222145  0.026095646            8 
 2499000   0.85237654   -6.6899247      788.979  0.026309824  0.026088747           15 
 2500000   0.85869399   -6.6843967    787.78965  0.026259655  0.026081746           14 
 2501000   0.84445335   -6.6576821    787.18801  0.026229109  0.026074792           11 
 2502000   0.84848402    -6.655572    787.67677  0.026234904   0.02606781           23 
 2503000   0.84744862   -6.6666042    787.11613  0.026205757  0.026060819           11 
 2504000   0.82587945   -6.6708573     789.1114  0.026261695  0.026053824           14 
 2505000   0.84718955   -6.6617491    788.31956  0.026224869  0.026046864            7 
 2506000   0.85031283    -6.693999    787.85786  0.026199051  0.026039902           13 
 2507000    0.8456435   -6.6434682    790.04835  0.026261413  0.026032918           12 
 2508000   0.85331418   -6.6613546     789.1245  0.026220245  0.026025975           10 
 2509000   0.84030606   -6.6925501    789.80737  0.026232475  0.026019019            8 
 2510000   0.85684491   -6.6650316     788.6375  0.026183184  0.026012084            6 
 2511000   0.83141954   -6.6569045    789.19083   0.02619112   0.02600521            9 
 2512000   0.85955174   -6.6374739    790.51581  0.026224649  0.025998341           10 
 2513000    0.8611621   -6.6724786    787.73993  0.026122163  0.025991454           18 
 2514000    0.8718505   -6.6763087    787.01862  0.026087862  0.025984465            7 
 2515000   0.83104096   -6.6928154    786.87113  0.026072602  0.025977481           11 
 2516000   0.83125465   -6.6775914    787.94459  0.026097794  0.025970545           12 
 2517000   0.83615668   -6.6794318    789.25409   0.02613078  0.025963607            4 
 2518000    0.8456598   -6.6931588    788.70754  0.026102315  0.025956661           14 
 2519000   0.85505301   -6.6833171    790.08897  0.026137653  0.025949747           22 
 2520000   0.85399839   -6.6412924    790.13214  0.026128708  0.025942843            6 
 2521000   0.83460067   -6.6823377    789.81758  0.026107946  0.025935936           18 
 2522000   0.85935315    -6.659586    789.40093  0.026083827  0.025928977           12 
 2523000   0.84086718   -6.6535317     790.3169  0.026103742  0.025922117            9 
 2524000   0.85932472   -6.6645026    790.10934  0.026086547  0.025915171            7 
 2525000   0.86027847   -6.6843851    790.23414  0.026080335  0.025908223           10 
 2526000    0.8509704   -6.6652158    790.75276  0.026087119  0.025901232            8 
 2527000   0.84945591   -6.6666487    789.19358  0.026025378  0.025894267           22 
 2528000   0.84054961   -6.6702652     791.0412  0.026075989  0.025887255           21 
 2529000   0.84359763   -6.6595819    787.54252  0.025950393  0.025880259           12 
 2530000   0.84250031   -6.6583338    790.19291  0.026027435  0.025873236           11 
 2531000   0.85582644    -6.662921    790.66493  0.026032692  0.025866237           17 
 2532000   0.86760596   -6.6929812    790.51867  0.026017597  0.025859226           11 
 2533000   0.84885659   -6.6586086    790.84522  0.026018069   0.02585226            6 
 2534000   0.84333226   -6.6776403    792.13025  0.026050061  0.025845265            8 
 2535000   0.84985235   -6.6621281     790.7302  0.025993761  0.025838294            8 
 2536000   0.85348632   -6.6850541    791.74535  0.026016869  0.025831275            9 
 2537000   0.83305847   -6.6851297    791.11879  0.025986033  0.025824303            7 
 2538000   0.83281397   -6.6878823     790.9536   0.02597037  0.025817309           15 
 2539000   0.84337135   -6.7135133    790.99458  0.025961487  0.025810306           14 
 2540000   0.82936639   -6.6851433    791.28444  0.025960775  0.025803293           13 
 2541000   0.84355996   -6.7152683    791.00016  0.025941236  0.025796308            8 
 2542000    0.8378623   -6.6744718    792.33802  0.025974889  0.025789339            7 
 2543000   0.85223022    -6.683676    793.45382  0.026001239  0.025782358           15 
 2544000    0.8616128   -6.7066825    789.17774  0.025850948  0.025775363           11 
 2545000   0.83377946    -6.718924    789.32505  0.025845614  0.025768301           21 
 2546000   0.83193381   -6.7049357     790.0517  0.025859247  0.025761293           21 
 2547000   0.84171407   -6.6940325    791.19583  0.025886527   0.02575432            9 
 2548000   0.84202003    -6.675012    793.54448  0.025953182   0.02574738           16 
 2549000   0.82529731   -6.7056029    791.26608  0.025868513  0.025740442           12 
 2550000    0.8459027   -6.6771455    792.15862  0.025887536  0.025733475           29 
 2551000   0.83285442   -6.6750045    794.45856   0.02595252  0.025726514           12 
 2552000   0.85354083   -6.6668779    793.62529  0.025915141  0.025719562           19 
 2553000   0.83547293   -6.6787096    792.62651  0.025872389  0.025712603            8 
 2554000   0.86184538   -6.6882033     794.0612  0.025909071  0.025705657            6 
 2555000   0.85039974   -6.6994605    793.03971  0.025865614  0.025698681            6 
 2556000   0.82964994   -6.6873343    791.75401  0.025813576  0.025691701            7 
 2557000   0.84302685   -6.6798785    792.79925  0.025837546  0.025684755           13 
 2558000   0.84660931   -6.6800428    795.13131  0.025903418  0.025677771            8 
 2559000   0.85446534   -6.6817024    793.24233  0.025831781  0.025670857           17 
 2560000   0.82565061   -6.7065124    793.73796  0.025837824  0.025663932            9 
 2561000   0.84643368   -6.6818548    795.57021  0.025887355  0.025657039           11 
 2562000    0.8527026   -6.6868907    793.09633  0.025796784  0.025650192            9 
 2563000   0.82024659   -6.6927323    793.94939  0.025814455  0.025643301            8 
 2564000   0.84262396   -6.6976767    794.84964  0.025833647  0.025636372           15 
 2565000   0.83674343   -6.7053513    794.67486  0.025817897  0.025629466           11 
 2566000    0.8481161   -6.6974798    794.14418  0.025790601   0.02562256           11 
 2567000   0.82368636   -6.7031497    795.27209   0.02581717  0.025615648            9 
 2568000   0.84535136   -6.6931873    795.75353  0.025822739  0.025608764           14 
 2569000   0.85380163   -6.6940733     796.1408   0.02582525   0.02560187            7 
 2570000   0.84037959   -6.6901658     796.6103  0.025830425  0.025595029           11 
 2571000   0.84656529   -6.6974763    797.34031   0.02584404  0.025588203           19 
 2572000   0.85120073   -6.7040356    795.84665  0.025785596  0.025581333           18 
 2573000   0.84882959    -6.689189    794.73087  0.025739437  0.025574461           11 
 2574000   0.84637808   -6.6973366    796.01067  0.025770871  0.025567564           24 
 2575000   0.81911016   -6.7295632    795.53676  0.025745526  0.025560673           16 
 2576000   0.85952985   -6.7283042    795.34693  0.025729391  0.025553722           13 
 2577000   0.83387825   -6.7122981    796.09465  0.025743586  0.025546816           31 
 2578000   0.84005165   -6.6919022    797.58043  0.025781628  0.025539915           12 
 2579000   0.85291489   -6.6883063    796.29536  0.025730107     0.025533           11 
 2580000   0.86739498   -6.7013322    794.94678  0.025676575  0.025526129            9 
 2581000   0.82774836   -6.6930658     797.6905  0.025755214  0.025519223           13 
 2582000   0.82882289   -6.7138841    797.44464  0.025737304  0.025512345           13 
 2583000   0.84751078   -6.6854015    795.93082  0.025678501  0.025505482           18 
 2584000   0.85287924   -6.6638092    797.20165  0.025709548  0.025498618           12 
 2585000   0.83917034   -6.6829881    796.87592  0.025689101  0.025491789            7 
 2586000   0.85017621   -6.6929643    797.40935  0.025696357  0.025484995           20 
 2587000   0.83980239   -6.6944278    796.80766  0.025667042  0.025478216           29 
 2588000   0.83296991   -6.6711242    798.31155   0.02570555  0.025471471           14 
 2589000   0.82776795   -6.7092141      796.732  0.025644779  0.025464732           14 
 2590000   0.83149334   -6.6710912    797.82186  0.025669944  0.025457977            5 
 2591000    0.8253958   -6.7211511     799.8603  0.025725598  0.025451238            6 
 2592000   0.84636895    -6.713648    799.76273  0.025712536  0.025444492           12 
 2593000   0.83353997   -6.7163011    798.38148   0.02565823  0.025437681           17 
 2594000   0.84490713   -6.7258802    797.49331  0.025619806   0.02543086           24 
 2595000   0.83616891   -6.6839243    800.46724  0.025705435  0.025424059           16 
 2596000   0.83712787   -6.6882937    798.08812  0.025619162  0.025417238           16 
 2597000   0.82518329   -6.7030385    799.52252  0.025655324  0.025410404           17 
 2598000   0.83148414   -6.6999662    797.60739  0.025584019  0.025403565            9 
 2599000   0.83219799   -6.6794135    798.16529  0.025592064  0.025396703            8 
 2600000   0.83205812   -6.7085781      799.187  0.025614968  0.025389821           12 
 2601000   0.84640039   -6.7030558    797.52881  0.025551993  0.025382945           14 
 2602000   0.83178494   -6.6863528    798.82367  0.025583643  0.025376107           20 
 2603000   0.85470359   -6.7043592    799.63956  0.025599935  0.025369305           10 
 2604000   0.84086184    -6.694433    798.55211  0.025555303  0.025362448           12 
 2605000   0.81838675   -6.7177751    799.49492  0.025575653  0.025355617           10 
 2606000   0.83189639   -6.7221963    799.69436  0.025572217  0.025348746           15 
 2607000   0.83735932   -6.6833159    799.17825   0.02554591  0.025341927            7 
 2608000   0.84454148   -6.6998421     799.8329  0.025557033  0.025335117           23 
 2609000     0.824755   -6.6939467    797.48248  0.025472163  0.025328289           12 
 2610000   0.85641876   -6.7298334    799.46935  0.025525841  0.025321458           11 
 2611000   0.81402579   -6.6952523    800.30896  0.025542862  0.025314618            4 
 2612000   0.83299867   -6.7167322    798.88762  0.025487737  0.025307827           12 
 2613000   0.84980662   -6.7324454    798.87215  0.025477489  0.025300999           23 
 2614000   0.84205575    -6.712761    800.20678   0.02551029  0.025294132           11 
 2615000    0.8362895   -6.7159517    799.10417  0.025465397  0.025287335           11 
 2616000   0.83944884   -6.7086385    800.40263  0.025497026  0.025280481            8 
 2617000   0.84432701   -6.6986642    799.92125  0.025471954   0.02527366           12 
 2618000   0.82393272   -6.6950924    802.23481  0.025535867  0.025266888           15 
 2619000   0.84078296    -6.702979    802.19414  0.025524823  0.025260122           21 
 2620000   0.82679234   -6.7133691    801.73476  0.025500469  0.025253348           12 
 2621000   0.84616624   -6.7481732    801.01959  0.025468002  0.025246549           15 
 2622000   0.82915532   -6.7146676    801.65007  0.025478327  0.025239694           21 
 2623000   0.82693415   -6.7049492    801.75011  0.025471792  0.025232904            9 
 2624000   0.83841108   -6.7008232     802.5987  0.025489034   0.02522613           17 
 2625000   0.82614172    -6.694034    802.53047  0.025477158    0.0252194           17 
 2626000   0.84129817   -6.7462046    803.12736  0.025486397   0.02521265           28 
 2627000   0.83603284   -6.7376271    803.84665  0.025499513  0.025205874            9 
 2628000   0.81497476   -6.7130549    802.51732  0.025447657   0.02519912            8 
 2629000   0.84102419   -6.6979379    802.73477   0.02544487  0.025192397           19 
 2630000   0.82462466   -6.7240948    801.44612  0.025394364   0.02518565            8 
 2631000   0.82438934   -6.7163907    804.51439  0.025481895   0.02517887           14 
 2632000   0.81947961   -6.7067813    803.81957  0.025450214  0.025172122           14 
 2633000   0.82184477   -6.7186217    805.05199  0.025479554  0.025165377           19 
 2634000   0.83172078   -6.6793463    804.42181  0.025449943   0.02515865           14 
 2635000   0.82635431   -6.7133309    802.35381  0.025374883  0.025151874           16 
 2636000   0.83611057   -6.7297002    803.05758  0.025387506  0.025145077            9 
 2637000   0.82256815    -6.730884    803.72613  0.025399006  0.025138287           38 
 2638000   0.82914804   -6.7214085    805.07775  0.025432075  0.025131528           14 
 2639000   0.82269753   -6.7171467    806.42815   0.02546508  0.025124817            4 
 2640000   0.81641236   -6.7055756    804.46658  0.025393516  0.025118133            8 
 2641000    0.8370844   -6.6875247    804.65681  0.025389903  0.025111445            6 
 2642000     0.824036   -6.7296432    803.29881  0.025337459  0.025104753            9 
 2643000   0.83925515   -6.7452217    804.35803   0.02536127  0.025098045            6 
 2644000   0.85722496   -6.6984577    803.82526  0.025334886  0.025091386            9 
 2645000   0.81480755   -6.7141979    803.97532  0.025330035  0.025084711            5 
 2646000   0.82298878   -6.7280041    804.36578   0.02533276  0.025078019           12 
 2647000   0.82574471   -6.6887601    804.51795   0.02532798  0.025071302            7 
 2648000   0.83099915   -6.7452319    803.90742  0.025299201  0.025064552           10 
 2649000    0.8208377   -6.7011145    805.90819  0.025352592  0.025057825            8 
 2650000   0.81008882   -6.6853816    803.84878  0.025278264  0.025051122           10 
 2651000   0.83612616   -6.7103195    805.28151  0.025313766  0.025044421            9 
 2652000   0.81938757   -6.7050652    805.30924  0.025305092  0.025037752            7 
 2653000   0.80714728   -6.7083402    804.67914  0.025275761  0.025031048           15 
 2654000   0.83110794   -6.7138955    804.53059  0.025261573  0.025024346            9 
 2655000   0.82114957   -6.7066154    807.58279  0.025347859  0.025017656            8 
 2656000    0.8213889     -6.69488    805.44406  0.025271212  0.025010945            8 
 2657000    0.8285918   -6.7151958    805.56874  0.025265611  0.025004246           10 
 2658000    0.8370274   -6.6828483    806.26334  0.025277882  0.024997551            7 
 2659000   0.81967698   -6.7064882    806.18452  0.025265906  0.024990864           10 
 2660000   0.83745058   -6.7295813    805.63872  0.025239308  0.024984152            8 
 2661000    0.8339691   -6.7136645     806.5224  0.025257497   0.02497745            5 
 2662000   0.83057762   -6.6878905     808.5548  0.025311633  0.024970802            7 
 2663000   0.82843871   -6.6776459    809.54394  0.025333081  0.024964179           10 
 2664000   0.81868201   -6.7129395    808.83176  0.025301294  0.024957572            8 
 2665000   0.82173026   -6.7218415    808.31926  0.025275774  0.024950933           15 
 2666000   0.83110478   -6.7154635    807.48415   0.02524019   0.02494426           30 
 2667000   0.82387701   -6.7254312    807.37631  0.025227356  0.024937561           59 
 2668000   0.83335814    -6.751376    806.01089  0.025175253  0.024930905           17 
 2669000    0.8461432   -6.7269221    807.06865  0.025198846  0.024924233           18 
 2670000   0.82926132   -6.7548581    806.85673  0.025182794  0.024917553            9 
 2671000   0.81072675   -6.7129521    809.24973  0.025248026  0.024910893           10 
 2672000   0.81972657   -6.7020725    808.27484  0.025208172  0.024904303           23 
 2673000   0.81919427   -6.6973983    810.03976  0.025253765  0.024897733           14 
 2674000   0.82035222   -6.7541938    808.88428  0.025208311  0.024891129            9 
 2675000   0.81610288   -6.6969925    810.28294  0.025242459  0.024884535           10 
 2676000   0.81894897    -6.706343    810.43783   0.02523785  0.024877976            7 
 2677000   0.80204444   -6.7153214    809.29591  0.025192875  0.024871396            7 
 2678000   0.80890115   -6.7516506    808.41427  0.025156033  0.024864816           17 
 2679000   0.83780956   -6.7540154    810.40233  0.025208484  0.024858273            9 
 2680000   0.81808013   -6.6927991    811.48069  0.025232608   0.02485172           10 
 2681000   0.82470165   -6.7112348    809.41043  0.025158847  0.024845208           10 
 2682000   0.80985252   -6.7399968    811.15527  0.025203681  0.024838612           18 
 2683000   0.82457127    -6.757913    808.73266  0.025119042  0.024831979           19 
 2684000   0.81397941    -6.762713    809.84627  0.025144258  0.024825352           18 
 2685000   0.82761116   -6.7442523    807.47946  0.025061436  0.024818755           17 
 2686000   0.81139579   -6.7167479    811.81675   0.02518667  0.024812171           13 
 2687000    0.8263019   -6.7552159      808.519  0.025075022  0.024805576           11 
 2688000   0.83117008   -6.7281983    809.85598  0.025107142  0.024798954            8 
 2689000   0.83890553   -6.7089072    812.73343  0.025186979  0.024792362           15 
 2690000   0.82791205   -6.7160492    809.95058  0.025091406  0.024785751            8 
 2691000   0.82928342    -6.717396    809.96361  0.025082485  0.024779184            8 
 2692000   0.81560517   -6.7194047    812.83937   0.02516219  0.024772692            8 
 2693000   0.83305882   -6.7396857     813.1283  0.025161787  0.024766171           28 
 2694000   0.81374186   -6.7173939    812.13254  0.025121645  0.024759585           21 
 2695000   0.83486659   -6.7123948    811.53883  0.025093965  0.024752992           12 
 2696000   0.81564065   -6.6923893    808.92544  0.025003877  0.024746431           17 
 2697000   0.82811443   -6.7214583    811.07121  0.025060907  0.024739836           12 
 2698000   0.82944978   -6.7333069    809.75141  0.025010854  0.024733248           26 
 2699000   0.82479874   -6.7218779    811.56628  0.025057623   0.02472662           10 
 2700000    0.8337003   -6.7315743    810.40199  0.025012407  0.024720034           12 
 2701000   0.81903026    -6.724056    812.37835  0.025064123  0.024713454           16 
 2702000   0.81694049    -6.733764    810.94281  0.025010573  0.024706908           18 
 2703000   0.83182461    -6.729635    811.75856   0.02502647   0.02470034           13 
 2704000   0.82298277   -6.7262906    813.00118   0.02505551  0.024693736            6 
 2705000   0.82414496   -6.7181765    812.10347  0.025018591   0.02468718           16 
 2706000   0.80475423   -6.7242133    812.74974  0.025029248  0.024680629           13 
 2707000   0.81836498    -6.739203    813.81348  0.025052748  0.024674043           19 
 2708000     0.828966   -6.7390517    811.06749  0.024958995  0.024667441           12 
 2709000   0.81147047   -6.7290328    811.58369  0.024965661  0.024660845           25 
 2710000   0.83010064   -6.7560833    811.76393   0.02496199  0.024654296           25 
 2711000   0.83202704   -6.7512344    813.77599  0.025014632  0.024647746           32 
 2712000   0.81835967   -6.7482169    813.90805  0.025009465  0.024641164           27 
 2713000    0.8136621   -6.7373401    811.50104  0.024926313  0.024634577           33 
 2714000   0.80759031   -6.7548346    813.07352  0.024965411   0.02462801           36 
 2715000   0.81345736   -6.7252754    814.10757  0.024987955  0.024621479           29 
 2716000    0.8022487   -6.7433811    812.80941  0.024938924  0.024614952           14 
 2717000   0.80384844   -6.7094042     813.2626  0.024943645  0.024608411           25 
 2718000   0.81141765   -6.7126381    812.94251  0.024924654  0.024601911           47 
 2719000   0.81084686   -6.7561455    811.21176  0.024862442  0.024595361           38 
 2720000   0.80965056   -6.7451774    813.10124   0.02491119  0.024588802           12 
 2721000   0.83214273   -6.7295596    814.09678  0.024932524  0.024582259           15 
 2722000    0.8193078   -6.7482005     813.0659  0.024891805   0.02457571           23 
 2723000   0.81043861   -6.7398014    812.12478  0.024853861  0.024569148           10 
 2724000    0.8093324   -6.7323237    814.14861  0.024906651  0.024562633           14 
 2725000    0.8053999   -6.7245156    814.47593  0.024907521  0.024556117            9 
 2726000   0.81117796    -6.715432    813.61346  0.024872018  0.024549557           10 
 2727000   0.82563878    -6.732113    814.79075  0.024898874  0.024543016            7 
 2728000    0.8074536   -6.7467278    814.53077  0.024881805  0.024536459           14 
 2729000   0.81814065   -6.7322365      815.281  0.024895597  0.024529898           22 
 2730000    0.8296352   -6.7518202    814.39641  0.024859475  0.024523339           14 
 2731000   0.81113329   -6.7384509    814.89114  0.024865469  0.024516824           14 
 2732000   0.81510679   -6.7357823    815.00303   0.02485978   0.02451032            8 
 2733000   0.79942774   -6.7320087     814.2215  0.024826854   0.02450379           12 
 2734000    0.8182962   -6.7787982    814.70592  0.024832538  0.024497253           13 
 2735000   0.82448554   -6.7300894    815.04616  0.024833826  0.024490695            8 
 2736000   0.80542134   -6.7408886    816.87202  0.024880361  0.024484132           23 
 2737000   0.80970279   -6.7657633    815.15958  0.024819132  0.024477611           11 
 2738000   0.80657883   -6.7513702    815.06101  0.024807067   0.02447108           35 
 2739000   0.80938897    -6.731931    816.90314  0.024854057  0.024464589            8 
 2740000   0.81892474   -6.7537958    816.00807  0.024817764  0.024458068           11 
 2741000   0.80609783   -6.7674656    815.92146  0.024806076  0.024451514           30 
 2742000   0.79506022   -6.7685116    814.68992  0.024759601  0.024445017           13 
 2743000   0.80355944   -6.7479358    817.45762  0.024834658  0.024438508           12 
 2744000   0.82130551   -6.7647752    814.00864  0.024720865  0.024431982           19 
 2745000   0.81379904   -6.7246412    817.35642  0.024813492  0.024425433           10 
 2746000   0.81635157   -6.7311271    818.38132  0.024835558  0.024418933            8 
 2747000   0.81097467   -6.7533585    816.50353  0.024769552  0.024412437           15 
 2748000    0.8251864   -6.7333609    815.17905  0.024720374  0.024405935           10 
 2749000   0.79092744   -6.7401185    816.39394   0.02474821  0.024399431           14 
 2750000   0.80325455   -6.7333426     817.8726  0.024784018  0.024392942           14 
 2751000   0.77718073   -6.7173919    815.37544  0.024699365  0.024386443           13 
 2752000   0.80365024   -6.6941975    817.82843  0.024764669  0.024379957           13 
 2753000   0.80289473   -6.7207698    816.52503   0.02471622  0.024373466           12 
 2754000   0.79586993   -6.7639361    817.23281  0.024728662   0.02436695           12 
 2755000   0.80263059   -6.7593731     815.5462  0.024668669  0.024360449           25 
 2756000   0.81732932   -6.7460831    816.73531  0.024695673  0.024353955            9 
 2757000   0.82072427   -6.7194207    817.32014  0.024704393   0.02434748            5 
 2758000   0.82819855   -6.7152719    818.67449  0.024736358  0.024340986           14 
 2759000   0.81404951   -6.7412721    819.00597  0.024737404  0.024334533            9 
 2760000   0.81291643   -6.7507222    816.67871  0.024658174  0.024328078           13 
 2761000   0.79689538   -6.7506497    818.54977  0.024705716  0.024321596           11 
 2762000   0.82281655   -6.7309164    818.43649  0.024693353  0.024315119           11 
 2763000   0.81129408   -6.7593049    817.45235  0.024654734  0.024308594           29 
 2764000   0.82022667   -6.7569158     816.8028   0.02462623  0.024302051           16 
 2765000   0.81210906   -6.7423874    817.42868  0.024636187  0.024295515           30 
 2766000   0.81328406   -6.7389991    817.25732  0.024622117  0.024288993           24 
 2767000   0.80298688   -6.7556366    817.94526  0.024633938  0.024282464           39 
 2768000   0.80180272   -6.7294023    818.90079  0.024653805  0.024275955           21 
 2769000   0.81104106   -6.7424018    815.92396  0.024555314  0.024269478           17 
 2770000   0.80194208   -6.7616718    818.23516   0.02461598  0.024262966           12 
 2771000   0.79818476   -6.7775324    817.27115  0.024578105  0.024256425           18 
 2772000   0.80329274   -6.7563894    819.81269  0.024645643   0.02424992           10 
 2773000   0.81829452   -6.7683599    819.25521  0.024620003  0.024243431            6 
 2774000   0.80864805   -6.7570376    820.96776  0.024662574  0.024236985           16 
 2775000   0.79693452   -6.7424882    819.09849  0.024597552  0.024230586           10 
 2776000   0.81083647    -6.751026    820.91251  0.024643147  0.024224159           29 
 2777000   0.82141413   -6.7534774    816.64529   0.02450622  0.024217701           43 
 2778000   0.80231752    -6.776904    820.59621  0.024615917  0.024211222           28 
 2779000   0.80785563   -6.7688237    821.56464  0.024636099  0.024204799            7 
 2780000   0.81052052   -6.7437797    821.24429  0.024617634  0.024198378           12 
 2781000   0.78190453   -6.7571212    821.15359  0.024606065   0.02419197            8 
 2782000   0.80902136   -6.7279506    820.51156  0.024577988  0.024185591           11 
 2783000   0.81442503    -6.782935    818.64806  0.024513357  0.024179178           12 
 2784000   0.82520601   -6.7542591    818.43828  0.024498272  0.024172733           16 
 2785000   0.80054513   -6.7792115    819.06608  0.024508261  0.024166283           19 
 2786000   0.81715879   -6.7575268    821.41149  0.024569619  0.024159835           14 
 2787000    0.7922444   -6.7821944    819.96081  0.024517426  0.024153375           13 
 2788000   0.81819753   -6.7644315    821.06077   0.02454151  0.024146915           15 
 2789000   0.82250373   -6.7683015    820.16357  0.024505903  0.024140427           23 
 2790000   0.80967753   -6.7878615    819.90386  0.024489362  0.024133935            9 
 2791000   0.78067428    -6.770272     818.8001  0.024447632  0.024127457            9 
 2792000   0.81451409   -6.8011484    819.06295  0.024446721  0.024120985           11 
 2793000   0.79689364   -6.7682921    819.41226   0.02444839  0.024114506           21 
 2794000     0.805129   -6.7391483    819.80295  0.024451293  0.024108049            7 
 2795000   0.80469174   -6.7710053    821.41541   0.02449062  0.024101614           20 
 2796000   0.79255775     -6.78706    819.70095  0.024430763  0.024095157           28 
 2797000   0.82492599   -6.7613026      819.629  0.024419884  0.024088694            8 
 2798000   0.79900042   -6.7844465    819.41157  0.024404681  0.024082252           30 
 2799000   0.81173714   -6.7606615    819.67107  0.024403688  0.024075779           15 
 2800000   0.79686783   -6.7426287    821.26637  0.024442452   0.02406935           30 
 2801000   0.80152869   -6.7686372    820.68946  0.024416561  0.024062857           17 
 2802000   0.80606836   -6.7650181    821.50022   0.02443196  0.024056339           10 
 2803000   0.81345768   -6.7566829    822.14384  0.024442378  0.024049911           18 
 2804000   0.78493474   -6.7496994    822.09317  0.024432156  0.024043514           10 
 2805000   0.79222762   -6.7372191    823.03472  0.024451418  0.024037086           18 
 2806000   0.80498231   -6.7839874    823.46044  0.024455347  0.024030669           17 
 2807000   0.80132704   -6.7591365    820.62278  0.024362391  0.024024281           12 
 2808000   0.81604974   -6.7658003    821.46089  0.024378588  0.024017893           15 
 2809000   0.78555379   -6.7668327    822.75624  0.024408338  0.024011475            9 
 2810000   0.80830226   -6.7618279    822.90821  0.024404158  0.024005077           33 
 2811000   0.79527372   -6.7395549    825.25083  0.024464924  0.023998721           17 
 2812000   0.81209375   -6.7493841    822.99689  0.024389429  0.023992384           16 
 2813000   0.80587515   -6.7662339    824.12967  0.024414317  0.023986018           14 
 2814000   0.80700965   -6.7743081    823.66215  0.024391796  0.023979633           38 
 2815000   0.80193116   -6.7550069    825.44579  0.024435932  0.023973332           45 
 2816000   0.80766048   -6.7472888    826.07379  0.024445839  0.023967003           17 
 2817000   0.79335221   -6.7598599    824.35716  0.024386379  0.023960627           24 
 2818000   0.80126867   -6.7496274    823.71384  0.024358701  0.023954272           18 
 2819000   0.79189652   -6.7616672      823.207  0.024335077  0.023947894           28 
 2820000   0.79169379    -6.755139    825.47272  0.024393402  0.023941521           17 
 2821000   0.80623126   -6.7637513    824.25343  0.024348737  0.023935216           18 
 2822000   0.80526359   -6.7352248    823.88335   0.02432918  0.023928922           12 
 2823000   0.79828603   -6.7510222    825.17479  0.024358684  0.023922602           18 
 2824000   0.80686772   -6.7915583    823.87479  0.024311697  0.023916279           11 
 2825000   0.79298792   -6.7714764    825.51946  0.024351607  0.023909944            8 
 2826000   0.80587202   -6.7387906    825.37883  0.024338843  0.023903607            5 
 2827000   0.81912503    -6.762457    825.85985  0.024344412  0.023897313            8 
 2828000   0.79496353   -6.7639401     825.7347  0.024332116  0.023891022            8 
 2829000   0.80166953   -6.7728513    827.22163  0.024367315  0.023884765           10 
 2830000   0.79126185   -6.7388265    826.17666  0.024327935  0.023878489           22 
 2831000   0.78459381   -6.7654633    825.62969   0.02430324  0.023872205           15 
 2832000    0.8040041   -6.7668959    826.11861  0.024309046  0.023865926           25 
 2833000   0.80078619   -6.7857279    825.94918  0.024295481   0.02385963           32 
 2834000   0.81438516   -6.7601487    827.51175  0.024332855  0.023853358           17 
 2835000   0.81596919   -6.7633376    827.06149  0.024311037  0.023847112           17 
 2836000    0.8005856   -6.7809013    828.51723  0.024345241  0.023840832           16 
 2837000   0.78644972   -6.7633885    824.64648  0.024222961  0.023834544           26 
 2838000   0.80077441   -6.7808399    826.22591  0.024260803    0.0238282           27 
 2839000   0.82582521   -6.7718386    824.92946  0.024214203  0.023821874           10 
 2840000   0.80279004    -6.745009    825.59061  0.024225077  0.023815588           26 
 2841000   0.79160973   -6.7338312    829.52063  0.024331827  0.023809334            4 
 2842000   0.80126458   -6.7514677    826.41589  0.024232227  0.023803053           15 
 2843000   0.78146247   -6.7593162    826.38354  0.024222756  0.023796732           11 
 2844000   0.79812925    -6.771977    826.55914  0.024219384   0.02379043           13 
 2845000   0.81290234   -6.7975259    828.18419  0.024258471  0.023784101           20 
 2846000   0.80370366    -6.789426    827.21847   0.02422167  0.023777763           17 
 2847000   0.80725263   -6.7489342    828.90987   0.02426267  0.023771475           18 
 2848000   0.79642914   -6.7802158    827.76061  0.024220524  0.023765206            8 
 2849000   0.79069865   -6.7684757    827.10626  0.024192882  0.023758885           21 
 2850000   0.82162758   -6.7598007    827.27567  0.024189347  0.023752611            9 
 2851000   0.77525839   -6.7905146    827.76407  0.024195138  0.023746303           20 
 2852000   0.79649172   -6.7516463    825.49042   0.02412022  0.023739975           19 
 2853000   0.79997795    -6.777916     827.2164   0.02416218  0.023733677           22 
 2854000    0.8034119   -6.7860314    828.74818   0.02419844  0.023727371           20 
 2855000   0.80388519   -6.7704652    827.49324  0.024153334  0.023721087           11 
 2856000   0.79200611   -6.8040915    826.84314  0.024125909  0.023714747           36 
 2857000   0.81271895   -6.7682529     827.5253  0.024137362  0.023708469           25 
 2858000   0.78861467    -6.763081    826.76184  0.024106655  0.023702158           33 
 2859000   0.79409232   -6.7733966    827.80205  0.024128543  0.023695846           30 
 2860000   0.79933609   -6.7828618      828.023  0.024126544  0.023689587           23 
 2861000   0.77195394   -6.7760868    828.99142  0.024146319  0.023683318           14 
 2862000   0.79863076   -6.7711454    825.39568  0.024033184   0.02367702           21 
 2863000   0.78993339   -6.7811914    828.84031  0.024125053  0.023670727           19 
 2864000   0.78864192    -6.823157     827.1449  0.024067298  0.023664442           17 
 2865000   0.80118454   -6.7894583    830.21028  0.024148059  0.023658201           19 
 2866000   0.79594352   -6.8017195     828.2806  0.024083525  0.023651936           20 
 2867000   0.79559185   -6.7824198    829.14967  0.024100386   0.02364564           21 
 2868000   0.77886567   -6.7842402    826.61438  0.024018316  0.023639372           21 
 2869000   0.79390167   -6.7652202    830.09328  0.024110993  0.023633111           14 
 2870000   0.78028445   -6.7914589    829.49047  0.024085089  0.023626847           14 
 2871000   0.78460577   -6.7560211     828.0611  0.024035211   0.02362057           20 
 2872000   0.77077544   -6.7800339    829.65037  0.024072956   0.02361432            8 
 2873000   0.80563187   -6.7848455    829.92714  0.024072605  0.023608061           18 
 2874000    0.7893998   -6.8078738    828.52288  0.024023512  0.023601795            9 
 2875000   0.78339608   -6.7925344    830.47849   0.02407184   0.02359553           20 
 2876000   0.80690342   -6.7848986    829.22501   0.02402715  0.023589263           25 
 2877000   0.78699095   -6.8100319    830.17272   0.02404625  0.023582979           37 
 2878000   0.78686705   -6.7834562    830.27037  0.024040722  0.023576723           27 
 2879000   0.79150574   -6.7846496    828.57477  0.023983292  0.023570462           25 
 2880000    0.7893712   -6.8090599    828.55078   0.02397427  0.023564159           23 
 2881000   0.78983582    -6.785846    827.45355  0.023934211  0.023557846           19 
 2882000   0.78946426   -6.7955231    830.54584   0.02401532  0.023551569           11 
 2883000   0.79103768   -6.8035826    829.88059  0.023987761  0.023545295           10 
 2884000   0.80076988   -6.8171078    830.29419  0.023991395  0.023539003           28 
 2885000   0.78639682   -6.7695914    829.21523  0.023951913  0.023532706           10 
 2886000   0.78823106   -6.7866343    828.09035  0.023911133  0.023526403           16 
 2887000   0.78133968    -6.800204    827.86776  0.023896425  0.023520068           36 
 2888000   0.77265584   -6.7939797    828.82327  0.023915722  0.023513743           11 
 2889000   0.78565982   -6.7851972    829.75028  0.023934184  0.023507435           17 
 2890000   0.78749755   -6.7969239    828.98877  0.023903944   0.02350112           10 
 2891000   0.79813381    -6.783744    829.19212  0.023901537  0.023494783           14 
 2892000   0.79338755   -6.8113452    829.84792  0.023912169  0.023488474           19 
 2893000   0.79029066   -6.7927403    828.71438  0.023871252  0.023482137           15 
 2894000   0.78723694    -6.768291    829.94941  0.023898566  0.023475809           12 
 2895000   0.78427092   -6.7866573    830.20891  0.023897781  0.023469509           12 
 2896000   0.78458421   -6.8055182    827.75119  0.023818807  0.023463183           42 
 2897000   0.80250518   -6.7939978    830.37235  0.023885984  0.023456891           25 
 2898000   0.75936051   -6.8005556     831.8146  0.023919214  0.023450587           18 
 2899000   0.80563344     -6.79423     828.7045  0.023821562  0.023444241           36 
 2900000   0.78007928   -6.7840434    827.80924  0.023787622  0.023437877           15 
 2901000   0.79895255   -6.7726443    828.29671  0.023793425    0.0234315           29 
 2902000   0.78905535   -6.7987112    829.96896  0.023833246  0.023425125           92 
 2903000    0.7881055   -6.7928606    828.34229  0.023778341  0.023418731           29 
 2904000   0.79062133   -6.8085606    828.05583  0.023761933  0.023412386           48 
 2905000   0.78939718   -6.7908603    830.25835  0.023816935  0.023406037           28 
 2906000   0.78003927   -6.7969728    830.58487  0.023818102  0.023399731           10 
 2907000   0.77589958   -6.7911793     831.1742  0.023826803  0.023393397           10 
 2908000   0.79873051   -6.7820719    830.71057  0.023805323   0.02338708           26 
 2909000   0.78957079    -6.799266    830.20592  0.023782684  0.023380731           12 
 2910000   0.80040853   -6.7987394    829.58591  0.023756756   0.02337438            8 
 2911000   0.77800115   -6.7949417    830.54132  0.023775945  0.023368034           10 
 2912000   0.76244108   -6.8176339     830.5806  0.023768905  0.023361696           20 
 2913000   0.77648049     -6.81543    832.23345  0.023808029  0.023355343           13 
 2914000   0.77745904   -6.7929608    830.73483  0.023757002  0.023349022           20 
 2915000   0.78022838   -6.8090442    829.16928  0.023704096  0.023342672            9 
 2916000   0.78490974    -6.822492    830.44709  0.023732484  0.023336314           10 
 2917000   0.77634785   -6.8151292    830.59866  0.023728678  0.023329972           25 
 2918000   0.76960722   -6.8232104    830.40065  0.023714892  0.023323604           20 
 2919000   0.77061825   -6.8105108     830.9057  0.023721186  0.023317207           23 
 2920000   0.77940204   -6.7925895    831.49868  0.023729985  0.023310853           23 
 2921000   0.78608138   -6.7721066    829.34084    0.0236603  0.023304485           23 
 2922000   0.79290277   -6.7582629    832.95034  0.023755143  0.023298176            9 
 2923000   0.78991838    -6.808669     831.4333  0.023703766  0.023291887           22 
 2924000   0.77144083   -6.7803447    832.05624  0.023713413  0.023285578           10 
 2925000   0.78991138   -6.7871326     831.8303  0.023698869  0.023279265           24 
 2926000   0.77058528   -6.8020741    830.56801  0.023654819  0.023272964           36 
 2927000   0.78998844   -6.7915415    831.35635  0.023669182  0.023266648           27 
 2928000   0.79255956   -6.7885666    832.38552  0.023690389  0.023260345           32 
 2929000   0.77008294   -6.7983828    831.89549  0.023668359  0.023254035           11 
 2930000   0.78815611    -6.836955    832.34169  0.023672972  0.023247732           14 
 2931000   0.78518113   -6.8214074    832.69716  0.023675002  0.023241426           18 
 2932000   0.79060557   -6.8253998     830.3425  0.023600003    0.0232351           14 
 2933000   0.79237985    -6.818375    832.31297  0.023647942  0.023228774           27 
 2934000   0.78881896   -6.8147453    832.51742  0.023645689  0.023222457           19 
 2935000   0.79757437   -6.8233084    833.99329  0.023679537  0.023216144           35 
 2936000   0.77983838   -6.8061841    834.25858  0.023679002  0.023209835           21 
 2937000   0.80549195   -6.8108791    831.81609  0.023601637  0.023203538           13 
 2938000   0.78849474   -6.8032465    832.92903  0.023625171  0.023197236           18 
 2939000   0.78509311   -6.7838719    834.03137  0.023648388  0.023190959           35 
 2940000      0.80418   -6.7964953    833.53712  0.023626336  0.023184691            8 
 2941000   0.80083648    -6.802947    834.03304  0.023632354  0.023178436           13 
 2942000   0.79102225   -6.8163991    833.23303  0.023601661  0.023172155           38 
 2943000   0.78810448   -6.8085678    833.32367  0.023596208  0.023165872           19 
 2944000   0.77899748   -6.7977134    833.40433  0.023590476  0.023159582           15 
 2945000   0.79800421   -6.7922608    837.81719  0.023707334  0.023153333           14 
 2946000   0.77959875   -6.8144517    834.27431   0.02359907  0.023147091           14 
 2947000   0.78086659   -6.8320183    835.95177  0.023638496  0.023140823           10 
 2948000   0.77747674   -6.8216725    834.45341  0.023588122  0.023134566           16 
 2949000   0.78303931   -6.8295482    834.19322  0.023572771  0.023128306           14 
 2950000   0.76199982   -6.8056367    834.16256  0.023563914  0.023122081            9 
 2951000   0.78029287   -6.8078721    833.75633  0.023544458  0.023115819           11 
 2952000   0.76250381   -6.7929104    835.15739  0.023576033  0.023109566           13 
 2953000   0.77341391   -6.8308757    835.35794  0.023573709  0.023103307           12 
 2954000   0.79427321   -6.8499156    833.02269   0.02349985   0.02309702           23 
 2955000   0.78464284   -6.8260671    834.09258  0.023522069  0.023090713           13 
 2956000   0.77941896   -6.8285621    834.81926  0.023534598  0.023084464           12 
 2957000   0.77914947   -6.7919605    834.81217  0.023526439  0.023078223           33 
 2958000   0.77489019   -6.8300482    834.15774  0.023500049  0.023071937           11 
 2959000   0.78524985   -6.8317505    834.85413  0.023511719  0.023065675           14 
 2960000   0.78018617   -6.8130063     833.3504  0.023461441  0.023059412           36 
 2961000   0.79239619   -6.8358092    832.65421  0.023433925  0.023053156           27 
 2962000   0.78870583   -6.8003961    835.65035  0.023510307  0.023046895           18 
 2963000   0.77207118   -6.7939706     834.1032  0.023458859  0.023040638           24 
 2964000   0.77330909   -6.8107278     835.0738  0.023478233  0.023034371           21 
 2965000   0.78353716   -6.8052241    834.50417  0.023454305  0.023028112           28 
 2966000    0.7734165    -6.783847    836.43256  0.023500578  0.023021859           16 
 2967000   0.77336304   -6.8561833    834.92332  0.023450267  0.023015604           13 
 2968000   0.77719339   -6.8184735    834.69187  0.023435868  0.023009332            8 
 2969000   0.76712257   -6.8061554    835.69299  0.023456074  0.023003086           14 
 2970000   0.78619748   -6.8206302    838.06514  0.023514734  0.022996828           10 
 2971000   0.77588227   -6.8212847    836.11427    0.0234521  0.022990563           28 
 2972000   0.77192151    -6.844871    834.68767  0.023404208  0.022984298           20 
 2973000   0.76394631    -6.837922    833.63595  0.023366856  0.022978024           11 
 2974000   0.77208146   -6.8196219    835.37489  0.023407725  0.022971771           19 
 2975000   0.74609401   -6.8159349    835.04056  0.023390492  0.022965515            8 
 2976000   0.77313417    -6.804035    834.59196  0.023370071  0.022959214           13 
 2977000   0.77074802   -6.8197219    834.74085  0.023366388  0.022952925           10 
 2978000   0.77940491   -6.8326678    836.03333  0.023394709  0.022946647           18 
 2979000   0.77539793   -6.8307785    835.14156   0.02336191  0.022940309           25 
 2980000    0.7838934   -6.8171225     836.2326   0.02338458  0.022933996           30 
 2981000   0.76239226   -6.8098061    837.13013  0.023401826  0.022927681           18 
 2982000   0.77571846   -6.8271664    836.44669   0.02337488  0.022921412           31 
 2983000   0.77714781   -6.8153274    835.95341  0.023353263  0.022915114           24 
 2984000   0.78753633   -6.8061852    833.45027  0.023275533  0.022908834           10 
 2985000   0.77039138   -6.8119239    836.63089   0.02335653  0.022902526           23 
 2986000   0.77620862   -6.8152438    835.00079  0.023303215  0.022896223           32 
 2987000   0.77519185   -6.8445132    834.88331  0.023292136  0.022889886           18 
 2988000   0.77470287   -6.8051479    834.88722   0.02328445  0.022883541            9 
 2989000   0.77335138   -6.7804462    835.57455  0.023295822  0.022877239           13 
 2990000   0.77529944   -6.8094998    835.44871  0.023284524  0.022870974           16 
 2991000   0.76810065   -6.8292287    837.83406  0.023343198  0.022864712           18 
 2992000   0.76753138   -6.8259233     836.0289  0.023285119  0.022858446           12 
 2993000   0.77543069   -6.8369536    837.25717  0.023311537  0.022852176           23 
 2994000   0.77240049    -6.849151    836.94109  0.023294954  0.022845904           13 
 2995000   0.75837614   -6.8231637    835.48875  0.023246765  0.022839617           16 
 2996000   0.75838427     -6.82968    836.49661   0.02326704  0.022833298            8 
 2997000   0.77472932   -6.8269375    835.06702  0.023219526  0.022827011           12 
 2998000   0.77199677   -6.8474141    836.78059  0.023259411  0.022820689           11 
 2999000   0.77737161   -6.8395651     837.3183  0.023266597  0.022814393           15 
 3000000   0.75429016   -6.8459667    836.52562  0.023236823  0.022808089           19 
 3001000   0.77064467   -6.8196911    837.33708  0.023251613  0.022801769           16 
 3002000   0.77255768   -6.8473638    835.14308  0.023182964  0.022795492            9 
 3003000   0.75208525   -6.8431834    836.47011  0.023212069  0.022789191           18 
 3004000   0.77376719   -6.8270091    837.00866  0.023219281  0.022782889           13 
 3005000   0.76537219   -6.8388123    836.34488  0.023193147  0.022776616           18 
 3006000   0.77836229   -6.8537567    836.31722  0.023184664  0.022770353           24 
 3007000   0.77192517   -6.8401307    836.36438  0.023178261  0.022764079           28 
 3008000   0.75715086   -6.8320185    837.32791  0.023197249  0.022757816            8 
 3009000   0.77761999   -6.8547493    837.55257  0.023195762  0.022751562           19 
 3010000    0.7659784   -6.8294749    838.13758  0.023204252  0.022745283           27 
 3011000   0.77082793   -6.8026916    838.04819  0.023194072  0.022739018           13 
 3012000   0.78008838   -6.8295147    837.42064  0.023169009  0.022732751           17 
 3013000   0.77980425   -6.8550669    835.15404  0.023098629  0.022726456           52 
 3014000   0.76967224   -6.8334524    838.05082  0.023171058  0.022720202           48 
 3015000   0.76690736   -6.8465529    838.00956  0.023162232  0.022713961           34 
 3016000   0.76524658   -6.8295495    839.31394  0.023190593  0.022707717           33 
 3017000   0.76084614    -6.820674    837.04245  0.023120165  0.022701438           23 
 3018000   0.77291622   -6.8496984    837.26493  0.023118647  0.022695185           12 
 3019000   0.77127151   -6.8267977    837.19676  0.023109108  0.022688954           15 
 3020000   0.77594731   -6.8366089    837.02262  0.023096651  0.022682688           23 
 3021000   0.76239933   -6.8178461    837.79779  0.023110388  0.022676428           18 
 3022000   0.76495601     -6.83467     838.7211  0.023128202  0.022670212           35 
 3023000   0.76372203   -6.8363651    838.34644  0.023110223  0.022663994           26 
 3024000   0.78020827   -6.8374998     838.0697  0.023094954  0.022657708           92 
 3025000   0.75880008   -6.8383231    836.96056  0.023056765  0.022651419           27 
 3026000   0.76878463   -6.8527292     837.0147  0.023050636  0.022645144            8 
 3027000   0.76583512   -6.8270314    837.87371   0.02306667  0.022638858           29 
 3028000   0.76113895   -6.8572426    838.67101  0.023080994  0.022632601           21 
 3029000   0.75246417   -6.8224099    839.86212  0.023106144  0.022626352           26 
 3030000   0.75911632    -6.842564    838.12994  0.023050878  0.022620123           18 
 3031000   0.73975912   -6.8314644    837.43367   0.02302413   0.02261388           13 
 3032000   0.77913413   -6.8529239    837.68542  0.023023456  0.022607599           15 
 3033000   0.75742311    -6.824782    837.84657  0.023020293   0.02260133           15 
 3034000   0.75802395   -6.8577811    836.85732  0.022985534  0.022595076           13 
 3035000   0.76217137   -6.8394504    837.08582  0.022984234  0.022588811           16 
 3036000   0.76691221   -6.8384875    838.61435  0.023018619   0.02258256           14 
 3037000   0.75534155   -6.8446902    838.96642  0.023020701   0.02257631           16 
 3038000   0.76113111   -6.8234025    838.18981   0.02299182  0.022570076            9 
 3039000    0.7773247   -6.8376852    839.76936  0.023027568  0.022563853            7 
 3040000   0.75999663   -6.8154383    839.92284  0.023024201  0.022557639            8 
 3041000   0.75887207   -6.8446027    838.10951  0.022966938  0.022551394           25 
 3042000   0.77942211   -6.8374536    839.31203   0.02299233  0.022545142           25 
 3043000   0.76158878   -6.8538628    839.06998  0.022978146  0.022538908           34 
 3044000   0.77627405   -6.8512319    838.18982  0.022946502  0.022532681           52 
 3045000   0.75006259   -6.8225292    839.47124  0.022974035  0.022526464           28 
 3046000   0.77583744   -6.8546417    839.70021  0.022972757  0.022520206           33 
 3047000   0.76124695   -6.8570832    840.27545   0.02298095  0.022513964           73 
 3048000   0.76297749   -6.8512785    838.48519  0.022924464  0.022507746           28 
 3049000   0.76914056   -6.8170922    839.44637  0.022943216  0.022501513           29 
 3050000   0.77204498   -6.8317639    839.62024  0.022940444  0.022495292           60 
 3051000   0.76671929   -6.8215562    841.26852  0.022977945  0.022489122           39 
 3052000   0.77303811   -6.8604974    840.73129  0.022955747  0.022482951           28 
 3053000   0.76521005   -6.8442931    841.44508  0.022967712  0.022476784           50 
 3054000   0.76816922   -6.8703695    838.39894  0.022877072  0.022470601           18 
 3055000   0.76559931   -6.8468899    838.55562  0.022873858  0.022464427           16 
 3056000   0.74350477   -6.8418344    840.28948  0.022913653  0.022458202           40 
 3057000   0.74377632   -6.8590399    839.82533  0.022893505  0.022451984           14 
 3058000   0.75807111   -6.8690069    841.70802  0.022937323  0.022445779           16 
 3059000   0.75677928   -6.8141274     840.9699  0.022909717  0.022439626           23 
 3060000   0.76133624   -6.8567467    842.04095  0.022931398  0.022433457           24 
 3061000   0.77031025   -6.8294022    842.16217  0.022927207  0.022427307           17 
 3062000   0.75557083   -6.8855752    842.78262  0.022936605   0.02242117           15 
 3063000   0.77849777   -6.8188365    843.33209  0.022944066  0.022415033           11 
 3064000   0.75642448   -6.8494506    843.78254  0.022948829  0.022408874           26 
 3065000   0.74673664   -6.8363563    842.40378  0.022903855  0.022402716           20 
 3066000   0.77145452   -6.8656634    842.58067  0.022901192  0.022396562           36 
 3067000   0.75148694   -6.8525125    842.09871   0.02288063  0.022390384           23 
 3068000   0.77412312   -6.8587849    841.52692  0.022857641  0.022384212           28 
 3069000   0.75282485   -6.8459636    842.13199  0.022866623  0.022378049           31 
 3070000   0.75069778   -6.8652652    839.87373  0.022797875  0.022371851           30 
 3071000   0.73361844   -6.8622958    841.90843  0.022845665   0.02236566           23 
 3072000   0.76853202   -6.8329557    841.68232  0.022832094  0.022359491           38 
 3073000   0.75612382   -6.8328632    841.08996  0.022808601  0.022353332           16 
 3074000    0.7512876   -6.8641381    841.13364  0.022802365  0.022347191           21 
 3075000   0.76570268   -6.8582489    842.30448   0.02282668  0.022341034           36 
 3076000   0.73675675    -6.851666    841.80841   0.02280582  0.022334882           57 
 3077000   0.75411216   -6.8632911    841.77331  0.022797457   0.02232877           21 
 3078000   0.75013127   -6.8575879     842.6237  0.022813074  0.022322604           18 
 3079000   0.75401987   -6.8938217    841.96216   0.02278776  0.022316472           18 
 3080000    0.7590969   -6.8498481    843.60673  0.022824857   0.02231036           32 
 3081000   0.74428416   -6.8521212    841.43333  0.022758664  0.022304236           42 
 3082000   0.74705622   -6.8666151    841.67933  0.022757931   0.02229808           34 
 3083000   0.74502553   -6.8686889     842.4948  0.022772592  0.022291945           65 
 3084000   0.74596981   -6.8643006    842.96487  0.022777909  0.022285832           26 
 3085000    0.7681193   -6.8974303    844.83457  0.022821031  0.022279699           22 
 3086000   0.76549619   -6.8442464    845.52338  0.022832236  0.022273598           27 
 3087000   0.75913494   -6.8528929    844.18691  0.022788762  0.022267513           23 
 3088000    0.7718328   -6.8641752    845.54373  0.022817998  0.022261441           27 
 3089000   0.75636642   -6.8704931    843.16062  0.022746321  0.022255331           23 
 3090000   0.75963198   -6.8856783    843.00674   0.02273481  0.022249225           36 
 3091000   0.75495993   -6.8774675    844.35439  0.022763787  0.022243119           31 
 3092000    0.7698335   -6.8692422    844.70659  0.022765917  0.022237001           94 
 3093000   0.76941922    -6.869824     843.6259   0.02272944  0.022230898           27 
 3094000   0.76822816   -6.8543546    843.33645  0.022714298   0.02222479           38 
 3095000   0.77438666   -6.8708571    845.50898  0.022765455  0.022218705           39 
 3096000   0.75375313   -6.8485583     846.4725  0.022784036  0.022212611           39 
 3097000   0.76929669   -6.8248082    844.74982  0.022730326  0.022206507           15 
 3098000   0.75135669   -6.8579491    843.59919  0.022692038  0.022200398           31 
 3099000   0.74125015   -6.8482889    841.99664  0.022641622  0.022194288           42 
 3100000   0.75929959   -6.8545923    843.75225  0.022681512  0.022188193           17 
 3101000   0.75586509   -6.8695822    843.20098  0.022659384   0.02218212           38 
 3102000   0.74913519    -6.854424     843.8556  0.022669665  0.022176033           20 
 3103000   0.75345405   -6.8738557      843.234  0.022645665  0.022169919           51 
 3104000   0.77005043   -6.8519269    843.09406  0.022634613  0.022163798           19 
 3105000    0.7502298   -6.8877027    844.24946  0.022658332  0.022157639           37 
 3106000   0.75754501   -6.8602019    843.59302  0.022633425  0.022151478           28 
 3107000   0.73437721   -6.8548679    844.87742  0.022660589  0.022145358           24 
 3108000   0.73244886     -6.88266    843.24934  0.022609645  0.022139206           13 
 3109000   0.75894128   -6.8745879    843.10203  0.022598425  0.022133087           11 
 3110000   0.75746407   -6.8635912    842.59467  0.022577564  0.022126936           13 
 3111000   0.75972117   -6.8586007    843.65685  0.022598758  0.022120817           32 
 3112000   0.76807165   -6.8927987    842.59234  0.022562991  0.022114705           31 
 3113000   0.75588833   -6.8917332    844.34896  0.022602767  0.022108538           19 
 3114000   0.75708843   -6.8563913    843.90905  0.022583736  0.022102386           14 
 3115000    0.7487324   -6.8503141     844.2653  0.022586017  0.022096265           15 
 3116000   0.75093475   -6.8667089    844.82818  0.022593822  0.022090118            7 
 3117000   0.74336759   -6.8810754    843.50186  0.022551114  0.022083948            5 
 3118000   0.75217696    -6.849888    844.58953  0.022572951  0.022077826           23 
 3119000   0.76261398   -6.8674626    845.43528   0.02258831  0.022071689           15 
 3120000   0.75781726   -6.8465907    845.64868   0.02258677  0.022065533           21 
 3121000   0.77498684   -6.8794656    843.19553  0.022514032  0.022059379           27 
 3122000   0.73429708   -6.8847435    843.32254  0.022510211  0.022053218           36 
 3123000   0.73389527   -6.8744124    842.60682  0.022483905  0.022047025           23 
 3124000   0.75618441   -6.8736865     843.4237  0.022498498  0.022040861           22 
 3125000   0.75048812   -6.8822109    845.40155  0.022544041  0.022034707           19 
 3126000   0.75901526   -6.8624164    845.24346  0.022532615  0.022028584           21 
 3127000   0.75385826   -6.8593505    843.26656  0.022472726   0.02202248           14 
 3128000   0.75161836   -6.8689902    846.12986  0.022541823  0.022016353           13 
 3129000   0.76746649   -6.8460356    844.93827  0.022502883  0.022010258           52 
 3130000   0.74829391   -6.8533749    844.72156  0.022489924  0.022004164           15 
 3131000   0.74949138    -6.850542    845.89771  0.022514045  0.021998061           12 
 3132000    0.7423916   -6.8484998    845.47703  0.022495664  0.021991933           31 
 3133000   0.74261399   -6.8492292    845.05343  0.022477216  0.021985826           27 
 3134000   0.74573511   -6.8723513    845.44018  0.022480328  0.021979694           28 
 3135000   0.74822306   -6.8702499     846.5551  0.022502794  0.021973567           33 
 3136000   0.77460572   -6.8679695    844.93582  0.022452589  0.021967444           49 
 3137000   0.75281807   -6.8966667    843.20593  0.022399477  0.021961304           27 
 3138000   0.73030077   -6.8962795    844.41341  0.022424405  0.021955165           13 
 3139000   0.76923906   -6.8733526    843.78197  0.022400498  0.021949016           42 
 3140000    0.7506111   -6.8751063    844.25906  0.022406026  0.021942882           14 
 3141000   0.74770907   -6.8561254    845.06432  0.022420257  0.021936789           15 
 3142000   0.74163107   -6.8665562    847.39815   0.02247502   0.02193072           23 
 3143000   0.75184191   -6.8435406    843.41146  0.022362166  0.021924644           14 
 3144000   0.74199628   -6.8793731    845.57208  0.022412322  0.021918556           26 
 3145000   0.75265971   -6.8839178     845.1476  0.022393948  0.021912456           26 
 3146000   0.74145843   -6.8699162    844.30366  0.022364475  0.021906342           56 
 3147000   0.75158933    -6.857791    845.91197  0.022399957   0.02190022           61 
 3148000   0.74770008   -6.8688443    841.56848  0.022277861  0.021894099           83 
 3149000   0.75097658   -6.8910631    843.96819  0.022334291  0.021887956           54 
 3150000   0.75591599   -6.8593116    845.77941  0.022375117  0.021881833           71 
 3151000   0.75808097   -6.8624763    845.74123  0.022367006   0.02187572           95 
 3152000   0.74296556   -6.8740106    846.43291  0.022378197  0.021869624           72 
 3153000   0.74924972   -6.8855402    844.95895  0.022332143  0.021863511           51 
 3154000   0.74827708   -6.8619582    844.99002  0.022325883  0.021857407           82 
 3155000   0.74618942   -6.8550217    846.71714  0.022364425   0.02185129           91 
 3156000   0.73717795   -6.8714547    844.22325  0.022291489  0.021845185           10 
 3157000   0.75323591   -6.8795531    845.71578  0.022323825   0.02183911           37 
 3158000   0.74721594   -6.8744333    845.66151  0.022315324  0.021833027           28 
 3159000   0.75430934   -6.8858428     847.0229  0.022344173  0.021826959           27 
 3160000   0.73631328   -6.9073401    845.91234  0.022307815  0.021820882           20 
 3161000   0.76275388   -6.8694439    847.07839  0.022331498   0.02181482           20 
 3162000   0.74197823   -6.8585289     848.3883  0.022358958  0.021808761           12 
 3163000    0.7457357   -6.8693707    846.16025  0.022293188   0.02180266           20 
 3164000   0.74587179   -6.8642184    843.92071  0.022227157  0.021796571           30 
 3165000   0.77207633   -6.8983807    846.09403  0.022277357  0.021790478           20 
 3166000   0.76492065   -6.8915641    846.54934  0.022282305  0.021784377           19 
 3167000   0.73889889   -6.9051859    848.27674  0.022320723  0.021778303           29 
 3168000   0.75177412   -6.9024857    848.21377   0.02231202  0.021772194           58 
 3169000   0.73774542   -6.8943148    846.73489  0.022266091  0.021766099           32 
 3170000   0.72879801   -6.9224072    847.29224  0.022273718   0.02175998           65 
 3171000   0.75109779   -6.8996965    844.93459  0.022204735  0.021753847           64 
 3172000    0.7363091   -6.8887475    845.94625  0.022224313  0.021747721           92 
 3173000   0.75884737   -6.8945283    847.25703  0.022251734  0.021741588           54 
 3174000    0.7408343    -6.882922    844.85379  0.022181627  0.021735458           50 
 3175000   0.73731004   -6.9234817    842.67242  0.022117386  0.021729339           58 
 3176000   0.73618966   -6.9212084    847.56147  0.022238704   0.02172321           38 
 3177000   0.74508372   -6.8943391    846.13438  0.022194271  0.021717085           83 
 3178000   0.72995907   -6.8982715    845.46219  0.022169661  0.021710964           32 
 3179000   0.74718805   -6.8864546    846.81181  0.022198066  0.021704826           36 
 3180000   0.73364208   -6.8891858     848.0433  0.022223357  0.021698695           33 
 3181000   0.73774786    -6.916541    845.55096  0.022151078  0.021692587           68 
 3182000   0.72605084   -6.9198222    846.33173  0.022164564  0.021686453           64 
 3183000    0.7469257   -6.8963102    847.11466  0.022178099  0.021680359           40 
 3184000   0.75581532   -6.9037957    846.45937  0.022153983   0.02167426           20 
 3185000   0.73429061    -6.899927    848.17287   0.02219186  0.021668189           96 
 3186000   0.75123786    -6.872075    847.84654  0.022176359  0.021662102           71 
 3187000   0.74936321   -6.8945357    846.59983  0.022136801  0.021656021          155 
 3188000   0.74923534   -6.9058987    847.17621  0.022144924  0.021649947           75 
 3189000   0.72223045   -6.9149707    848.81556  0.022180819  0.021643857          109 
 3190000   0.74080971   -6.8689895    848.24943  0.022159076   0.02163778           76 
 3191000   0.73864922   -6.8840699    847.07135  0.022121366  0.021631698          118 
 3192000    0.7457554   -6.9039941    845.64612  0.022077227  0.021625603           88 
 3193000   0.73693393   -6.9096144    846.56012  0.022094167  0.021619489           85 
 3194000   0.73651646   -6.9117631    847.56797  0.022113545  0.021613379           68 
 3195000   0.74115757   -6.9127078    848.25912  0.022124651  0.021607258          104 
 3196000   0.74624977   -6.8945468    847.11288  0.022087841  0.021601142           92 
 3197000   0.73916142   -6.9037949    847.58656  0.022093279  0.021595035           75 
 3198000   0.73133757   -6.9062405     848.8423  0.022119093  0.021588923           45 
 3199000   0.72539793   -6.8878153    848.74527  0.022109651  0.021582839           91 
 3200000   0.73880879   -6.8836861    848.11762  0.022086396  0.021576742           40 
 3201000   0.73878868   -6.8748872    848.86692  0.022099003  0.021570652           53 
 3202000    0.7229745   -6.8857783     846.7668  0.022037445   0.02156458           41 
 3203000   0.72139285   -6.8822972    847.03208  0.022037467  0.021558526           28 
 3204000   0.74681996   -6.8937235    845.33275  0.021986391  0.021552432           35 
 3205000   0.73356305   -6.8887507    847.27128  0.022029934  0.021546343           13 
 3206000   0.75689302   -6.8829837     847.5895  0.022031334  0.021540284           15 
 3207000   0.73686451   -6.8933898    848.78039   0.02205541  0.021534238           19 
 3208000   0.74442513   -6.9043542    849.80417  0.022075129  0.021528185           26 
 3209000   0.72934087   -6.8809925    848.65543  0.022038419  0.021522169           39 
 3210000   0.73967704   -6.9058841    849.04101  0.022041563  0.021516139           47 
 3211000    0.7214384   -6.8792907    849.45589  0.022045466  0.021510118            9 
 3212000   0.74006105   -6.8933034    848.09468  0.022003287  0.021504106           15 
 3213000   0.74116559    -6.902661    849.09248  0.022022318  0.021498088           11 
 3214000   0.73827474   -6.8819995    849.89099   0.02203617  0.021492069           38 
 3215000   0.73279744   -6.9147174    849.04106  0.022007285  0.021486034           42 
 3216000   0.73117186   -6.9180699    849.74421  0.022018662  0.021480008           36 
 3217000   0.72824973   -6.9061534    848.37667  0.021976393  0.021473969           33 
 3218000   0.74599022   -6.9140362    850.45878  0.022023482  0.021467933           36 
 3219000   0.73366206   -6.8907243    849.68076  0.021996499  0.021461908           33 
 3220000   0.72741502   -6.8903392    849.97305  0.021997232  0.021455877           16 
 3221000   0.71831384   -6.8888894    849.79794  0.021985872  0.021449859           25 
 3222000   0.73307515   -6.8906517    850.42627    0.0219953  0.021443864           25 
 3223000   0.73874586   -6.8895923    848.70618  0.021944001   0.02143785           25 
 3224000   0.74655161   -6.8840887    851.89919  0.022019727  0.021431836           20 
 3225000   0.73112379   -6.8839541    848.39262   0.02192229  0.021425846           47 
 3226000   0.74085523   -6.8929741    848.20985  0.021910773  0.021419838           97 
 3227000   0.74875186   -6.8833763     850.3572  0.021959436   0.02141382           45 
 3228000   0.70856299   -6.8986534    848.64194  0.021908352  0.021407803           21 
 3229000   0.74892665   -6.8877676    852.49929  0.022001117  0.021401801           26 
 3230000   0.73614573   -6.9136844    852.44504  0.021992906  0.021395801           14 
 3231000    0.7237041   -6.8944003    849.81041  0.021918147  0.021389791           47 
 3232000   0.74688056   -6.9097397    849.45215  0.021902129  0.021383781           53 
 3233000   0.72702148   -6.8857977    850.31944  0.021917709  0.021377768           34 
 3234000   0.74058117   -6.9066213    851.22203   0.02193419  0.021371774           12 
 3235000   0.71513957   -6.8966769    850.54143  0.021909877  0.021365753           12 
 3236000   0.71491853   -6.9260817    849.94608  0.021887775  0.021359733           17 
 3237000   0.73162642   -6.9099263    851.50519  0.021921151  0.021353725           18 
 3238000   0.73848186   -6.8685308    850.25557  0.021882221  0.021347742           16 
 3239000   0.73902908   -6.9091546    849.18136  0.021847827  0.021341765           36 
 3240000   0.72933907   -6.8972196    849.15143  0.021840314  0.021335778           45 
 3241000    0.7321742   -6.9008259    850.63575  0.021871741  0.021329785           22 
 3242000   0.71870797   -6.9032356    850.60856  0.021864296  0.021323779           30 
 3243000   0.73078119   -6.9334564    850.14479  0.021845636  0.021317774           52 
 3244000    0.7306764   -6.9124404    851.84916  0.021882685  0.021311776           30 
 3245000    0.7316027   -6.9081031    848.97323  0.021802086  0.021305775           27 
 3246000   0.73862733   -6.8996004    851.44984  0.021858951  0.021299798           19 
 3247000   0.73302426   -6.8946504    848.05647  0.021765129  0.021293826           28 
 3248000   0.72501357   -6.8935756    851.55176  0.021848105   0.02128785           16 
 3249000   0.72831658   -6.9204642    852.43341  0.021863994  0.021281891           15 
 3250000   0.73900206   -6.9215501    850.86017  0.021816927   0.02127592           27 
 3251000   0.72986445   -6.9233911    851.90759  0.021837065  0.021269958           20 
 3252000   0.74436439   -6.9066997    850.68634  0.021799055  0.021263998           18 
 3253000   0.74281478   -6.9096631    852.14075  0.021829612  0.021258033           61 
 3254000   0.75081667   -6.9174478    851.65939  0.021810577  0.021252063           12 
 3255000   0.73016017   -6.8984952    852.51628  0.021825814  0.021246102           24 
 3256000   0.73467679   -6.9326342     851.1795  0.021784897   0.02124013           15 
 3257000   0.71416771    -6.918054    851.81816  0.021794549  0.021234163           20 
 3258000   0.72298674   -6.9268331    853.38307  0.021827887  0.021228203           62 
 3259000   0.74315344   -6.9357933    852.87306  0.021808148   0.02122224           75 
 3260000   0.71746968   -6.9231201    853.86141  0.021826723  0.021216295           44 
 3261000   0.72359331   -6.9207986    852.24965  0.021778842  0.021210353           30 
 3262000   0.73212407   -6.8921358    853.20336   0.02179653  0.021204423           11 
 3263000   0.73277248   -6.9218898    852.32631  0.021767451  0.021198502           11 
 3264000   0.73839121   -6.9137636    853.64057  0.021794337   0.02119257           11 
 3265000   0.73050327    -6.925298    852.78709  0.021765878  0.021186638           13 
 3266000   0.73711946   -6.8999774    851.62295   0.02172951  0.021180725           14 
 3267000   0.72848377   -6.8943998    854.30323  0.021791226  0.021174827           34 
 3268000   0.72678239   -6.8997832    854.46979  0.021788805  0.021168934           44 
 3269000     0.736611   -6.9146468     851.6547  0.021710378  0.021163027           22 
 3270000   0.74639351   -6.9347582    855.12163   0.02179209   0.02115713           36 
 3271000   0.73765942   -6.9082773    854.06176  0.021758427  0.021151237           56 
 3272000    0.7173117   -6.9328721    853.10401  0.021727384  0.021145333           81 
 3273000   0.74074402   -6.9126179    855.34995  0.021777929  0.021139427           35 
 3274000   0.72714702   -6.8963472    853.99301  0.021736739   0.02113353           80 
 3275000   0.72782539   -6.9316261    853.20349  0.021710013  0.021127633           59 
 3276000   0.72602906   -6.9185494    852.78709  0.021692793  0.021121712           38 
 3277000    0.7277683   -6.9417102    851.81836  0.021661539  0.021115764          149 
 3278000   0.70621174   -6.9547291    853.79402  0.021705156  0.021109833           77 
 3279000   0.74093953   -6.9270206    853.15176  0.021682214   0.02110392           24 
 3280000   0.71187623   -6.9384669    853.09971  0.021674281  0.021097988           68 
 3281000   0.72271838   -6.9389171    853.15352  0.021669042   0.02109206           59 
 3282000   0.74238544   -6.9281275    851.88774    0.0216303  0.021086093           54 
 3283000   0.73221935   -6.9515422    853.30321  0.021659641   0.02108014           67 
 3284000    0.7487194   -6.9547643    852.10044  0.021622524  0.021074179           33 
 3285000   0.71550069   -6.9051711    852.36665  0.021622695  0.021068254           43 
 3286000   0.71026865   -6.9452579    851.53795  0.021595099  0.021062311           52 
 3287000   0.72336427   -6.9250263    853.72744  0.021644038  0.021056395           44 
 3288000   0.71927891    -6.939755    852.30298  0.021601353  0.021050457           69 
 3289000   0.73775405   -6.9356706    852.78012  0.021606874   0.02104451           81 
 3290000   0.73074046    -6.916844    854.54857  0.021645101  0.021038574           66 
 3291000   0.73791029   -6.9436168    853.63492  0.021615388  0.021032655           62 
 3292000    0.7173406   -6.9272343    856.35388   0.02167765  0.021026745           29 
 3293000   0.73014209   -6.9373023    853.36672  0.021595473  0.021020846           36 
 3294000   0.71650014   -6.9284651     853.2045  0.021584813  0.021014959           28 
 3295000   0.71430928   -6.9239721    852.63283  0.021563804  0.021009071           29 
 3296000   0.72170519   -6.9130413    852.34619  0.021550015  0.021003163           29 
 3297000   0.72055222   -6.9094304    854.74508  0.021604112  0.020997301           38 
 3298000   0.72903446   -6.9309123     857.2378  0.021660547  0.020991438           36 
 3299000   0.71859549   -6.9142567    856.52012  0.021635852  0.020985585           14 
 3300000   0.72399227   -6.9310041    854.78574  0.021585499  0.020979733           16 
 3301000   0.71779952   -6.9116371    856.83429  0.021630675  0.020973861           28 
 3302000   0.73591997   -6.9255846    853.77723  0.021546972  0.020967988           75 
 3303000   0.73095791   -6.9289662    855.49254  0.021583725  0.020962102           74 
 3304000   0.75063756   -6.9299411    854.31015  0.021547371  0.020956211           47 
 3305000   0.72913299   -6.9311056    853.94516  0.021531648  0.020950314          100 
 3306000   0.74333579   -6.9219659    853.87307  0.021523318  0.020944403           67 
 3307000   0.70815681   -6.9357771    854.03866  0.021520982  0.020938481           37 
 3308000   0.72394915    -6.934837    854.58441  0.021528225  0.020932558           74 
 3309000   0.73044006   -6.9457402    852.37638  0.021466112  0.020926639           52 
 3310000   0.73740219   -6.9203566    852.92259  0.021473378  0.020920704           79 
 3311000   0.72330109   -6.9234737    853.55606  0.021482836  0.020914797           85 
 3312000   0.73061252   -6.9336628     852.2783    0.0214442  0.020908872           58 
 3313000    0.7161725   -6.8872123    855.00926  0.021506421   0.02090297           76 
 3314000   0.72131906   -6.9203229    853.10861  0.021452138  0.020897077           56 
 3315000   0.73207666    -6.945264    854.05299  0.021469407  0.020891191           34 
 3316000   0.73254312   -6.9212913      855.703  0.021504398   0.02088531           50 
 3317000   0.72675201   -6.9233188    855.23222  0.021486087  0.020879418           65 
 3318000    0.7289679   -6.9267641    853.63206  0.021439423   0.02087351           41 
 3319000   0.73774115   -6.9343238    851.69519  0.021384332  0.020867609           39 
 3320000   0.71852098   -6.9197294    854.64915  0.021452037  0.020861681           30 
 3321000   0.71783322    -6.929513    851.88366  0.021376183  0.020855752           38 
 3322000   0.71855745   -6.9602849    852.75953   0.02139172  0.020849812           59 
 3323000   0.72858256   -6.9065165    855.18579  0.021446128  0.020843886           40 
 3324000   0.73541418   -6.9259487    855.99944  0.021460074  0.020837992           23 
 3325000   0.73018667   -6.9388087    853.35293  0.021387291  0.020832093           22 
 3326000   0.72042879   -6.9113804    853.57534  0.021386434   0.02082618           16 
 3327000   0.71731025   -6.9114844    852.80642  0.021360746  0.020820259           28 
 3328000   0.72329309   -6.9394202    853.38181  0.021368735  0.020814333           20 
 3329000   0.71752231   -6.9283725    854.55032  0.021391567  0.020808412           32 
 3330000   0.70764023   -6.9213164    854.42334  0.021381965  0.020802489           43 
 3331000   0.72717054   -6.9620603    852.16558  0.021319063  0.020796569           55 
 3332000   0.70493872   -6.9540806    853.82874   0.02135426  0.020790645           32 
 3333000   0.71977415   -6.9374957    855.00392  0.021377236  0.020784731           20 
 3334000   0.72342284   -6.9346306    852.62994  0.021311486  0.020778833           20 
 3335000   0.71725825   -6.9457692    853.15661  0.021318256  0.020772918           33 
 3336000   0.72984202   -6.9292153    855.56718  0.021372082  0.020767017           95 
 3337000   0.70344679   -6.9325956    855.74226  0.021370049  0.020761106           66 
 3338000   0.71858751   -6.9049978    855.61252  0.021360408  0.020755213           92 
 3339000   0.71928379   -6.9602603    854.74149  0.021332272  0.020749323           99 
 3340000   0.71265221   -6.9310564    854.91679  0.021330259  0.020743432          122 
 3341000   0.71993756   -6.9346336     854.4518  0.021312277  0.020737526          113 
 3342000   0.72779681   -6.9571769    854.51258  0.021307415  0.020731627          180 
 3343000   0.72320163   -6.9376927    855.14741  0.021316866  0.020725717          178 
 3344000   0.71872488   -6.9494799    852.99659  0.021256893  0.020719796          188 
 3345000   0.71600269   -6.9435332     855.0481  0.021301647  0.020713858          192 
 3346000   0.72251848   -6.9706818    852.23348  0.021225181  0.020707915          189 
 3347000   0.72219981   -6.9951573    853.19269  0.021242722  0.020701973          230 
 3348000   0.71457524   -6.9623837    853.65808  0.021247961   0.02069602          275 
 3349000   0.70802955   -6.9674291    852.86652   0.02122192   0.02069008          293 
 3350000   0.71271075   -6.9586918    855.01797  0.021269104  0.020684125          257 
 3351000   0.71183896   -6.9869608    853.14689  0.021216226  0.020678172          319 
 3352000   0.70707474    -6.965631    853.31133  0.021213985   0.02067221          194 
 3353000   0.72172007   -6.9775356    853.65493  0.021216198  0.020666264          333 
 3354000    0.7069709   -6.9805998    853.18879   0.02119829    0.0206603          484 
 3355000   0.71977896   -6.9754291    853.25911  0.021193719  0.020654351          468 
 3356000   0.71433386   -6.9946205     852.9432  0.021179559  0.020648385          432 
 3357000   0.73516304   -6.9550381    853.23707  0.021180545  0.020642417          563 
 3358000   0.70351854   -6.9748085      853.596  0.021183145  0.020636461          376 
 3359000   0.70289537   -6.9901394    854.24204  0.021192866  0.020630493          357 
 3360000    0.7095284   -6.9868006    852.57299  0.021145163  0.020624526          490 
 3361000   0.70751048   -6.9800627    852.82821    0.0211452  0.020618559          465 
 3362000    0.7205741   -6.9880629    850.71916  0.021086634  0.020612571          606 
 3363000   0.72634827   -7.0087814    850.68786  0.021079588  0.020606547          561 
 3364000   0.72819912   -6.9835478     852.3728  0.021115061   0.02060055          520 
 3365000   0.70891089   -7.0084843    852.73897  0.021117855  0.020594569          586 
 3366000   0.71417958   -7.0064723    852.56934  0.021107381  0.020588561          585 
 3367000   0.71354806   -7.0034983    851.70019  0.021079601  0.020582548          511 
 3368000   0.71225994   -7.0026775    851.94205  0.021079326  0.020576537          525 
 3369000   0.70230885   -6.9909621    853.08996  0.021101463  0.020570517          514 
 3370000     0.709715   -7.0147676    853.76606   0.02111192  0.020564514          617 
 3371000   0.72250242   -7.0282405    850.97842  0.021036745  0.020558484          670 
 3372000    0.7233174   -7.0342236     851.4321  0.021041719  0.020552454          741 
 3373000    0.7271793   -7.0360709    852.94702  0.021072908  0.020546421          740 
 3374000   0.69735341   -7.0222698     851.7486  0.021037063  0.020540378          911 
 3375000   0.69707682   -7.0311926    851.21487  0.021017651  0.020534334          866 
 3376000   0.70021959     -7.03198    851.01922  0.021006596  0.020528282          876 
 3377000   0.71429562   -7.0275197    850.56561  0.020989182  0.020522222         1088 
 3378000   0.72401366   -7.0066453    852.53221  0.021031483  0.020516168         1055 
 3379000   0.68995417   -7.0356048    850.78524  0.020982175  0.020510111         1088 
 3380000   0.70933683   -7.0461792     851.8791  0.021002936   0.02050404          992 
 3381000   0.70991407   -7.0542383    852.04516  0.021000817  0.020497957         1150 
 3382000    0.7138243   -7.0523171    850.82182  0.020964464  0.020491881         1272 
 3383000   0.70156905   -7.0564264    849.24935  0.020919533  0.020485785         1171 
 3384000   0.72382837    -7.061996    851.08502  0.020958556  0.020479696         1277 
 3385000   0.72011362    -7.030925    851.22205  0.020955737  0.020473606         1304 
 3386000   0.69697275   -7.0753239    851.50916  0.020956615  0.020467533         1388 
 3387000   0.70758063   -7.0766711    851.19929  0.020942803  0.020461426         1426 
 3388000   0.70712395    -7.064012    850.35253  0.020915794  0.020455311         1373 
 3389000    0.7095515   -7.0799689    850.39649  0.020910703  0.020449177         1585 
 3390000   0.71868001    -7.091892     849.1849  0.020874752  0.020443024         1574 
 3391000   0.70277627   -7.1026889    848.57585  0.020853629  0.020436869         1611 
 3392000   0.71532565   -7.1099623    848.88612  0.020855103  0.020430706         1708 
 3393000   0.69555046   -7.1570912    849.13432  0.020855053  0.020424515         1808 
 3394000   0.71950065   -7.1208322    848.55949  0.020834794  0.020418328         2027 
 3395000   0.72704689   -7.1209111    848.29028  0.020822049  0.020412112         1973 
 3396000   0.71221019   -7.1451131    845.96526  0.020758865   0.02040587         2127 
 3397000    0.7092464   -7.1630857    848.52055  0.020815439  0.020399631         2176 
 3398000   0.69549531   -7.1455089    845.15361  0.020726741   0.02039336         2273 
 3399000   0.69522951   -7.1705048    844.65483  0.020708415  0.020387066         2344 
 3400000   0.70380788   -7.1618464    845.67887  0.020727423  0.020380761         2284 
 3401000   0.70469023   -7.1725476    843.81393  0.020675633  0.020374462         2412 
 3402000   0.68881659   -7.2027939    845.19856  0.020703472  0.020368146         2457 
 3403000   0.72008564   -7.1871313    845.17416  0.020696791  0.020361821         2504 
 3404000   0.70164336   -7.1899265    845.56126  0.020700188  0.020355492         2548 
 3405000   0.71908188   -7.2016533    842.22838   0.02061254  0.020349139         2656 
 3406000   0.70352398   -7.2260899    843.68056  0.020642018  0.020342774         2793 
 3407000   0.70079695   -7.2303385     843.8263  0.020639524    0.0203364         2811 
 3408000   0.69710836   -7.2341099     844.0824   0.02063973  0.020330019         2879 
 3409000   0.71782051     -7.21871    843.23231  0.020612895  0.020323617         2852 
 3410000   0.69689753   -7.2203308    845.03731  0.020650961  0.020317221         2888 
 3411000   0.71913496   -7.2426451    843.29823  0.020602419   0.02031081         3007 
 3412000   0.71005158   -7.2661292     842.0577  0.020566083  0.020304377         3105 
 3413000    0.7059441   -7.2706309    840.26727  0.020516341  0.020297926         3099 
 3414000   0.70782384   -7.2512533    841.49283  0.020540247  0.020291464         3228 
 3415000    0.7026846   -7.2818066    842.49169  0.020558606  0.020285002         3252 
 3416000   0.70543387   -7.2732895    840.63011  0.020507175  0.020278518         3263 
 3417000   0.70987844   -7.2838576    841.58321  0.020524417  0.020272022         3272 
 3418000   0.70789973   -7.2646322    841.80823  0.020523899  0.020265534         3274 
 3419000   0.71286592   -7.2822719    841.64651  0.020513954  0.020259032         3226 
 3420000   0.69783009   -7.2946447    842.12026    0.0205195  0.020252527         3363 
 3421000   0.70125457   -7.2870303    840.82608  0.020481976  0.020246028         3362 
 3422000    0.6979415    -7.288226    839.66734  0.020447773   0.02023951         3391 
 3423000   0.70440932   -7.3112347    840.62759  0.020465176  0.020232982         3361 
 3424000   0.70321382    -7.310025    839.44306  0.020430371  0.020226456         3369 
 3425000   0.71949647   -7.3030841     838.9857  0.020413277  0.020219908         3356 
 3426000   0.70156821    -7.321835    838.62843  0.020398629  0.020213364         3380 
 3427000   0.69699981   -7.2998338    840.08738  0.020428153  0.020206817         3419 
 3428000   0.71637443   -7.3015115    838.20682  0.020376478  0.020200262         3387 
 3429000   0.70968808   -7.3267975    839.67097  0.020406119  0.020193706         3365 
 3430000   0.69605878   -7.3407758    838.18167  0.020363986  0.020187152         3344 
 3431000   0.69066754   -7.3210477    839.13852  0.020381291   0.02018059         3377 
 3432000   0.70032938   -7.3168117    837.73732   0.02034133  0.020174032         3382 
 3433000   0.69975713   -7.3031233    837.43689  0.020328112  0.020167498         3386 
 3434000   0.69663802   -7.2960631    838.20705  0.020340882  0.020160951         3407 
 3435000   0.69832411   -7.3239422    837.89446  0.020327377  0.020154396         3411 
 3436000    0.7020948   -7.3457978    838.53528  0.020337002   0.02014783         3529 
 3437000   0.71125616    -7.332135    837.48511  0.020305623  0.020141253         3458 
 3438000   0.70485428   -7.3581287    840.19723  0.020365455   0.02013467         3480 
 3439000   0.70506023   -7.3349531    838.14026  0.020309689  0.020128078         3454 
 3440000   0.70844906   -7.3698628    839.23915  0.020330406  0.020121476         3522 
 3441000   0.69605765   -7.3555313    838.62548  0.020309636   0.02011488         3486 
 3442000   0.68747701   -7.3623247    837.53199  0.020277261   0.02010828         3520 
 3443000   0.70283445   -7.3711178    836.85989  0.020255104  0.020101666         3491 
 3444000   0.68751569   -7.3637153    838.45128  0.020287729  0.020095051         3482 
 3445000   0.70014295   -7.3614074    835.19537  0.020203081  0.020088452         3547 
 3446000   0.71517701   -7.3641089    835.98811  0.020216389   0.02008184         3513 
 3447000   0.70018632   -7.3573528    837.87525  0.020256147  0.020075238         3464 
 3448000   0.71418234   -7.3769336    837.49172  0.020241003  0.020068625         3496 
 3449000   0.70771146   -7.3622739    837.05354  0.020224547  0.020062004         3544 
 3450000   0.69554114     -7.37748    837.45074  0.020228279  0.020055375         3536 
 3451000   0.69825291   -7.3778073    835.14797  0.020166811  0.020048747         3548 
 3452000   0.69188179   -7.3930367    836.85942  0.020202284  0.020042111         3548 
 3453000   0.71349116    -7.375545    836.89486  0.020197289   0.02003549         3576 
 3454000   0.69466384   -7.3786801    836.69646  0.020186654  0.020028857         3584 
 3455000   0.71481311   -7.3599756    836.23898  0.020169778  0.020022239         3551 
 3456000   0.69455535   -7.3895636    835.81693  0.020153765  0.020015616         3602 
 3457000   0.70380795   -7.3724336    837.77432  0.020195119  0.020008986         3586 
 3458000   0.69673544   -7.3764272    836.29372  0.020153599  0.020002368         3597 
 3459000   0.71110443   -7.3961388    835.51747  0.020129071   0.01999574         3603 
 3460000   0.69572287   -7.3807022     836.0315  0.020135633  0.019989116         3614 
 3461000   0.69652284   -7.3955522    838.46173   0.02018833  0.019982498         3619 
 3462000   0.70790111   -7.4093521    835.94445  0.020121906  0.019975873         3624 
 3463000   0.70772971   -7.3815847    837.37181  0.020150443  0.019969238         3658 
 3464000   0.69744583   -7.3995426    837.35833  0.020144302  0.019962613         3655 
 3465000   0.68908299   -7.3892554    836.30756  0.020113217  0.019955984         3642 
 3466000   0.70438661   -7.3806632    836.04364  0.020101069  0.019949355         3616 
 3467000   0.71301969   -7.3944418    834.96219  0.020069277   0.01994273         3678 
 3468000   0.70866668   -7.3855659    836.47923  0.020099943    0.0199361         3657 
 3469000   0.69443908    -7.395815    834.98266  0.020058198  0.019929466         3653 
 3470000   0.69773175   -7.4322648    837.06901  0.020102522   0.01992284         3628 
 3471000   0.68615921   -7.3811742    835.55419  0.020060362  0.019916218         3624 
 3472000   0.69814796   -7.4217549    837.68533  0.020105735  0.019909586         3614 
 3473000   0.67730631   -7.4023763    836.01689  0.020059912  0.019902966         3651 
 3474000   0.69236503   -7.3939962    835.30655  0.020037098  0.019896348         3675 
 3475000   0.70614947   -7.4100352    835.64652  0.020039485  0.019889723         3667 
 3476000     0.695248   -7.3879506    837.98823   0.02008986  0.019883107         3627 
 3477000    0.6722202   -7.4162585    836.32576  0.020044237  0.019876489         3650 
 3478000   0.68489639   -7.3962965    835.29229  0.020013712  0.019869853         3681 
 3479000   0.69663449   -7.4263625    836.61144  0.020039557   0.01986324         3685 
 3480000   0.69403772   -7.4086595    836.86337  0.020039832  0.019856626         3651 
 3481000   0.68507522   -7.3813158    835.20173  0.019994296  0.019850008         3622 
 3482000   0.69221915   -7.3881403    836.30852  0.020015042  0.019843396         3630 
 3483000   0.70302014   -7.4149346    835.77044  0.019996422  0.019836776         3623 
 3484000   0.70947424   -7.3925236    835.17643  0.019976474  0.019830144         3692 
 3485000   0.69633293   -7.4117473    834.93386  0.019964942   0.01982352         3666 
 3486000   0.69527739   -7.4021351    836.14205  0.019988096  0.019816895         3654 
 3487000   0.68131102   -7.4121877    835.21982  0.019960325  0.019810267         3663 
 3488000   0.69736411   -7.4000493    835.07693  0.019951188  0.019803643         3622 
 3489000   0.68366634   -7.4133705    836.00918  0.019967736  0.019797021         3665 
 3490000   0.69641304   -7.4171448    836.88467  0.019982919  0.019790407         3687 
 3491000   0.70521808    -7.412802    835.28478  0.019939005  0.019783794         3683 
 3492000   0.68820282   -7.3999092    836.79778  0.019969401  0.019777183         3623 
 3493000   0.67951759    -7.410562    836.97977  0.019968026  0.019770558         3673 
 3494000   0.68657687   -7.3974299    835.21699  0.019920268  0.019763933         3675 
 3495000   0.70953198   -7.4143861    837.25692  0.019963207  0.019757316         3664 
 3496000   0.68533069   -7.3958009    833.89018  0.019877245  0.019750696         3658 
 3497000   0.70912536   -7.4356313    833.45783  0.019861258  0.019744089         3664 
 3498000   0.68854941   -7.4184629    834.85478   0.01988886  0.019737471         3691 
 3499000    0.6771039    -7.418412    837.62564  0.019949167  0.019730861         3666 
 3500000   0.68498915   -7.4234714    836.60739  0.019919224  0.019724256         3664 
 3501000   0.70221785   -7.3887585    834.90176  0.019872935  0.019717646         3623 
 3502000   0.69377702   -7.4192967    834.37809  0.019854799   0.01971104         3697 
 3503000   0.68406186   -7.4113045    833.93753  0.019838651  0.019704433         3692 
 3504000   0.69662373   -7.4089669    835.52854  0.019870827  0.019697826         3680 
 3505000   0.69719754    -7.394372     835.3059  0.019859864  0.019691224         3686 
 3506000   0.69226917   -7.4145799    833.95681  0.019822134  0.019684628         3709 
 3507000    0.6993546   -7.4399481     835.9647  0.019864193  0.019678029         3700 
 3508000   0.70670236   -7.4162347    835.40282  0.019845183  0.019671426         3673 
 3509000   0.70295206       -7.406    834.09274  0.019808415  0.019664827         3662 
 3510000   0.67799859   -7.4328368    835.60735  0.019838731  0.019658231         3648 
 3511000   0.68628697    -7.414385    835.51936  0.019830992  0.019651628         3673 
 3512000    0.6817734   -7.3991088    835.78543  0.019831659  0.019645034         3652 
 3513000     0.689336   -7.4213781    836.11517  0.019833835  0.019638435         3678 
 3514000   0.67725867   -7.4070242    837.91268  0.019870819  0.019631845         3627 
 3515000   0.70647461   -7.4296048    835.05201  0.019797345  0.019625253         3659 
 3516000   0.68363342   -7.4070391    835.10066  0.019792867  0.019618668         3676 
 3517000   0.68361771   -7.4200696    833.90871  0.019758997  0.019612075         3623 
 3518000   0.69251384   -7.4084874    832.90666  0.019729644  0.019605484         3683 
 3519000   0.67018403   -7.3991137    834.70919  0.019766723  0.019598904         3659 
 3520000   0.70235942   -7.4285651    835.55124  0.019781043  0.019592315         3704 
 3521000   0.69347715   -7.4410171    836.34207  0.019794142  0.019585719         3693 
 3522000   0.69017301   -7.4182547    835.89078  0.019777844  0.019579134         3700 
 3523000   0.68760984   -7.4016246    836.21466  0.019779891  0.019572562         3659 
 3524000   0.68766864   -7.4273936    836.05669  0.019770542  0.019565987         3722 
 3525000   0.68232526    -7.431925    837.73936  0.019804713  0.019559411         3706 
 3526000   0.68860608   -7.4334646    834.78679  0.019729315  0.019552834         3662 
 3527000   0.69898307    -7.433592    833.97272  0.019704487  0.019546257         3665 
 3528000   0.68483064   -7.4289183     835.9103  0.019744669  0.019539673         3667 
 3529000   0.69425263   -7.4076152    835.79306  0.019736305  0.019533097         3686 
 3530000   0.68706993    -7.423156     835.5498  0.019724972  0.019526524         3652 
 3531000   0.69221045   -7.4239535     834.3482  0.019691027  0.019519953         3680 
 3532000   0.66729007   -7.4093955    833.66141  0.019669248  0.019513375         3675 
 3533000   0.69487743     -7.41531    835.30968  0.019702559  0.019506807         3679 
 3534000    0.6788226   -7.3951981    834.26412  0.019672329  0.019500241         3644 
 3535000   0.69586063   -7.4307163    833.62428   0.01965168  0.019493662         3718 
 3536000   0.70031712   -7.4422377    836.38868  0.019711272  0.019487104         3668 
 3537000    0.6801355   -7.4221013    834.89843  0.019670588  0.019480536         3700 
 3538000   0.68266332   -7.4189874    835.44256  0.019677844  0.019473971         3684 
 3539000    0.6916125   -7.4036089    832.94745  0.019613531  0.019467407         3691 
 3540000   0.68766675   -7.4388013    834.68383  0.019648866  0.019460844         3697 
 3541000    0.6960787   -7.4035492    833.96448  0.019626388  0.019454289         3697 
 3542000   0.69160218   -7.4199957     832.7751  0.019592864  0.019447724         3679 
 3543000   0.70416854   -7.4181961    835.77453  0.019657883  0.019441168         3725 
 3544000   0.69729454   -7.4529891    835.50548  0.019646009   0.01943461         3716 
 3545000    0.6835729    -7.429918    834.71407  0.019621863  0.019428038         3689 
 3546000   0.67586344   -7.4317994    834.41595  0.019609324  0.019421479         3706 
 3547000   0.68180907   -7.4460077    835.35011  0.019625743  0.019414923         3759 
 3548000   0.68151825   -7.4087791    834.75001  0.019606116  0.019408374         3703 
 3549000   0.67508701   -7.4365944    835.69313  0.019622737  0.019401813         3687 
 3550000   0.68523101   -7.4319376    834.37341   0.01958623  0.019395258         3696 
 3551000   0.67584982    -7.440185    834.75267  0.019589615  0.019388711         3686 
 3552000   0.68318887   -7.4220501    833.80091  0.019561771  0.019382161         3730 
 3553000   0.68536983   -7.4407481    835.82314  0.019603695  0.019375604         3704 
 3554000    0.6724419   -7.4288244    835.35323  0.019587161  0.019369046         3675 
 3555000   0.66733373   -7.4252461    834.64171  0.019564972   0.01936249         3726 
 3556000    0.6758425   -7.4430892    833.39744  0.019530311  0.019355937         3705 
 3557000   0.68697151   -7.3975864    833.80177  0.019534293  0.019349394         3682 
 3558000   0.69116554    -7.433322    833.85714    0.0195301  0.019342851         3704 
 3559000   0.67840377   -7.4176261    835.14007  0.019554652  0.019336303         3646 
 3560000   0.68851637   -7.4483366    834.46368  0.019533326  0.019329757         3683 
 3561000   0.67862232   -7.4321405    833.19609  0.019498177  0.019323218         3665 
 3562000   0.67713772   -7.4288188     832.9275  0.019486419  0.019316669         3692 
 3563000   0.67773827   -7.4533799     834.3117  0.019513324  0.019310127         3674 
 3564000    0.6882722   -7.4534827    834.67774  0.019516408   0.01930359         3682 
 3565000   0.69304851    -7.432657    833.78566  0.019490081  0.019297053         3698 
 3566000   0.68578601   -7.4362624    834.26829  0.019495894  0.019290519         3698 
 3567000   0.68293756   -7.4459506    834.85309  0.019504091  0.019283976         3681 
 3568000   0.68757683   -7.4481125    834.31469  0.019486049  0.019277428         3709 
 3569000   0.69346908   -7.4567789    834.28901   0.01947999   0.01927089         3683 
 3570000   0.67449838   -7.4352837    835.23004  0.019496499  0.019264354         3706 
 3571000   0.70107578   -7.4273296    836.00867   0.01950921  0.019257828         3699 
 3572000   0.68445454   -7.4429091    835.25887  0.019486256  0.019251292         3660 
 3573000   0.67160628   -7.4339402     834.5246  0.019463677  0.019244762         3683 
 3574000   0.66577351   -7.4519553    833.93167  0.019444406  0.019238237         3705 
 3575000   0.67693711   -7.4474335     833.7439   0.01943459  0.019231709         3701 
 3576000   0.67302371   -7.4474558    834.14532  0.019438509  0.019225174         3694 
 3577000   0.66755962   -7.4294753    833.72094  0.019423188  0.019218653         3701 
 3578000    0.6825921   -7.4422488    834.66337   0.01943971   0.01921213         3710 
 3579000   0.68125779   -7.4393116    835.76185  0.019459855  0.019205604         3681 
 3580000   0.69001677   -7.4448611    834.98044   0.01943623  0.019199089         3680 
 3581000   0.67744521   -7.4464184    833.95446  0.019406927  0.019192573         3667 
 3582000   0.66863566   -7.4375403    833.44987   0.01938977  0.019186058         3672 
 3583000   0.68416122   -7.4360044    833.05196  0.019375104  0.019179549         3671 
 3584000   0.67263249   -7.4414042     832.9304  0.019366871  0.019173025         3684 
 3585000   0.66893626   -7.4514868    834.40335  0.019395708  0.019166506         3669 
 3586000    0.6787101   -7.4378803    835.07403  0.019405885  0.019159988         3686 
 3587000   0.68228684   -7.4356407    836.08209  0.019423894   0.01915348         3681 
 3588000   0.67311325   -7.4491509    831.93001  0.019322046  0.019146959         3729 
 3589000   0.68472262    -7.442915    832.80424  0.019336961  0.019140447         3685 
 3590000   0.67776346   -7.4508774     833.2908  0.019342869  0.019133934         3703 
 3591000   0.67651085   -7.4562101    833.95206  0.019352828  0.019127421         3677 
 3592000   0.67404796   -7.4426568    834.75214  0.019366002   0.01912091         3661 
 3593000   0.66877568   -7.4625831    833.80296  0.019338597    0.0191144         3725 
 3594000   0.66936275   -7.4432659    832.59882  0.019305296  0.019107897         3724 
 3595000   0.67783243   -7.4378465    834.62576  0.019346911  0.019101398         3687 
 3596000   0.65777153   -7.4689114    833.42854  0.019313787  0.019094888         3690 
 3597000   0.66346269   -7.4475984    833.72453  0.019315275  0.019088384         3720 
 3598000   0.67802837   -7.4654759    831.13357  0.019249897  0.019081888         3721 
 3599000     0.675014   -7.4566527    833.23155  0.019293126  0.019075389         3706 
 3600000   0.66561807   -7.4438118    833.13166  0.019285455  0.019068893         3686 
 3601000   0.66843147   -7.4526208    834.35164  0.019308332  0.019062393         3666 
 3602000   0.66922728   -7.4632867    835.32323   0.01932545  0.019055895         3694 
 3603000   0.66575886   -7.4564829    832.58835  0.019256831  0.019049404         3708 
 3604000   0.68972491   -7.4364628    832.17165  0.019241853  0.019042905         3681 
 3605000    0.6950798   -7.4486982    833.05775  0.019256998  0.019036413         3695 
 3606000    0.6779262   -7.4592371    833.80667  0.019268965  0.019029925         3698 
 3607000   0.65752357   -7.4849841    832.71237  0.019238341  0.019023422         3691 
 3608000   0.67382121   -7.4509789    833.19706  0.019244204   0.01901692         3703 
 3609000   0.67512332   -7.4850864    833.14198    0.0192376  0.019010427         3663 
 3610000   0.66712647   -7.4311556    834.09088  0.019254175  0.019003941         3697 
 3611000    0.6691671    -7.496954    834.07242  0.019248417  0.018997446         3691 
 3612000   0.68556598   -7.4659878    834.26063  0.019247431  0.018990956         3707 
 3613000   0.68396393   -7.4288911    834.02283  0.019236618  0.018984475         3691 
 3614000     0.675257   -7.4453525    832.66973  0.019200095  0.018977997         3679 
 3615000   0.67809522   -7.4983295    833.62332  0.019216766  0.018971518         3705 
 3616000   0.66843293    -7.466956    834.15212  0.019223639  0.018965037         3695 
 3617000   0.66906207   -7.4359692    834.05704  0.019216133  0.018958556         3670 
 3618000   0.66554424   -7.4479858    832.14063  0.019166681  0.018952082         3683 
 3619000   0.68013723   -7.4755746    832.60891  0.019172168  0.018945606         3684 
 3620000   0.68789523    -7.468251    834.29417  0.019205667  0.018939126         3686 
 3621000   0.67497365   -7.4795272     831.8682  0.019144532  0.018932648         3712 
 3622000    0.6529601   -7.4510678    834.38573  0.019197168  0.018926175         3701 
 3623000   0.68395416   -7.4812169    834.77211  0.019200757  0.018919704         3681 
 3624000   0.68093424   -7.4511529    833.17218  0.019158669  0.018913232         3705 
 3625000   0.67660743   -7.4265364    833.07854  0.019151231  0.018906762         3693 
 3626000   0.65818059   -7.4722856     833.7083  0.019160422  0.018900295         3698 
 3627000   0.68951869   -7.4711152    833.22696  0.019144081  0.018893827         3702 
 3628000   0.67476696   -7.4682452    832.57794  0.019123896  0.018887357         3713 
 3629000   0.66866883   -7.4829365    833.50298  0.019139868   0.01888089         3683 
 3630000   0.66454633   -7.4623077    832.76382  0.019117627  0.018874432         3712 
 3631000    0.6713638   -7.4555466    833.50787  0.019129438  0.018867966         3690 
 3632000   0.66854749   -7.4342686    833.05595  0.019113802   0.01886151         3707 
 3633000   0.68643158   -7.4558578     831.7616  0.019078851  0.018855049         3684 
 3634000   0.66799891   -7.4655828    832.19102  0.019083449  0.018848585         3699 
 3635000   0.67844381    -7.457773    832.70896  0.019090072  0.018842132         3711 
 3636000   0.66282159   -7.4777599    832.85146  0.019088088  0.018835671         3705 
 3637000   0.67068677   -7.4608501    832.83249  0.019082405  0.018829207         3725 
 3638000   0.66532579   -7.4607207    833.01605  0.019081365  0.018822748         3713 
 3639000   0.67298547   -7.4652088     832.1278   0.01905578  0.018816305         3723 
 3640000   0.68087532   -7.4488236    831.99424  0.019047487  0.018809853         3674 
 3641000   0.67441446   -7.4665574    833.17559  0.019069294  0.018803409         3727 
 3642000   0.66228634   -7.4778485    832.83735  0.019056319  0.018796957         3694 
 3643000   0.67214557   -7.4665739    833.45082  0.019065121  0.018790508         3730 
 3644000   0.67091321   -7.4631096    832.72014  0.019043179   0.01878407         3724 
 3645000   0.66530563   -7.4868118    832.27644  0.019027811  0.018777624         3747 
 3646000   0.69743522   -7.4789089    833.85461  0.019058663  0.018771193         3739 
 3647000   0.65183901   -7.4619024    834.59845  0.019070434   0.01876475         3737 
 3648000   0.67944443   -7.4701371    832.45689  0.019016285   0.01875831         3703 
 3649000   0.66237311   -7.4873132    833.88596   0.01904371  0.018751872         3702 
 3650000   0.66338965   -7.4978492    831.98013   0.01899498  0.018745434         3734 
 3651000   0.66387585   -7.4616542    832.25613  0.018996077  0.018739004         3723 
 3652000   0.67211668   -7.4915456    832.78895  0.019003034  0.018732569         3748 
 3653000   0.67401118   -7.4715875    833.17445  0.019006626   0.01872614         3737 
 3654000   0.66429962   -7.4824413    833.50897  0.019009053  0.018719713         3735 
 3655000   0.65085506   -7.4652341    831.89223  0.018966991  0.018713281         3723 
 3656000   0.65326189   -7.4652812    832.37611  0.018972833  0.018706857         3742 
 3657000   0.67157549   -7.4782438    832.53298  0.018971219  0.018700431         3744 
 3658000   0.65811626   -7.4468879    831.26591  0.018937168  0.018694013         3733 
 3659000   0.66093397   -7.4702787    831.90036  0.018946442  0.018687581         3720 
 3660000   0.67419929   -7.4869434    832.80793  0.018961929  0.018681171         3739 
 3661000   0.65305494   -7.4612683    831.90143  0.018936116  0.018674758         3744 
 3662000   0.68322339   -7.4668548    831.72853   0.01892701  0.018668345         3700 
 3663000   0.66600142   -7.4877717      832.965  0.018949973  0.018661937         3748 
 3664000   0.66948247   -7.4859821    834.39827  0.018977399  0.018655533         3702 
 3665000   0.65492467   -7.4573039    833.29727  0.018947187  0.018649127         3706 
 3666000   0.67265132   -7.4812069    832.98186  0.018934849  0.018642723         3745 
 3667000   0.66471492   -7.4849529    832.25366  0.018913137  0.018636322         3695 
 3668000   0.65674769   -7.4611888    831.65034  0.018894273  0.018629927         3719 
 3669000   0.66549867   -7.4633439    831.58302  0.018887595  0.018623521         3725 
 3670000   0.67217253   -7.4765123     832.9525  0.018913544  0.018617131         3720 
 3671000   0.65940274   -7.4694049    831.91435  0.018884826  0.018610737         3735 
 3672000   0.67419157   -7.4944714    831.70164  0.018874856  0.018604347         3733 
 3673000   0.65763143   -7.4835562    833.90348  0.018919672  0.018597958         3734 
 3674000   0.66716624   -7.4814702    833.10377  0.018896384  0.018591572         3703 
 3675000   0.66315377   -7.4807028    833.60887  0.018902696  0.018585192         3716 
 3676000    0.6651306   -7.4898363    833.85136   0.01890305  0.018578815         3694 
 3677000   0.67776742   -7.4731567     834.3308  0.018908775  0.018572439         3711 
 3678000   0.66308255   -7.4492389    832.31239  0.018857903  0.018566066         3714 
 3679000   0.66448735   -7.4652547    831.73856  0.018839779  0.018559686         3679 
 3680000   0.65413024   -7.4808844    832.61751  0.018854563  0.018553311         3703 
 3681000   0.65631177   -7.4877751    832.88532  0.018855504  0.018546934         3696 
 3682000     0.664833   -7.4755953    832.84224  0.018849408  0.018540559         3666 
 3683000   0.66605024   -7.4838382    833.11104  0.018850372  0.018534186         3711 
 3684000   0.67917393   -7.4817061    832.21636  0.018825017  0.018527813         3739 
 3685000   0.65528751   -7.4827753    831.80037  0.018810501   0.01852145         3707 
 3686000   0.66816107   -7.4722568    831.99113  0.018809711  0.018515079         3717 
 3687000   0.66226362   -7.4879771    833.43815  0.018837315  0.018508714         3709 
 3688000   0.65214456   -7.4713803    831.78486  0.018794849  0.018502353         3686 
 3689000    0.6695268   -7.4934823    833.24828  0.018822813  0.018495979         3731 
 3690000    0.6595263   -7.4843427    832.81316  0.018807885  0.018489625         3718 
 3691000   0.66264052   -7.4738455    831.54202  0.018774091  0.018483267         3704 
 3692000   0.65171222   -7.4809442    833.65548  0.018816709  0.018476908         3699 
 3693000   0.66143451   -7.4814348    831.15127  0.018755106  0.018470555         3718 
 3694000   0.67042495   -7.4793748    830.66022  0.018738951    0.0184642         3697 
 3695000   0.65646767   -7.4960484    832.68332  0.018779507  0.018457847         3721 
 3696000   0.65515639   -7.4929942    832.71086  0.018775046  0.018451491         3689 
 3697000    0.6650126   -7.5019407    831.80807  0.018749618  0.018445137         3685 
 3698000    0.6706371   -7.4848533    833.86677   0.01879094   0.01843879         3704 
 3699000    0.6598647   -7.4876305    832.39873  0.018752788  0.018432443         3696 
 3700000   0.66060791   -7.4810652    833.21871  0.018766187  0.018426103         3705 
 3701000   0.66591024   -7.4838008    834.75737  0.018795762  0.018419762         3682 
 3702000   0.66421079   -7.4806961    832.96269  0.018750286  0.018413421         3692 
 3703000   0.64332628   -7.4956034    832.68424  0.018738956  0.018407079         3677 
 3704000   0.65998908   -7.4901134    832.03756  0.018719348   0.01840075         3702 
 3705000   0.65616593   -7.4873447     831.2809  0.018697276  0.018394419         3698 
 3706000   0.64944458   -7.4912816     832.0582   0.01870971  0.018388088         3702 
 3707000   0.66347909   -7.4716458    832.49643  0.018714514  0.018381758         3701 
 3708000   0.67033922   -7.4813539     832.1328  0.018701294  0.018375424         3710 
 3709000    0.6576073   -7.4691934    831.30621  0.018677681  0.018369093         3694 
 3710000   0.65497539   -7.5055533    831.86678  0.018685238  0.018362765         3695 
 3711000    0.6550377    -7.490913    832.21443  0.018688009  0.018356438         3701 
 3712000   0.66064213   -7.4840798     832.2518  0.018683814  0.018350112         3688 
 3713000    0.6608294   -7.4918327    834.01414  0.018718335   0.01834379         3711 
 3714000   0.65758619   -7.4933829    833.35767  0.018698565  0.018337469         3693 
 3715000   0.65696036   -7.5048976    832.65413  0.018677751   0.01833115         3703 
 3716000   0.65875985   -7.5019348    832.58179  0.018671102   0.01832483         3700 
 3717000   0.66363192   -7.4842701    830.16115   0.01861181   0.01831852         3711 
 3718000   0.66496496   -7.4689439    831.97302  0.018647414  0.018312207         3701 
 3719000   0.65157933   -7.4890539    831.02406  0.018621136  0.018305888         3711 
 3720000   0.64997873   -7.5029742     830.6913  0.018608676  0.018299576         3710 
 3721000   0.64807528   -7.5003218    831.14715  0.018613884  0.018293259         3715 
 3722000   0.66062533   -7.4827521     831.0496  0.018606699  0.018286952         3730 
 3723000   0.64934938   -7.4991692    831.96941   0.01862229  0.018280642         3727 
 3724000   0.65744181   -7.4732508    832.38553  0.018626601   0.01827433         3678 
 3725000   0.66164154   -7.4821864    832.32347  0.018620212  0.018268028         3688 
 3726000   0.64984911    -7.499682    831.12208  0.018588345  0.018261728         3674 
 3727000   0.65644557    -7.481767     832.1476  0.018606287  0.018255426         3720 
 3728000   0.64933857   -7.5038228    831.54668  0.018587864  0.018249122         3700 
 3729000   0.64993698   -7.4817691    831.54085  0.018582749  0.018242829         3702 
 3730000   0.64469425   -7.4897723    830.35734  0.018551326  0.018236528         3717 
 3731000   0.65288482   -7.4842666    831.70008  0.018576344  0.018230233         3696 
 3732000   0.64407436   -7.4831462    832.50596  0.018589361  0.018223942         3705 
 3733000   0.65572883   -7.4910999    830.99571  0.018550668  0.018217653         3696 
 3734000   0.66671526   -7.4942348    830.99014  0.018545575  0.018211361         3703 
 3735000   0.64991068   -7.5092721    831.36543  0.018548983  0.018205067         3682 
 3736000   0.64856084   -7.4825627    830.91471  0.018533965  0.018198789         3696 
 3737000   0.65488322   -7.4989024    831.96641  0.018552458  0.018192503         3687 
 3738000   0.65073692    -7.482837     831.9302  0.018546687  0.018186212         3693 
 3739000   0.66362737   -7.4965471    831.50692  0.018532293  0.018179934         3702 
 3740000   0.64940201    -7.505235    830.61355  0.018507432  0.018173651         3683 
 3741000   0.65898843   -7.4930171    831.62316  0.018524975  0.018167371         3719 
 3742000   0.65970605   -7.4987155    832.15533  0.018531875  0.018161092         3698 
 3743000    0.6624542   -7.4996757    832.81994  0.018541721  0.018154821         3717 
 3744000   0.66902135   -7.4881096    832.12974  0.018521406  0.018148545         3702 
 3745000   0.63879283   -7.4978087    830.53089  0.018480883  0.018142268         3713 
 3746000   0.65202925   -7.5046624    831.63338  0.018500476  0.018135993         3703 
 3747000   0.64799731   -7.5087839    831.13564  0.018484469  0.018129719         3681 
 3748000   0.64927579   -7.5052983    830.89005  0.018474076  0.018123447         3704 
 3749000   0.65038636   -7.5013829    830.97399  0.018471014  0.018117184         3715 
 3750000   0.64247627   -7.4895799    832.80121  0.018506694  0.018110917         3670 
 3751000   0.65757392   -7.5139839    829.13587  0.018420329  0.018104646         3683 
 3752000   0.64955352   -7.4801102    830.68324  0.018449788  0.018098382         3676 
 3753000   0.65529341   -7.5010732    831.80406  0.018469759  0.018092116         3695 
 3754000   0.65435173    -7.520437     831.9485  0.018468045  0.018085854         3705 
 3755000   0.66188677   -7.4946199    831.44413  0.018451934  0.018079591         3676 
 3756000   0.65480398    -7.504023    831.80173  0.018454955   0.01807333         3664 
 3757000   0.65091453   -7.5171985    831.68771  0.018447514  0.018067076         3731 
 3758000   0.65279993   -7.4930012    831.89284  0.018447154  0.018060817         3695 
 3759000   0.64978464   -7.5218658     832.0118  0.018444883  0.018054568         3676 
 3760000   0.63978782   -7.5060273    829.86814  0.018392468   0.01804832         3674 
 3761000   0.63354911   -7.5182018     829.5101  0.018379644  0.018042069         3685 
 3762000   0.66052771   -7.5184626    830.70093  0.018401137  0.018035816         3716 
 3763000   0.64421337   -7.4985374    830.90131  0.018400685  0.018029568         3671 
 3764000   0.66357266   -7.5239441    831.05937  0.018399295  0.018023323         3704 
 3765000   0.62860935   -7.5129075    830.57552  0.018383699  0.018017076         3705 
 3766000   0.65700503   -7.5136645    832.23109  0.018415452  0.018010832         3669 
 3767000   0.64881697     -7.48898    830.28222   0.01836745  0.018004592         3701 
 3768000    0.6401799   -7.4977159    831.17822  0.018382392  0.017998357         3698 
 3769000   0.64737136   -7.5086955    831.58156  0.018386432  0.017992128         3683 
 3770000   0.66409745   -7.5026293    830.76795  0.018363571   0.01798589         3697 
 3771000   0.64367328   -7.5187412    832.21831  0.018390752  0.017979671         3700 
 3772000    0.6432906   -7.5274731    831.43804  0.018368638   0.01797344         3695 
 3773000   0.64706748   -7.5016516    831.63382  0.018368094  0.017967215         3694 
 3774000   0.64469087   -7.4978045    830.03574   0.01832794   0.01796099         3708 
 3775000   0.65164502    -7.496135    830.19948  0.018326699   0.01795476         3700 
 3776000   0.65508807   -7.5189577    830.46789  0.018327769  0.017948537         3692 
 3777000   0.65752084   -7.4983075    830.31916  0.018319635  0.017942318         3713 
 3778000   0.64844968   -7.5224668    831.90375  0.018349739  0.017936094         3721 
 3779000   0.65222791   -7.5335332    830.61535  0.018316472  0.017929869         3713 
 3780000   0.64644017   -7.5220389    832.25903  0.018347862  0.017923649         3709 
 3781000   0.64402787   -7.5209936    830.23703  0.018298445  0.017917438         3682 
 3782000   0.64170279    -7.521064    829.86943  0.018285507  0.017911227         3688 
 3783000   0.65304268   -7.5062109    830.67992  0.018298527  0.017905022         3684 
 3784000   0.65108478    -7.501227    830.32658  0.018285909  0.017898812         3676 
 3785000   0.64605934   -7.5067162    829.71227  0.018267553  0.017892604         3710 
 3786000   0.65979751   -7.5084331    830.35339   0.01827684  0.017886409         3718 
 3787000    0.6536556   -7.5223446    831.70234  0.018301697  0.017880212         3696 
 3788000   0.65413303   -7.5093904    831.09418  0.018283487  0.017874014         3677 
 3789000   0.65198935   -7.5051844    829.95613  0.018253632  0.017867817         3681 
 3790000   0.64752644   -7.5082959    829.95177   0.01824872  0.017861624         3703 
 3791000   0.65136183    -7.493239    832.07094  0.018290489  0.017855433         3701 
 3792000   0.63751679   -7.4995163    831.24674  0.018267553  0.017849252         3710 
 3793000   0.64028853   -7.5209668    831.15458  0.018260712  0.017843069         3716 
 3794000   0.64341887   -7.5294977    831.88876  0.018272025  0.017836888         3717 
 3795000   0.63871804   -7.5308678    830.69862  0.018241076  0.017830708         3698 
 3796000   0.65257585   -7.5165709    829.81266  0.018216822  0.017824525         3707 
 3797000    0.6406008     -7.51695    831.99894  0.018260007  0.017818345         3708 
 3798000   0.63349989   -7.5183627    831.79051  0.018250626  0.017812164         3704 
 3799000   0.64598611   -7.5200445    832.23623  0.018255599  0.017805993         3717 
 3800000   0.63410943   -7.4990486     829.6706  0.018194531  0.017799823         3694 
 3801000   0.64954674   -7.4987825    830.88138  0.018216289  0.017793658         3698 
 3802000   0.64726766   -7.5242026    830.68359  0.018207163  0.017787485         3720 
 3803000   0.65188512   -7.5219854    830.59555  0.018200446  0.017781311         3699 
 3804000   0.64675239   -7.5181613    828.68601   0.01815383  0.017775147         3697 
 3805000   0.64623802   -7.4883083    830.39529  0.018186493  0.017768982         3723 
 3806000   0.64014812   -7.5216854    830.88708  0.018192483  0.017762816         3687 
 3807000   0.64905044   -7.5208403     831.9654  0.018211308  0.017756659         3723 
 3808000   0.63894405   -7.5196398    829.60284  0.018154824  0.017750502         3658 
 3809000   0.63802112   -7.5013883    830.63202  0.018172574  0.017744349         3681 
 3810000   0.64117999   -7.5015554    830.73715  0.018170104  0.017738191         3697 
 3811000   0.62965815    -7.514612    829.96674   0.01814849  0.017732032         3684 
 3812000   0.63516367   -7.5281042    829.71421  0.018138209  0.017725875         3672 
 3813000   0.63073043   -7.5148376    830.32149  0.018146724  0.017719724         3711 
 3814000   0.64170412   -7.5186226     830.0196   0.01813537  0.017713576         3678 
 3815000   0.66623543   -7.5103967    829.99027  0.018129975  0.017707431         3654 
 3816000   0.64289263   -7.4978977    830.06962  0.018126957  0.017701296         3678 
 3817000   0.61806267   -7.5180844    828.86834  0.018095982  0.017695148         3707 
 3818000   0.63814015   -7.5319645    831.42414  0.018147026  0.017689009         3697 
 3819000    0.6343831   -7.5141289     831.0506  0.018134123  0.017682862         3693 
 3820000   0.63923486   -7.4921375     830.4178  0.018115572  0.017676728         3683 
 3821000   0.64132981   -7.5356047    830.10634  0.018104038  0.017670592         3701 
 3822000   0.64675341   -7.5122211    830.98644   0.01811849  0.017664456         3715 
 3823000   0.64220653    -7.520693    830.60557  0.018105449  0.017658328         3687 
 3824000   0.65072307   -7.5121573    831.22835  0.018114286  0.017652201         3686 
 3825000   0.64898909   -7.5270931    830.74182   0.01809895  0.017646071         3722 
 3826000    0.6344701   -7.5323354     829.5774  0.018068858  0.017639944         3708 
 3827000   0.63141065   -7.5083729    830.64892  0.018087469  0.017633829         3699 
 3828000   0.64130547   -7.5099393    828.50739  0.018036124  0.017627719         3709 
 3829000   0.63306275   -7.5189028    829.87475  0.018061172  0.017621604         3693 
 3830000   0.63489843   -7.5210919    830.49188  0.018069884   0.01761549         3687 
 3831000   0.63995326   -7.5103812    830.30239  0.018061046  0.017609378         3667 
 3832000   0.63889349    -7.511533     830.6109  0.018063042  0.017603268         3678 
 3833000   0.63076288   -7.4948277    829.04694  0.018024327  0.017597167         3689 
 3834000   0.63765565   -7.5400681    828.43237  0.018006268  0.017591064         3692 
 3835000   0.64229092   -7.5244162    831.22825  0.018062326  0.017584957         3722 
 3836000   0.63057116   -7.5267411    830.93083  0.018051156  0.017578861         3702 
 3837000   0.64267704   -7.5236884      830.303  0.018032816  0.017572765         3693 
 3838000   0.63285632   -7.5462046    831.17387  0.018047027   0.01756666         3724 
 3839000   0.64394857   -7.5244948    830.29483  0.018023245  0.017560564         3696 
 3840000   0.63671114   -7.5337736    829.69615  0.018005559  0.017554466         3699 
 3841000   0.64658642   -7.5249591    829.73828  0.018001785  0.017548372         3710 
 3842000   0.62906619   -7.5387694    831.90023  0.018043992  0.017542285         3707 
 3843000   0.64626981   -7.5323115    828.83545  0.017972839  0.017536195         3721 
 3844000   0.65968103   -7.5084398    829.76438  0.017988302  0.017530111         3694 
 3845000   0.65406261   -7.5080666    830.16054  0.017992209  0.017524026         3708 
 3846000   0.60673512   -7.5384845     829.8093  0.017979921  0.017517937         3676 
 3847000   0.63483292   -7.5336595    829.67672  0.017972375  0.017511863         3677 
 3848000    0.6384235   -7.5156081    828.90201  0.017950927  0.017505786         3703 
 3849000   0.63125167   -7.5368581    828.84762  0.017945086  0.017499712         3711 
 3850000   0.61947769   -7.5457758    830.59931   0.01797834   0.01749363         3685 
 3851000   0.64650471   -7.5163037    830.54055    0.0179724  0.017487558         3703 
 3852000   0.63583497    -7.519132    830.75789  0.017972436  0.017481486         3684 
 3853000   0.64971269   -7.5174484    829.75967  0.017946182  0.017475424         3734 
 3854000   0.62847648   -7.5578463    830.82972  0.017964663  0.017469353         3724 
 3855000   0.63312471   -7.5303316    830.44418  0.017951668  0.017463282         3712 
 3856000   0.62234409    -7.538892    830.90603  0.017956994  0.017457219         3693 
 3857000   0.64383915   -7.5512184    831.01418  0.017954675  0.017451158         3691 
 3858000   0.63442949   -7.5164909    829.85662  0.017925018  0.017445097         3734 
 3859000   0.63193162   -7.5300051    831.22973  0.017950024  0.017439038         3707 
 3860000   0.62961301   -7.5180568    830.87489  0.017937714   0.01743298         3683 
 3861000   0.62957089   -7.5296445    828.62274  0.017884459  0.017426931         3737 
 3862000   0.63490206   -7.5255627    829.96185  0.017908723  0.017420883         3714 
 3863000   0.62994939   -7.5083811     831.8555  0.017944937  0.017414838         3679 
 3864000   0.64491385   -7.5265332    830.23231  0.017905286  0.017408792         3682 
 3865000   0.62579528   -7.5325015    830.40686  0.017904417  0.017402745         3676 
 3866000   0.62291214   -7.5276046    830.02816  0.017891623  0.017396699         3695 
 3867000   0.62539245   -7.5303643    830.01102  0.017886626  0.017390657         3687 
 3868000   0.62524468   -7.5284326    831.09224  0.017905296   0.01738462         3717 
 3869000   0.63757371   -7.5242627    830.46713  0.017887204  0.017378582         3738 
 3870000   0.62061961   -7.5351889    831.25279    0.0178995  0.017372545         3715 
 3871000   0.63351137    -7.538864    830.14305  0.017870986  0.017366507         3711 
 3872000   0.63192356   -7.5358751    829.44921  0.017851438  0.017360476         3728 
 3873000   0.62702456   -7.5469575    829.81836  0.017854772  0.017354449         3713 
 3874000   0.63085442   -7.5325961    829.98783  0.017853808  0.017348416         3706 
 3875000   0.63204388   -7.5336666    830.24782  0.017854792  0.017342396         3707 
 3876000   0.62974904   -7.5487173    828.06637  0.017803285  0.017336371         3728 
 3877000   0.62148755   -7.5501271    829.06217  0.017820097  0.017330339         3701 
 3878000   0.63344431   -7.5468211    830.05955  0.017836934  0.017324325         3748 
 3879000   0.62696687    -7.534338    830.24682  0.017836359  0.017318314         3724 
 3880000    0.6182117   -7.5190733     829.0079  0.017805153  0.017312305         3715 
 3881000   0.64403214    -7.531167    829.25017  0.017805767  0.017306292         3726 
 3882000    0.6358424    -7.547181    829.04853  0.017796851  0.017300277         3735 
 3883000   0.64386429    -7.537292    830.05246  0.017813814  0.017294265         3701 
 3884000   0.62089683   -7.5407354    829.40205  0.017795272   0.01728826         3716 
 3885000   0.64678331   -7.5552698    828.89836  0.017779888  0.017282264         3714 
 3886000   0.62508041   -7.5527556    828.96272  0.017776692  0.017276266         3723 
 3887000   0.63644986   -7.5308977    829.65823   0.01778703  0.017270271         3696 
 3888000   0.63350182   -7.5311026    828.83718  0.017764857  0.017264273         3722 
 3889000   0.62520982   -7.5563431    830.05073  0.017786293  0.017258279         3718 
 3890000   0.64384239   -7.5436588    829.31858  0.017766036  0.017252281         3736 
 3891000   0.62813075   -7.5415251    828.78817  0.017750111  0.017246287         3739 
 3892000   0.62015049   -7.5326462    831.00004  0.017792909  0.017240297         3725 
 3893000   0.63484668   -7.5339852     830.4724  0.017777044   0.01723431         3707 
 3894000   0.64360797   -7.5507888    828.58087  0.017731999  0.017228319         3742 
 3895000     0.631294   -7.5333096     829.2837  0.017742484  0.017222328         3711 
 3896000    0.6378503   -7.5502514    830.42444   0.01776233  0.017216343         3733 
 3897000   0.61986658   -7.5275266    830.16949   0.01775232  0.017210364         3733 
 3898000   0.62234164   -7.5500855    830.26983  0.017749911  0.017204383         3732 
 3899000   0.62800384   -7.5409116    828.61888  0.017710073  0.017198407         3726 
 3900000   0.64936356   -7.5266315    829.30037  0.017720093  0.017192442         3731 
 3901000   0.62631037   -7.5221442    827.95002  0.017686705  0.017186465         3713 
 3902000    0.6394202   -7.5480604    828.34771  0.017690665  0.017180494         3709 
 3903000   0.62375451   -7.5506658     828.9774  0.017699577  0.017174517         3721 
 3904000   0.62424994   -7.5413253    828.28329  0.017680227  0.017168545         3730 
 3905000   0.62620497   -7.5823128     829.3367   0.01769818  0.017162582         3729 
 3906000   0.63526291   -7.5478623    829.35155  0.017693966  0.017156614         3722 
 3907000   0.63831389   -7.5362834    829.19925  0.017686188  0.017150651         3721 
 3908000    0.6201603   -7.5501026    827.80806  0.017651997  0.017144689         3746 
 3909000   0.63920556   -7.5380256    829.67956  0.017687379   0.01713873         3718 
 3910000    0.6322891   -7.5245819    828.44443  0.017656531  0.017132766         3742 
 3911000   0.62059025   -7.5566386    829.56375  0.017675866  0.017126815         3760 
 3912000   0.61408935   -7.5360848    828.40825  0.017646733  0.017120864         3719 
 3913000   0.63347403   -7.5704527    829.68853  0.017669489  0.017114918         3727 
 3914000   0.61058996   -7.5414831    830.62479  0.017684909  0.017108975         3735 
 3915000    0.6266852   -7.5219329     828.7379  0.017640228  0.017103032         3751 
 3916000   0.61464148    -7.534647    829.96614   0.01766186  0.017097085         3728 
 3917000   0.62302016    -7.543721    829.46016  0.017646587  0.017091143         3738 
 3918000   0.62333545   -7.5404501    828.40523  0.017619645  0.017085204         3717 
 3919000   0.63015066    -7.546351    829.60902  0.017640746  0.017079266         3736 
 3920000   0.61562361   -7.5276632    830.60122  0.017657339  0.017073336         3738 
 3921000   0.60484673   -7.5230798     829.7945   0.01763569    0.0170674         3730 
 3922000   0.62108155   -7.5530869    829.52304  0.017625426  0.017061467         3712 
 3923000   0.63960321   -7.5285954    829.77135  0.017626208  0.017055539         3724 
 3924000   0.61224959   -7.5472615    828.40298  0.017592656   0.01704961         3730 
 3925000   0.62060911   -7.5411438    829.17843  0.017604638  0.017043681         3720 
 3926000   0.61550106   -7.5403203    829.27177  0.017602135  0.017037769         3723 
 3927000   0.64040671   -7.5572307    828.94267  0.017590669  0.017031846         3743 
 3928000   0.62724509   -7.5216766    830.15714  0.017611956  0.017025931         3716 
 3929000   0.62071519   -7.5528168      828.298  0.017568041  0.017020013         3737 
 3930000   0.61420972   -7.5459493    829.03284  0.017579153    0.0170141         3728 
 3931000    0.6202595   -7.5539416    829.48432  0.017584252  0.017008179         3735 
 3932000   0.61231111   -7.5414323    828.26128  0.017553859  0.017002264         3718 
 3933000   0.61786143   -7.5593468    828.85736  0.017562026  0.016996349         3715 
 3934000   0.59742942   -7.5522231    829.23275  0.017565513  0.016990449         3717 
 3935000   0.63033988   -7.5444507    828.32533  0.017541833  0.016984546         3709 
 3936000   0.60883438   -7.5574736    829.09711  0.017553716  0.016978638         3709 
 3937000   0.61840646     -7.53358     828.9285  0.017545688  0.016972737         3709 
 3938000   0.63499679   -7.5503197     828.2179  0.017526196  0.016966839         3708 
 3939000   0.62637498   -7.5580907     827.9449  0.017515971   0.01696094         3720 
 3940000   0.61502815   -7.5438054    827.67719  0.017505863  0.016955043         3714 
 3941000   0.62112008    -7.549756    829.11951  0.017531919  0.016949151         3730 
 3942000   0.62583718   -7.5507788    829.48167  0.017535128  0.016943256         3732 
 3943000   0.62031652   -7.5563892    827.76047  0.017494304   0.01693737         3725 
 3944000   0.62115154   -7.5392634    830.11235  0.017539561  0.016931484         3728 
 3945000   0.62062059   -7.5401296    828.11707  0.017492967    0.0169256         3723 
 3946000   0.61336703   -7.5409718     827.6582  0.017478843  0.016919716         3728 
 3947000    0.6305879   -7.5584479    828.49695  0.017492124  0.016913834         3735 
 3948000   0.63482094   -7.5447102    828.53075  0.017488407  0.016907953         3727 
 3949000   0.60962416   -7.5659104    829.59018  0.017506334  0.016902073         3746 
 3950000   0.62665944   -7.5436631    830.15243  0.017513764  0.016896195         3704 
 3951000   0.61147089   -7.5355339    828.30432  0.017470352  0.016890324         3742 
 3952000   0.61615064   -7.5600812    830.44694  0.017511111  0.016884455         3692 
 3953000   0.62947725    -7.551736    829.92215  0.017495618  0.016878588         3695 
 3954000    0.6123934    -7.580226    828.85748  0.017468755  0.016872718         3720 
 3955000   0.60147278   -7.5510623    829.30937  0.017473859  0.016866848         3747 
 3956000   0.61736092   -7.5474336    829.89131  0.017481701  0.016860985         3752 
 3957000   0.61486411   -7.5626854    827.83687  0.017434017  0.016855123         3708 
 3958000    0.6280158   -7.5428826    829.60213  0.017466779  0.016849263         3709 
 3959000   0.62501842   -7.5450642    830.28572  0.017476756  0.016843411         3692 
 3960000   0.62695456   -7.5384605     828.8537  0.017442207  0.016837557         3722 
 3961000   0.62988607   -7.5575089    828.20383  0.017424132  0.016831702         3729 
 3962000   0.60452698   -7.5546394    829.73064  0.017451848  0.016825852         3744 
 3963000    0.6244035    -7.564258     829.0386  0.017432892  0.016820005         3757 
 3964000   0.60682317   -7.5641758    828.22741  0.017411441  0.016814156         3730 
 3965000   0.61085045   -7.5570686    827.81526  0.017398387  0.016808312         3720 
 3966000   0.61765181   -7.5663559    828.33572  0.017404936  0.016802466         3736 
 3967000   0.60915996   -7.5522714    828.47708  0.017403518  0.016796625         3740 
 3968000   0.62762362   -7.5601361    830.56637   0.01744301  0.016790786         3744 
 3969000   0.63181504   -7.5609817    829.99906  0.017426704  0.016784947         3738 
 3970000   0.61320114   -7.5821542    829.46994  0.017411208  0.016779114         3741 
 3971000     0.622564   -7.5605156    828.05322  0.017377093  0.016773279         3753 
 3972000   0.60714972   -7.5562503    827.22582  0.017355359  0.016767441         3724 
 3973000   0.62607212   -7.5626086    828.16119   0.01737061  0.016761614         3759 
 3974000   0.61582344   -7.5601845    828.43167  0.017371911  0.016755785         3723 
 3975000   0.61189915   -7.5590902    827.95428  0.017357532  0.016749955         3754 
 3976000   0.61210225   -7.5702593    829.03009  0.017375715  0.016744131         3748 
 3977000   0.60007187   -7.5540268     828.9057  0.017368739  0.016738306         3713 
 3978000   0.62461711   -7.5306947    829.05034  0.017367403  0.016732484         3724 
 3979000   0.61867368   -7.5349744    827.64841  0.017333677  0.016726667         3736 
 3980000   0.60556573    -7.548458    828.12428  0.017339286  0.016720854         3720 
 3981000   0.59530722   -7.5721225    829.43705   0.01736241   0.01671504         3713 
 3982000   0.60940944   -7.5658412    829.37612  0.017356775  0.016709229         3726 
 3983000   0.61264269     -7.56177    828.24064   0.01732866  0.016703416         3722 
 3984000    0.6082644   -7.5786085    828.84013   0.01733685  0.016697614         3774 
 3985000   0.60318532   -7.5690878    828.68095  0.017329171  0.016691807         3739 
 3986000   0.61329177   -7.5477617    828.01919  0.017310988  0.016686006         3720 
 3987000   0.61337213   -7.5440733    828.44106  0.017315464  0.016680202         3712 
 3988000   0.61900843   -7.5668092    828.72911  0.017317141  0.016674407         3738 
 3989000   0.59879056   -7.5627304    828.02354   0.01729806  0.016668612         3735 
 3990000   0.62011313   -7.5793644    827.54518  0.017283734  0.016662824         3719 
 3991000   0.62304465   -7.5779958    827.15636  0.017271285  0.016657032         3723 
 3992000   0.60632031   -7.5561233    827.34021  0.017270796  0.016651237         3714 
 3993000   0.61578637   -7.5822761     828.0614  0.017281522  0.016645443         3742 
 3994000   0.61466963   -7.5694086    828.57228  0.017287854  0.016639662         3742 
 3995000   0.62428714   -7.5759475    827.63568   0.01726399  0.016633877         3750 
 3996000   0.60621029   -7.5590105    828.81505  0.017284264  0.016628095         3749 
 3997000   0.61747061   -7.5456531    827.77639  0.017258285  0.016622307         3747 
 3998000    0.5989608   -7.5522179    829.13385  0.017282263  0.016616533         3739 
 3999000   0.60510056    -7.560322    827.98629  0.017254028  0.016610754         3744 
 4000000   0.60858205   -7.5690196    828.10687  0.017252227  0.016604974         3730 
 4001000   0.60231669   -7.5579935    828.99395  0.017266391  0.016599198         3767 
 4002000   0.61078359   -7.5529336    828.00419  0.017241467  0.016593423         3707 
 4003000   0.61692267   -7.5680335    827.60266  0.017228801  0.016587658         3735 
 4004000    0.5989784   -7.5550017    827.87308  0.017230126  0.016581891         3738 
 4005000   0.60104416   -7.5762003    829.14229  0.017252233  0.016576128         3693 
 4006000   0.60859918   -7.5583123    829.00184  0.017245004  0.016570367         3731 
 4007000   0.60738788   -7.5649411    828.86815   0.01723792  0.016564608         3755 
 4008000   0.61113819   -7.5714249    828.17132  0.017219131  0.016558855         3732 
 4009000   0.59401155   -7.5775771    828.31377  0.017217797  0.016553098         3710 
 4010000   0.60006568   -7.5470559    827.57345  0.017198118  0.016547342         3743 
 4011000   0.60748456   -7.5687019    827.68912  0.017196234   0.01654159         3723 
 4012000   0.62060796   -7.5764145    827.65513  0.017191241   0.01653584         3736 
 4013000    0.6219347   -7.5654628    827.45153   0.01718273  0.016530092         3699 
 4014000   0.61137279   -7.5873706    827.79476  0.017185575  0.016524344         3758 
 4015000   0.59345932   -7.5599897    827.99353   0.01718542  0.016518594         3710 
 4016000   0.60055562   -7.5685188    828.31553  0.017187822  0.016512851         3731 
 4017000   0.62608213   -7.5491443     827.6146  0.017169003  0.016507107         3728 
 4018000   0.61194994   -7.5631984    828.40422  0.017181106  0.016501374         3739 
 4019000    0.6045771   -7.5675175    828.54404   0.01717973  0.016495638         3724 
 4020000   0.61030037   -7.5626397    828.45754  0.017173664  0.016489898         3715 
 4021000   0.60383897   -7.5818925    828.83089   0.01717713  0.016484162         3739 
 4022000   0.61125963   -7.5892695    828.53706  0.017166771  0.016478434         3713 
 4023000    0.6092493   -7.5750971    827.39497  0.017138847  0.016472706         3737 
 4024000   0.59421821   -7.5670457    829.83336  0.017185084  0.016466979         3721 
 4025000   0.60940914   -7.5663341    826.12976  0.017104136  0.016461251         3728 
 4026000   0.59270423   -7.5663078     828.0948  0.017140561  0.016455526         3715 
 4027000   0.59813133   -7.5489181    827.71486  0.017128443  0.016449807         3731 
 4028000   0.60754725   -7.5752073    827.32065  0.017116035  0.016444087         3710 
 4029000   0.61470476    -7.566253      827.115  0.017107533  0.016438369         3738 
 4030000   0.60048056   -7.5822859    828.45423  0.017130981  0.016432657         3721 
 4031000    0.5979457   -7.5880801    828.19827   0.01712144  0.016426944         3716 
 4032000   0.60005692   -7.5765072    828.54783  0.017124418  0.016421235         3710 
 4033000   0.60637411   -7.5695185    827.79434  0.017104602  0.016415533         3767 
 4034000   0.61395334    -7.573968    828.32357  0.017111295  0.016409828         3726 
 4035000   0.60288618   -7.5788105    827.32072  0.017086343  0.016404129         3711 
 4036000    0.6064148   -7.5826829    828.49041   0.01710626  0.016398435         3742 
 4037000   0.59561147   -7.5775061     827.8892  0.017089613  0.016392741         3724 
 4038000   0.60594016   -7.5700793    827.29772  0.017073174  0.016387053         3740 
 4039000   0.59560834   -7.5776119    829.07221  0.017105558  0.016381362         3712 
 4040000   0.61091974   -7.5607167    827.63787  0.017071738  0.016375672         3724 
 4041000   0.61004916   -7.5713763    827.48984  0.017064461  0.016369981         3757 
 4042000   0.61200259   -7.5839343    826.99687  0.017050076  0.016364295         3750 
 4043000   0.62090307   -7.5618056    826.37707  0.017033083   0.01635861         3750 
 4044000   0.61019439   -7.5695701    828.05144  0.017063375  0.016352926         3734 
 4045000   0.61204329    -7.576643    829.30748  0.017085033  0.016347248         3742 
 4046000   0.59867094   -7.5783558    829.28242  0.017080294  0.016341568         3725 
 4047000   0.59592603   -7.5586722    828.37575  0.017057404  0.016335889         3728 
 4048000   0.61364813   -7.5729728    827.94318  0.017044285  0.016330213         3732 
 4049000   0.61020439   -7.5841966    827.38263  0.017028539  0.016324543         3725 
 4050000   0.60015831   -7.5695827    826.68071  0.017009891  0.016318867         3724 
 4051000   0.60423998   -7.5860519    828.62661  0.017045721  0.016313195         3730 
 4052000    0.5990253   -7.5802287     828.4468  0.017037817  0.016307534         3725 
 4053000   0.59463817   -7.5767313     828.4494  0.017033666  0.016301874         3710 
 4054000   0.59322053   -7.5843647    827.76851  0.017015468  0.016296211         3754 
 4055000   0.61063824    -7.584407    827.73371  0.017010557  0.016290552         3725 
 4056000   0.60584754   -7.5827701    827.83658  0.017008477  0.016284895         3732 
 4057000   0.59681225   -7.5651452    830.18217  0.017052464  0.016279241         3716 
 4058000   0.60712815   -7.5904075    825.83924  0.016959078  0.016273583         3749 
 4059000   0.59921631   -7.5938747    828.06596  0.017000615  0.016267927         3744 
 4060000   0.60496536   -7.5736802    827.52109  0.016985244  0.016262277         3720 
 4061000   0.60653957   -7.5840816    827.41514  0.016978887  0.016256629         3740 
 4062000   0.60186633   -7.5865749    828.20234  0.016990857  0.016250986         3728 
 4063000   0.60276008   -7.5882096     827.8209  0.016978852  0.016245338         3717 
 4064000   0.59336586   -7.5718144    827.95748  0.016977475  0.016239699         3730 
 4065000    0.6109513   -7.5586163    826.53641  0.016944166  0.016234061         3720 
 4066000   0.62331203   -7.5892748     826.2802  0.016934748  0.016228429         3748 
 4067000    0.6060666     -7.59826    827.67118  0.016959085  0.016222791         3740 
 4068000   0.61360557   -7.5722649    826.68568  0.016934728  0.016217157         3712 
 4069000   0.58526009   -7.5964254    828.42018  0.016966089  0.016211531         3713 
 4070000   0.60147887   -7.6020698    827.48518  0.016942776  0.016205904         3730 
 4071000   0.59392835   -7.5916828    827.83283  0.016945731   0.01620028         3749 
 4072000   0.60932768   -7.5750965    827.52323  0.016935233   0.01619466         3720 
 4073000   0.59020238   -7.5975406    826.69556  0.016914141  0.016189036         3734 
 4074000   0.58824864   -7.5837153    826.77256  0.016911564  0.016183422         3732 
 4075000   0.59969868   -7.5747769    826.64913   0.01690489  0.016177801         3735 
 4076000   0.60599619    -7.581955    828.33005  0.016935109  0.016172187         3716 
 4077000    0.6115884   -7.5869287    827.86265  0.016921401  0.016166571         3754 
 4078000   0.59676156   -7.5851637    827.03019  0.016900241   0.01616096         3750 
 4079000   0.59842911   -7.6004388    827.47275  0.016905139  0.016155358         3714 
 4080000   0.60621846   -7.5853287    825.95441  0.016869984  0.016149749         3736 
 4081000   0.60560377    -7.595315    827.48991  0.016897205  0.016144143         3727 
 4082000   0.59599887   -7.5864053    828.57899  0.016915299  0.016138537         3717 
 4083000   0.59314011   -7.5870269     827.5439   0.01689003  0.016132942         3760 
 4084000   0.59796657   -7.5742945    827.19161  0.016878706  0.016127343         3746 
 4085000    0.5823043   -7.5936332    827.56128  0.016882115  0.016121745         3722 
 4086000    0.5948439   -7.5858582    827.49589   0.01687665  0.016116148         3746 
 4087000   0.59002511   -7.5956033    827.68972  0.016876473  0.016110561         3750 
 4088000   0.58786575   -7.5868511    828.55945  0.016890074  0.016104972         3720 
 4089000   0.59537092   -7.5854785    827.80316   0.01687053  0.016099379         3733 
 4090000   0.60719285    -7.585425    826.62511  0.016842402   0.01609379         3751 
 4091000   0.59480124   -7.5899472    827.80693  0.016862359  0.016088207         3717 
 4092000   0.59076412   -7.5832507    826.22056  0.016825932  0.016082627         3736 
 4093000   0.58465894   -7.5958909    828.15532  0.016861213  0.016077049         3731 
 4094000    0.5917123   -7.5795639    826.23906  0.016818089  0.016071472         3733 
 4095000   0.58525747    -7.593046    827.56235  0.016840911  0.016065896         3758 
 4096000   0.58817669   -7.5940818    827.31986  0.016831866  0.016060325         3733 
 4097000   0.57628768    -7.579358    827.19082  0.016825133  0.016054757         3723 
 4098000    0.5946654   -7.5803682    827.00384  0.016817225   0.01604919         3741 
 4099000   0.60381767    -7.588678    826.83153  0.016809619  0.016043618         3762 
 4100000   0.59887453   -7.5662686    826.75146  0.016803892  0.016038055         3755 
 4101000   0.58860998   -7.5929782    827.32067   0.01681136  0.016032489         3761 
 4102000   0.59039288   -7.5940812    826.47357  0.016790053   0.01602693         3731 
 4103000   0.60838415    -7.600162    826.18737  0.016780148  0.016021368         3732 
 4104000    0.5966364   -7.5985888    828.82015  0.016829519  0.016015812         3751 
 4105000   0.58816188    -7.595801    827.65062  0.016801677  0.016010257         3753 
 4106000   0.59006863   -7.5845626    827.64169  0.016797404  0.016004704         3750 
 4107000   0.59502168   -7.5858904    825.85001   0.01675696  0.015999152         3706 
 4108000   0.59384816   -7.5764361    825.88922  0.016753676  0.015993605         3756 
 4109000   0.59463943   -7.5811186    826.62529  0.016764527  0.015988059         3760 
 4110000   0.58664416   -7.5892875    826.77879   0.01676356  0.015982515         3716 
 4111000   0.59950868   -7.5971894    827.30197  0.016770088  0.015976972         3714 
 4112000   0.59430694   -7.5743018    827.85266   0.01677717  0.015971435         3765 
 4113000   0.58817843   -7.5730374     827.5021  0.016765988  0.015965899         3695 
 4114000   0.59314422    -7.597666    826.64658  0.016744583  0.015960368         3751 
 4115000   0.58372825   -7.6124256    827.76753  0.016763214  0.015954832         3735 
 4116000    0.5908996   -7.5912422    826.65565   0.01673663  0.015949304         3744 
 4117000   0.59293766   -7.5743661    828.22493  0.016764329   0.01594378         3725 
 4118000   0.60454239   -7.5850271    827.24477  0.016740423  0.015938253         3767 
 4119000   0.58947542   -7.5637525    827.10654  0.016733563  0.015932729         3749 
 4120000   0.59899337   -7.6113894    828.53311  0.016758356  0.015927209         3760 
 4121000   0.58250368   -7.6063679    825.50867   0.01669313  0.015921688         3713 
 4122000    0.6099771   -7.5993952    828.10848   0.01674164  0.015916167         3725 
 4123000    0.5967855   -7.5726317    825.75386  0.016689988  0.015910651         3746 
 4124000   0.59288699   -7.5784316    826.81443  0.016707372  0.015905131         3725 
 4125000   0.59802961   -7.6029692    827.56684  0.016718522  0.015899613         3745 
 4126000    0.5861139   -7.6080137    827.06961  0.016704427  0.015894097         3744 
 4127000   0.59612522   -7.5903723    826.69069  0.016692729  0.015888589         3722 
 4128000   0.60606714   -7.5940811    827.40284  0.016703061  0.015883079         3720 
 4129000   0.59066581   -7.5783885    827.41335  0.016699228  0.015877574         3730 
 4130000   0.59019364   -7.6013098    826.06929  0.016668065  0.015872069         3741 
 4131000    0.5974402   -7.6008525    825.20535  0.016646602  0.015866564         3751 
 4132000   0.59285565   -7.6069416    827.11389  0.016681064  0.015861061         3774 
 4133000   0.60802172    -7.606116    828.82293  0.016711487  0.015855563         3747 
 4134000   0.57981971   -7.5792998    826.31982  0.016656987  0.015850071         3727 
 4135000   0.57835573   -7.5782283    827.41992  0.016675129  0.015844582         3742 
 4136000   0.58164685   -7.6294338     827.2473   0.01666762  0.015839088         3765 
 4137000   0.59128157    -7.596569    828.11146  0.016680998  0.015833599         3743 
 4138000   0.58641904   -7.5949966    826.88165    0.0166522  0.015828114         3759 
 4139000   0.57101291   -7.6170856    827.17058  0.016653994  0.015822628         3729 
 4140000   0.59928208   -7.5919225    825.65237  0.016619412  0.015817146         3753 
 4141000   0.57975764   -7.5890724    826.35798  0.016629598  0.015811668         3718 
 4142000   0.58095689   -7.5947966    826.89778  0.016636443  0.015806187         3733 
 4143000   0.58936799   -7.5946772    826.85621  0.016631592  0.015800706         3729 
 4144000   0.58348499   -7.5852941    826.91001   0.01662866  0.015795234         3726 
 4145000   0.59172947   -7.6074414    826.80956  0.016622629  0.015789765         3767 
 4146000   0.57536614    -7.594653    827.34411  0.016629364  0.015784294         3753 
 4147000   0.59099629   -7.5954653    827.35173  0.016625507  0.015778825         3715 
 4148000   0.59498378   -7.6138675    825.55907  0.016585484  0.015773356         3747 
 4149000   0.60681203   -7.6085567    826.84858  0.016607387  0.015767891         3715 
 4150000   0.59083303   -7.5894596    826.07001  0.016587751   0.01576243         3738 
 4151000   0.58709327   -7.5938084      826.095  0.016584257  0.015756971         3733 
 4152000   0.58418406   -7.5899777    827.85331  0.016615553  0.015751514         3760 
 4153000   0.58190934   -7.5934764    825.48541  0.016564038  0.015746061         3754 
 4154000   0.58294018   -7.5986888    827.65015  0.016603478  0.015740612         3728 
 4155000   0.58635749   -7.5763526    827.76809  0.016601847  0.015735162         3709 
 4156000   0.58370274   -7.6063847     827.2266  0.016586995  0.015729715         3736 
 4157000   0.59132705   -7.6169485    827.35741  0.016585627  0.015724267         3746 
 4158000   0.59152289   -7.6102747    828.20006  0.016598526   0.01571882         3752 
 4159000   0.58787014   -7.5865464    826.21339  0.016554729   0.01571338         3730 
 4160000   0.59147818   -7.5953405    825.79848  0.016542438  0.015707939         3762 
 4161000   0.56764596   -7.6066399    827.76568  0.016577859  0.015702501         3769 
 4162000   0.59566991   -7.5965631    826.74164  0.016553373  0.015697066         3702 
 4163000   0.59999513   -7.5931643    825.97009  0.016533952  0.015691634         3730 
 4164000   0.58185641   -7.5944917    826.07386  0.016532058  0.015686203         3733 
 4165000   0.58887461   -7.6071797    826.75328  0.016541682  0.015680778         3747 
 4166000   0.57949118   -7.6203142    826.94075  0.016541462  0.015675354         3749 
 4167000    0.5937974   -7.6146308    826.55267  0.016529731  0.015669931         3762 
 4168000   0.57648411   -7.5972239    826.14722  0.016517659  0.015664511         3727 
 4169000   0.57460526   -7.6122278    827.16594   0.01653406  0.015659096         3724 
 4170000   0.58881801   -7.5999371    826.31593  0.016513108  0.015653676         3732 
 4171000   0.59302014   -7.5986984     825.3702  0.016490254  0.015648257         3746 
 4172000    0.5881875   -7.5954399    825.38685  0.016486634  0.015642848         3746 
 4173000   0.59123739   -7.5855699    826.80835   0.01651107  0.015637439         3721 
 4174000   0.57063585   -7.6119031    827.10911  0.016513119  0.015632032         3753 
 4175000   0.59218847   -7.5943018    826.99898  0.016506966  0.015626626         3747 
 4176000   0.58380518   -7.6359021    825.90286  0.016481139  0.015621218         3730 
 4177000   0.59050132   -7.5876727    826.90205  0.016497128  0.015615816         3716 
 4178000   0.59434492   -7.6126213    825.43878  0.016463994  0.015610413         3700 
 4179000   0.59298984   -7.6056711    825.87051  0.016468663  0.015605015         3728 
 4180000   0.60199614   -7.6012408    826.12316   0.01646976  0.015599618         3743 
 4181000   0.58947309   -7.5968933    827.80643  0.016499371  0.015594224         3734 
 4182000    0.5926131   -7.6063425    826.29903  0.016465388  0.015588832         3746 
 4183000   0.59223887   -7.6108004    827.41552  0.016483694  0.015583445         3767 
 4184000   0.58387689   -7.6036562    827.48542  0.016481147  0.015578062         3755 
 4185000   0.58598091   -7.6103925    826.78239   0.01646321  0.015572676         3746 
 4186000   0.58248115   -7.6072292    827.18326  0.016467257  0.015567297         3739 
 4187000   0.58792407   -7.6090394    828.28013  0.016485155  0.015561919         3761 
 4188000   0.58328255   -7.6086138    827.62144  0.016468112  0.015556544         3758 
 4189000   0.57920739   -7.6073771    826.49655  0.016441803  0.015551176         3733 
 4190000   0.57690544   -7.5975834     825.9757   0.01642752  0.015545803         3746 
 4191000   0.58707857   -7.6146119    827.57927  0.016455485  0.015540433         3767 
 4192000   0.58982888    -7.592381     825.3154  0.016406556  0.015535062         3725 
 4193000   0.59600104   -7.5836148    826.70547   0.01643027  0.015529699         3725 
 4194000   0.57557249   -7.5985268    825.98326  0.016412002  0.015524335         3741 
 4195000   0.58606388   -7.6174141    825.09939  0.016390532  0.015518963         3743 
 4196000   0.57232867    -7.593239    825.28241  0.016390261  0.015513602         3719 
 4197000   0.57578484   -7.6136714    827.46866  0.016429765  0.015508241         3710 
 4198000   0.58124977   -7.6026212    825.97996  0.016396299  0.015502883         3743 
 4199000   0.57519535   -7.6100155    827.93427  0.016431179  0.015497532         3774 
 4200000   0.57216104   -7.6122143    826.06561  0.016390191  0.015492182         3731 
 4201000   0.57983284   -7.6085323    826.90295  0.016402899   0.01548683         3712 
 4202000   0.59905606   -7.6168962    825.89328  0.016378972  0.015481478         3718 
 4203000   0.56451864   -7.6006207    826.91956  0.016395423   0.01547613         3720 
 4204000   0.57693304   -7.6028511    826.61204  0.016385427  0.015470786         3728 
 4205000   0.59539774    -7.614243    824.91457  0.016347891  0.015465445         3731 
 4206000   0.56979839   -7.6120072     826.4415  0.016374257  0.015460112         3730 
 4207000   0.57044829   -7.6225844    825.86019   0.01635885  0.015454772         3734 
 4208000   0.58000951   -7.6060128    825.48181  0.016347469  0.015449433         3726 
 4209000   0.56981121   -7.6160426    824.54266  0.016324991    0.0154441         3743 
 4210000   0.55673828   -7.6188475      826.659  0.016363005  0.015438767         3765 
 4211000   0.56994856   -7.6087736    826.67102  0.016359357  0.015433435         3744 
 4212000   0.56342265   -7.6095037    825.81535  0.016338544  0.015428103         3763 
 4213000   0.57492437   -7.6263152    826.77744  0.016353696  0.015422779         3750 
 4214000   0.57827813   -7.6181512    824.70359  0.016308804  0.015417456         3766 
 4215000   0.57354688   -7.6114366    825.95201  0.016329617  0.015412135         3746 
 4216000   0.58774394   -7.6082959    826.41119   0.01633482  0.015406814         3742 
 4217000   0.58319204   -7.6090551    827.10814  0.016344719  0.015401498         3748 
 4218000   0.58105141   -7.6233557     826.1484  0.016321882  0.015396187         3747 
 4219000   0.56773567    -7.610767    825.08341  0.016296978  0.015390873         3748 
 4220000   0.56556197   -7.6180173    826.15398  0.016314257  0.015385559         3748 
 4221000   0.57272224   -7.6195954    827.22783  0.016331593  0.015380245         3746 
 4222000   0.58495554   -7.6151605    827.69163  0.016336879  0.015374937         3751 
 4223000   0.58274209   -7.6081035    826.52917  0.016310071  0.015369632         3734 
 4224000   0.56977238   -7.6292834    825.15825  0.016279164  0.015364325         3764 
 4225000   0.58306591   -7.6151919     827.6511  0.016324479  0.015359024         3764 
 4226000   0.57983508   -7.6196465    826.90203  0.016305845  0.015353721         3725 
 4227000   0.56864007   -7.6199708    825.46135  0.016273586   0.01534842         3746 
 4228000   0.58392008   -7.6099457    824.17613  0.016244405   0.01534312         3749 
 4229000   0.58164503   -7.6149491    826.59297  0.016288188  0.015337827         3759 
 4230000   0.57626318   -7.6174752     826.6822  0.016286095   0.01533253         3771 
 4231000    0.5688834   -7.6194514    824.04895  0.016230382  0.015327241         3752 
 4232000   0.57186212    -7.628477    825.21921  0.016249591  0.015321951         3758 
 4233000   0.57188548   -7.6072842    827.07421   0.01628227  0.015316667         3725 
 4234000   0.57689093   -7.6153479     825.2963  0.016243432  0.015311382         3761 
 4235000   0.57424974   -7.6138899    824.91431   0.01623208  0.015306098         3764 
 4236000   0.56637881   -7.6075941    826.26004  0.016254722  0.015300816         3753 
 4237000   0.57594093   -7.6150408    826.60464  0.016257663  0.015295541         3737 
 4238000   0.57098594   -7.6126797    824.28535  0.016208222  0.015290265         3749 
 4239000   0.58243329   -7.6144786    825.83443  0.016234852  0.015284991         3749 
 4240000   0.57631784   -7.6199849    826.63385  0.016246734   0.01527972         3741 
 4241000   0.57536407   -7.6085355    825.46283  0.016219894  0.015274448         3740 
 4242000   0.56901144   -7.6120833    825.72502  0.016221221   0.01526918         3739 
 4243000   0.57535048   -7.6141437     826.0628  0.016224032  0.015263908         3726 
 4244000   0.56253054   -7.6165281    825.19844  0.016203237  0.015258645         3749 
 4245000   0.57982351   -7.6100569    825.20219  0.016199493   0.01525338         3721 
 4246000   0.57096288   -7.6290656    827.07427   0.01623242  0.015248121         3725 
 4247000   0.57207008   -7.6291564    827.72429  0.016241353  0.015242863         3732 
 4248000   0.56538514   -7.6266074     826.0047  0.016203796  0.015237609         3723 
 4249000   0.57102268   -7.6099251    823.76617  0.016156079  0.015232362         3738 
 4250000   0.56859189   -7.6063507    826.27556  0.016201482  0.015227117         3732 
 4251000   0.58332418   -7.6481268    824.96227  0.016171926  0.015221868         3749 
 4252000   0.56721028   -7.6262148    825.94817  0.016187444  0.015216623         3737 
 4253000   0.56317696   -7.6225736     826.7983  0.016200296  0.015211378         3751 
 4254000   0.57346433   -7.6171307    823.78174  0.016137395  0.015206138         3737 
 4255000    0.5668201   -7.6257447    826.46365  0.016186127  0.015200902         3728 
 4256000   0.57744337   -7.6125457    826.73344  0.016187606  0.015195668         3704 
 4257000   0.57364299   -7.6289329    825.60318  0.016161678  0.015190437         3729 
 4258000    0.5782645   -7.6223927    824.91482  0.016144411  0.015185206         3738 
 4259000   0.56067382   -7.6275976    825.14595  0.016145143  0.015179974         3745 
 4260000   0.56734231   -7.6254834    827.07566  0.016179101  0.015174749         3739 
 4261000   0.57038011   -7.6209746    825.07348  0.016136147  0.015169525         3728 
 4262000   0.56386567    -7.629833    825.83614  0.016147273  0.015164302         3735 
 4263000   0.55715181   -7.6150169    824.69735  0.016121224  0.015159078         3720 
 4264000   0.56633679   -7.6359932     826.0072  0.016143043  0.015153858         3730 
 4265000   0.56775162   -7.6040754    825.27611  0.016124973  0.015148642         3718 
 4266000   0.56008367   -7.6196095     824.5935  0.016107859  0.015143422         3730 
 4267000   0.57086467   -7.6406145     825.3444  0.016118749  0.015138199         3751 
 4268000   0.57285865   -7.6451447    825.99397  0.016127655  0.015132988         3762 
 4269000   0.56722703   -7.6333094    824.32732  0.016091343  0.015127774         3744 
 4270000   0.57291141   -7.6258148    825.75931  0.016115521  0.015122564         3736 
 4271000   0.56251477   -7.6314553    824.86923  0.016094381  0.015117354         3738 
 4272000   0.56320977   -7.6419692    825.71106  0.016107035  0.015112145         3723 
 4273000   0.57173607   -7.6251224    825.14158   0.01609216   0.01510694         3752 
 4274000   0.56215991   -7.6193582    826.52365  0.016115342  0.015101732         3709 
 4275000   0.56343574   -7.6257913     824.4491  0.016071133  0.015096533         3734 
 4276000   0.56653394   -7.6277968    824.63116  0.016070922  0.015091335         3733 
 4277000   0.56240797   -7.6283412    826.97351  0.016112803  0.015086139         3725 
 4278000   0.55895978   -7.6227682    825.67032  0.016083651  0.015080944         3749 
 4279000   0.57680678   -7.6219765    825.90784  0.016084518  0.015075753         3734 
 4280000   0.56451706   -7.6318215    825.05626   0.01606418  0.015070567         3750 
 4281000   0.56560177   -7.6273428    824.75144  0.016054494  0.015065386         3729 
 4282000   0.57099574   -7.6423869    826.31751  0.016081222    0.0150602         3747 
 4283000   0.57063355   -7.6293423     825.8144  0.016067678  0.015055016         3720 
 4284000   0.55798413   -7.6512274    827.21479  0.016091168  0.015049837         3720 
 4285000   0.56289792   -7.6236992    826.00181  0.016063824  0.015044661         3742 
 4286000   0.57563408    -7.634699    825.40469  0.016048466   0.01503949         3741 
 4287000    0.5773265   -7.6386708    827.19108  0.016079447  0.015034317         3737 
 4288000   0.56759012   -7.6527418    825.54019  0.016043614  0.015029145         3725 
 4289000    0.5612429   -7.6401507    823.50322  0.016000296  0.015023973         3740 
 4290000   0.56575803    -7.624013    825.04727  0.016026559  0.015018804         3724 
 4291000   0.57794442   -7.6363724    826.81551  0.016057164  0.015013641         3727 
 4292000   0.57966131   -7.6158296    824.93601  0.016016931  0.015008476         3721 
 4293000   0.57811428   -7.6269755    824.08218  0.015996626  0.015003313         3744 
 4294000   0.56871765   -7.6371409    825.88231  0.016027836   0.01499815         3716 
 4295000   0.56879834   -7.6344577    825.12923  0.016009492  0.014992996         3768 
 4296000     0.567016   -7.6175701    825.06336  0.016004488  0.014987835         3751 
 4297000    0.5653157   -7.6350176     824.4567  0.015988998  0.014982678         3747 
 4298000   0.56635686   -7.6161901    825.60188  0.016007482  0.014977526         3731 
 4299000   0.55840256   -7.6343434     825.1175  0.015994369  0.014972382         3743 
 4300000   0.56215813   -7.6435389    826.91295  0.016025445  0.014967231         3736 
 4301000   0.56395872   -7.6445805    825.41819  0.015992757  0.014962083         3760 
 4302000   0.55212294   -7.6379538    824.78415  0.015976758  0.014956938         3724 
 4303000   0.57697147   -7.6307184    825.50008   0.01598691  0.014951791         3737 
 4304000   0.56739062   -7.6177851    825.51938  0.015983569   0.01494665         3735 
 4305000    0.5603579   -7.6397421    826.21043  0.015993233  0.014941513         3725 
 4306000   0.57324936   -7.6455212    825.46757  0.015975143  0.014936372         3760 
 4307000   0.55701365   -7.6256075    824.78971  0.015958318  0.014931236         3747 
 4308000   0.55969769   -7.6359106     825.2762  0.015964024  0.014926106         3749 
 4309000   0.57009814   -7.6400555    825.69738  0.015968465  0.014920979         3737 
 4310000   0.55958835   -7.6442414    824.40546  0.015939781  0.014915848         3754 
 4311000   0.55248914   -7.6461939    824.69533  0.015941687  0.014910721         3767 
 4312000   0.56042819    -7.639426    826.66653  0.015976085  0.014905598         3753 
 4313000   0.54695326   -7.6245239    824.59115  0.015932281  0.014900476         3730 
 4314000   0.55286517   -7.6447621    825.72813  0.015950551  0.014895358         3786 
 4315000   0.56026695   -7.6392059    823.97921  0.015913079  0.014890241         3780 
 4316000   0.56890145   -7.6384596    825.38954  0.015936622  0.014885126         3744 
 4317000   0.56926994   -7.6581735    825.54105  0.015935855  0.014880012         3738 
 4318000   0.55486753   -7.6465197     823.8747  0.015900006  0.014874896         3755 
 4319000   0.56511152   -7.6287475    825.24545  0.015922773  0.014869787         3752 
 4320000   0.55620268   -7.6340096    823.04224  0.015876586  0.014864678         3753 
 4321000   0.56507965   -7.6336692    825.80869  0.015926265  0.014859571         3745 
 4322000   0.56812493   -7.6401459    825.72305  0.015920929  0.014854468         3758 
 4323000   0.54577551   -7.6542939    824.46143  0.015892926  0.014849363         3749 
 4324000   0.55968618   -7.6428675    825.71183  0.015913349  0.014844263         3753 
 4325000   0.55117032   -7.6430874    826.33328  0.015921643  0.014839163         3744 
 4326000   0.55981955   -7.6243001    825.22764  0.015896664  0.014834063         3739 
 4327000   0.56636847   -7.6386931    824.25226  0.015874206  0.014828967         3734 
 4328000   0.55718017   -7.6349442    825.49505  0.015894467  0.014823883         3755 
 4329000   0.55549877   -7.6503032    826.72481  0.015914469  0.014818794         3761 
 4330000   0.54531946   -7.6342122    824.66932  0.015871234  0.014813708         3734 
 4331000   0.57484826   -7.6328647     826.3542  0.015899988  0.014808621         3743 
 4332000   0.55821722   -7.6340947    825.61922  0.015882179  0.014803539         3742 
 4333000   0.56000609   -7.6547306     824.8102  0.015862955  0.014798455         3727 
 4334000   0.55589355   -7.6402594    824.48544   0.01585305  0.014793372         3751 
 4335000   0.55495273   -7.6374775    825.01616  0.015859596  0.014788299         3741 
 4336000    0.5540696   -7.6535632    825.34933  0.015862341  0.014783227         3745 
 4337000   0.55938092   -7.6358355    825.60941  0.015863681  0.014778154         3739 
 4338000   0.56354452    -7.649391    824.72192  0.015842975  0.014773087         3726 
 4339000    0.5591774   -7.6272268    824.06024  0.015826616  0.014768021         3745 
 4340000   0.55742864   -7.6517401    825.81005  0.015856568  0.014762955         3734 
 4341000   0.56846482   -7.6639262     825.1892  0.015840997   0.01475789         3745 
 4342000   0.55037731   -7.6487085     823.8234  0.015811135  0.014752826         3764 
 4343000   0.55054913   -7.6438152    826.53462  0.015859518  0.014747766         3741 
 4344000   0.55891868   -7.6595272    824.17673  0.015810634  0.014742707         3778 
 4345000   0.55387478   -7.6451015    824.08465  0.015805229  0.014737648         3766 
 4346000   0.56406037   -7.6566608    823.47271  0.015789859   0.01473259         3759 
 4347000   0.54893699   -7.6423583    824.03301  0.015796967  0.014727539         3756 
 4348000   0.56179247   -7.6498888    825.50312   0.01582151  0.014722492         3741 
 4349000   0.55812522   -7.6261816    823.95922  0.015788289  0.014717445         3724 
 4350000   0.55616835   -7.6539364    824.42616  0.015793605  0.014712402         3755 
 4351000    0.5514734   -7.6243786    823.73762  0.015776787  0.014707359         3718 
 4352000   0.54589554   -7.6701008    825.73595  0.015811427  0.014702317         3726 
 4353000    0.5580411   -7.6384514    825.07083  0.015795061  0.014697278         3723 
 4354000   0.54291971   -7.6417807    823.60644  0.015763406  0.014692234         3744 
 4355000    0.5508471    -7.645832    824.26813  0.015772448  0.014687202         3724 
 4356000   0.54951988   -7.6524303    824.28203  0.015769093   0.01468217         3742 
 4357000   0.56396666   -7.6345451     824.3267  0.015766328  0.014677138         3733 
 4358000   0.55046982   -7.6504988    824.25255  0.015761293  0.014672106         3753 
 4359000   0.55331038   -7.6533932     824.4533  0.015761515  0.014667081         3762 
 4360000   0.55097467   -7.6272578    824.77004  0.015763953  0.014662057         3760 
 4361000   0.55527441   -7.6371945    825.59265  0.015776058  0.014657034         3749 
 4362000   0.55453098   -7.6315402    823.07282  0.015724301  0.014652015         3740 
 4363000   0.55689331   -7.6495472    823.73922  0.015733425  0.014646996         3776 
 4364000   0.54686882   -7.6553905      825.305   0.01575972  0.014641979         3751 
 4365000   0.57023502   -7.6523352    824.58539  0.015742371  0.014636965         3755 
 4366000   0.54706991   -7.6562508    825.77565  0.015761484  0.014631957         3765 
 4367000   0.56054678   -7.6348558    824.88722  0.015740921  0.014626948         3742 
 4368000   0.55409129   -7.6538087    823.80431  0.015716657  0.014621944         3761 
 4369000   0.55214711   -7.6543337    824.84542  0.015732918  0.014616931         3751 
 4370000   0.55281484   -7.6327219    825.49496  0.015741704  0.014611928         3715 
 4371000   0.54834166   -7.6435874    825.31597   0.01573469  0.014606922         3761 
 4372000    0.5443288   -7.6573989    824.82277  0.015721691  0.014601922         3749 
 4373000   0.54442874   -7.6655723    826.64735  0.015752865  0.014596925         3756 
 4374000   0.54971736   -7.6456031    825.39075  0.015725323  0.014591927         3746 
 4375000   0.55755414   -7.6428912    825.37354  0.015721401   0.01458693         3731 
 4376000   0.55108948   -7.6568686    823.57391  0.015683537  0.014581939         3744 
 4377000   0.56173956   -7.6502769     824.8776  0.015704775  0.014576947         3751 
 4378000   0.55898514   -7.6619355    824.91337  0.015701869  0.014571955         3744 
 4379000   0.55296297   -7.6563479    823.95527   0.01568005  0.014566968         3734 
 4380000   0.54472162   -7.6713625    824.59992  0.015688735  0.014561982         3737 
 4381000   0.55033375     -7.65877    824.00395  0.015673818  0.014556996         3761 
 4382000   0.54940259    -7.656818    824.10758  0.015672212  0.014552017         3733 
 4383000   0.55762415   -7.6715034    824.92702  0.015684216  0.014547037         3738 
 4384000   0.54302778   -7.6572561    824.65087  0.015675389  0.014542057         3729 
 4385000   0.56467358   -7.6214795    823.70545  0.015653847  0.014537084         3722 
 4386000   0.55699241   -7.6506422     823.8757  0.015653513  0.014532111         3732 
 4387000    0.5532603   -7.6487318     824.5551   0.01566285  0.014527138         3733 
 4388000   0.55008091   -7.6608839      825.609  0.015679296  0.014522169         3755 
 4389000   0.55726431   -7.6495286    825.13562  0.015666735    0.0145172         3756 
 4390000   0.55396711   -7.6497432    824.53777  0.015651818  0.014512237         3748 
 4391000   0.55353429   -7.6437407    824.53212  0.015648146  0.014507275         3767 
 4392000   0.54852642   -7.6514902    825.26563  0.015658501  0.014502312         3724 
 4393000   0.54985751   -7.6481394     824.7892  0.015645899  0.014497356         3715 
 4394000   0.53606587   -7.6559123    826.04034  0.015666066  0.014492398         3751 
 4395000   0.55494822   -7.6348437    823.45885  0.015613554  0.014487443         3764 
 4396000   0.54798664   -7.6506459    823.71209  0.015614803  0.014482489         3757 
 4397000   0.54544419   -7.6686049    824.70342   0.01563004  0.014477538         3749 
 4398000   0.54943988   -7.6556897    824.65323  0.015625535  0.014472586         3729 
 4399000   0.54542882   -7.6601127    824.63567   0.01562165  0.014467643         3750 
 4400000   0.54975957   -7.6548031      823.952  0.015605152  0.014462701         3725 
 4401000   0.54694264   -7.6561862    825.02319  0.015621889   0.01445776         3752 
 4402000   0.55606544   -7.6524724    825.15709  0.015620875  0.014452821         3744 
 4403000    0.5436403   -7.6315747    823.60581  0.015587967  0.014447879         3771 
 4404000   0.54607628   -7.6637138    823.60624  0.015584435  0.014442942         3763 
 4405000   0.55574147   -7.6519164    823.63127  0.015581371  0.014438006         3734 
 4406000   0.54865579   -7.6753455    823.87165  0.015582381  0.014433069         3729 
 4407000   0.54772129   -7.6654965    824.52273  0.015591157  0.014428138         3739 
 4408000    0.5376512   -7.6463935    824.39829  0.015585267  0.014423212         3766 
 4409000    0.5592828   -7.6665073    823.99199  0.015574053  0.014418284         3744 
 4410000   0.55144654   -7.6516668    823.15539  0.015554713  0.014413357         3740 
 4411000   0.54575679   -7.6718297    823.73996   0.01556223  0.014408438         3756 
 4412000   0.55291531   -7.6909735    823.25783  0.015549596  0.014403517         3741 
 4413000   0.53887084   -7.6620385    823.14189  0.015543883  0.014398597         3753 
 4414000   0.55147262   -7.6725508    825.21953  0.015579586   0.01439368         3768 
 4415000   0.54311345   -7.6630453    824.24916  0.015557742  0.014388763         3743 
 4416000    0.5442653   -7.6534342    825.30004   0.01557405  0.014383852         3746 
 4417000   0.54405178   -7.6485202    823.94078  0.015544879  0.014378941         3749 
 4418000   0.54121413   -7.6825811    823.40664  0.015531286  0.014374032         3751 
 4419000   0.55741679   -7.6590718     825.1161  0.015560008  0.014369127         3743 
 4420000   0.54392262   -7.6359715    823.68563  0.015529518  0.014364222         3732 
 4421000    0.5494002   -7.6612402    823.42979  0.015521183  0.014359319         3722 
 4422000   0.54999909   -7.6658258    824.51771  0.015538175  0.014354419         3750 
 4423000   0.54595922   -7.6678978    824.05098  0.015525868  0.014349519         3755 
 4424000   0.54094288   -7.6680425    823.51474  0.015512258  0.014344623         3732 
 4425000   0.54600421   -7.6654744    824.64877  0.015530109  0.014339728         3720 
 4426000   0.54027575   -7.6708843     824.0886  0.015516053  0.014334833         3766 
 4427000   0.54561894   -7.6722144    824.11542  0.015513053  0.014329942         3741 
 4428000   0.53856717    -7.664442    823.47866  0.015497566  0.014325052         3749 
 4429000   0.54784985   -7.6582103    823.74219  0.015499025  0.014320164         3757 
 4430000   0.54698544   -7.6557069    823.62225   0.01549327  0.014315285         3739 
 4431000   0.55423527   -7.6769977    824.47352  0.015505784  0.014310403         3756 
 4432000   0.53976443   -7.6712231    823.58324  0.015485545  0.014305521         3760 
 4433000    0.5499459   -7.6469682    824.51339  0.015499537  0.014300642         3728 
 4434000   0.53404212   -7.6635877    824.02292  0.015486824  0.014295765         3736 
 4435000   0.53861153    -7.670464    822.77644  0.015459911  0.014290885         3748 
 4436000   0.53647104   -7.6657819    823.39219  0.015467993  0.014286011         3772 
 4437000   0.55371616    -7.655423    823.16177  0.015460179   0.01428114         3746 
 4438000   0.53553329   -7.6652321    823.05244  0.015454642  0.014276265         3756 
 4439000   0.53845286    -7.657084     825.3293  0.015493904  0.014271396         3744 
 4440000   0.53786612   -7.6600605     825.2959  0.015489788  0.014266529         3768 
 4441000   0.54321444   -7.6608569    824.61605  0.015473543  0.014261663         3759 
 4442000   0.54462628   -7.6791348    823.28022  0.015444999    0.0142568         3777 
 4443000   0.53964071   -7.6747593    823.37674  0.015443333   0.01425194         3749 
 4444000   0.53738462   -7.6523178    822.80252   0.01542909   0.01424708         3768 
 4445000   0.54605517   -7.6786767    823.65589  0.015441618  0.014242222         3759 
 4446000   0.53193538   -7.6747642    823.88729  0.015442482   0.01423737         3746 
 4447000    0.5439968   -7.6697031    824.32022  0.015447122  0.014232515         3741 
 4448000   0.52383702   -7.6595836    821.66201  0.015393848  0.014227662         3773 
 4449000    0.5419668   -7.6464286    823.05179  0.015416419  0.014222815         3755 
 4450000   0.54826848   -7.6774523    823.46648  0.015420721  0.014217968         3752 
 4451000   0.54929928   -7.6736033    823.80463  0.015423587  0.014213123         3779 
 4452000   0.53481069   -7.6736714    823.82098  0.015420429   0.01420828         3764 
 4453000   0.52642404   -7.6678372    823.31311  0.015407461  0.014203438         3751 
 4454000   0.52552063   -7.6628444    825.08643  0.015437181  0.014198598         3758 
 4455000   0.53151988   -7.6613934     823.7256   0.01540826  0.014193761         3745 
 4456000   0.53308687   -7.6681798    823.19921  0.015394958  0.014188928         3775 
 4457000   0.53809769   -7.6680791     823.8974  0.015404558  0.014184098         3754 
 4458000   0.53953239   -7.6450438    824.68879  0.015415896  0.014179268         3749 
 4459000   0.53127148   -7.6681849     824.5591  0.015410015  0.014174438         3756 
 4460000   0.52822987   -7.6810087    823.38077  0.015384544  0.014169609         3762 
 4461000   0.53717636   -7.6687992    824.68527  0.015405463  0.014164783         3776 
 4462000   0.53532127   -7.6679442    824.35265  0.015395799  0.014159965         3749 
 4463000   0.54104171   -7.6824098    824.49299   0.01539497  0.014155145         3750 
 4464000   0.54391901   -7.6486405    823.43222  0.015371719   0.01415033         3755 
 4465000   0.53401488    -7.661151    824.58926  0.015389871  0.014145518         3748 
 4466000   0.52867742   -7.6907789    824.44889  0.015383805  0.014140708         3741 
 4467000   0.52688818   -7.6716686    822.44494  0.015342977  0.014135896         3740 
 4468000    0.5378184   -7.6888056    824.41659  0.015376317  0.014131084         3756 
 4469000   0.53859224   -7.6663592    822.84781  0.015343623  0.014126276         3786 
 4470000   0.53954765   -7.6680307    823.13053  0.015345461  0.014121469         3745 
 4471000    0.5363972   -7.6775579    823.90588   0.01535648  0.014116663         3760 
 4472000    0.5329812   -7.6727278    824.36903  0.015361677  0.014111862         3754 
 4473000   0.52547449   -7.6769031    822.73589  0.015327817  0.014107057         3770 
 4474000   0.54877204   -7.6679472    822.48065  0.015319637  0.014102257         3754 
 4475000   0.53475206   -7.6603264    822.75033  0.015321235  0.014097459         3745 
 4476000   0.53165994   -7.6746286    824.27317  0.015346164  0.014092664         3769 
 4477000     0.544983   -7.6747885    823.74772  0.015332956  0.014087869         3744 
 4478000   0.53110771   -7.6661454     823.5475  0.015325806  0.014083078         3738 
 4479000   0.53713274   -7.6637534    822.89499  0.015310244   0.01407829         3769 
 4480000   0.52967208   -7.6437942    824.49702  0.015336626  0.014073501         3758 
 4481000   0.53150877   -7.6657484    823.18753  0.015308851  0.014068718         3746 
 4482000   0.53375956   -7.6618328    823.75349  0.015315958  0.014063932         3746 
 4483000   0.54619159   -7.6595276    823.69832  0.015311516  0.014059152         3743 
 4484000   0.54065864    -7.662979    823.15117  0.015297933  0.014054375         3747 
 4485000   0.52976997   -7.6704006    823.14977  0.015294496  0.014049594         3754 
 4486000   0.54476872   -7.6488496    822.35668  0.015276354   0.01404482         3763 
 4487000   0.52852199   -7.6780766    824.41908  0.015311252  0.014040045         3744 
 4488000   0.52552782    -7.672101    823.74837  0.015295387  0.014035276         3763 
 4489000   0.53591458   -7.6701872    823.37229  0.015284998  0.014030507         3734 
 4490000   0.52531117   -7.6751396    823.90466  0.015291475  0.014025737         3752 
 4491000   0.52620932   -7.6727496    823.56446  0.015281757   0.01402097         3751 
 4492000    0.5327045   -7.6812078    823.75499   0.01528189  0.014016207         3732 
 4493000   0.53543257   -7.6827497    823.60512  0.015275709  0.014011441         3749 
 4494000   0.52296006   -7.6658432    824.39033   0.01528687  0.014006682         3764 
 4495000   0.51310715   -7.6720601    823.44406  0.015265926  0.014001925         3766 
 4496000   0.54231909   -7.6677602    823.11822  0.015256491  0.013997168         3734 
 4497000   0.54753682   -7.6861478    823.13828   0.01525347  0.013992414         3767 
 4498000   0.52644295   -7.6873422    822.53146  0.015238837  0.013987664         3767 
 4499000   0.53798323   -7.6832573    825.46476  0.015289782  0.013982914         3754 
 4500000   0.52340678   -7.6885772    823.55727  0.015251061  0.013978166         3750 
 4501000   0.52990743   -7.6732055    823.07751   0.01523879  0.013973419         3759 
 4502000   0.53020598   -7.6722431    822.36957  0.015222301  0.013968675         3751 
 4503000   0.52898368    -7.671665    823.09951  0.015232429  0.013963933         3771 
 4504000   0.53497323   -7.6629145    821.36894  0.015197027  0.013959194         3734 
 4505000   0.54011042   -7.6661467    824.01082  0.015242523  0.013954453         3753 
 4506000   0.53436689   -7.6964834     824.8078   0.01525388  0.013949717         3770 
 4507000   0.52796437   -7.6830006    823.75421  0.015231015  0.013944986         3768 
 4508000   0.53322593   -7.6946206    822.45882   0.01520369  0.013940253         3758 
 4509000   0.52492066   -7.6760333    823.85867   0.01522619   0.01393552         3750 
 4510000   0.51726521   -7.6798194    824.37906  0.015232429   0.01393079         3761 
 4511000   0.52273827   -7.6948495    821.51831  0.015176205  0.013926061         3743 
 4512000   0.53509742   -7.6794765    822.93312  0.015198972  0.013921334         3760 
 4513000    0.5232561   -7.6654628    822.39539  0.015185675  0.013916611         3788 
 4514000   0.53329383   -7.6806399    823.62431  0.015204998  0.013911886         3746 
 4515000   0.52272311   -7.6741961    822.90874  0.015188423  0.013907162         3777 
 4516000   0.54052102   -7.6728662    821.78655  0.015164352  0.013902443         3743 
 4517000   0.53021385   -7.6711914    822.92915  0.015182074  0.013897726         3746 
 4518000   0.52653115    -7.677347    822.89509  0.015178086  0.013893008         3767 
 4519000   0.52293336   -7.6829616    824.49405  0.015204213  0.013888296         3763 
 4520000   0.52251143   -7.6724814     822.7113  0.015167981  0.013883589         3765 
 4521000    0.5281111   -7.6980117    823.64395  0.015181817  0.013878881         3752 
 4522000   0.53106974   -7.6614223    822.87886  0.015164361  0.013874176         3745 
 4523000   0.53416545   -7.6641945    821.62894  0.015137979  0.013869471         3778 
 4524000   0.51767507   -7.6736576    822.03265  0.015142069  0.013864767         3745 
 4525000   0.51420202   -7.6689089    823.24781  0.015161101  0.013860066         3754 
 4526000    0.5247861   -7.6893344    824.27969  0.015176751  0.013855371         3770 
 4527000   0.54451917   -7.6717565    821.96814  0.015130847  0.013850672         3768 
 4528000   0.53036165   -7.6806929    821.54803  0.015119774  0.013845978         3752 
 4529000   0.52961393    -7.672221    821.35647  0.015112911  0.013841285         3774 
 4530000   0.52782277   -7.6769702    822.92496  0.015138428  0.013836596         3760 
 4531000   0.53541026   -7.6893191    823.06101  0.015137589   0.01383191         3726 
 4532000   0.52796919   -7.6958439    823.37458  0.015140015  0.013827229         3747 
 4533000   0.51943859   -7.6718234    823.31683  0.015135613  0.013822548         3760 
 4534000     0.523543   -7.6549089    822.66795  0.015120349  0.013817865         3752 
 4535000   0.54344395   -7.6871625    822.97994  0.015122748  0.013813184         3767 
 4536000   0.51934177   -7.6704563    822.38482  0.015108481  0.013808506         3759 
 4537000   0.50984626   -7.6727684    823.41491  0.015124071   0.01380383         3773 
 4538000    0.5179609   -7.6960207    821.75698  0.015090293  0.013799152         3756 
 4539000   0.53036585   -7.6956212    822.94606  0.015108799  0.013794481         3768 
 4540000   0.53258346   -7.7061367    821.71566  0.015082887  0.013789811         3733 
 4541000   0.53292076   -7.6707617    821.89747  0.015082902  0.013785141         3760 
 4542000   0.52892141   -7.6874298    821.85058   0.01507872  0.013780474         3777 
 4543000   0.53414735   -7.7049155     822.9964  0.015096419  0.013775813         3755 
 4544000   0.52797224   -7.6950759    823.38599  0.015100242  0.013771149         3753 
 4545000   0.51835186    -7.686292    822.96016  0.015089112  0.013766488         3735 
 4546000   0.52490048   -7.6847878    822.27063  0.015073153  0.013761826         3757 
 4547000   0.53348856   -7.6925172    822.78462  0.015079258  0.013757169         3752 
 4548000   0.52784656   -7.6821295     822.5706  0.015072021  0.013752513         3755 
 4549000   0.52635826   -7.6810254    823.19183  0.015080088  0.013747858         3739 
 4550000    0.5248804   -7.6976258    821.66901  0.015048883  0.013743203         3752 
 4551000   0.51532455   -7.6792723    821.92668  0.015050295  0.013738552         3748 
 4552000   0.52157212   -7.6885686    823.76281  0.015080602  0.013733906         3755 
 4553000   0.51476717   -7.6837091    822.29311   0.01505039  0.013729262         3762 
 4554000   0.52276074   -7.6972566    824.00599  0.015078429  0.013724616         3744 
 4555000   0.52352196   -7.6841865      822.077  0.015039828  0.013719977         3762 
 4556000   0.52183995   -7.6874202    821.58722  0.015027568  0.013715336         3751 
 4557000   0.52051955   -7.6946562    822.29382  0.015037192    0.0137107         3771 
 4558000   0.52893541    -7.692208    821.93229  0.015027283  0.013706066         3735 
 4559000   0.51725722   -7.6742571    823.56146  0.015053767  0.013701432         3761 
 4560000   0.52664109   -7.6831059    822.56045  0.015032172  0.013696799         3731 
 4561000   0.52028043   -7.6890582    822.22125  0.015022679  0.013692165         3763 
 4562000   0.52595089   -7.7033372    823.21259  0.015037494  0.013687534         3779 
 4563000   0.52873531   -7.6833986    822.95503  0.015029495  0.013682907         3760 
 4564000   0.52253225   -7.6947606    822.25875  0.015013489  0.013678283         3754 
 4565000   0.51850267   -7.6813437    821.23881  0.014991581   0.01367366         3755 
 4566000   0.51636219   -7.6669899    820.80326  0.014980349   0.01366904         3755 
 4567000   0.51740586   -7.6963468    823.45433  0.015025442  0.013664421         3749 
 4568000   0.51012942   -7.6991773    823.54662  0.015023837  0.013659802         3758 
 4569000    0.5238737   -7.7025983    822.10231  0.014994206  0.013655189         3765 
 4570000    0.5103313   -7.6953313     823.5795  0.015017861  0.013650576         3771 
 4571000   0.51065101   -7.6832466    822.14412  0.014988407  0.013645963         3753 
 4572000   0.50456967   -7.7129628    823.06438  0.015001902  0.013641351         3756 
 4573000   0.51760162   -7.6844437    823.09208  0.014999127  0.013636745         3762 
 4574000     0.521388   -7.7063059     823.2243  0.014998256  0.013632137         3778 
 4575000   0.51573466   -7.6990394    822.39025  0.014979786  0.013627536         3748 
 4576000    0.5215231   -7.6899402    822.27954  0.014974496  0.013622933         3750 
 4577000   0.53008115   -7.6989033    823.30674  0.014989927  0.013618338         3757 
 4578000   0.50800614   -7.7056809     822.6434  0.014974578   0.01361374         3760 
 4579000   0.50965847   -7.6822986     823.1193  0.014979968  0.013609144         3769 
 4580000   0.51114029   -7.6894036    822.20442  0.014960051  0.013604547         3741 
 4581000   0.51996129   -7.7003737    821.92993  0.014951792  0.013599954         3763 
 4582000   0.52730184   -7.6949429    821.81183  0.014946381  0.013595363         3745 
 4583000   0.51883038   -7.6991109    822.32585  0.014952467  0.013590778         3744 
 4584000   0.51795425   -7.6932599    822.75359  0.014956981  0.013586194         3750 
 4585000   0.52313193   -7.6856195    821.82747  0.014936886   0.01358161         3754 
 4586000   0.51919923   -7.7030213    823.37366  0.014961725  0.013577026         3745 
 4587000   0.52287757   -7.7057585    822.80967  0.014948217  0.013572444         3756 
 4588000   0.52530038   -7.6980372     822.7663  0.014944171  0.013567863         3752 
 4589000   0.52061737   -7.6986277    821.84425  0.014924171  0.013563282         3762 
 4590000   0.50587851     -7.68761    822.87084  0.014939558  0.013558706         3757 
 4591000   0.51080875   -7.6997954    821.94177   0.01491944  0.013554129         3776 
 4592000   0.52110333   -7.6990958    822.98766  0.014935171   0.01354956         3744 
 4593000   0.52694049   -7.6924264    820.53289  0.014887381  0.013544987         3741 
 4594000   0.50624154   -7.7078139      822.991  0.014928729  0.013540418         3762 
 4595000   0.51124529   -7.6846388    820.52471  0.014880753  0.013535849         3741 
 4596000   0.51719448    -7.686112    823.26525  0.014927206  0.013531285         3737 
 4597000   0.52636246   -7.7094596    822.35026  0.014907372  0.013526722         3752 
 4598000   0.51542302   -7.6933388    822.87256  0.014913596  0.013522162         3745 
 4599000   0.51795272   -7.6906964    821.57588  0.014886857  0.013517605         3735 
 4600000   0.51386476   -7.6923793    823.36227  0.014915983  0.013513048         3727 
 4601000   0.51723332   -7.7043091    822.46554    0.0148965  0.013508493         3750 
 4602000   0.50456305    -7.704716     823.6399  0.014914528   0.01350394         3752 
 4603000   0.50484715   -7.7015534    822.67986  0.014893907  0.013499391         3755 
 4604000   0.52067767   -7.6889849    822.66246  0.014890357  0.013494844         3766 
 4605000    0.5122646   -7.7020055    822.54364  0.014884974  0.013490298         3761 
 4606000   0.50987231   -7.7102288    822.17856  0.014875137  0.013485755         3719 
 4607000   0.52050951    -7.684734     822.2332  0.014872896  0.013481215         3763 
 4608000   0.50426719   -7.7198428    822.66533  0.014877484  0.013476675         3768 
 4609000   0.51596295    -7.692162    822.57435  0.014872611  0.013472135         3746 
 4610000   0.50495752   -7.6970524    823.52148  0.014886505  0.013467598         3748 
 4611000   0.50784879   -7.7059665    822.34963  0.014862098  0.013463064         3744 
 4612000    0.5077679   -7.7128335      821.611   0.01484553  0.013458531         3752 
 4613000   0.52023459   -7.7146576    821.44585  0.014839328  0.013453999         3763 
 4614000   0.52727252   -7.7000325    822.37084  0.014852818   0.01344947         3755 
 4615000   0.51668129   -7.7052712     822.7603  0.014856632  0.013444942         3754 
 4616000   0.52017395   -7.6985545    822.75162  0.014853257  0.013440415         3755 
 4617000   0.50810384    -7.684848     821.6258   0.01482972  0.013435892         3744 
 4618000   0.51675059   -7.6957341    822.09715  0.014835014   0.01343137         3736 
 4619000   0.51654607    -7.693417    821.45573   0.01482023  0.013426849         3752 
 4620000   0.50147163   -7.7078819    822.47163  0.014835347   0.01342233         3776 
 4621000   0.50559588   -7.7099956    822.31448  0.014829303  0.013417812         3758 
 4622000   0.51754703   -7.7167294    822.20025  0.014824035  0.013413298         3765 
 4623000     0.512252   -7.7189821    822.51718  0.014826541  0.013408789         3755 
 4624000   0.51728519   -7.7162654    821.67985  0.014808244  0.013404279         3778 
 4625000   0.52318722   -7.7035091    822.77682  0.014824808  0.013399767         3771 
 4626000   0.52178332   -7.6967949    821.57552  0.014799962   0.01339526         3766 
 4627000   0.52058626   -7.6906346    822.52683  0.014813897  0.013390759         3758 
 4628000   0.51959352   -7.7021121    821.59792   0.01479397  0.013386259         3766 
 4629000   0.51992595    -7.713363    823.18287  0.014819307  0.013381757         3788 
 4630000   0.51786756   -7.7197369    823.33777  0.014818894  0.013377258         3747 
 4631000   0.52587286   -7.7035791    822.52406  0.014801052  0.013372759         3772 
 4632000   0.50732736   -7.7046771    820.80339    0.0147669  0.013368264         3755 
 4633000   0.52121696   -7.7203653    821.49254  0.014776109   0.01336377         3757 
 4634000   0.51614047   -7.7006407    821.79297  0.014778323   0.01335928         3770 
 4635000   0.52019012   -7.7099472    822.21778  0.014782772   0.01335479         3765 
 4636000   0.51013517   -7.7133844    821.68152  0.014769944  0.013350302         3776 
 4637000   0.51338796   -7.6963647    821.43182  0.014762271  0.013345813         3767 
 4638000   0.49446625   -7.7132139    821.66679   0.01476331  0.013341328         3762 
 4639000   0.51580679   -7.7074859    823.37836  0.014790874  0.013336848         3751 
 4640000    0.5087416   -7.7121135    821.03672  0.014745631  0.013332366         3760 
 4641000   0.50988525   -7.6982461    822.09211  0.014761404  0.013327888         3762 
 4642000   0.51938604   -7.7144802    821.71792  0.014751507   0.01332341         3748 
 4643000   0.50333278   -7.7034399    821.77271  0.014749313  0.013318937         3775 
 4644000   0.51085658   -7.6974973    822.83474  0.014765194  0.013314462         3753 
 4645000    0.5052311   -7.7158308    821.43683  0.014736936  0.013309991         3760 
 4646000   0.50753981    -7.700581    821.96077  0.014743162  0.013305522         3755 
 4647000   0.50568355   -7.7010103    820.44247  0.014712762  0.013301052         3783 
 4648000    0.5055701   -7.7143013     821.5708  0.014729826  0.013296588         3767 
 4649000   0.51228759   -7.7127966    820.36266  0.014705002  0.013292124         3785 
 4650000   0.49878314   -7.7166093    821.49394  0.014722114   0.01328766         3762 
 4651000   0.51499783   -7.7181235    822.39044  0.014735011  0.013283199         3772 
 4652000   0.50595704   -7.7298004    822.42117  0.014732394  0.013278737         3770 
 4653000    0.5038073   -7.7182782     821.6485   0.01471539  0.013274277         3774 
 4654000   0.51383935   -7.7033841    821.85702  0.014715962  0.013269817         3768 
 4655000    0.4953313   -7.7088941    822.82773  0.014730178  0.013265365         3747 
 4656000   0.51940441   -7.7084215    821.18931  0.014697689  0.013260913         3756 
 4657000   0.50694451   -7.7056301    822.08878  0.014710629  0.013256462         3799 
 4658000   0.50460969   -7.7185323     821.3205  0.014693726   0.01325201         3760 
 4659000   0.51577987   -7.7067364    822.38893  0.014709683  0.013247565         3767 
 4660000   0.50642408   -7.6947202    820.52675  0.014673225   0.01324312         3764 
 4661000   0.51360295   -7.7212642    820.65357  0.014672344  0.013238674         3780 
 4662000   0.50448582   -7.7219757    822.13769  0.014695726  0.013234233         3764 
 4663000   0.51724435   -7.7104305    821.16989  0.014675279  0.013229795         3777 
 4664000   0.48946471   -7.7017413     820.7234  0.014664154  0.013225355         3767 
 4665000   0.50738106    -7.714046    822.68131  0.014695986  0.013220922         3745 
 4666000   0.49253601   -7.7073908    820.64341   0.01465644   0.01321649         3774 
 4667000   0.50096016   -7.7304243    821.99914  0.014677508  0.013212058         3757 
 4668000   0.49893904   -7.7050691    821.06292   0.01465765  0.013207627         3751 
 4669000   0.50961317    -7.709167     822.3346  0.014677208  0.013203199         3732 
 4670000   0.50954234    -7.716468    821.81595   0.01466481  0.013198775         3766 
 4671000   0.50438779   -7.7138831    821.90443  0.014663249  0.013194352         3757 
 4672000   0.51075775   -7.7255483    820.39765  0.014633234  0.013189929         3752 
 4673000   0.52149804   -7.7154656    820.56965   0.01463317  0.013185508         3763 
 4674000   0.50121895   -7.7166311    820.95223  0.014636861   0.01318109         3760 
 4675000   0.49999824   -7.7205863    821.43033  0.014642252   0.01317667         3779 
 4676000   0.51265467   -7.6996034     822.3764  0.014655981  0.013172255         3760 
 4677000   0.49497972   -7.7176002    822.05306  0.014647086  0.013167841         3766 
 4678000   0.50511629   -7.7236678    821.50328  0.014634161  0.013163429         3754 
 4679000   0.50978811   -7.7121162    821.51769   0.01463129  0.013159017         3763 
 4680000   0.50774079   -7.7266024    822.67641  0.014648796  0.013154608         3759 
 4681000   0.50788576   -7.7131517    821.61336  0.014626742  0.013150199         3762 
 4682000   0.50185138   -7.7244548    822.17415  0.014633599  0.013145795         3763 
 4683000   0.50794021   -7.7269678    822.49288  0.014636146   0.01314139         3739 
 4684000    0.4879688   -7.7169088    823.21224   0.01464582  0.013136989         3750 
 4685000   0.50450529   -7.7178813    822.04402  0.014621914  0.013132587         3766 
 4686000   0.49778734   -7.7125594    820.18345  0.014585707  0.013128192         3752 
 4687000   0.51402796   -7.7193901    821.26031  0.014601741  0.013123796         3768 
 4688000   0.50124076   -7.7225947    822.58234  0.014622126    0.0131194         3781 
 4689000   0.50219733   -7.7036874    820.97224  0.014590393  0.013115009         3779 
 4690000   0.49795779   -7.7301281    822.90576  0.014621637  0.013110617         3772 
 4691000   0.50836075   -7.7137861    821.16903  0.014587668  0.013106231         3759 
 4692000   0.50427595   -7.7095323    822.15425  0.014602058  0.013101845         3757 
 4693000   0.50991128   -7.7149906     820.8037  0.014574965  0.013097461         3780 
 4694000   0.50592913   -7.7175759    821.92391  0.014591747  0.013093078         3770 
 4695000   0.49890664   -7.7093502     820.4385  0.014562274  0.013088698         3756 
 4696000   0.50285054   -7.7259475    821.86471  0.014584482   0.01308432         3763 
 4697000   0.50566915   -7.7154316    822.72707  0.014596676  0.013079943         3742 
 4698000   0.49898757   -7.7119621    821.64387  0.014574356  0.013075567         3758 
 4699000   0.50135905   -7.7256757    821.34821  0.014566011  0.013071194         3780 
 4700000   0.48689741   -7.7099419    820.87278  0.014554482  0.013066824         3763 
 4701000   0.50854701   -7.7259236    821.45058  0.014561628  0.013062454         3787 
 4702000   0.50135869   -7.7084801    820.84507    0.0145478  0.013058081         3777 
 4703000   0.49423278   -7.7194452    820.96477  0.014546828  0.013053717         3769 
 4704000   0.50827317   -7.7123941     822.0537  0.014563026  0.013049353         3785 
 4705000   0.50250081   -7.7179881    822.24268  0.014563278  0.013044991         3768 
 4706000   0.49652992   -7.7196038    821.51315  0.014547265  0.013040631         3765 
 4707000   0.49718469   -7.7139395    820.49428  0.014526136  0.013036274         3769 
 4708000   0.49854657   -7.7300616    820.38441  0.014521106  0.013031916         3787 
 4709000   0.50163571    -7.713665    820.18523  0.014514498  0.013027562         3786 
 4710000   0.51483473   -7.7002329    821.37141  0.014532403  0.013023213         3761 
 4711000   0.49966466   -7.7228448    820.59182  0.014515528  0.013018862         3775 
 4712000   0.49480739    -7.718857    821.16184  0.014522528  0.013014513         3774 
 4713000   0.49587594   -7.7212004    819.68665  0.014493363  0.013010165         3766 
 4714000    0.5018617   -7.7162705    821.06756    0.0145147  0.013005817         3766 
 4715000    0.4871323   -7.7184328    821.68005  0.014522447  0.013001475         3777 
 4716000   0.49527637   -7.7286393    821.50028  0.014516191  0.012997132         3752 
 4717000   0.49259824   -7.7279701    822.04913   0.01452281  0.012992795         3774 
 4718000    0.4939849   -7.7114593    820.95533  0.014500412  0.012988457         3780 
 4719000   0.49405015   -7.7077183    820.96738  0.014497552  0.012984119         3779 
 4720000   0.49215119   -7.7272741    821.15774  0.014497841  0.012979786         3761 
 4721000   0.49333977   -7.7246991    821.29691  0.014497227  0.012975454         3766 
 4722000   0.48838906    -7.719144    820.50124  0.014480115  0.012971123         3777 
 4723000    0.4939024   -7.7306375    821.43139  0.014493461  0.012966793         3766 
 4724000   0.50403827   -7.7309083    820.89506  0.014480932  0.012962465         3761 
 4725000   0.48348933   -7.7339345    821.02573  0.014480172  0.012958139         3766 
 4726000   0.49012354   -7.7438503    821.31393   0.01448219  0.012953813         3765 
 4727000   0.48613854   -7.7293211     821.6881  0.014485722  0.012949491         3765 
 4728000    0.5072599   -7.7304348    821.22161  0.014474436  0.012945172         3772 
 4729000   0.49874016   -7.7326891    822.63284  0.014496244  0.012940856         3778 
 4730000   0.49856192   -7.7234176    821.02916  0.014464925   0.01293654         3754 
 4731000   0.47879354   -7.7292349    821.63036  0.014472457  0.012932223         3762 
 4732000    0.4923109   -7.7298793    820.09884  0.014442428  0.012927908         3777 
 4733000   0.49972629   -7.7259161    821.90718  0.014471216  0.012923593         3774 
 4734000   0.49716986   -7.7263019    820.94874  0.014451288  0.012919283         3781 
 4735000   0.48793346   -7.7311381    820.68401  0.014443576  0.012914973         3762 
 4736000   0.49941977   -7.7216857    820.80736  0.014442697  0.012910667         3766 
 4737000   0.48259154   -7.7291323    821.34139  0.014449043  0.012906364         3782 
 4738000   0.48911524   -7.7119681    820.63229  0.014433521  0.012902059         3753 
 4739000   0.49416463   -7.7262256    821.58005  0.014447142  0.012897761         3748 
 4740000   0.48438469   -7.7383772    820.67826  0.014428239  0.012893462         3760 
 4741000   0.49537217   -7.7345976    820.57919  0.014423455  0.012889163         3768 
 4742000   0.49298744   -7.7239855     821.0223    0.0144282  0.012884868         3773 
 4743000   0.49581242   -7.7084141    822.71095  0.014454827  0.012880574         3779 
 4744000   0.48473313   -7.7256011    821.23107  0.014425785  0.012876283         3784 
 4745000   0.48665246   -7.7219478    820.43208  0.014408712  0.012871991         3786 
 4746000   0.48799905   -7.7439968    820.15087  0.014400739  0.012867701         3776 
 4747000   0.51121796   -7.7216886     821.7169  0.014425197  0.012863415         3780 
 4748000   0.50027172   -7.7331311    820.90185  0.014407853  0.012859129         3775 
 4749000   0.49662754   -7.7293316    822.86362  0.014439244  0.012854844         3765 
 4750000   0.50415453   -7.7065136    820.54893  0.014395595  0.012850563         3787 
 4751000   0.48899139    -7.745431    819.92784  0.014381671  0.012846282         3778 
 4752000   0.49485913    -7.732668    821.29949  0.014402699  0.012842003         3789 
 4753000   0.48098241   -7.7211001    820.36862  0.014383348  0.012837728         3774 
 4754000   0.49366017   -7.7177049    820.12683  0.014376084  0.012833455         3779 
 4755000   0.48656248   -7.7367551    821.77753   0.01440199  0.012829181         3769 
 4756000     0.498496    -7.720556    820.04422  0.014368591  0.012824912         3759 
 4757000   0.49031932    -7.737843    821.48913  0.014390882  0.012820643         3768 
 4758000   0.49155842   -7.7500267    822.07043  0.014398039  0.012816376         3790 
 4759000   0.48758086   -7.7341184    819.73393    0.0143541  0.012812112         3782 
 4760000   0.49567458   -7.7512739     820.7315  0.014368549  0.012807851         3790 
 4761000   0.48289097   -7.7021118    821.42866  0.014377733  0.012803593         3770 
 4762000   0.48435489   -7.7284493    820.68395  0.014361682  0.012799333         3784 
 4763000   0.49764833   -7.7335339     821.8868  0.014379712  0.012795073         3765 
 4764000   0.48618868   -7.7211843    819.95961  0.014342982  0.012790816         3754 
 4765000   0.47888747   -7.7120257     820.7463   0.01435373  0.012786562         3760 
 4766000   0.48213847   -7.7311293    820.83637  0.014352294  0.012782312         3758 
 4767000   0.48740376   -7.7345061    821.51989  0.014361232  0.012778063         3768 
 4768000   0.48946745   -7.7380042     820.6538  0.014343082  0.012773815         3791 
 4769000   0.48908535   -7.7246719     818.9527   0.01431035  0.012769568         3788 
 4770000   0.48582406   -7.7374824    821.56581  0.014353001  0.012765323         3791 
 4771000   0.49932558     -7.73436    820.67884  0.014334501   0.01276108         3779 
 4772000   0.47534754   -7.7257086    820.65716  0.014331118  0.012756837         3770 
 4773000   0.49351937   -7.7378502    821.45785  0.014342095  0.012752596         3755 
 4774000   0.49719455   -7.7484505    821.63089  0.014342112  0.012748359         3770 
 4775000   0.49579919   -7.7171604    819.18008  0.014296336  0.012744124         3767 
 4776000    0.4886426   -7.7349027     820.6148  0.014318377  0.012739888         3766 
 4777000   0.49192649   -7.7437234    820.43034  0.014312161  0.012735655         3781 
 4778000    0.4844022   -7.7272618    820.39842  0.014308609  0.012731425         3771 
 4779000   0.48181096    -7.734689     819.7785  0.014294805  0.012727195         3786 
 4780000    0.4902382   -7.7425264    822.35846  0.014336793   0.01272297         3787 
 4781000   0.48819491   -7.7154189    820.86867  0.014307827  0.012718745         3758 
 4782000    0.4861972   -7.7442283     820.9963   0.01430706  0.012714523         3772 
 4783000    0.4925475    -7.731684    821.01488  0.014304392  0.012710303         3790 
 4784000   0.48681618   -7.7244666    821.22527  0.014305067  0.012706082         3763 
 4785000     0.488457   -7.7421377    822.03916  0.014316251  0.012701863         3782 
 4786000     0.480691   -7.7378851    820.04866  0.014278602  0.012697645         3785 
 4787000   0.48912598   -7.7464695    822.20009  0.014313072  0.012693429         3779 
 4788000    0.4879789   -7.7188142    820.72934  0.014284484  0.012689217         3791 
 4789000   0.48934784   -7.7347366     820.9576  0.014285474  0.012685008         3773 
 4790000   0.49059866   -7.7515704    820.46502  0.014273922  0.012680798         3783 
 4791000   0.48754629   -7.7491413     820.6342  0.014273885   0.01267659         3790 
 4792000   0.47662317   -7.7515897    821.55848   0.01428698  0.012672384         3757 
 4793000   0.48080817   -7.7428345    821.21942  0.014278104  0.012668178         3786 
 4794000   0.49366215   -7.7470336    821.44092  0.014278976  0.012663975         3797 
 4795000   0.48792872   -7.7428057    820.91577  0.014266871  0.012659773         3804 
 4796000   0.48542491   -7.7435561    820.23016  0.014251984  0.012655574         3777 
 4797000   0.48757357   -7.7350888    821.15883  0.014265145  0.012651377         3771 
 4798000   0.47655759   -7.7150384    820.17035  0.014245004  0.012647183         3798 
 4799000   0.47473559   -7.7356026    822.03433  0.014274403  0.012642988         3782 
 4800000   0.47974912   -7.7585751      820.989  0.014253281  0.012638794         3795 
 4801000   0.49119302   -7.7525075     819.9994  0.014233135  0.012634606         3762 
 4802000   0.48736189   -7.7378991    819.97608  0.014229767  0.012630418         3779 
 4803000   0.47657569   -7.7455185    822.31441  0.014267375  0.012626231         3785 
 4804000     0.497167   -7.7387999    820.79587  0.014238063  0.012622043         3786 
 4805000   0.48837513   -7.7243321    820.53216  0.014230526   0.01261786         3786 
 4806000   0.49139871   -7.7249447    821.43818  0.014243275   0.01261368         3783 
 4807000   0.49189757   -7.7458808    820.41063  0.014222499    0.0126095         3794 
 4808000   0.48068098   -7.7419065    820.45246  0.014220266  0.012605321         3798 
 4809000   0.48649984   -7.7400637    820.05027  0.014210339  0.012601144         3781 
 4810000   0.47917151   -7.7362736    820.65545   0.01421787  0.012596972         3784 
 4811000   0.49093637   -7.7444561      820.197  0.014206974  0.012592798         3779 
 4812000   0.47156572   -7.7355041    820.07319  0.014201877  0.012588624         3793 
 4813000    0.4857816    -7.740374    821.14294  0.014217448  0.012584455         3784 
 4814000   0.48650649    -7.747616    818.90009   0.01417567  0.012580287         3792 
 4815000     0.480968   -7.7433678    821.28316   0.01421397  0.012576119         3792 
 4816000   0.48565783   -7.7344346    820.76574  0.014202065  0.012571956         3792 
 4817000   0.48947473   -7.7420018    819.72723  0.014181151  0.012567793         3796 
 4818000   0.49251857   -7.7343843    820.83875  0.014197432  0.012563633         3786 
 4819000   0.47837954   -7.7574934    820.40525   0.01418699  0.012559473         3781 
 4820000   0.47416056   -7.7419063    820.56731  0.014186848  0.012555316         3782 
 4821000   0.48054478   -7.7525103    820.43174  0.014181562  0.012551163         3784 
 4822000   0.49337997   -7.7439392    819.35031  0.014159932  0.012547008         3784 
 4823000   0.48826902   -7.7416741    820.88788  0.014183563  0.012542854         3803 
 4824000    0.4773784   -7.7383324     820.8388  0.014179775  0.012538706         3788 
 4825000   0.48184829   -7.7489402    821.30225   0.01418484  0.012534556         3773 
 4826000   0.47063473   -7.7508136    820.86001  0.014174265  0.012530408         3777 
 4827000   0.47250531   -7.7326586    820.52276  0.014165506  0.012526262         3783 
 4828000   0.48368924   -7.7530102    820.45151  0.014161342  0.012522114         3800 
 4829000    0.4822442   -7.7428546     821.5861  0.014177989  0.012517973         3788 
 4830000   0.48641769   -7.7441277    820.20231  0.014151179  0.012513834         3779 
 4831000   0.48035411   -7.7625157    820.11524  0.014146747  0.012509694         3796 
 4832000   0.48338877   -7.7471559    820.19004   0.01414511  0.012505558         3812 
 4833000   0.47622443   -7.7327659    819.58186  0.014131696  0.012501421         3799 
 4834000   0.48034156   -7.7557618    820.18419  0.014139157   0.01249729         3789 
 4835000   0.48220595   -7.7512999    819.91495  0.014131592  0.012493161         3796 
 4836000   0.48151625   -7.7415023    820.58676  0.014140246  0.012489028         3809 
 4837000   0.46373383   -7.7499286    820.38023  0.014133765  0.012484902         3789 
 4838000   0.47125044   -7.7477029    819.36384  0.014113336  0.012480774         3808 
 4839000   0.47896579   -7.7451064    819.25923  0.014108618  0.012476647         3787 
 4840000   0.47474517   -7.7449651    820.57112  0.014128291  0.012472523         3785 
 4841000   0.47462738   -7.7518637    821.40249  0.014139683  0.012468402         3790 
 4842000    0.4879108    -7.754658    819.08654  0.014096905  0.012464281         3785 
 4843000   0.48519264   -7.7420909    819.90147  0.014108016  0.012460159         3783 
 4844000   0.48468458    -7.757441      818.887  0.014087651  0.012456043         3783 
 4845000   0.47681262   -7.7469613    820.45335  0.014111685  0.012451927         3761 
 4846000   0.48458986    -7.760764    819.29508  0.014088855  0.012447815         3792 
 4847000   0.47154833   -7.7444962    818.88213  0.014078848  0.012443701         3780 
 4848000    0.4727056     -7.75867    820.21943  0.014098931  0.012439589         3774 
 4849000   0.47865691   -7.7688076     820.2998  0.014097405   0.01243548         3773 
 4850000   0.47354342   -7.7348938    821.09074  0.014108088  0.012431375         3775 
 4851000   0.47038634   -7.7510455     819.3365  0.014075045  0.012427271         3784 
 4852000    0.4736367   -7.7460372    820.86391  0.014098377  0.012423165         3770 
 4853000   0.47841674   -7.7567069    820.48045  0.014088887  0.012419063         3754 
 4854000   0.48047796   -7.7395473    818.88116  0.014058528  0.012414964         3794 
 4855000   0.47174485    -7.753193    819.83415   0.01407199  0.012410869         3773 
 4856000   0.46711657   -7.7571693    819.50248  0.014063401  0.012406772         3775 
 4857000   0.47245876    -7.739807    819.52329  0.014060862  0.012402677         3771 
 4858000    0.4847112   -7.7559345    820.09891  0.014067842  0.012398585         3773 
 4859000    0.4764533   -7.7583353    819.84717  0.014060629  0.012394494         3788 
 4860000   0.46833954   -7.7587833    819.80448  0.014057004  0.012390403         3790 
 4861000    0.4696197   -7.7594864    818.88532  0.014038355  0.012386312         3793 
 4862000   0.47916471   -7.7524636    820.51936  0.014063475  0.012382224         3791 
 4863000   0.46683487   -7.7500017    819.73716  0.014047179  0.012378137         3785 
 4864000   0.47303997   -7.7555405    819.42809  0.014038996  0.012374054         3795 
 4865000   0.47240452   -7.7445887    819.79022  0.014042313  0.012369973         3783 
 4866000   0.47198366   -7.7390741    820.32328  0.014048556  0.012365897         3778 
 4867000   0.46997374   -7.7463092    819.51572  0.014031842  0.012361816         3769 
 4868000    0.4771945   -7.7575791    818.86051  0.014017744  0.012357741         3776 
 4869000   0.47810951   -7.7571767     819.6955  0.014029156  0.012353667         3779 
 4870000   0.47473949   -7.7684347    821.27085  0.014053232  0.012349593         3796 
 4871000   0.47274389   -7.7668746    820.21048  0.014032206  0.012345522         3782 
 4872000   0.48806174   -7.7611928    819.26116  0.014013088  0.012341454         3773 
 4873000   0.46235114   -7.7684119    820.19131  0.014026119  0.012337385         3779 
 4874000   0.47077537   -7.7752925    819.89128  0.014018111  0.012333318         3777 
 4875000   0.46981928   -7.7530807    819.17134  0.014002929  0.012329252         3793 
 4876000   0.47728965   -7.7493002    820.60926  0.014024632   0.01232519         3789 
 4877000   0.47310764   -7.7477476    818.84842  0.013991669  0.012321127         3781 
 4878000   0.48279281   -7.7496393    818.65282  0.013985459  0.012317065         3783 
 4879000   0.48013521   -7.7482777    819.68422  0.014000209  0.012313005         3768 
 4880000    0.4732833   -7.7548071    820.52606  0.014011715  0.012308949         3775 
 4881000   0.46711931   -7.7760353    821.33667  0.014022684  0.012304896         3777 
 4882000    0.4653552   -7.7558097    819.38903  0.013986567  0.012300843         3789 
 4883000   0.46392579   -7.7688906    819.75316  0.013989917  0.012296793         3777 
 4884000   0.46118886   -7.7609223     819.7219  0.013986519  0.012292742         3790 
 4885000   0.46534179   -7.7603761    819.86952  0.013986174  0.012288694         3781 
 4886000   0.48405394   -7.7380452    819.64086  0.013979412  0.012284652         3787 
 4887000   0.46954791   -7.7491321     819.5437  0.013974894  0.012280609         3788 
 4888000   0.47094094   -7.7670112    819.08113  0.013964149  0.012276567         3777 
 4889000   0.47272436   -7.7491398    821.39707  0.014000768  0.012272524         3781 
 4890000   0.47307388   -7.7747067    819.13693  0.013959389  0.012268485         3777 
 4891000   0.45410641   -7.7675239    818.98816     0.013954  0.012264447         3797 
 4892000    0.4710004   -7.7374913    819.73874  0.013963933  0.012260412         3794 
 4893000   0.46912039   -7.7606677    821.03639   0.01398318  0.012256378         3793 
 4894000   0.46794073   -7.7473768    818.62719    0.0139393  0.012252345         3773 
 4895000   0.46391344   -7.7480998    820.23614  0.013963843  0.012248313         3789 
 4896000   0.45670522   -7.7506186    819.81809  0.013953875  0.012244285         3787 
 4897000    0.4642103   -7.7436494    818.03504  0.013920683  0.012240256         3791 
 4898000   0.47226775   -7.7642336    820.62247  0.013961863  0.012236229         3776 
 4899000   0.46953286   -7.7662576    820.28304  0.013953239  0.012232206         3795 
 4900000   0.46235461   -7.7610937     818.2909  0.013916512  0.012228184         3785 
 4901000   0.46849934   -7.7728881    820.08937  0.013944252  0.012224165         3779 
 4902000   0.46823115   -7.7531572    820.13179  0.013942129  0.012220144         3790 
 4903000   0.46801918   -7.7695936    819.58244  0.013929948  0.012216126         3781 
 4904000   0.47865256   -7.7488436    819.24355  0.013921349  0.012212111         3791 
 4905000   0.47890395   -7.7626255    819.13427  0.013916654  0.012208097         3791 
 4906000   0.47406773   -7.7640545    820.06256  0.013929586  0.012204087         3785 
 4907000   0.45805798   -7.7622507    819.49681  0.013917139  0.012200077         3787 
 4908000    0.4655788   -7.7571878    819.78841  0.013919254  0.012196068         3801 
 4909000   0.47090759   -7.7713889     819.0342  0.013903616   0.01219206         3779 
 4910000    0.4702565   -7.7742523    819.78783  0.013913575  0.012188054         3782 
 4911000   0.46012722   -7.7615446    818.15801  0.013883086  0.012184051         3797 
 4912000   0.46108372   -7.7453409    819.60076  0.013904736  0.012180047         3788 
 4913000   0.46269573   -7.7591193    819.63355  0.013902462  0.012176048         3786 
 4914000    0.4636608    -7.770963    820.72954  0.013918219   0.01217205         3790 
 4915000   0.47686643   -7.7634601    819.11913  0.013888083  0.012168052         3782 
 4916000   0.47213238   -7.7774439    820.22075  0.013903932  0.012164054         3805 
 4917000   0.47108369   -7.7770266     819.1577  0.013883088  0.012160061         3776 
 4918000   0.47037938   -7.7668076    818.81212  0.013874409  0.012156069         3800 
 4919000   0.47280415   -7.7688146     820.2984  0.013896768  0.012152081         3796 
 4920000   0.46208154   -7.7562708    818.65635  0.013866131  0.012148091         3793 
 4921000   0.46244761   -7.7702949    818.42737  0.013859435  0.012144103         3784 
 4922000   0.46492103   -7.7761266    820.35439  0.013889245  0.012140117         3777 
 4923000    0.4628115   -7.7637411    820.31515   0.01388576  0.012136133         3795 
 4924000   0.45853074   -7.7697996    818.56317  0.013853289  0.012132148         3785 
 4925000   0.46799354   -7.7727147    820.43603  0.013882166  0.012128166         3786 
 4926000   0.46419395   -7.7639748    818.03639  0.013838753  0.012124186         3792 
 4927000   0.46596718   -7.7669127    819.10316  0.013853988  0.012120205         3787 
 4928000   0.46032077    -7.761234    819.80387  0.013863025  0.012116228         3777 
 4929000    0.4614235   -7.7568966    819.53879  0.013855731  0.012112252         3784 
 4930000   0.46304937   -7.7563044    819.57707  0.013853568  0.012108278         3786 
 4931000   0.46150306     -7.77871    818.29343  0.013829065  0.012104309         3775 
 4932000   0.46350145    -7.775798    819.01907  0.013838522  0.012100337         3794 
 4933000   0.45635102    -7.770355    819.09078  0.013836928   0.01209637         3781 
 4934000   0.46972023    -7.786457    819.43205  0.013839887  0.012092401         3788 
 4935000   0.46645795    -7.765534    818.97645   0.01382939  0.012088436         3791 
 4936000   0.45930826    -7.764019    818.68549  0.013821676  0.012084472         3783 
 4937000   0.45577277   -7.7733778    819.08394  0.013825602  0.012080513         3766 
 4938000   0.46536925   -7.7580454    818.85027  0.013818858  0.012076553         3781 
 4939000   0.45874441   -7.7862042    820.18533  0.013838586  0.012072592         3787 
 4940000   0.45771558   -7.7633074    820.02737   0.01383312  0.012068635         3786 
 4941000     0.471248   -7.7591265     818.6303  0.013806758  0.012064678         3785 
 4942000   0.46376705   -7.7604538    819.31367  0.013815488  0.012060724         3806 
 4943000   0.45674657   -7.7685219    818.76817  0.013803496  0.012056774         3775 
 4944000    0.4585361    -7.768446    819.65167  0.013815596  0.012052825         3771 
 4945000   0.46772238   -7.7747593    819.13616  0.013804115  0.012048877         3787 
 4946000   0.46017518    -7.782176    819.69741   0.01381078  0.012044931         3787 
 4947000   0.46206011   -7.7706094    819.20891  0.013799759  0.012040986         3806 
 4948000   0.46239748   -7.7623921    818.99881  0.013793432  0.012037041         3791 
 4949000   0.45811537   -7.7746159    820.23219  0.013811413  0.012033101         3789 
 4950000    0.4630251   -7.7564604    818.88229  0.013785897  0.012029162         3780 
 4951000   0.45127269   -7.7846219    818.56931  0.013777845  0.012025221         3784 
 4952000    0.4662115   -7.7694381    819.66615   0.01379352  0.012021286         3789 
 4953000   0.47045001   -7.7666739    819.38128  0.013785942  0.012017353         3792 
 4954000   0.44774149   -7.7676083    817.96695  0.013759369  0.012013419         3797 
 4955000   0.45475046   -7.7678326    819.26204  0.013778373  0.012009486         3780 
 4956000   0.45066035   -7.7866907    818.40597  0.013761198  0.012005554         3778 
 4957000   0.45791708   -7.7658925    819.60718  0.013778616  0.012001627         3787 
 4958000   0.47167269   -7.7712451    819.88489  0.013780504    0.0119977         3775 
 4959000   0.45925072   -7.7760571    818.42057  0.013753118  0.011993773         3784 
 4960000   0.45005917    -7.773326    818.65262  0.013754244  0.011989848         3783 
 4961000   0.46074679   -7.7795731    818.35549  0.013746481  0.011985927         3777 
 4962000   0.46753341   -7.7645926      818.837  0.013751797  0.011982008         3776 
 4963000   0.45316957   -7.7730091    818.68875  0.013746537  0.011978089         3787 
 4964000   0.44700686   -7.7728495    818.68908  0.013743773  0.011974172         3780 
 4965000   0.45699351   -7.7841873    819.55034   0.01375546  0.011970255         3793 
 4966000   0.46654906   -7.7948577    819.17128   0.01374633  0.011966342         3794 
 4967000   0.45203536   -7.7659851    817.88208  0.013721933  0.011962428         3790 
 4968000   0.44990795   -7.7839974    819.63496  0.013748574  0.011958519         3791 
 4969000   0.45005291   -7.7748572    819.47752  0.013743166  0.011954611         3802 
 4970000   0.45674217   -7.7768674    819.28493  0.013737172  0.011950704         3776 
 4971000   0.45328223   -7.7559044    818.64236  0.013723636  0.011946797         3798 
 4972000   0.46114246   -7.7694222     819.5186  0.013735562  0.011942892         3782 
 4973000    0.4563795   -7.7607969    818.70975  0.013719246  0.011938991         3776 
 4974000   0.45932568   -7.7787636    818.25172  0.013708814  0.011935088         3791 
 4975000   0.44621791   -7.7881603    819.57887  0.013728289   0.01193119         3802 
 4976000   0.44941798   -7.7749141     818.6316  0.013709666   0.01192729         3790 
 4977000   0.45583155   -7.7811476    818.16002  0.013699016  0.011923394         3811 
 4978000   0.45156384   -7.7591748    818.38205  0.013699981  0.011919499         3790 
 4979000   0.44980481   -7.7734641    819.45598  0.013715204  0.011915606         3779 
 4980000   0.45796414   -7.7786414     818.5598  0.013697453  0.011911713         3811 
 4981000   0.45824277    -7.774396    818.61007  0.013695544  0.011907822         3779 
 4982000   0.45449332   -7.7811995    818.51195  0.013691154  0.011903934         3773 
 4983000   0.44749571   -7.7676044    819.03196  0.013697103  0.011900046         3793 
 4984000   0.45600763   -7.7827808    818.96295  0.013693201   0.01189616         3776 
 4985000   0.44270404    -7.780702    819.33888  0.013696738  0.011892277         3795 
 4986000   0.44720543    -7.786177    819.19704  0.013691621  0.011888396         3799 
 4987000   0.45119147    -7.767156    817.38313  0.013658565  0.011884516         3788 
 4988000     0.456421   -7.7901707    818.52869  0.013674965  0.011880641         3790 
 4989000   0.44564419   -7.7761216    820.08889  0.013698284  0.011876767         3788 
 4990000   0.45699512   -7.7650547    819.12047  0.013679367  0.011872893         3784 
 4991000   0.44969792   -7.7810882    817.84578  0.013655343  0.011869018         3793 
 4992000   0.45589244   -7.7832528    817.85443  0.013652752  0.011865147         3789 
 4993000   0.44282162   -7.7869785    818.05528  0.013653369  0.011861276         3792 
 4994000   0.44811151   -7.7790148    819.69113  0.013677932  0.011857408         3809 
 4995000   0.45007779   -7.7722596    818.19731  0.013650272  0.011853538         3801 
 4996000   0.45023277   -7.7859555     818.1401  0.013646586  0.011849674         3788 
 4997000   0.47468895   -7.7927001    819.00653  0.013658304   0.01184581         3806 
 4998000   0.45401114   -7.7762872    818.75798  0.013651427  0.011841947         3788 
 4999000   0.45784128   -7.7924708    819.88573  0.013667496  0.011838087         3779 
 5000000   0.45882917   -7.7745675    818.89965  0.013648328  0.011834227         3785 
 5001000   0.45981399   -7.7636656    818.26427  0.013635011   0.01183037         3783 
 5002000   0.46048908   -7.7709302    817.38705   0.01361767  0.011826514         3783 
 5003000   0.45498883   -7.7858083    818.75357   0.01363771   0.01182266         3787 
 5004000   0.44483547    -7.787092    819.26454  0.013643494  0.011818808         3775 
 5005000   0.44279461   -7.7861246       818.51  0.013628205  0.011814957         3784 
 5006000   0.45709306   -7.7697662    818.18416  0.013620059  0.011811109         3787 
 5007000   0.45344565   -7.7821113    819.21879  0.013634558  0.011807261         3787 
 5008000   0.44450591   -7.7781374     818.0349  0.013612136  0.011803416         3794 
 5009000   0.44974785    -7.787068    819.45056   0.01363297   0.01179957         3788 
 5010000   0.44977076   -7.7816693    817.96859  0.013605599  0.011795727         3767 
 5011000   0.44527998   -7.7735595    817.79477  0.013599993  0.011791887         3800 
 5012000   0.45175927   -7.7841472    818.83815  0.013614627  0.011788044         3790 
Loop time of 10793.8 on 48 procs for 5000000 steps with 4000 atoms

Performance: 80046.223 tau/day, 463.230 timesteps/s
99.4% CPU use with 48 MPI tasks x no OpenMP threads

MPI task timing breakdown:
Section |  min time  |  avg time  |  max time  |%varavg| %total
---------------------------------------------------------------
Pair    | 670.74     | 727.06     | 751.01     |  59.3 |  6.74
Neigh   | 66.018     | 67.495     | 69.525     |   8.8 |  0.63
Comm    | 580.63     | 622.86     | 672.47     |  72.7 |  5.77
Output  | 15.084     | 15.089     | 15.18      |   0.3 |  0.14
Modify  | 9199.4     | 9234.6     | 9287.1     |  17.6 | 85.56
Other   |            | 126.6      |            |       |  1.17

Nlocal:        83.3333 ave          88 max          77 min
Histogram: 1 1 6 5 4 6 8 10 1 6
Nghost:        1773.10 ave        1792 max        1759 min
Histogram: 2 5 9 12 5 3 4 3 3 2
Neighs:        10709.6 ave       11486 max        9823 min
Histogram: 1 1 7 5 3 13 8 4 3 3
FullNghs:      21419.0 ave       22683 max       19528 min
Histogram: 1 0 3 7 5 7 9 7 3 6

Total # of neighbors = 1028111
Ave neighs/atom = 257.02775
Neighbor list builds = 269853
Dangerous builds = 0

#clear
#
#next RN
#
#jump SELF
Total wall time: 2:59:56
