
units lj                  # Use reduced LJ style units
atom_style atomic         # Uncharged point particles
atom_modify map hash      # Needed for indexing of clusters etc
                          # Used to be able to find where atoms are in relation to each other.

lattice fcc 1.0 spacing 1 1 1
Lattice spacing in x,y,z = 1.5874011 1.5874011 1.5874011
region box block 0 10 0 10 0 10 units lattice
create_box 2 box
Created orthogonal box = (0.0000000 0.0000000 0.0000000) to (15.874011 15.874011 15.874011)
  3 by 4 by 4 MPI processor grid
create_atoms 1 box
Created 4000 atoms
  using lattice units in orthogonal box = (0.0000000 0.0000000 0.0000000) to (15.874011 15.874011 15.874011)
  create_atoms CPU = 0.002 seconds
set type 1 type/fraction 2 0.64 78393
Setting atom values ...
  2566 settings made for type/fraction
mass 1 1.0
mass 2 1.0
pair_style lj/cut  3.5
pair_modify tail  yes
pair_coeff 1  1  1.0  1.0   # Intearaction between 1 and 1 set with epsilon = 1 and sigma = 1
pair_coeff 1  2  1.5  0.8
pair_coeff 2  2  0.5  0.88

write_data data.0
System init for write_data ...
Neighbor list info ...
  update every 1 steps, delay 10 steps, check yes
  max neighbors/atom: 2000, page size: 100000
  master list distance cutoff = 3.8
  ghost atom cutoff = 3.8
  binsize = 1.9, bins = 9 9 9
  1 neighbor lists, perpetual/occasional/extra = 1 0 0
  (1) pair lj/cut, perpetual
      attributes: half, newton on
      pair build: half/bin/atomonly/newton
      stencil: half/bin/3d
      bin: standard
WARNING: Not all mixed pair coeffs generated from mixing. Use write_data with 'pair ij' option to store all pair coeffs. (../write_data.cpp:312)


#############################
#   M E L T   S Y S T E M   #
#############################

velocity all create 2.4 9580093 mom yes dist gaussian # Assign velocities
                                                    # Temperature 2.4, random number seed, zero linear momentum
                                                                                # Gaussian distribution

timestep 0.002   # simulation timestep
thermo 1000       # output thermodynamic data every 1000 steps bf 100

# Define a fix  in this case with index 1 applied to all
# particles in the simulation. This fix is for simulations
# in the anisotropic NPT ensemble. Note that we use the MTK
# correction.
fix 1 all npt temp 2.4 2.4 0.1 iso 5.68 5.68 0.5 mtk yes tchain 5 pchain 5 # Use NPT ensemble
                                                                         # Set temperature and pressure and damping
                                                                         # Numbers of thermostats in chain and in barostat
run 10000          # run for 10000 steps
Per MPI rank memory allocation (min/avg/max) = 3.642 | 3.644 | 3.648 Mbytes
Step Temp E_pair E_mol TotEng Press Volume 
       0          2.4   -4.5154638            0  -0.91636384   -3.9779215         4000 
    1000    2.4085865   -4.2884448            0  -0.67646826    5.4451793    3615.4613 
    2000    2.4239162    -4.262111            0  -0.62714578    6.0610492    3576.6002 
    3000    2.3807495   -4.2056414            0  -0.63540986    5.2766326    3661.9635 
    4000     2.365692   -4.2298195            0  -0.68216861    5.4384374    3644.2535 
    5000    2.3806316   -4.2685764            0  -0.69852173    5.8622388     3581.384 
    6000    2.4851136   -4.2304855            0  -0.50374696    5.9026901    3622.6646 
    7000    2.3650571    -4.242256            0  -0.69555719    5.3915392    3643.1348 
    8000    2.3890069   -4.2428159            0  -0.66020148    5.6607206    3615.8583 
    9000    2.3715766   -4.2834175            0  -0.72694194    5.9017076    3573.4836 
   10000    2.3603951   -4.2208708            0  -0.68116336    5.6857303    3623.7786 
Loop time of 2.60825 on 48 procs for 10000 steps with 4000 atoms

Performance: 662512.889 tau/day, 3833.987 timesteps/s
99.6% CPU use with 48 MPI tasks x no OpenMP threads

MPI task timing breakdown:
Section |  min time  |  avg time  |  max time  |%varavg| %total
---------------------------------------------------------------
Pair    | 1.1973     | 1.2674     | 1.3775     |   2.8 | 48.59
Neigh   | 0.21403    | 0.22272    | 0.23633    |   0.9 |  8.54
Comm    | 0.75303    | 0.86702    | 0.92079    |   3.7 | 33.24
Output  | 0.00024256 | 0.00024889 | 0.00031118 |   0.0 |  0.01
Modify  | 0.21351    | 0.23538    | 0.26034    |   3.2 |  9.02
Other   |            | 0.01546    |            |       |  0.59

Nlocal:        83.3333 ave          96 max          74 min
Histogram: 3 3 7 6 12 9 4 3 0 1
Nghost:        1749.58 ave        1785 max        1721 min
Histogram: 3 2 6 10 7 12 2 3 1 2
Neighs:        10535.5 ave       11916 max        9288 min
Histogram: 4 5 4 4 6 9 6 6 3 1

Total # of neighbors = 505706
Ave neighs/atom = 126.42650
Neighbor list builds = 904
Dangerous builds = 188

# Equilibrate just above the melting temperature to avoid step fn in T

fix 1 all npt temp 1.25 1.25 0.1 iso 5.68 5.68 0.5 mtk yes tchain 5 pchain 5
run 2000
Per MPI rank memory allocation (min/avg/max) = 3.644 | 3.646 | 3.650 Mbytes
Step Temp E_pair E_mol TotEng Press Volume 
   10000    2.3603951   -4.2208708            0  -0.68116336    5.6857303    3623.7786 
   11000    1.2437465   -6.2158254            0   -4.3506721    5.6471142    2766.6757 
   12000    1.2481901   -6.2699608            0   -4.3981437    5.8923387    2747.5226 
Loop time of 0.654776 on 48 procs for 2000 steps with 4000 atoms

Performance: 527814.377 tau/day, 3054.481 timesteps/s
99.6% CPU use with 48 MPI tasks x no OpenMP threads

MPI task timing breakdown:
Section |  min time  |  avg time  |  max time  |%varavg| %total
---------------------------------------------------------------
Pair    | 0.30079    | 0.32358    | 0.34674    |   2.2 | 49.42
Neigh   | 0.040877   | 0.043191   | 0.045949   |   0.6 |  6.60
Comm    | 0.21155    | 0.23878    | 0.26611    |   3.0 | 36.47
Output  | 5.1741e-05 | 5.3126e-05 | 6.8082e-05 |   0.0 |  0.01
Modify  | 0.041574   | 0.044277   | 0.047286   |   0.9 |  6.76
Other   |            | 0.004896   |            |       |  0.75

Nlocal:        83.3333 ave          92 max          77 min
Histogram: 3 5 9 5 7 6 7 3 0 3
Nghost:        2119.56 ave        2138 max        2103 min
Histogram: 2 2 7 8 10 3 6 5 3 2
Neighs:        13864.5 ave       15862 max       12411 min
Histogram: 3 5 11 5 5 7 7 2 2 1

Total # of neighbors = 665497
Ave neighs/atom = 166.37425
Neighbor list builds = 142
Dangerous builds = 8

#############################
# L I N E A R  Q U E N C H  #
#############################

# Define solid atoms. This closely follows ten Wolde  Ruiz-Montero and Frenkel  Faraday Discuss  1996  104  93-110
# Compute components of the per-atom q6 vector
compute q6 all orientorder/atom degrees 1 6 components 6 nnn NULL cutoff 1.3 # compute the Q6 parameter.
                                                                             # Use all neighbours within 1.3 unit cell.

# get number of connections
compute coord_number all coord/atom orientorder q6 0.5

# An atom is solid if it has 8 or more connections (of a possible 14)
variable is_solid atom c_coord_number>=8
group solid dynamic all var is_solid    # Must be dynamic to update
dynamic group solid defined

# do clustering
compute cluster solid cluster/atom 1.3 # Create a cluster where all atoms within are solid and max 1.3 units from another member

# define chunks one chunk per cluster
compute clus_chunks solid chunk/atom c_cluster nchunk every compress yes  # Says which atoms are in which chunk

# count the size of each chunk
compute size_chunks solid property/chunk clus_chunks count


# Find the maximum entry in the vector of chunk sizes
variable max_n equal max(c_size_chunks)


# Thermo style which includes this variable
# thermo_style custom step temp pe vol v_max_n

thermo ${N}  # Print the thermo information every 100 steps
thermo 1000  

# Reset the npt fix at a lower temperature (below freezing)
fix 1  all npt temp  ${temp} ${temp}  0.1  iso  5.68  5.68  0.5  mtk yes tchain  5  pchain  5
fix 1  all npt temp  0.45 ${temp}  0.1  iso  5.68  5.68  0.5  mtk yes tchain  5  pchain  5
fix 1  all npt temp  0.45 0.45  0.1  iso  5.68  5.68  0.5  mtk yes tchain  5  pchain  5

dump dmp2 all dcd ${N} traj.dcd
dump dmp2 all dcd 1000 traj.dcd


compute msd all msd com yes
variable twopoint equal c_msd[4]/6/(step*dt+1.0e-6)
fix 9 all vector 10 c_msd[4]
variable fit equal slope(f_9)/6/(10*dt)
thermo_style custom step temp pe c_msd[4] v_twopoint v_fit v_max_n

fix 1 all npt temp 1.25 ${temp} 0.1 iso 5.68 5.68 0.5 mtk yes tchain 5 pchain 5
fix 1 all npt temp 1.25 0.45 0.1 iso 5.68 5.68 0.5 mtk yes tchain 5 pchain 5
run 2000000 # 5000000  # Run for this many steps
Neighbor list info ...
  update every 1 steps, delay 10 steps, check yes
  max neighbors/atom: 2000, page size: 100000
  master list distance cutoff = 3.8
  ghost atom cutoff = 3.8
  binsize = 1.9, bins = 8 8 8
  4 neighbor lists, perpetual/occasional/extra = 1 3 0
  (1) pair lj/cut, perpetual
      attributes: half, newton on
      pair build: half/bin/atomonly/newton
      stencil: half/bin/3d
      bin: standard
  (2) compute orientorder/atom, occasional
      attributes: full, newton on
      pair build: full/bin/atomonly
      stencil: full/bin/3d
      bin: standard
  (3) compute coord/atom, occasional
      attributes: full, newton on
      pair build: full/bin/atomonly
      stencil: full/bin/3d
      bin: standard
  (4) compute cluster/atom, occasional
      attributes: full, newton on
      pair build: full/bin/atomonly
      stencil: full/bin/3d
      bin: standard
Per MPI rank memory allocation (min/avg/max) = 9.848 | 9.853 | 9.858 Mbytes
Step Temp PotEng c_msd[4] v_twopoint v_fit v_max_n 
   12000    1.2481901   -6.2699608 1.8510621e-30 1.2854597e-32 8.3333333e+20            7 
   13000    1.2459538   -6.3189646   0.51998207 0.0033332183   0.04329552            2 
   14000    1.2478937   -6.3282126   0.96263721 0.0057299832  0.039526468            4 
   15000    1.2697486   -6.3584424    1.4402334 0.0080012966  0.039196581            2 
   16000    1.2718655   -6.3084366    1.9147582 0.0099726986  0.039137423            1 
   17000    1.2664427   -6.3365925    2.4212941  0.011869088  0.039401718            3 
   18000    1.2302677     -6.31784    2.8862711  0.013362366  0.039720255            4 
   19000    1.2574874   -6.3408079    3.4055397  0.014936577  0.039945467            2 
   20000    1.2523883   -6.2994164      3.91244  0.016301833  0.040196516            1 
   21000    1.2229084   -6.2901712    4.4173209  0.017529051  0.040453585            2 
   22000    1.2528063   -6.3339762    4.8519254  0.018378505  0.040587136            8 
   23000    1.2527762   -6.3404062    5.3604218  0.019421818  0.040702434            2 
   24000    1.2557464   -6.3222525    5.8229432  0.020218552  0.040657594            1 
   25000    1.2422668   -6.3035971    6.3468457  0.021156152  0.040619887            2 
   26000    1.2566164   -6.3491695    6.8726988   0.02202788  0.040692626            3 
   27000    1.2667866   -6.2922353    7.3987721  0.022835716   0.04082104            4 
   28000    1.2669571   -6.2773824    7.9675688  0.023713002  0.040934669            2 
   29000    1.2789473    -6.268646    8.5276321  0.024504689  0.041178052            3 
   30000    1.2316935   -6.3369375    8.9775594  0.024937665  0.041357751            3 
   31000    1.2727212   -6.3307758    9.3099444  0.025026732   0.04141023            2 
   32000    1.2619774   -6.3846214    9.8700701  0.025703307  0.041381545            1 
   33000    1.2563901   -6.2865641    10.386857  0.026229437  0.041425511            1 
   34000    1.2417146   -6.3546222    10.728883  0.026296282  0.041341083            2 
   35000    1.2256106   -6.3012504    11.253867   0.02679492    0.0412278            3 
   36000     1.226035    -6.328011    11.709542   0.02710542  0.041124698            2 
   37000    1.2188405   -6.3048516    12.179524   0.02743136  0.041010242            3 
   38000      1.26162   -6.2842618    12.698653  0.027847923  0.040937213            3 
   39000    1.2581517   -6.3771632     13.10024  0.027991965  0.040878196            3 
   40000    1.2452397   -6.3310685    13.686942  0.028514462  0.040847052            1 
   41000    1.2086091   -6.3754165    14.023331  0.028502706  0.040789355            2 
   42000    1.2258727   -6.2969707    14.461713  0.028693876  0.040671348            2 
   43000    1.2177971   -6.3702783    14.747945  0.028581288  0.040498307            2 
   44000    1.2489015   -6.3103005    15.372626  0.029114822  0.040365675            2 
   45000    1.2246987   -6.3515685    15.835197  0.029324438  0.040261533            5 
   46000    1.2321546     -6.33555    16.290314  0.029511437  0.040160224            1 
   47000    1.2178964   -6.3535917     16.82348  0.029828865  0.040102505            3 
   48000    1.2294502   -6.3430346    17.273428   0.02998859  0.040050676            2 
   49000    1.2293102   -6.3063387    17.801893  0.030275327  0.040018784            2 
   50000    1.2495094   -6.2855322    18.227989  0.030379982  0.039988956            2 
   51000     1.194623   -6.3549174    18.510999   0.03024673  0.039913023            3 
   52000    1.2330433   -6.3906135    18.814215  0.030150985  0.039801996            2 
   53000    1.2488519   -6.3455959    19.468779  0.030611288  0.039715309            2 
   54000    1.2189529    -6.338765    19.963257  0.030807495  0.039643154            2 
   55000    1.2468543   -6.3558778    20.336777  0.030813298  0.039581853            2 
   56000    1.2336275   -6.3568742    20.977286    0.0312162  0.039549559            3 
   57000    1.2534922   -6.3686084    21.374849  0.031249779  0.039536423            2 
   58000    1.2195079   -6.3660969    21.889168  0.031449953  0.039511722            3 
   59000    1.2393409     -6.31822    22.376336  0.031604994   0.03948855            1 
   60000    1.2229135   -6.3569998    22.769119  0.031623776  0.039455467            6 
   61000    1.2305911   -6.3491913    23.100107  0.031557523  0.039418474            1 
   62000    1.2414956   -6.3703815    23.655943  0.031795622  0.039372656            3 
   63000    1.2217843   -6.3052898    24.267859  0.032100342  0.039336114            3 
   64000    1.2467906   -6.3724317    24.565768  0.031986677  0.039310418            2 
   65000    1.2114761   -6.2821871    25.195094  0.032301402  0.039291743            3 
   66000    1.2550572   -6.3507967    25.654033  0.032391456  0.039281273            1 
   67000    1.2557272   -6.3817583    25.974085  0.032306076  0.039256338            3 
   68000    1.2149116   -6.3800634    26.430173  0.032389917  0.039227501            3 
   69000    1.2249204   -6.3808918    26.677159  0.032218791  0.039186052            4 
   70000    1.2414707   -6.3339091    27.158474  0.032331516  0.039130984            3 
   71000    1.2339552   -6.3427432    27.563641  0.032351691  0.039080383            3 
   72000    1.2105464   -6.3150174    28.056943  0.032473313  0.039032399            7 
   73000    1.2354039   -6.3527261    28.609524  0.032659274  0.038984283            4 
   74000    1.2297765   -6.3440371    28.907513  0.032553505  0.038947304            5 
   75000    1.2037485   -6.3766197    29.411508  0.032679453   0.03890727            6 
   76000    1.2069728   -6.3762108    29.844862   0.03272463  0.038869448            3 
   77000    1.1995682   -6.3861245    30.251838  0.032740084  0.038833367            5 
   78000    1.2297562   -6.4363915    30.423736  0.032503991  0.038780266            2 
   79000    1.2291053   -6.3584999      30.8602  0.032552953   0.03871381            4 
   80000     1.214279   -6.3628654    31.504862  0.032817565  0.038650924            5 
   81000    1.2111286   -6.3257893     31.86326  0.032781132  0.038600631            2 
   82000    1.2167159   -6.3594226     32.22611  0.032750112  0.038553848            2 
   83000     1.235402   -6.3671013    32.596973  0.032727884  0.038499441            2 
   84000    1.2232891   -6.3938462    33.036809  0.032774612  0.038446675            3 
   85000    1.2140741   -6.3725661    33.366616  0.032712368  0.038399088            3 
   86000    1.1934793   -6.3735643    33.782982  0.032735448  0.038336341            2 
   87000    1.1916082   -6.3809982    34.163493  0.032723652  0.038268299            3 
   88000    1.2012794   -6.4041601    34.648479  0.032811059  0.038211679            2 
   89000    1.2094123   -6.4074871    35.056215  0.032824171  0.038153907            3 
   90000    1.2109071   -6.3989642    35.726484  0.033080078  0.038097294            1 
   91000    1.2283062   -6.3666061    35.779059  0.032764706  0.038036208            3 
   92000    1.2167379   -6.4054256    36.289864  0.032871253  0.037974015            2 
   93000    1.2081465    -6.370736    36.778318  0.032955482  0.037920562            4 
   94000    1.1838693   -6.3824381    37.167006  0.032949473  0.037868973            4 
   95000    1.2174244   -6.3966065    37.442696   0.03284447  0.037819896            2 
   96000    1.2033045   -6.3846481    38.084649  0.033059591  0.037770077            2 
   97000    1.2088853   -6.4312916     38.54203  0.033111709  0.037728765            4 
   98000    1.2367231   -6.4163776    39.083457  0.033234232   0.03769425            2 
   99000     1.226811   -6.4146168    39.454065  0.033210493  0.037667003            2 
  100000    1.2328919   -6.3521123    40.192792  0.033493994   0.03764172            3 
  101000    1.2299683   -6.4532404    40.574202  0.033477064  0.037626758            3 
  102000    1.2011278   -6.3480111    41.056112  0.033542575  0.037606172            3 
  103000    1.2080506   -6.3650485    41.394515  0.033490708  0.037580994            2 
  104000    1.2252577   -6.3997039    41.796014  0.033490395  0.037557282            4 
  105000    1.1957258   -6.4175451    42.164208  0.033463657  0.037534209            5 
  106000    1.2253137   -6.4161777    42.996493  0.033802274  0.037522616            1 
  107000    1.1913202   -6.4017662    43.413158   0.03381087  0.037517142            4 
  108000    1.1802479   -6.3686023    44.117175   0.03404103  0.037514609            4 
  109000    1.2233788   -6.3687017    44.491516   0.03401492   0.03752097            2 
  110000    1.1923546   -6.4166041    44.727617  0.033884558  0.037518608            2 
  111000    1.2150712   -6.4079911    45.356979  0.034051786  0.037514142            1 
  112000    1.2193794    -6.415623    45.629171  0.033950276  0.037514277            2 
  113000    1.2279429   -6.4086847    46.060478  0.033967904  0.037511431            2 
  114000     1.241312   -6.4478267    46.287286  0.033835735  0.037506403            2 
  115000     1.194573   -6.3822173    47.076302  0.034113262  0.037499244            2 
  116000    1.1850215   -6.4233164    47.299365  0.033979428  0.037490206            6 
  117000    1.2454737   -6.3956803    47.751444     0.034011   0.03747588            4 
  118000    1.2365611   -6.3684859    48.073471  0.033950192  0.037464549            3 
  119000    1.1888339   -6.3995051    48.650339  0.034068865  0.037452554            3 
  120000    1.1877842   -6.3966485    49.168199  0.034144582  0.037443411            2 
  121000    1.2090778   -6.4322393    49.423496   0.03403822  0.037428974            2 
  122000    1.2396652   -6.4146577    49.997411  0.034151237  0.037416634            1 
  123000    1.1971464   -6.3578155    50.424717  0.034163087  0.037405249            1 
  124000    1.1625168   -6.4189245    50.756159  0.034110322  0.037392371            4 
  125000    1.1925243   -6.4166826    51.412293  0.034274862  0.037383147            4 
  126000    1.2027454   -6.3882586    51.789576  0.034252365  0.037375243            3 
  127000    1.1939029   -6.3733918    52.299404  0.034317194  0.037372308            3 
  128000    1.1957669   -6.4505951    52.520953  0.034193328  0.037368289            2 
  129000    1.2068842   -6.3958683    53.195122  0.034363774  0.037366421            4 
  130000    1.2162932    -6.397371    53.496169  0.034292416   0.03736041            2 
  131000    1.2289815   -6.4376656    54.059536  0.034389017   0.03735428            2 
  132000    1.1877922   -6.4438133    54.542409  0.034433339  0.037349213            3 
  133000    1.2084162   -6.3924687    55.092967  0.034519403  0.037347655            2 
  134000    1.1911621   -6.4050422    55.184291  0.034318589  0.037340901            2 
  135000    1.1849302   -6.4358788    55.338157  0.034159356  0.037327376            3 
  136000     1.215607   -6.4955213    55.719953  0.034142128  0.037310758            4 
  137000     1.189386   -6.4589563    55.989802  0.034057057  0.037292896            3 
  138000    1.2040105   -6.4398948    56.633404  0.034198915  0.037276527            1 
  139000     1.202325   -6.4650027    57.195102  0.034289629  0.037263041            3 
  140000    1.2086403   -6.4379911    57.571211  0.034268578  0.037250412            4 
  141000    1.1809154   -6.4475181    58.264535  0.034435304  0.037242719            4 
  142000    1.1932983   -6.4123813    58.783966  0.034497632  0.037234213            2 
  143000    1.2065756    -6.409468    59.100895  0.034441081  0.037222848            2 
  144000    1.1876304   -6.4403895    59.313638  0.034325022  0.037208202            8 
  145000    1.1973163   -6.4579677    59.635595   0.03427333   0.03719131            5 
  146000    1.1919818   -6.4261428    60.388783  0.034468484  0.037175288            1 
  147000    1.2138521   -6.4223572     60.77612  0.034453583  0.037164835            4 
  148000    1.2127554   -6.4810593    60.828548  0.034250308   0.03714991            3 
  149000    1.1825665   -6.4798555    61.362099  0.034318847   0.03713698            5 
  150000    1.1812387   -6.4481351     62.01487  0.034452705  0.037124885            2 
  151000    1.2007875   -6.4730629    62.392331  0.034432854  0.037114683            6 
  152000    1.1858254   -6.4308209    62.821271  0.034441486  0.037100707            4 
  153000    1.2138818   -6.4593774    63.320999  0.034488561  0.037088652            2 
  154000    1.1947481   -6.4623223    63.804191  0.034526077   0.03708466            5 
  155000    1.1747046   -6.4512079    64.488953   0.03467148  0.037078952            2 
  156000    1.1823949   -6.4009339    64.972024  0.034707278  0.037080041            1 
  157000    1.1920215   -6.4364369    65.629472  0.034835176  0.037081128            7 
  158000    1.1859899   -6.3812535    66.244953  0.034939321  0.037082758            5 
  159000    1.2074042   -6.5192024    66.258013  0.034726422  0.037084432            2 
  160000    1.1645893   -6.4371322    66.557742   0.03466549  0.037080831            2 
  161000    1.1874035   -6.4089262    67.012438  0.034685527  0.037073108            3 
  162000    1.1890991   -6.4410152    67.561512  0.034753864  0.037067595            2 
  163000     1.197191   -6.4959735    67.914193  0.034720957  0.037061496            3 
  164000    1.1884744   -6.4649418    68.197877  0.034653393  0.037054358            3 
  165000    1.1959053   -6.4869549    68.087267  0.034387508  0.037042374            4 
  166000     1.182449   -6.4468474    68.967572  0.034622275  0.037031005            2 
  167000    1.1826729   -6.4640375    68.981287    0.0344218  0.037019587            2 
  168000    1.1904212   -6.4616427    69.340302  0.034394991  0.037003723            5 
  169000    1.1814816   -6.5102195    69.450157  0.034245639  0.036982225            1 
  170000    1.1803021   -6.4639274    69.657396  0.034145782   0.03695752            2 
  171000    1.1869129   -6.4061209    70.510755  0.034361967  0.036934697            3 
  172000    1.1870953   -6.5022025    70.572141  0.034191929  0.036913926            2 
  173000    1.2132457   -6.4356356    71.299075  0.034344448  0.036892655            2 
  174000    1.1597909   -6.4258086    71.846797  0.034409385  0.036873472            3 
  175000    1.1728147    -6.503233     71.63578  0.034112276  0.036851652            2 
  176000    1.2026578   -6.4883735     72.10236  0.034139375  0.036826845            3 
  177000    1.1724649   -6.4461981    72.751826  0.034252272  0.036800001            1 
  178000    1.1750342   -6.4464108    72.991411  0.034172009  0.036775616            7 
  179000    1.1702888   -6.4908401    73.541826  0.034237349  0.036753928            6 
  180000    1.2017059   -6.4692664    73.674943   0.03410877   0.03673011            3 
  181000     1.179262   -6.5054206    73.928839  0.034037218  0.036703593            3 
  182000    1.1701497   -6.5149734    74.430055  0.034079695  0.036676449            2 
  183000    1.1612174   -6.4732201    74.879576  0.034098168  0.036649794            1 
  184000    1.1659854   -6.3983619    75.544457  0.034213975  0.036626438            2 
  185000    1.1713287   -6.4531295    75.820074  0.034153186  0.036603162            2 
  186000    1.1674415    -6.525552    75.742519   0.03393482  0.036577049            5 
  187000    1.1758623   -6.4785376    76.720791  0.034189301  0.036549704            4 
  188000    1.1560051   -6.4722738    77.105563  0.034177998  0.036523955            3 
  189000    1.2161342   -6.4520029    77.647089   0.03423593  0.036501625            2 
  190000    1.1753992   -6.4899823    77.785057  0.034116253  0.036480455            2 
  191000    1.1587286   -6.4998387    78.172664  0.034106747  0.036458805            7 
  192000    1.1602414   -6.4438462    78.883531  0.034237644  0.036435611            2 
  193000    1.1780563   -6.4810797    78.896356  0.034065784   0.03641261            3 
  194000    1.2051196   -6.5097956    78.930276  0.033904758  0.036384915            3 
  195000    1.1641269   -6.4483232    79.583198  0.034009914  0.036359127            4 
  196000     1.191915   -6.4810147    79.959386  0.033996337  0.036336946            1 
  197000    1.1757578   -6.5366451     80.08164  0.033875482  0.036310329            4 
  198000    1.1631113   -6.4472174    81.022682  0.034100455   0.03628504            3 
  199000    1.1678331   -6.4687156    81.497957  0.034128123  0.036264365            8 
  200000    1.1456781   -6.5097107      81.5763  0.033990125  0.036241496            2 
  201000    1.1873148   -6.5562521    81.633336  0.033844667  0.036218136            3 
  202000    1.1808918   -6.5013694    82.268629  0.033939204  0.036192371            7 
  203000    1.1499706   -6.4643538    82.849576  0.034010499  0.036166057            3 
  204000    1.1549949   -6.4685794    83.331477  0.034040636  0.036143954            1 
  205000    1.1713438   -6.4514012    84.231713  0.034240534  0.036123097            5 
  206000    1.1678858   -6.4844411    84.129348  0.034032908  0.036104792            4 
  207000    1.1648113   -6.4887327    84.632595  0.034071093  0.036082946            5 
  208000    1.1810256   -6.4772392    84.893408  0.034011782  0.036061496            3 
  209000    1.1617146   -6.5383843    84.932445  0.033864611  0.036039909            3 
  210000    1.1884414     -6.49209    85.925771  0.034097528  0.036020604            3 
  211000    1.1866491   -6.5050367    85.725115   0.03385668  0.036000212            8 
  212000     1.178501   -6.5485546    86.066443  0.033831149   0.03597788            4 
  213000    1.1764338   -6.4962677    86.700468  0.033920371  0.035953564            5 
  214000    1.1773211   -6.4643463    87.034926  0.033892105  0.035931843            3 
  215000    1.1663228   -6.4691328    87.620214  0.033961323  0.035910197            2 
  216000    1.1841698   -6.5176882    87.371485  0.033708134  0.035885038            2 
  217000    1.1653694   -6.4821671    88.109811  0.033836333  0.035862157            6 
  218000    1.1658818   -6.5433602    88.267096  0.033741245   0.03583689            4 
  219000    1.1485958   -6.4947465    88.996751  0.033864821  0.035813862            5 
  220000    1.1924716   -6.5326045    89.544519  0.033918378  0.035794768            3 
  221000    1.1585739   -6.5493831     89.99216  0.033933695  0.035774817            3 
  222000    1.1623736   -6.4988364    90.616095  0.034015051   0.03575495            3 
  223000    1.1443368   -6.4953564    90.875068  0.033959293  0.035736877            3 
  224000     1.166353    -6.527337     91.21139  0.033932809  0.035718538            2 
  225000    1.1624926   -6.4889788    91.344644   0.03383135  0.035699068            4 
  226000    1.1811077   -6.5087809    91.741547  0.033828004   0.03567828            1 
  227000    1.1659669   -6.4868779    91.982042   0.03376727  0.035655586            2 
  228000    1.1655947   -6.5225594    91.989569  0.033621918  0.035629737            6 
  229000    1.1772468   -6.4989375    92.196651  0.033550455  0.035605531            4 
  230000    1.1636639   -6.4940099    93.085698  0.033726702  0.035580684            2 
  231000    1.1508658   -6.5130717    92.865658   0.03350132    0.0355555            2 
  232000    1.1295696   -6.5354143    93.136573  0.033454229  0.035528751            3 
  233000    1.1661538   -6.5236958    93.774711  0.033538881  0.035500906            3 
  234000    1.1625942   -6.5449006    94.217025  0.033553072  0.035475182            6 
  235000    1.1819421   -6.5206217    94.598322  0.033545504  0.035449139            3 
  236000    1.1717832   -6.5380025    94.818785  0.033481209  0.035423219            2 
  237000    1.1855604   -6.5512636    95.266877  0.033497496  0.035399178            4 
  238000    1.1721471   -6.5056141    95.569607  0.033462747  0.035374599            3 
  239000    1.1491636   -6.5158311    96.458937  0.033632823   0.03535164            2 
  240000    1.1645668   -6.5357777    96.574068  0.033532662  0.035329863            6 
  241000     1.140826   -6.5378923    96.937367  0.033519145  0.035308351            2 
  242000    1.1618171   -6.5607112    97.394755  0.033538139   0.03528621            4 
  243000    1.1358971   -6.5373893    97.864842  0.033561331  0.035265695            1 
  244000     1.153227    -6.545561    98.541627  0.033654927  0.035246964            3 
  245000    1.1700227   -6.5359018    98.974815  0.033664903  0.035228028            2 
  246000    1.1539373    -6.498836    99.130353  0.033580743  0.035208785            2 
  247000    1.1473872   -6.5248364    99.527094  0.033578642  0.035190062            2 
  248000    1.1392819   -6.5487518    99.676662  0.033493502  0.035171508            5 
  249000    1.1257987   -6.5325243    100.26483  0.033555832  0.035152655            1 
  250000    1.1184137   -6.5651252    100.79626  0.033598753  0.035133552            2 
  251000    1.1730554   -6.5058432    101.30783  0.033634737  0.035116963            6 
  252000    1.1518558   -6.5208021    102.35833  0.033848654  0.035102196            5 
  253000    1.1204991   -6.5623754    102.09217  0.033627197  0.035086348            3 
  254000    1.1612654   -6.5340413    102.55632  0.033647088  0.035070175            3 
  255000    1.1437297   -6.5618096    102.55092  0.033513373  0.035054025            4 
  256000    1.1496118   -6.5452157    103.09111  0.033558302  0.035036657            3 
  257000    1.1490778   -6.5736972    103.12102  0.033437424   0.03501752            4 
  258000    1.1427092   -6.5079552    103.70361  0.033495997  0.034997458            3 
  259000    1.1633125   -6.5236334    104.25064  0.033542676  0.034979238            3 
  260000     1.173791   -6.5487577    104.78885  0.033586169  0.034962808            5 
  261000    1.1534879   -6.5327031    105.08312  0.033551442   0.03494722            4 
  262000    1.1530218    -6.557283    105.54991  0.033571855  0.034931545            4 
  263000    1.1437034   -6.5840347    105.82739  0.033532127  0.034913729            3 
  264000    1.1429128    -6.570977    106.07181  0.033482264  0.034896372            3 
  265000    1.1611243   -6.5605986    106.03988  0.033345874   0.03487727            1 
  266000    1.1482921    -6.551947    106.44609  0.033347773  0.034858823            4 
  267000    1.1291495   -6.5740574    107.17542  0.033450506  0.034840653            4 
  268000    1.1270429   -6.5569902    107.21239  0.033337185  0.034821732            6 
  269000    1.1315872   -6.5535015    107.83279   0.03340545  0.034803172            2 
  270000    1.1524872   -6.6151247    107.89622  0.033301302  0.034785109            2 
  271000    1.1351205   -6.5410649    109.02407  0.033525238  0.034767153            2 
  272000    1.1430421   -6.5708737    109.19995  0.033455867  0.034749536            5 
  273000    1.1457287   -6.5846074     109.5098    0.0334279  0.034733923            4 
  274000    1.1308785   -6.5453979    109.89296  0.033422434  0.034718371            4 
  275000    1.1396438   -6.5522838    110.40655  0.033456529  0.034703648            2 
  276000    1.1694988   -6.6116786    110.57014  0.033384705  0.034689525            3 
  277000    1.1360219   -6.5852402    110.59325  0.033271133  0.034673391            6 
  278000    1.1465289   -6.5475744    111.26437   0.03335263  0.034657182            3 
  279000    1.1608825   -6.5653088    111.66069  0.033351459  0.034641059            5 
  280000    1.1619858   -6.5471864    111.97991  0.033327354  0.034623848            3 
  281000    1.1351212   -6.5555271    112.54426  0.033376116  0.034608228            3 
  282000    1.1282645    -6.551906    113.06231  0.033410847   0.03459212            1 
  283000    1.1314563   -6.5331604    113.56897  0.033441981  0.034575321            3 
  284000    1.1407058   -6.5854225    113.66198  0.033351519  0.034559269            3 
  285000    1.1477753   -6.5798182    113.75673  0.033262201  0.034542248            3 
  286000    1.1544028   -6.5332663    114.38487  0.033328924  0.034524856            3 
  287000    1.1231746   -6.5570053    114.63133  0.033284359  0.034507594            3 
  288000    1.1457606   -6.6145302    113.89337  0.032955257  0.034489676            5 
  289000    1.1092418   -6.5883771    114.94788  0.033145293  0.034471618            2 
  290000    1.1371063   -6.6119148    115.12143  0.033080871  0.034451664            2 
  291000    1.1258509    -6.565971    115.66785  0.033123667  0.034432065            1 
  292000    1.1489589   -6.5489819    115.82437    0.0330549  0.034412958            3 
  293000    1.1524761   -6.5951742     115.7672  0.032925826  0.034393189            5 
  294000    1.1327019    -6.550718    116.68975  0.033075325  0.034372623            2 
  295000    1.1286367   -6.5971111    116.49824  0.032909108  0.034351937            2 
  296000    1.1142045   -6.5843316    117.17576  0.032988672  0.034330633            3 
  297000    1.1195982   -6.5742455    116.96338  0.032818007  0.034308671            3 
  298000    1.1457908    -6.534697    117.83488  0.032951588  0.034287978            3 
  299000    1.1311864   -6.6192924    117.88985  0.032856703  0.034265742            2 
  300000    1.1539101   -6.5695528    118.25021  0.032847281  0.034243558            2 
  301000    1.1244017   -6.6172786    118.01879  0.032674084  0.034219382            3 
  302000    1.1301839   -6.5897413    119.14227  0.032875903  0.034194799            4 
  303000    1.1134136   -6.5592062    119.19197  0.032781069  0.034171603            2 
  304000    1.1141686   -6.6000752    118.92734  0.032600695  0.034147448            3 
  305000    1.1098522   -6.6066332    119.61198  0.032680868  0.034124504            3 
  306000    1.1366134   -6.5997836    119.30827  0.032491358  0.034100863            5 
  307000    1.1437171   -6.5678919    120.05665  0.032588667  0.034077159            3 
  308000     1.114678   -6.5737499    120.38691  0.032572215  0.034053042            3 
  309000     1.114114   -6.5785788    120.50006  0.032497318   0.03402783           10 
  310000    1.1094333    -6.574312    120.72541  0.032453067  0.034003068            3 
  311000    1.1038892   -6.5635678    121.76558  0.032627432  0.033979061            3 
  312000     1.129897   -6.6070041    120.93134  0.032300038  0.033954377            8 
  313000    1.1362591     -6.63267    121.77132   0.03242048  0.033929338            8 
  314000    1.1324994   -6.6049998    121.65676  0.032286827  0.033903423            2 
  315000    1.1162551   -6.6024897    122.63547  0.032443247  0.033877806            3 
  316000    1.1564359   -6.6060478    122.63566  0.032340628  0.033853271            3 
  317000    1.1386759   -6.6036151    123.06505  0.032351485  0.033827448            6 
  318000    1.1291755   -6.5841377    123.55721  0.032378725  0.033802671            3 
  319000     1.129274   -6.5633455    124.19164  0.032442956   0.03377728            2 
  320000    1.1214711   -6.6076013    124.14997  0.032330721  0.033751281            3 
  321000    1.1157964   -6.5771024     124.6547  0.032361034  0.033726138            2 
  322000    1.1228269   -6.6313762    124.92164  0.032329618  0.033701663            3 
  323000     1.113164   -6.6347596    125.09954  0.032275423   0.03367726            6 
  324000    1.1466672   -6.6268795    125.09197  0.032173859  0.033652011            2 
  325000     1.115847   -6.6270662    125.64708    0.0322172  0.033627529            4 
  326000     1.134384   -6.6334501    125.74984  0.032144642  0.033602798            4 
  327000    1.1356023   -6.6306813    125.49697  0.031981898  0.033576951            2 
  328000     1.117608   -6.6746261    125.94052  0.031997084  0.033550461            5 
  329000     1.142299   -6.6213219    125.97801  0.031909324  0.033523817           10 
  330000    1.1321972   -6.6194513    126.57181  0.031962578   0.03349684            3 
  331000    1.1264588   -6.6054389    127.13113  0.032006831  0.033469981            2 
  332000     1.100586   -6.6234225    127.26486  0.031943992  0.033444107            3 
  333000    1.1155436   -6.6093505    127.72052  0.031962093  0.033417981            2 
  334000    1.1087027   -6.6306064    128.19179  0.031983979  0.033391859            3 
  335000    1.1363749   -6.6516716    128.49289  0.031963404  0.033365555            4 
  336000    1.1200893    -6.595219    129.17083  0.032036416  0.033340719            3 
  337000    1.0957456    -6.642148    129.03233  0.031907105  0.033314757            7 
  338000      1.13276   -6.6126069    128.94763  0.031791822  0.033287427            4 
  339000    1.1195188   -6.6152467    129.47565  0.031827838  0.033260083            5 
  340000    1.0981256   -6.6361278    129.22257  0.031672199  0.033232311            2 
  341000    1.0946636    -6.587628    129.91176  0.031747742  0.033204182            2 
  342000    1.1063419   -6.6096295    130.55662  0.031812043  0.033177197            3 
  343000    1.0975672   -6.6276553    130.50773  0.031707417  0.033149882            2 
  344000    1.1499661   -6.5754399    131.25341  0.031795884  0.033122659            5 
  345000    1.1100523   -6.6301509    130.74419  0.031580723   0.03309658            4 
  346000    1.1252091   -6.6174176    131.35737  0.031637132  0.033070235            2 
  347000    1.1216085   -6.6034424    132.54729  0.031831722  0.033043109            5 
  348000    1.0840456   -6.6652809    131.54847  0.031501071  0.033016773            6 
  349000    1.1282804   -6.6218718    132.53876  0.031647267  0.032990673            3 
  350000    1.1087695   -6.6176903    132.74954  0.031607033  0.032964988            5 
  351000    1.1368123   -6.6379735    133.09184  0.031598253  0.032938433            5 
  352000    1.1394969   -6.6517819    133.71028  0.031654896  0.032913498            4 
  353000    1.1433455   -6.6695451    134.37361  0.031721816  0.032889435            3 
  354000    1.1091039    -6.648597    134.70565   0.03171037  0.032865738            4 
  355000    1.1122506   -6.6299373     135.0789  0.031708662  0.032842748            2 
  356000    1.1060067   -6.6652137     135.6231   0.03174698   0.03282048            3 
  357000    1.1324546   -6.6349337    136.47534   0.03185699  0.032799422            7 
  358000    1.1171206   -6.6582184    136.63161  0.031804377  0.032779588            5 
  359000    1.1089844   -6.6835211     136.3273   0.03164515  0.032759037            4 
  360000    1.1095337   -6.6979049     136.7461   0.03165419  0.032738604            6 
  361000    1.1060468   -6.6374251    137.24056  0.031680646  0.032716945            3 
  362000    1.1082459   -6.6632151    137.59745  0.031675287  0.032695871            3 
  363000    1.1267233   -6.6383287    138.02677  0.031686587   0.03267521            3 
  364000     1.103451   -6.6475942     138.3324  0.031669506    0.0326543            2 
  365000    1.0925247   -6.6803572    138.00686  0.031508417  0.032633118            4 
  366000    1.1058038    -6.654521    139.07822  0.031666262  0.032612154            3 
  367000    1.1148202   -6.6503778    139.26736  0.031622924  0.032591712            3 
  368000    1.1102502   -6.6504543    139.19775   0.03152123  0.032570107            2 
  369000    1.0982171   -6.6441238    139.63472   0.03153449  0.032548529            3 
  370000    1.0994205   -6.6719272    139.80699  0.031488061   0.03252682            4 
  371000    1.1083625   -6.6777185    139.94788  0.031434834  0.032505804            4 
  372000    1.1330394   -6.6007241    140.95791  0.031576592   0.03248491            2 
  373000    1.1153331    -6.655706    140.84137  0.031465901  0.032463992            3 
  374000    1.1085354   -6.6669268    141.37985  0.031501749  0.032442866            3 
  375000    1.0875251   -6.6668375    141.57124  0.031460275  0.032421905            3 
  376000    1.0920821   -6.6482557    142.33602  0.031546105  0.032400812            3 
  377000    1.0783291   -6.7012787    141.31544  0.031236835   0.03237885            1 
  378000    1.1103423   -6.6933625    142.04163  0.031314293  0.032356636            3 
  379000    1.0966746    -6.657777    143.04133   0.03145148  0.032336066            2 
  380000    1.1022472   -6.6759056    142.92207  0.031342559  0.032315338            2 
  381000    1.0727775   -6.6660569    143.39274  0.031363241  0.032294661            2 
  382000    1.1169658   -6.6592968    143.46244  0.031296344    0.0322739            4 
  383000    1.0913198   -6.6649356     143.9805  0.031327349  0.032252819            1 
  384000    1.1114566    -6.710765    143.27043  0.031091673  0.032230349            4 
  385000    1.1029904   -6.7029059    143.82311  0.031130543  0.032208461            5 
  386000    1.1090552   -6.6682087    144.25368  0.031142849  0.032186508            2 
  387000    1.1008766   -6.6573942    144.54537  0.031125187  0.032164328            2 
  388000     1.107627   -6.6772617    145.16864  0.031178833  0.032142541            3 
  389000     1.103489   -6.6925774     145.3143  0.031129885  0.032119836            2 
  390000    1.1178782   -6.6868625    145.71757  0.031136232  0.032097474            3 
  391000    1.0703756   -6.7019444    145.88173  0.031091588  0.032076065            3 
  392000    1.0990614    -6.680378    146.47653  0.031138718  0.032055184            4 
  393000    1.0901759   -6.6685179    146.48647  0.031061592  0.032033398            3 
  394000    1.1156952   -6.6925835    146.50722  0.030987144  0.032012068            3 
  395000    1.0913679   -6.6439908    147.62458  0.031144427  0.031991015            4 
  396000    1.0909937   -6.6727322    147.29527  0.030996479  0.031969607            3 
  397000    1.1048113   -6.6860078    147.58278  0.030978753  0.031947519            3 
  398000    1.0708086   -6.6900727    148.19671  0.031029462  0.031925118            6 
  399000    1.0932772   -6.7164777    147.65041  0.030837596  0.031902991            2 
  400000    1.0801543   -6.6837839    148.22181  0.030879544  0.031880587            2 
  401000    1.0750734   -6.6787073    148.67327  0.030896357  0.031858106            4 
  402000    1.0965636   -6.6890786    148.60812  0.030805995  0.031836266            3 
  403000    1.0892172   -6.7540645    148.77658  0.030764387    0.0318138            3 
  404000    1.1040936   -6.7330898     149.2981  0.030795814  0.031790961            3 
  405000    1.0949479   -6.7077579    149.97947  0.030859974  0.031769071            3 
  406000    1.0917904    -6.694003     150.3143  0.030852688  0.031747598            2 
  407000    1.0598736   -6.6666658     151.2025  0.030958742   0.03172636            3 
  408000    1.0887528   -6.6742853    151.15715  0.030873601  0.031706269            6 
  409000    1.1215051   -6.6851356    151.17029  0.030800793  0.031685253            2 
  410000    1.1100641   -6.7006382    151.21923  0.030735616  0.031664894            2 
  411000    1.0977503   -6.6986226    151.87494  0.030793783  0.031644445            5 
  412000    1.0858242    -6.725462    152.19259   0.03078329  0.031624753            2 
  413000    1.0692209   -6.7015722    152.94951  0.030861482  0.031603979            6 
  414000    1.0915146   -6.7567885    152.71561  0.030739857  0.031584726            6 
  415000    1.0932951   -6.6822304    154.08712  0.030941188  0.031565731            3 
  416000    1.0788908   -6.6913731    153.89622   0.03082857  0.031546474            3 
  417000    1.0837004   -6.6843981    154.64551  0.030904378  0.031527871            3 
  418000    1.0627218   -6.7634916    153.82532   0.03066693  0.031508908            3 
  419000    1.1056318   -6.7469432    154.91978  0.030811413  0.031489694            3 
  420000    1.0643406   -6.6974596    155.44409  0.030842082  0.031471312            3 
  421000    1.0662942   -6.6720597    155.74301  0.030827991  0.031453153            5 
  422000    1.1193124    -6.698711    156.11255  0.030827913  0.031435723            4 
  423000    1.0886665   -6.7030294    156.14898  0.030762211  0.031417863            3 
  424000    1.0913656   -6.7399186     156.5425     0.030767  0.031399968            6 
  425000    1.0581874   -6.7148171    156.84608  0.030754133  0.031382303            2 
  426000    1.0642205   -6.7203603    156.82989  0.030678773  0.031363492            3 
  427000    1.0945073   -6.7277494    157.05251  0.030650374   0.03134531            3 
  428000       1.0816   -6.7336668    157.16747  0.030601142  0.031326699            1 
  429000    1.0895926    -6.711121    157.60209  0.030614237  0.031308533            3 
  430000    1.0920284   -6.7470257    158.19245  0.030657452  0.031290184            3 
  431000     1.075906   -6.7128668     158.7917  0.030702185  0.031272267            3 
  432000    1.0725308   -6.7262637    159.05865   0.03068261  0.031254915            2 
  433000    1.0831809    -6.716798    158.93678  0.030588294  0.031236428            4 
  434000    1.0714296    -6.747107    159.47617  0.030621384   0.03121849            3 
  435000    1.0999887   -6.7564225    159.70691  0.030595194  0.031201254            3 
  436000    1.0582254   -6.7570071    159.68172  0.030520206  0.031183415            6 
  437000    1.1089644    -6.734058    160.51537  0.030609338  0.031165105            4 
  438000    1.0618782   -6.7784559    160.57222  0.030550269  0.031147532            6 
  439000    1.0889804   -6.7599409    160.62103  0.030489946  0.031130487            3 
  440000    1.0746576   -6.7357874    160.79736  0.030454045  0.031113037            2 
  441000    1.0733216   -6.7095408    161.85716  0.030585253  0.031097155            2 
  442000     1.088626   -6.7226153    162.90513  0.030713636  0.031080782            2 
  443000    1.0693835   -6.6922628    162.65077  0.030596457  0.031065166            2 
  444000    1.0645726   -6.7265758    162.92187  0.030578429  0.031049168            3 
  445000    1.0719747    -6.741584    163.12656  0.030548045  0.031032246            2 
  446000    1.0691632    -6.709993    163.44439  0.030538936  0.031016317            4 
  447000    1.0973812   -6.7693458    163.65219  0.030509357  0.030999608            5 
  448000    1.0929455   -6.7539724    163.57678  0.030427228  0.030983182            3 
  449000    1.0822991   -6.7309311    164.65214  0.030559046  0.030966477            3 
  450000     1.068067   -6.7921065    164.17848  0.030403422  0.030949157            2 
  451000    1.0933627   -6.7525779    164.47185  0.030390216  0.030931744            4 
  452000    1.0636607   -6.7596876    164.94763  0.030410698  0.030914864            2 
  453000     1.045867   -6.7308213    165.49026  0.030443389  0.030898441           10 
  454000    1.0806375   -6.7590151    165.38275  0.030356599  0.030880729            1 
  455000    1.0821687   -6.8057575    165.24295  0.030264277  0.030864063            3 
  456000    1.0904265   -6.7508781    165.73477  0.030287786  0.030847268            3 
  457000    1.0627323   -6.7191536    166.75819  0.030408132  0.030830669            5 
  458000    1.0767796   -6.8226281    166.19011  0.030238375  0.030813644            4 
  459000    1.0921856   -6.7581351    167.52249  0.030414396  0.030797328            4 
  460000    1.0492459   -6.7251919    167.94212  0.030424297  0.030781316            2 
  461000    1.0764398   -6.8005705    166.85695  0.030162139  0.030764524            3 
  462000    1.0657909   -6.7561507    167.54968  0.030221803  0.030747325           10 
  463000    1.0774641   -6.7158869    168.47252  0.030322627  0.030730611            3 
  464000    1.0781745   -6.7870898    167.92131  0.030158281  0.030714131            3 
  465000    1.0746594   -6.7683774    169.04287   0.03029442  0.030697906            3 
  466000    1.0659128   -6.7474255    168.90666  0.030205053  0.030681594            5 
  467000    1.0487589   -6.7628133     169.2611  0.030203622  0.030665092            5 
  468000    1.0594388   -6.7831189    169.22177  0.030132082  0.030647836            2 
  469000    1.0760772    -6.805596    169.48725  0.030115005  0.030630983            3 
  470000    1.0590658   -6.7811773    169.83154  0.030111976  0.030613839           13 
  471000    1.0581799   -6.7737053    170.49682  0.030165751  0.030597692            4 
  472000    1.0901152    -6.786391    170.47665  0.030098279  0.030581296            2 
  473000    1.0777374   -6.7663448    170.83006   0.03009691  0.030564234            4 
  474000    1.0518601   -6.7419114    171.19197  0.030097041  0.030547156            3 
  475000    1.0687303    -6.774308     171.4857   0.03008521  0.030530101            3 
  476000    1.0516496   -6.7501417    171.66724  0.030053789  0.030513715            3 
  477000    1.0634091   -6.7588327    171.77128  0.030008959  0.030497235            6 
  478000    1.0626837   -6.7387054      172.578   0.03008682  0.030480443            2 
  479000    1.0662259   -6.7671182    172.82428  0.030066854  0.030463867            4 
  480000    1.0492137   -6.7848635    172.75952  0.029992972  0.030447849            9 
  481000     1.044178   -6.7604686    173.01363  0.029974641  0.030431198            4 
  482000    1.0618386   -6.7937993    172.66164  0.029851598  0.030415014            5 
  483000    1.0538811   -6.7781311    173.08606   0.02986302  0.030398511            3 
  484000    1.0641789   -6.7667273     173.8404  0.029931199  0.030381945            4 
  485000    1.0776957   -6.8425118    173.57927  0.029824616  0.030364552            5 
  486000    1.0736865    -6.781938    174.12154  0.029856232  0.030346905            3 
  487000    1.0403953   -6.8180622    174.23994  0.029815185   0.03032951            3 
  488000    1.0672308   -6.8316083    173.86809  0.029690589  0.030312174            3 
  489000    1.0606177   -6.7518411    175.09951  0.029839725  0.030294813            3 
  490000    1.0653208   -6.7660971    174.66371  0.029704712  0.030277165            3 
  491000     1.057107   -6.8389173    175.07573  0.029714143  0.030259675            5 
  492000    1.0555304   -6.7820331    175.35136  0.029700434  0.030241697            3 
  493000    1.0478256   -6.7713506    175.82571   0.02972037  0.030223981            4 
  494000    1.0436597    -6.803994    175.36363  0.029582259  0.030206642            4 
  495000    1.0584553   -6.7921836    175.94884  0.029621018  0.030188469            5 
  496000    1.0639917   -6.7693175    176.38239  0.029634139  0.030170319            3 
  497000    1.0535084   -6.7806725    176.36642  0.029571834  0.030152756            3 
  498000    1.0311625   -6.7862088    176.42526    0.0295223  0.030134066            3 
  499000     1.066629   -6.8223351    176.69925  0.029508892  0.030115478            2 
  500000    1.0570674   -6.8194019    176.42294  0.029403823  0.030096475            4 
  501000    1.0595885   -6.8196961    176.63373  0.029380194  0.030077113            5 
  502000    1.0521474   -6.8212841    177.06783  0.029393729  0.030057502            4 
  503000     1.043342   -6.7878953    177.85757  0.029466132  0.030038188            5 
  504000    1.0431849    -6.802256    178.40415   0.02949804  0.030019728            3 
  505000     1.048293   -6.8146832     178.5486  0.029463465  0.030000884            7 
  506000    1.0566541   -6.7613315     178.6637  0.029424192  0.029982564            8 
  507000    1.0466396   -6.8057474    178.93433   0.02941064   0.02996437            5 
  508000    1.0583677   -6.8039192    178.97289  0.029359069  0.029945691            4 
  509000    1.0569738   -6.8128453    179.42018   0.02937462  0.029926751            5 
  510000    1.0529727   -6.7997647     180.3357  0.029466617  0.029908417            4 
  511000    1.0304868   -6.8495873    179.36633   0.02925087  0.029890153            5 
  512000    1.0265586   -6.8235787    179.90358  0.029281182  0.029871211            3 
  513000      1.03592   -6.8236058    180.10475  0.029256781  0.029852495            7 
  514000     1.064722   -6.8365533    180.30258  0.029231936  0.029833383            1 
  515000    1.0406079   -6.8151389    180.74255  0.029246367  0.029814606            4 
  516000    1.0571687   -6.8054478    181.38526  0.029293485  0.029795894            2 
  517000    1.0685572   -6.8026574    180.81377  0.029144708  0.029777519            4 
  518000    1.0801411   -6.8368939    180.99084   0.02911693  0.029758365            2 
  519000    1.0353786   -6.7852208    181.51838  0.029145533  0.029739253            4 
  520000      1.03372   -6.7998351    181.57197  0.029098071  0.029720467            3 
  521000    1.0300557   -6.8098035    182.31365  0.029160853  0.029701539            3 
  522000    1.0486095   -6.8376279    182.48615  0.029132527   0.02968278            4 
  523000    1.0213468   -6.8420985    182.04499  0.029006531  0.029663778            2 
  524000      1.06107   -6.8364003    182.30609  0.028992699  0.029644418            8 
  525000    1.0520364   -6.8319376    182.71061  0.029001684  0.029624609            3 
  526000    1.0413554   -6.8215855    183.13429  0.029013671  0.029605064            1 
  527000    1.0498946   -6.8178281    183.73953  0.029054322  0.029585735            5 
  528000    1.0433181    -6.822677    183.73004  0.028997796  0.029566862            4 
  529000    1.0279398   -6.8041186    184.20478  0.029017767  0.029547817            4 
  530000    1.0564034   -6.8073147    184.34915  0.028985716  0.029528556            2 
  531000    1.0422861    -6.856188    184.19499  0.028906935  0.029509104            7 
  532000    1.0486514   -6.8122738    185.00892  0.028980093  0.029489477            4 
  533000    1.0476029   -6.8407169    184.14488  0.028790632  0.029470168            8 
  534000    1.0187697   -6.8625426    184.73458  0.028828742   0.02945098            4 
  535000    1.0287467   -6.8033637    185.71715  0.028927905  0.029432305            7 
  536000    1.0578083   -6.7993296    186.16386  0.028943387  0.029414534            3 
  537000    1.0634005   -6.8112923    186.85596  0.028996891  0.029397063            2 
  538000    1.0212849   -6.8397371    186.77928  0.028931115  0.029379675            3 
  539000    1.0156575   -6.8037556    186.98674  0.028909514  0.029361959            4 
  540000    1.0390156   -6.8188968    187.37243  0.028915499  0.029344787            9 
  541000    1.0428467   -6.8368646    187.27469  0.028846994  0.029327471            5 
  542000    1.0574383   -6.8373495    187.34832  0.028805093  0.029309853           12 
  543000    1.0234495   -6.8056202    188.44963  0.028921061  0.029292009            3 
  544000    1.0304062   -6.8634655    188.01685  0.028801601  0.029274438            4 
  545000    1.0416154   -6.8233216    188.24111  0.028783045  0.029256721            3 
  546000    1.0393549   -6.8074184    189.41389  0.028909323  0.029238855            2 
  547000    1.0468926   -6.8685758    189.28961   0.02883754   0.02922117            5 
  548000    1.0459519   -6.8483614     188.9804  0.028737896   0.02920308            5 
  549000    1.0297148   -6.8429496      189.682  0.028792047  0.029185479            2 
  550000    1.0298378   -6.8740502    189.84324  0.028764127  0.029167708            4 
  551000    1.0115812   -6.9021343    189.71754  0.028692914  0.029149956            4 
  552000    1.0410878   -6.8897542    189.46119  0.028602233  0.029132254            2 
  553000    1.0064071   -6.8462473    190.39884  0.028691809  0.029114189            2 
  554000    1.0150544   -6.8808048     191.1299  0.028749985  0.029096614            5 
  555000    1.0337013   -6.8897683    190.65307  0.028626587  0.029078417            7 
  556000    1.0566019   -6.8842961    190.38858  0.028535458  0.029059698            3 
  557000    1.0160737   -6.8509998    190.64232   0.02852219  0.029040653            3 
  558000    1.0113559   -6.8690267    190.92251  0.028512919  0.029021875            5 
  559000    1.0205503   -6.8204642    191.19408  0.028502397  0.029003072            3 
  560000    1.0301148   -6.8719004    191.24673  0.028459335  0.028983745           12 
  561000      1.03967   -6.8631016    191.02519  0.028375697  0.028964198            3 
  562000    1.0352878   -6.8712142    191.67706  0.028421865  0.028944892            5 
  563000    1.0302561   -6.8736104     191.7592  0.028383541  0.028925809            2 
  564000    1.0191329   -6.8823828    191.57489  0.028305983  0.028906484            3 
  565000    1.0495324   -6.8746737    191.78882  0.028287437   0.02888676            3 
  566000    1.0149237   -6.9087438    191.63962  0.028215491  0.028866593            5 
  567000    1.0375817   -6.8461735    192.69776  0.028321247  0.028847063            4 
  568000    1.0365113   -6.8930105    192.40704  0.028228732  0.028827596            4 
  569000    1.0226443   -6.8714647    193.34645  0.028316703  0.028808347            6 
  570000    1.0096643   -6.8795908     193.1904  0.028244211  0.028789067            2 
  571000    1.0107448   -6.9273481    192.99598  0.028166372   0.02876921            3 
  572000    1.0401196   -6.8929053    193.89265  0.028247764  0.028749223            3 
  573000    1.0067612   -6.8777191    193.48772  0.028139576  0.028729673            8 
  574000     1.025681    -6.904417    193.33607  0.028068535   0.02870966            4 
  575000    1.0358641   -6.8894928    193.71266  0.028074298  0.028689446            3 
  576000    1.0085472   -6.8598539    194.54214  0.028145565  0.028669358            7 
  577000    1.0200912    -6.888185    194.14581  0.028039546  0.028649445            4 
  578000    1.0320156   -6.9151422    194.50082  0.028042217  0.028629073            6 
  579000    1.0316082   -6.8815503     195.1531  0.028087665   0.02860903            5 
  580000    1.0184694   -6.9130501    194.94842   0.02800983  0.028589123            2 
  581000    1.0122475   -6.9126088    194.58887   0.02791005   0.02856926            4 
  582000    1.0051742   -6.8760763    195.24402  0.027955902  0.028549445            5 
  583000    1.0387266   -6.8824271    195.51266  0.027946349  0.028529602            7 
  584000    1.0015404   -6.9171348    196.01276  0.027969857  0.028509642            2 
  585000    1.0091611   -6.9009784    196.05809  0.027928503  0.028489519            7 
  586000    1.0304357   -6.9152454    195.48115  0.027798799  0.028468963            4 
  587000    1.0220304   -6.9086677    195.11242  0.027699095  0.028447948            5 
  588000    1.0176407   -6.9006525    195.45076  0.027699938  0.028427089            2 
  589000    1.0258978   -6.9142789    196.24255  0.027764934  0.028406308            3 
  590000    1.0278787   -6.8768539    196.80558  0.027797399   0.02838566            3 
  591000    1.0132004   -6.9202466    196.49145   0.02770607  0.028364759            5 
  592000    1.0210888   -6.9040327    196.50122  0.027660644  0.028343731            6 
  593000    1.0012119   -6.8690658    196.63493  0.027632789  0.028322734            7 
  594000    1.0159061   -6.9159218    196.27026   0.02753511  0.028301706            5 
  595000    1.0149756   -6.9413521     196.6898   0.02754759  0.028280225            3 
  596000    1.0099877   -6.9560591    196.54529  0.027481165   0.02825879            6 
  597000   0.99254776   -6.9174339    197.19412    0.0275257   0.02823722           11 
  598000    1.0348141   -6.8961104    198.10816  0.027607045  0.028215937            6 
  599000    1.0139219   -6.9268971    198.00893  0.027547153  0.028194612            6 
  600000    1.0140015   -6.9376951    197.91349  0.027487984  0.028173178            5 
  601000   0.99899618    -6.900122    198.76623  0.027560486  0.028151989            4 
  602000     1.001937   -6.9266632    198.46464  0.027472957  0.028131665            2 
  603000      1.02358   -6.9108489    198.95699  0.027495438  0.028111001            4 
  604000    1.0273439   -6.9212314    199.20317  0.027483881  0.028090466            5 
  605000    1.0076657    -6.937008    199.09065  0.027422954  0.028070054            6 
  606000    1.0333855   -6.9537052    198.91221  0.027353164   0.02804954            2 
  607000    1.0040689   -6.8994739    200.28714  0.027496861  0.028029411            4 
  608000     1.006267   -6.9330341      200.156  0.027433662     0.028009            3 
  609000    1.0106956   -6.9277149    200.15137  0.027387982  0.027988483            3 
  610000    1.0012287   -6.9198488    200.19113  0.027348515  0.027968319            5 
  611000    1.0147893    -6.920787     201.1969  0.027440931  0.027947996            4 
  612000    1.0061474    -6.916316    200.83681   0.02734706  0.027927751            7 
  613000    1.0114991   -6.9055715    200.99518  0.027323977  0.027907808            3 
  614000   0.99084841   -6.8776621    201.90646  0.027403156  0.027887866            2 
  615000    1.0258345   -6.9239988    202.00717  0.027372245  0.027868261           10 
  616000    0.9979872   -6.9106094    201.88669  0.027311511  0.027848836            4 
  617000    1.0220751   -6.9646112    201.69876  0.027241864  0.027828753            4 
  618000   0.98248825   -6.9353052    201.77555  0.027208137  0.027808747            5 
  619000   0.99819963   -6.9537281    202.52825  0.027265515  0.027788592            5 
  620000    1.0105602   -6.9181211    202.68992  0.027243268  0.027769099            2 
  621000    1.0187705   -6.9221005    203.24038  0.027273267  0.027749425            5 
  622000    1.0180498   -6.9443903    202.90633  0.027184664  0.027729562            4 
  623000    1.0077199   -6.9394156     203.6436  0.027239646  0.027709369            7 
  624000   0.99149781   -6.9417111    203.13611  0.027128219  0.027689254            8 
  625000    1.0195514   -6.9284841    203.48521  0.027131362   0.02766958            5 
  626000    1.0496923   -6.9389802    204.44806  0.027216196  0.027650022            4 
  627000   0.99625231   -6.9542229    204.11092  0.027127979  0.027630019            6 
  628000   0.99580684   -6.9477608    204.00779  0.027071098  0.027610187           10 
  629000   0.98702905   -6.9758239    203.21511  0.026923041  0.027590294           10 
  630000   0.99825919   -6.9210768     204.9275  0.027106812  0.027570796            6 
  631000    1.0150541   -6.9279179    205.27797  0.027110139  0.027551481            4 
  632000   0.97787261   -6.9600748    205.64492  0.027115628  0.027532221            8 
  633000   0.99204411   -6.9399942     205.7819  0.027090824    0.0275133            4 
  634000    0.9991352   -6.9107921    206.70744  0.027169747  0.027494657            6 
  635000    1.0043878   -6.9418655    206.49425  0.027098983  0.027475835            4 
  636000     0.996328   -6.9948456    205.57024  0.026935304  0.027456888            6 
  637000   0.99474426   -6.9703448     206.8305  0.027057888  0.027438058            3 
  638000    1.0082654   -6.9367496    206.89849  0.027024359  0.027419151            4 
  639000    1.0128998   -6.9459962    207.20665  0.027022254   0.02740042            3 
  640000    1.0067587   -6.9637813     207.1155  0.026968164  0.027381418           12 
  641000    1.0175387   -6.9682066    207.05129  0.026917745  0.027362453            4 
  642000    1.0041263   -6.9638717    206.52518  0.026807526  0.027343044            4 
  643000    1.0048892   -6.9669214    207.58745  0.026903505  0.027323608            9 
  644000   0.97117343   -6.9770584    207.80302  0.026889625   0.02730385           10 
  645000    0.9849821   -6.9590519    207.77355  0.026844128  0.027284455            3 
  646000      1.00703   -6.9867507    208.10589  0.026845445  0.027264814            6 
  647000    1.0004799   -6.9468971    207.84192  0.026769954   0.02724536            2 
  648000   0.98797871    -6.904961    208.59152  0.026825041  0.027226052            7 
  649000   0.98567931   -6.9523161    208.30518  0.026746942  0.027206799            6 
  650000   0.99305672   -6.9568203    208.46724  0.026726569  0.027187534            5 
  651000   0.99045593    -6.954089    209.13016  0.026770374  0.027168047            3 
  652000   0.97621098   -6.9787346    209.12565  0.026728739  0.027148702            5 
  653000   0.97392345   -6.9797329     208.7123  0.026635056  0.027129163            4 
  654000   0.98478561   -6.9919439    208.96431  0.026626442  0.027109442            6 
  655000   0.99200402   -6.9909568    209.43277  0.026645391  0.027089889            3 
  656000   0.97764219   -6.9979069    209.71488  0.026640609  0.027070397            2 
  657000       0.9875   -7.0230255     209.4261  0.026563432  0.027051049            6 
  658000   0.97944844   -6.9790086    209.76344  0.026565786  0.027031665            4 
  659000   0.99773542   -6.9450271    211.38464  0.026730481  0.027012529            4 
  660000   0.99316957   -6.9732628    210.84974  0.026622442   0.02699337           14 
  661000   0.98102542   -6.9447916    211.38872  0.026650116  0.026974394            6 
  662000   0.97819367   -6.9495498    211.33724  0.026603379  0.026955817            4 
  663000   0.98855186   -7.0119049    211.17662  0.026543064  0.026936918            4 
  664000   0.97463227   -6.9754145    211.59549  0.026555658  0.026918272            5 
  665000   0.99808079   -6.9735985    211.56362  0.026511732  0.026899481           10 
  666000   0.99053921   -6.9841848    211.40868  0.026452537  0.026880743            9 
  667000   0.98536647   -7.0077077    211.57556  0.026433729  0.026861603            7 
  668000    1.0106353   -6.9517784    212.62066  0.026524534  0.026842435            3 
  669000    1.0038109   -7.0069411    212.04251  0.026412868  0.026823562            4 
  670000   0.98578472   -7.0034021    212.25864  0.026400328  0.026804927           16 
  671000   0.98408465   -6.9887029    213.11896  0.026467829  0.026785979            4 
  672000   0.97637883   -6.9607036    213.18632  0.026436795  0.026767366            6 
  673000   0.99655978   -6.9706941     214.0435  0.026503653  0.026749208            4 
  674000   0.94538927   -7.0268642    212.92307  0.026325799  0.026730423            9 
  675000   0.98007351   -6.9668738    214.03988  0.026424677   0.02671183            5 
  676000   0.97557543   -7.0234614    213.52401  0.026321994  0.026693592            4 
  677000   0.98328131   -7.0090939    214.21758  0.026368486  0.026675032            9 
  678000   0.97691857     -7.01317    213.81406  0.026279998  0.026656373            2 
  679000    1.0013677   -7.0272541    214.31399   0.02630265   0.02663754            6 
  680000   0.99362762   -6.9713015    215.22029  0.026375036  0.026619351            3 
  681000   0.99219411   -6.9880438     215.2087  0.026334887  0.026601356            4 
  682000   0.97317619   -7.0135461    215.33548  0.026311764  0.026582972            5 
  683000    0.9851255   -6.9882169    216.19566  0.026378192  0.026565023            5 
  684000   0.95662015   -6.9817395    216.21959  0.026342542  0.026547268            6 
  685000   0.96334468   -6.9466619    216.25255  0.026308096  0.026529648            5 
  686000    1.0039697   -6.9942027    216.41782  0.026289822  0.026511655            4 
  687000   0.99006494   -7.0065202     215.9549  0.026195402  0.026493458            2 
  688000   0.95944067   -7.0199511    216.06531  0.026170702  0.026475389            4 
  689000   0.98057495   -6.9758299    217.23777  0.026274525  0.026457418            5 
  690000   0.97092878   -6.9764369    217.41065  0.026257325  0.026439963            6 
  691000   0.99781317   -6.9901637    216.84126  0.026150659  0.026422133            6 
  692000   0.96124147    -7.039037    216.60663  0.026084613  0.026404208            8 
  693000    1.0086365   -7.0384667    217.12803  0.026109671  0.026386104            3 
  694000   0.97715337   -7.0333009    217.72719  0.026143995  0.026368212            3 
  695000   0.96775625   -7.0406472    216.90366  0.026007633   0.02635005            7 
  696000   0.98279236   -7.0579464     216.9613  0.025977167  0.026331818            5 
  697000   0.97205766   -7.0426064    217.77962  0.026037735  0.026313431            3 
  698000   0.97966648   -7.0375516      217.693  0.025990091  0.026294739            5 
  699000   0.95557197   -7.0146071    217.73202   0.02595756  0.026276173            4 
  700000   0.98289444   -7.0744628    217.61823  0.025906932  0.026257454            6 
  701000   0.98591037   -7.0203655    218.62078  0.025989156  0.026238984            2 
  702000   0.96365006   -6.9941533    218.58313  0.025947665  0.026220876            6 
  703000   0.98059913   -6.9995693     219.3031    0.0259961  0.026202953            5 
  704000   0.99250524   -7.0127925     219.0892  0.025933854  0.026185274            3 
  705000   0.99261876   -6.9873702    219.97766  0.026002087  0.026167866            7 
  706000    0.9458703   -6.9964867    219.56386  0.025916415  0.026150458            6 
  707000   0.96379572   -7.0148199    220.28632  0.025964912  0.026132803            3 
  708000   0.98025366   -7.0329738    219.85092  0.025876992  0.026115194           12 
  709000   0.98019069   -7.0355588    220.06588  0.025865759  0.026097406            6 
  710000   0.98360409   -7.0263181    220.25533  0.025851565  0.026079847            5 
  711000   0.98640072    -6.991616    221.19579  0.025925433  0.026062372            7 
  712000   0.99638616   -7.0303406    220.86238  0.025849998  0.026044913            9 
  713000   0.95907947   -7.0372517    221.08605  0.025839884  0.026027336            7 
  714000   0.95026286   -7.0113504    221.14499  0.025810572  0.026009704            5 
  715000   0.96733078    -7.070174     220.9023  0.025746189  0.025991885            9 
  716000   0.97336513   -7.0638229    220.84488  0.025703548  0.025973741            4 
  717000   0.94843109   -7.0643326    220.72837  0.025654157  0.025955733            8 
  718000   0.96426059   -7.0474165    221.04241  0.025654876  0.025937365            3 
  719000   0.97467047    -7.062083    221.19899  0.025637342  0.025919262            3 
  720000   0.98615172   -7.0605701    221.55157  0.025642543  0.025901165            7 
  721000   0.99770643   -7.0705744    221.41222  0.025590871  0.025882727            5 
  722000   0.94644463   -7.0745539     221.7604  0.025595614  0.025864249            4 
  723000    0.9766152   -7.0682292    221.80873  0.025565783  0.025845864            4 
  724000   0.98171854   -7.0811506    221.66794  0.025514266  0.025827626            9 
  725000   0.95947447   -7.0327627    223.25596  0.025661605  0.025809433            2 
  726000   0.97677175   -7.0361356    223.51131  0.025655568  0.025791701            3 
  727000   0.96911957   -7.0779058    222.71448   0.02552894  0.025773952            6 
  728000   0.99415809   -7.1091365    222.40725  0.025458705  0.025756125            4 
  729000   0.95408635   -7.0967537     222.4906   0.02543331  0.025737765            4 
  730000   0.96961495   -7.0789832    223.41251  0.025503711  0.025719508            6 
  731000    0.9589426    -7.092282    222.52728  0.025367907  0.025701119            8 
  732000   0.95874286   -7.0658413    223.21637    0.0254117  0.025682965            7 
  733000   0.94581154   -7.0734872    223.46761  0.025405594  0.025664785            4 
  734000   0.99336418   -7.0861055    223.51314  0.025376152  0.025646833            7 
  735000   0.97820655   -7.0466669    224.13605  0.025412251  0.025628958            4 
  736000   0.96775626   -7.0441662    224.49337   0.02541818  0.025610971            7 
  737000   0.98908427   -7.0111165    224.36824  0.025369543  0.025592899            5 
  738000   0.94787761    -7.038578     224.8556  0.025390198  0.025574656            3 
  739000   0.94542353   -7.0454375    224.63035  0.025330441  0.025556176            3 
  740000   0.97607073   -7.1099944    223.28663  0.025144891  0.025537538            6 
  741000   0.95072859   -7.1023667    224.57111  0.025255411  0.025518942            6 
  742000   0.95393651   -7.1015264    224.73446  0.025239719  0.025500322           11 
  743000   0.96330792   -7.0847868    224.75775  0.025208361  0.025481624            7 
  744000   0.94045061   -7.0846013    224.26654   0.02511946  0.025462846            3 
  745000   0.95744382   -7.0634079    224.85184  0.025151213  0.025444175            4 
  746000    0.9507738   -7.1060987    225.06223     0.025141  0.025425276            4 
  747000   0.93941529   -7.0777316     225.4523  0.025150859  0.025406612            8 
  748000   0.95909441   -7.0706284    225.50488  0.025123092   0.02538776            4 
  749000   0.94875291   -7.1012101    225.40971  0.025078962  0.025369031            9 
  750000   0.96030009   -7.0534604    225.66238  0.025073597  0.025350584            5 
  751000   0.95029703   -7.0616888     225.5712  0.025030093  0.025332417            3 
  752000   0.94299061    -7.037516    226.74506   0.02512689  0.025314302            7 
  753000   0.95604555   -7.0727773    225.97519  0.025008321   0.02529612            4 
  754000   0.93080471   -7.0957394      226.316   0.02501282  0.025277962            5 
  755000   0.96493864   -7.0738258    226.49851  0.024999835  0.025259708            4 
  756000   0.93190061   -7.0267337    226.84124  0.025004546   0.02524142            4 
  757000    0.9411832   -7.0510409    227.10782  0.025000861  0.025223256            5 
  758000   0.93664492   -7.0539515    227.65058  0.025027548  0.025204833            5 
  759000   0.95684409   -7.0848286    226.38214  0.024855307  0.025186616            3 
  760000   0.93852291   -7.0796623    226.91278  0.024880787  0.025168123            9 
  761000   0.94548737   -7.1283058    227.54922  0.024917786  0.025149641            5 
  762000   0.94504599   -7.0789097    227.15768  0.024842266  0.025131124            5 
  763000   0.97594204   -7.0757921    227.31925  0.024827354  0.025112603            9 
  764000   0.94605798   -7.0809525    227.93928  0.024862487  0.025094254            3 
  765000   0.93758501   -7.0420406    228.18175  0.024856399    0.0250761            3 
  766000   0.94308401   -7.0629911     227.8032  0.024782767  0.025057634            7 
  767000   0.96264318   -7.0697059    228.17544    0.0247909  0.025039134            5 
  768000   0.96098118   -7.1164551    227.93134  0.024732133  0.025020459            9 
  769000   0.94236613   -7.1441504    228.02206  0.024709803   0.02500159            4 
  770000   0.92290415   -7.1093988    227.74515  0.024647743  0.024982886            5 
  771000   0.92954466   -7.1172371    228.40548  0.024687147  0.024964118            3 
  772000   0.95994959   -7.1127686    228.42606   0.02465739  0.024945198            7 
  773000   0.95017279   -7.0616437    228.24926  0.024606431  0.024926241            6 
  774000   0.93931457   -7.1002592    228.03166  0.024551213  0.024907267            5 
  775000   0.93761846   -7.0582741    228.74259  0.024595977  0.024888104            7 
  776000   0.93827382   -7.1456046    227.47805  0.024428485  0.024868833            8 
  777000   0.94437235   -7.1102659    228.72226  0.024530487  0.024849427            7 
  778000   0.93654178   -7.0824916      228.718    0.0244985  0.024830155            5 
  779000   0.94962076   -7.0942199    228.62797  0.024457421  0.024810996            5 
  780000   0.95024035   -7.0843618    229.28603  0.024496371  0.024791955            4 
  781000   0.96040702   -7.1362156     228.5392  0.024385318  0.024772656            3 
  782000   0.93686769   -7.0891546    229.31118    0.0244364  0.024753353            6 
  783000   0.94742799   -7.0998284    228.82072  0.024352993  0.024734207            4 
  784000   0.92393786   -7.0914142    229.06776  0.024348188  0.024714947            4 
  785000   0.93912079   -7.1279331    229.40295  0.024352755  0.024695782            4 
  786000   0.93976986   -7.1140246    229.70478  0.024353772  0.024676467            4 
  787000   0.95121333   -7.1639995     229.5098  0.024302181  0.024657049            3 
  788000   0.93925355    -7.148095    229.39798  0.024259515  0.024637672            5 
  789000   0.95556763   -7.1354404     229.2686  0.024215104  0.024618185            6 
  790000   0.95538737   -7.1269207     230.1347  0.024275813    0.0245991            7 
  791000   0.93186003   -7.0955457    229.98123  0.024228954   0.02457998           10 
  792000   0.94504353   -7.0769664    230.94389  0.024299652  0.024560911            4 
  793000    0.9515906   -7.1396602    231.02012   0.02427702  0.024542194            5 
  794000   0.92111279   -7.0997776    231.31323  0.024277207  0.024523584            7 
  795000   0.93904223   -7.1472478    230.20533  0.024130538  0.024504647            6 
  796000    0.9156956   -7.1257241     231.1769  0.024201936  0.024485644            4 
  797000   0.92457497   -7.1280144    231.27698  0.024182035   0.02446664            4 
  798000   0.94675091   -7.1386499    231.74331  0.024200429  0.024447762            6 
  799000   0.93656647   -7.1766415      230.705  0.024061848  0.024428583           11 
  800000   0.91718337   -7.1081201    232.44706  0.024213235  0.024409408            4 
  801000   0.94481716   -7.1362015    231.35522  0.024069416  0.024390488            3 
  802000    0.9438203   -7.1383521    231.76032  0.024081496  0.024371589            8 
  803000    0.9418733   -7.1687363    230.80974  0.023952858  0.024352365           10 
  804000   0.92701829   -7.1412581    231.68452  0.024013736  0.024333209            6 
  805000   0.92383326   -7.1690905    231.69831  0.023985333  0.024313924            2 
  806000   0.94155004   -7.1407181    231.50843  0.023935941  0.024294656            2 
  807000   0.91695218   -7.1584241    231.70781   0.02392687    0.0242755            5 
  808000   0.93109592    -7.152664    232.27597  0.023955855  0.024256333            4 
  809000   0.92643366   -7.1882427    231.61699  0.023858363  0.024237016           13 
  810000     0.955717    -7.196501     231.7667  0.023844311  0.024217825            4 
  811000   0.91677623     -7.15793    232.80363  0.023921458  0.024198603            4 
  812000   0.94701249   -7.1461001    232.58767  0.023869835  0.024179439           19 
  813000   0.91695646   -7.1412045    233.04836  0.023887696  0.024160426            6 
  814000   0.92317607   -7.1360457    232.98067   0.02385142  0.024141519            7 
  815000   0.93696346   -7.1685854    232.64116   0.02378744  0.024122347            4 
  816000   0.92956509   -7.1820822    232.83702   0.02377829  0.024102983            7 
  817000    0.9211009   -7.1798156    233.01854  0.023767701  0.024083656           10 
  818000   0.93372483   -7.2132054    232.69813  0.023706003  0.024064331            4 
  819000   0.95156444   -7.1575389    233.58736  0.023767537  0.024045208            6 
  820000    0.9147876   -7.1899668    233.53931   0.02373367  0.024026219            6 
  821000   0.92740116   -7.1798548    233.28529  0.023678978  0.024007069           12 
  822000   0.92188981   -7.1541476    234.25806  0.023748789  0.023988047            5 
  823000   0.93093427   -7.1711277    234.67866  0.023762521  0.023969205            4 
  824000   0.92402338   -7.1694474    234.05019  0.023670124  0.023950388            3 
  825000   0.92639704   -7.1997223    233.33376  0.023569067  0.023931277            4 
  826000   0.93457481   -7.1782103    234.08441  0.023616265   0.02391219            7 
  827000   0.91427593   -7.1170876    234.61857  0.023641533  0.023893183            3 
  828000   0.91896459   -7.1347884    234.63084  0.023614215  0.023874481           13 
  829000   0.92782385   -7.1691929    233.97921  0.023520226  0.023855388           11 
  830000   0.92487077   -7.1582952    234.84812  0.023579129  0.023836355           12 
  831000   0.91121033   -7.1145273    236.10434  0.023676729  0.023817524            4 
  832000    0.9183129   -7.1490146    234.97358  0.023535014  0.023798843            4 
  833000   0.91301565   -7.1609186    235.44527  0.023553948  0.023780123            6 
  834000   0.91514217   -7.2012393    235.69595  0.023550754   0.02376139            5 
  835000   0.92312451    -7.171659     235.7789  0.023530828  0.023742659            4 
  836000   0.93465434   -7.1634353     235.8315  0.023507925  0.023723853            7 
  837000   0.89493193   -7.1758917     235.7553  0.023472252  0.023705151            9 
  838000    0.9396245   -7.1820331    235.34033  0.023402976  0.023686413            8 
  839000   0.92016207    -7.182189    235.85799  0.023426499  0.023667572            9 
  840000    0.9108695   -7.2366336    235.34491  0.023347709  0.023648501            8 
  841000    0.9056996    -7.181403    235.98855  0.023383724  0.023629551            5 
  842000   0.90897379   -7.2124606    235.47947  0.023305569  0.023610502           10 
  843000   0.91797413   -7.2221772    235.90457  0.023319946  0.023591436            4 
  844000   0.92242992   -7.2037156    235.49529  0.023251905  0.023572438            7 
  845000   0.92100556   -7.1887992    235.85241  0.023259607  0.023553565            6 
  846000   0.91341222   -7.2027899    236.70858  0.023316448  0.023534911            8 
  847000   0.93069943   -7.1819949    236.78031  0.023295977  0.023516382            7 
  848000   0.91347264   -7.2041325     236.7808  0.023268553  0.023497569            7 
  849000   0.91800251   -7.2189871    236.98284  0.023260978  0.023478944           11 
  850000   0.91620555   -7.1928069    236.83062  0.023218688  0.023460279            7 
  851000   0.92787915   -7.2163353    237.01626  0.023209583  0.023441712           16 
  852000   0.91976256   -7.2022344    237.61316  0.023240723  0.023423043            4 
  853000   0.91136084   -7.1994208    237.49216  0.023201657  0.023404542           10 
  854000   0.92205791   -7.1943448    237.80532  0.023205047  0.023386076            5 
  855000   0.89869247   -7.1958334    237.34741  0.023133276  0.023367574            4 
  856000   0.89144378   -7.1935419    237.49102  0.023120232  0.023348897            5 
  857000   0.89153127   -7.2479827     237.2802  0.023072754  0.023330237            9 
  858000   0.90497813   -7.1895763    237.95146  0.023111058  0.023311326            4 
  859000   0.91190799   -7.2255991    237.44326  0.023034853  0.023292551            4 
  860000   0.88021886   -7.2135853    238.20914  0.023082281  0.023273706           10 
  861000   0.93035637   -7.1669365    238.48431  0.023082105  0.023254999            5 
  862000   0.92185642   -7.2253549    237.63214  0.022972944  0.023236344            3 
  863000   0.92393137   -7.2364229     237.4427  0.022928033   0.02321754            8 
  864000   0.90476586   -7.2318195    238.19533  0.022974086  0.023198911            6 
  865000   0.92425513    -7.183111     238.8434  0.023009962  0.023180291            5 
  866000   0.90658086   -7.2193388    238.65691  0.022965445   0.02316175            6 
  867000   0.90514026   -7.2039112    238.57821  0.022931393  0.023143101            4 
  868000   0.91505986   -7.2399099    238.34854  0.022882924  0.023124505            3 
  869000   0.91231937   -7.2107558    239.62684  0.022979176   0.02310594            3 
  870000   0.90301405   -7.2150924    239.85784  0.022974889  0.023087591            5 
  871000   0.92236563   -7.2079892    239.15883  0.022881633  0.023069291           14 
  872000   0.91503179   -7.2082338    239.66684  0.022903941  0.023051133            3 
  873000   0.92151363   -7.2456095    239.51695  0.022863397  0.023032871            5 
  874000   0.91071316    -7.221479    239.70476  0.022855145  0.023014343            8 
  875000   0.92241893   -7.2228396    239.84888   0.02284275  0.022995861            5 
  876000   0.90991343   -7.2476621    239.82111  0.022814032  0.022977689            7 
  877000   0.89781751   -7.2445413    239.48449  0.022756032  0.022959481           11 
  878000   0.88879868    -7.208886    240.45299  0.022822038  0.022941259            5 
  879000    0.8842296   -7.2397412    240.68897  0.022818446  0.022923096            7 
  880000   0.91182295   -7.2188094    240.17423  0.022743772  0.022904884            5 
  881000   0.90999595   -7.2033947    241.23219  0.022818028  0.022886741           13 
  882000   0.89192479   -7.2231836    241.30698  0.022799223  0.022868797            5 
  883000   0.89518922   -7.2387689    240.52591   0.02269969  0.022850833            9 
  884000   0.90540381   -7.2517748      241.056  0.022723982   0.02283267            7 
  885000   0.88508582   -7.2793539    240.51961  0.022647798  0.022814588           12 
  886000   0.91080521   -7.2710711    240.81937   0.02265043  0.022796391            5 
  887000   0.89606614   -7.2084822    241.21554  0.022662114  0.022778357            6 
  888000    0.8986632   -7.2696952    240.51622  0.022570967  0.022760289            5 
  889000   0.89513663    -7.247125    240.74511  0.022567033  0.022742076            6 
  890000   0.89569475   -7.2519254    241.18505  0.022582869  0.022723857            8 
  891000   0.90537048   -7.2369616    241.68887  0.022604645  0.022705642            5 
  892000   0.90374776   -7.2776391    240.83432   0.02249947  0.022687524            6 
  893000   0.90823201   -7.2421919    241.33462  0.022520961  0.022669465            4 
  894000    0.8915336   -7.2473201    241.83541   0.02254245  0.022651445            6 
  895000   0.89396554    -7.246904    242.37009  0.022567047  0.022633405            6 
  896000   0.89457844   -7.2498072    241.97172   0.02250481  0.022615477            5 
  897000   0.91706729   -7.2575825    242.38934  0.022518519  0.022597545           10 
  898000   0.90703027   -7.3187662    241.90558   0.02244855  0.022579438           11 
  899000   0.89672151   -7.3195481    242.09277  0.022440932  0.022561294            6 
  900000   0.85109743   -7.2878031    241.84712  0.022393252  0.022543318            4 
  901000   0.90867199   -7.2611663    242.72993  0.022450049  0.022525356            4 
  902000   0.89531465   -7.2816986     241.9504  0.022353141   0.02250732            3 
  903000   0.89189771   -7.2568649    242.59788  0.022388139  0.022489329           10 
  904000    0.8784563   -7.2697469    242.68603  0.022371499  0.022471227            4 
  905000   0.90627719   -7.2835636    243.17178  0.022391508  0.022453245            7 
  906000   0.88526409   -7.2637546    243.02951  0.022353707   0.02243533            6 
  907000   0.89052726   -7.2979229    243.24347  0.022348721  0.022417404            4 
  908000   0.89806444    -7.272786    243.08121  0.022309216  0.022399497            6 
  909000   0.87489589   -7.3119924    243.11518  0.022287787  0.022381619            8 
  910000   0.88274787   -7.2592281    243.53199  0.022301465  0.022363903           10 
  911000   0.89091422   -7.2652413    243.20485  0.022247059  0.022346044            4 
  912000   0.89574302   -7.2970597     243.1429  0.022217004  0.022328129           13 
  913000    0.9017148   -7.2712143    243.25445  0.022202852   0.02231014            4 
  914000   0.88054132   -7.2883881    243.31861   0.02218441   0.02229218           10 
  915000   0.89255868   -7.2955263    243.29039  0.022157595  0.022274075           15 
  916000   0.89370746    -7.303691    243.52331  0.022154595  0.022256087           10 
  917000   0.90153393   -7.2767604    244.23246   0.02219488  0.022238171            5 
  918000   0.90724709   -7.2653477    244.53808  0.022198446  0.022220283            8 
  919000    0.8832892   -7.2674877    244.22463  0.022145868  0.022202796           10 
  920000   0.88180724   -7.3000809     244.2704  0.022125942   0.02218532            6 
  921000   0.88651733   -7.2518856    245.34349  0.022199013  0.022167696            5 
  922000   0.87654102   -7.2928665    244.60743  0.022108408  0.022150211            8 
  923000   0.90080893   -7.2611443    245.10536  0.022129412  0.022132738            5 
  924000   0.89034704    -7.260406    245.59456  0.022149581  0.022115274            7 
  925000   0.87780546   -7.2622482    245.43156  0.022110951  0.022098191           10 
  926000   0.86640394   -7.2922917    245.39773  0.022084029  0.022080778            5 
  927000   0.87598975   -7.2735759    245.44809  0.022064733  0.022063374            7 
  928000   0.89181567   -7.2952384    245.87056  0.022078894  0.022046015           15 
  929000   0.87410915   -7.2989135     245.4964  0.022021565  0.022028661            5 
  930000   0.88203435   -7.2817656    245.16107  0.021967837  0.022011345            7 
  931000   0.90330988   -7.2844738    245.19153  0.021946969  0.021994043            7 
  932000   0.87752614   -7.3158408    245.59053  0.021959096  0.021976534           15 
  933000   0.87083472   -7.3220692    244.80647   0.02186553  0.021958926            4 
  934000   0.88763047   -7.2958223    245.45903  0.021900341  0.021941319            4 
  935000   0.88096669   -7.3243435    245.19555  0.021853435  0.021923773            9 
  936000   0.87829106   -7.3073277    245.60511  0.021866552  0.021906277           13 
  937000   0.87555842   -7.3055706    245.88268  0.021867901  0.021888892            9 
  938000   0.90847009   -7.3097911    246.16006  0.021869231  0.021871386            6 
  939000   0.86847346   -7.3194642    246.09397  0.021840076  0.021853884            5 
  940000   0.86493952     -7.29056    246.04331   0.02181235  0.021836382            8 
  941000   0.86690599   -7.3141301    245.39198   0.02173149  0.021818779            9 
  942000   0.88419753   -7.3113418    246.11051  0.021771985  0.021801132            5 
  943000    0.8829205   -7.2983358    246.59952   0.02179211  0.021783609            7 
  944000   0.87823928   -7.3264654    246.25869  0.021738938  0.021766031           13 
  945000   0.88202029   -7.3012958    246.06436  0.021698797  0.021748529           13 
  946000   0.87374746   -7.2922709     246.1623  0.021684487  0.021730939           14 
  947000   0.89729256   -7.3073295    245.98869  0.021646312   0.02171347            8 
  948000   0.85875559   -7.3009351    246.36926  0.021656933   0.02169594            9 
  949000   0.87800721   -7.2943601    247.28496   0.02171452   0.02167849           14 
  950000   0.86603606   -7.3413688    246.59992  0.021631572  0.021661009           14 
  951000   0.87055123   -7.3225545    246.70476  0.021618012  0.021643493            8 
  952000   0.86492129   -7.3309234     246.9622   0.02161784  0.021625965            3 
  953000   0.87863416   -7.3652666    246.76671  0.021578061  0.021608396           16 
  954000   0.86383307   -7.3282652    246.41011  0.021524293  0.021590652            5 
  955000   0.87228169    -7.342129    246.95033  0.021548895  0.021573061            6 
  956000   0.86207725   -7.3404443    246.51489  0.021488397  0.021555407            7 
  957000   0.86710569   -7.3392053    247.10454  0.021517288  0.021537891            7 
  958000   0.87720831   -7.3694236     246.5459  0.021446233  0.021520247            9 
  959000   0.86024624   -7.3311307    246.55996  0.021425092  0.021502625           13 
  960000   0.87756118   -7.3605378    246.67379  0.021412655  0.021485047            8 
  961000   0.88477291    -7.368101    247.13801  0.021430629  0.021467527            9 
  962000   0.86359492   -7.3901917     246.9503  0.021392092  0.021450015            9 
  963000   0.86025397   -7.3681605     246.7442  0.021352043  0.021432391           28 
  964000   0.87387715   -7.3575042    247.06066  0.021357249  0.021414679           20 
  965000    0.8733442   -7.3438127    247.64888  0.021385914  0.021397008           20 
  966000   0.89353833   -7.3327735    247.21142  0.021326037  0.021379365           29 
  967000   0.86431594   -7.3617564    247.64655  0.021341482  0.021361833           33 
  968000   0.87813769   -7.3085797    248.21648  0.021368498  0.021344314           19 
  969000   0.84094785   -7.3532248    248.21632  0.021346432  0.021326984           13 
  970000    0.8762941   -7.3348275    247.41587  0.021255659  0.021309597           13 
  971000   0.87138462    -7.377568    247.39877  0.021232301  0.021292117            7 
  972000   0.84769477   -7.3463458    248.01287  0.021263106  0.021274695           13 
  973000    0.8654666   -7.3642719    247.59726  0.021205658  0.021257293            3 
  974000   0.88064782   -7.3350515    248.43783  0.021255804  0.021239944            8 
  975000   0.88028969   -7.3328448     249.0364  0.021285163  0.021222785            8 
  976000   0.86431503   -7.3445049    248.55985  0.021222665   0.02120565            6 
  977000    0.8831389   -7.3442653    248.75176  0.021217312  0.021188495            6 
  978000   0.85783017   -7.3730251    248.74914  0.021195394   0.02117122            5 
  979000   0.87149785   -7.3461331    249.03709  0.021198254    0.0211541            7 
  980000   0.86112062   -7.3471581    249.70212  0.021233174  0.021137055            5 
  981000   0.86953796   -7.3398501    249.58726  0.021201772  0.021119963           12 
  982000   0.86990474   -7.3861662    248.95423  0.021126462   0.02110277           10 
  983000   0.85677202   -7.3844581    248.92443  0.021102444  0.021085775            4 
  984000   0.86714707   -7.3689886    249.67056  0.021144187  0.021068648            8 
  985000     0.860248   -7.3853513    249.01682  0.021067413   0.02105137            9 
  986000   0.86509506    -7.394109    249.46902  0.021084265  0.021034135           10 
  987000   0.85345402    -7.384464    249.40106  0.021057165  0.021016909           10 
  988000   0.84687818   -7.3961367    249.16795   0.02101619  0.020999762            8 
  989000   0.85514078   -7.3897823    248.91699  0.020973794  0.020982425           12 
  990000   0.85227444   -7.3760957    248.97174  0.020957217  0.020965192           13 
  991000   0.85510577   -7.3993312    249.24995  0.020959464  0.020948024            8 
  992000   0.85652138   -7.4292754    249.06746  0.020923006  0.020930657           13 
  993000   0.85674462   -7.3841912    249.51362  0.020939378  0.020913402            7 
  994000   0.85804447   -7.4049274    249.42183  0.020910617  0.020896064           11 
  995000   0.85478609   -7.3688973    249.58682  0.020903419  0.020878951            7 
  996000   0.87089625   -7.3244041    250.45158  0.020954784  0.020861951           14 
  997000   0.84489349   -7.3664371     249.5756  0.020860548   0.02084497           11 
  998000   0.87038256   -7.3355545    250.48283    0.0209154   0.02082801            9 
  999000   0.85523384   -7.3912765    250.07228  0.020860217  0.020811116            8 
 1000000   0.85809759    -7.377758    250.14042  0.020845035  0.020794222           11 
 1001000    0.8557795   -7.3954408    250.01806  0.020814024  0.020777176           12 
 1002000   0.83578123    -7.373808    250.33388  0.020819518  0.020760132           20 
 1003000   0.85061431   -7.4157804    250.31552  0.020797235   0.02074316            7 
 1004000   0.86262535   -7.3822975    251.24715  0.020853847  0.020726224           12 
 1005000   0.85452083   -7.3977456    250.43727  0.020765943  0.020709365           13 
 1006000   0.84609349   -7.4001437     251.0354  0.020794848  0.020692437            6 
 1007000   0.86458727   -7.3880765     250.9282  0.020765326  0.020675504            5 
 1008000   0.85341253   -7.4020599    250.81633  0.020735477  0.020658606            6 
 1009000   0.85121163    -7.431889    250.53317   0.02069154  0.020641674           14 
 1010000   0.84655226    -7.400184    250.99707  0.020709329  0.020624732           12 
 1011000   0.86039788   -7.3570248    251.22545   0.02070767  0.020607917           12 
 1012000   0.84827843   -7.3899731    251.35882   0.02069819  0.020591039           19 
 1013000    0.8583764    -7.408699    250.80589  0.020632272  0.020574212           10 
 1014000   0.85566113   -7.4048217    250.90063   0.02061971  0.020557295           11 
 1015000   0.83297861   -7.3747597    251.96524  0.020686801   0.02054042           10 
 1016000   0.86194125   -7.4023087    251.36056  0.020616844  0.020523681           12 
 1017000   0.84740502   -7.4212391    251.11765  0.020576668  0.020506679           14 
 1018000   0.83961613   -7.4127853    251.46678  0.020585035  0.020489696            7 
 1019000   0.85042325   -7.4418696    251.49994  0.020567545  0.020472802           16 
 1020000   0.84476136   -7.4385281    251.21189  0.020523847  0.020455962            8 
 1021000   0.83865411   -7.4261586      251.575  0.020533382  0.020438897            5 
 1022000   0.84136488   -7.4314939    252.70484  0.020605417  0.020421939            8 
 1023000   0.84190763   -7.4080255    251.84228  0.020515011  0.020405108            8 
 1024000   0.84041282    -7.391505    251.90481  0.020500066   0.02038841           12 
 1025000    0.8459141   -7.3997089    251.92534  0.020481735  0.020371752            9 
 1026000   0.84460959   -7.4000447    252.32081  0.020493893  0.020354893            8 
 1027000   0.85271102   -7.4113063    252.19765  0.020463945  0.020337961           10 
 1028000    0.8450911   -7.4117718    251.81933   0.02041337  0.020321062            6 
 1029000   0.83964243   -7.4095891    252.13584  0.020419164  0.020304173           12 
 1030000   0.84527143   -7.4228671    252.06643  0.020393724    0.0202873            9 
 1031000   0.81544842   -7.3976676    252.05955  0.020373387  0.020270452            5 
 1032000   0.83150342   -7.3785889    253.38764  0.020460888  0.020253812            6 
 1033000   0.83419628   -7.4306117    252.53326  0.020372157  0.020237108            7 
 1034000   0.83286041   -7.4245891    251.91477  0.020302609  0.020220364            6 
 1035000    0.8487178   -7.4255231    251.98119   0.02028834  0.020203631            9 
 1036000   0.84354693   -7.4120049    252.16286   0.02028337  0.020186877            8 
 1037000   0.84226673   -7.4168112    252.71559  0.020308228  0.020170167            8 
 1038000   0.83504642   -7.4526866    251.77028  0.020212771  0.020153354            5 
 1039000   0.83909877   -7.4452826    252.15974  0.020224554  0.020136362           13 
 1040000   0.83944355   -7.4396359    251.99909  0.020192235  0.020119332            7 
 1041000   0.84063064   -7.4364844    252.19998  0.020188919  0.020102318           10 
 1042000   0.84186453    -7.449147    252.39972  0.020185518  0.020085361            8 
 1043000    0.8456639   -7.4635934    252.68987  0.020189347  0.020068456            8 
 1044000   0.86664208   -7.4516341    251.92801  0.020109196  0.020051592           15 
 1045000    0.8413887   -7.4333362    252.36906  0.020125124  0.020034664           20 
 1046000   0.83038782   -7.4376591    252.07398  0.020082376  0.020017692           16 
 1047000   0.85134338   -7.4582476    252.44685  0.020092873   0.02000072           42 
 1048000   0.85816207   -7.4844328    251.97616  0.020036272  0.019983746           30 
 1049000   0.83319323    -7.437522     252.1673  0.020032356  0.019966686           17 
 1050000   0.82468823    -7.418223    252.81967  0.020065053  0.019949587            6 
 1051000   0.84088201   -7.4717025    252.24211  0.020000167  0.019932633            6 
 1052000   0.82745293   -7.4527537    251.75556  0.019942614  0.019915526           10 
 1053000   0.85136457   -7.5000151    251.82431  0.019929116  0.019898407            7 
 1054000   0.82445583   -7.4528686    253.47623  0.020040815  0.019881449           16 
 1055000   0.84646085   -7.4401033    253.40725  0.020016371  0.019864565            9 
 1056000   0.85054225   -7.4547126    252.49657   0.01992555  0.019847635            7 
 1057000   0.82942861   -7.4675482    252.62224  0.019916607  0.019830782           18 
 1058000   0.82731077   -7.4880538    252.59866  0.019895924  0.019813753           10 
 1059000   0.82615236   -7.4907204    251.99794  0.019829866  0.019796709           13 
 1060000    0.8409998     -7.46431    252.58335  0.019857181  0.019779569           17 
 1061000   0.83383727   -7.4729103    252.70853  0.019848298  0.019762445            8 
 1062000   0.83194963   -7.4818273    252.20591  0.019790169  0.019745367           10 
 1063000    0.8127238   -7.4784622     252.2316  0.019773565  0.019728262           19 
 1064000   0.83034895   -7.4341245    252.89153  0.019806667  0.019711346           12 
 1065000   0.83498252   -7.4848957    252.11773  0.019727522   0.01969441           19 
 1066000   0.83271625   -7.4737141    252.33283  0.019725831   0.01967734            6 
 1067000   0.82066988   -7.4894346    252.44037  0.019715743  0.019660208            6 
 1068000   0.83828062   -7.4819034    252.66992  0.019715193  0.019642961           22 
 1069000   0.84332001   -7.4854541     252.6318  0.019693779  0.019625803           13 
 1070000   0.83034061   -7.5224082    252.12853  0.019636178  0.019608624           10 
 1071000    0.8295116   -7.4904309    252.65775  0.019659022  0.019591483            7 
 1072000   0.81646365   -7.5440972    252.10378  0.019597619  0.019574397           10 
 1073000   0.84437921   -7.5018424    252.08812  0.019578139  0.019557209           13 
 1074000   0.82624595   -7.5006721    251.97957  0.019551487  0.019540032           18 
 1075000   0.82156029   -7.4854154    252.93474  0.019607344   0.01952286            9 
 1076000   0.81708596   -7.4852516    252.36811  0.019545238  0.019505691           18 
 1077000    0.8219649   -7.4704265    252.46548  0.019534624  0.019488462           25 
 1078000   0.82591008   -7.4777302    252.89099  0.019549397  0.019471253           17 
 1079000   0.81922731   -7.5071717    252.39088  0.019492653  0.019453999            4 
 1080000   0.81201785    -7.497764    252.51125  0.019483893  0.019436752           10 
 1081000   0.82014695   -7.4856336    252.82317  0.019489915  0.019419542            9 
 1082000   0.81615972   -7.4931416    252.54099  0.019450168  0.019402249           13 
 1083000   0.80864899   -7.4695362     252.0926  0.019397707  0.019385004           10 
 1084000   0.81314225   -7.4880625    252.38262  0.019402108  0.019367768            7 
 1085000   0.81483798   -7.5038312    251.80221  0.019339648  0.019350441            6 
 1086000   0.81741173   -7.5267783    252.49842  0.019375262  0.019333166           13 
 1087000   0.80501345   -7.5284713    252.63471  0.019367886  0.019315937           24 
 1088000   0.81174494   -7.5229464    252.94188  0.019373612  0.019298693            7 
 1089000    0.8061235   -7.5240399    252.40097   0.01931443  0.019281526           12 
 1090000   0.81136411   -7.4983986    252.84708  0.019330817  0.019264458           14 
 1091000   0.81804537   -7.5276583    252.17156    0.0192615  0.019247315           11 
 1092000    0.7980361   -7.5091118    252.71092  0.019285021  0.019230192           14 
 1093000   0.81838455   -7.5336057    252.34703  0.019239633  0.019213113           11 
 1094000   0.81941669   -7.5311736    252.99305  0.019271256   0.01919603           15 
 1095000   0.81042774   -7.4885396    253.34451  0.019280404  0.019178913           12 
 1096000   0.81398841   -7.5121162    253.38378  0.019265798  0.019161876            8 
 1097000    0.8008995   -7.5122872    253.38373  0.019248233    0.0191449           10 
 1098000   0.82987453   -7.5072365    253.10063  0.019209216  0.019127944            7 
 1099000   0.80840319   -7.4928999    253.48743  0.019221067  0.019111152            9 
 1100000   0.82638424   -7.5030877    252.98726  0.019165702  0.019094283           18 
 1101000   0.82434204   -7.5166393    252.91154  0.019142563  0.019077379           18 
 1102000   0.79379353   -7.5383731    253.04162  0.019135029  0.019060391           16 
 1103000   0.82516902   -7.4973166    253.49187  0.019151698   0.01904339            7 
 1104000    0.8021443   -7.5159157    252.73321  0.019077084  0.019026474           15 
 1105000   0.82377144   -7.4828042    253.16692  0.019092528  0.019009563            9 
 1106000     0.794105   -7.5236638    252.59992  0.019032544  0.018992635            8 
 1107000   0.80757555   -7.5131433    253.54639    0.0190866  0.018975766           15 
 1108000    0.8079933   -7.5114889    253.88106  0.019094544  0.018958892           10 
 1109000   0.79485482   -7.4973412    253.24755  0.019029723  0.018941957            9 
 1110000   0.81943183   -7.5073544    253.46528  0.019028925   0.01892504           14 
 1111000   0.80459082   -7.4929633    253.81858  0.019038297  0.018908245           10 
 1112000   0.79864374   -7.4978792    253.67587  0.019010482  0.018891414            8 
 1113000   0.79605711   -7.5280773    253.67772   0.01899354  0.018874635            5 
 1114000    0.8157876   -7.4981436    253.62216  0.018972334   0.01885782            8 
 1115000   0.80243006   -7.5166601    253.29579  0.018930926  0.018840941           13 
 1116000   0.81621268   -7.5114172    253.37236   0.01891968  0.018824102           13 
 1117000   0.80906317   -7.5148728    253.84036  0.018937657  0.018807271           33 
 1118000   0.81151985   -7.4821859    254.15878  0.018944453  0.018790496           10 
 1119000   0.81818195   -7.5232271    253.86192  0.018905416  0.018773714           20 
 1120000   0.80289151   -7.5615197    252.97293   0.01882239  0.018756803           11 
 1121000   0.80144209   -7.5369157    252.78955  0.018791968   0.01873982           28 
 1122000   0.81892803   -7.5627463    252.84753  0.018779525  0.018722729           44 
 1123000   0.81240013   -7.5296033    253.49622   0.01881094  0.018705655           46 
 1124000   0.78993278    -7.592827    252.86844   0.01874766  0.018688519           40 
 1125000   0.80847519   -7.5746619     252.5855  0.018710037   0.01867138           33 
 1126000   0.80113705   -7.5745562    252.67726  0.018700212  0.018654222           27 
 1127000   0.80561687   -7.5950375    252.79974  0.018692675   0.01863714           10 
 1128000   0.77622932   -7.5556459    252.88563  0.018682449  0.018620052           37 
 1129000   0.80618409    -7.558398    253.34849  0.018700066  0.018602971           15 
 1130000   0.81088461   -7.5469474    252.90165  0.018650564  0.018585999           13 
 1131000   0.81120278    -7.545669    253.45867  0.018675115  0.018568997           15 
 1132000   0.81416232    -7.559979    253.45003  0.018657982  0.018552085            9 
 1133000     0.801143   -7.5472942    253.54545  0.018648533   0.01853526           11 
 1134000    0.8069085   -7.5450253    253.23269  0.018609104  0.018518364           15 
 1135000   0.80322005   -7.5446049      253.173  0.018588326  0.018501411           10 
 1136000   0.79271629   -7.5617673     253.3256  0.018583158  0.018484549           14 
 1137000   0.78313509   -7.5766278    252.97504   0.01854112  0.018467709           19 
 1138000   0.82792275   -7.5884455    253.58299  0.018569346   0.01845077            7 
 1139000   0.78836249   -7.5705141    253.15676  0.018521859  0.018433882            7 
 1140000   0.79942202   -7.5776479    253.88307  0.018558704  0.018416971           16 
 1141000    0.7896413   -7.5403595    253.99623  0.018550703  0.018400154           22 
 1142000   0.79725826   -7.5452371    253.68854  0.018512007  0.018383342           18 
 1143000   0.80175246   -7.5915445    253.39896  0.018474698  0.018366494           12 
 1144000   0.79466312   -7.6157574    252.57977  0.018398876   0.01834964           12 
 1145000   0.79066885    -7.584196    253.55479  0.018453769  0.018332771            9 
 1146000   0.79990437   -7.6022425    252.70997  0.018376234   0.01831592           12 
 1147000   0.80498143   -7.5968359    253.95247  0.018450485  0.018299106            9 
 1148000   0.82892878   -7.6101909    253.23359  0.018382229  0.018282305           13 
 1149000   0.79230805    -7.596272    253.36536  0.018375788  0.018265468            6 
 1150000   0.80456864   -7.5731353    253.56144  0.018374017  0.018248679           20 
 1151000   0.78726468   -7.6264407    253.36753  0.018344015  0.018231832            7 
 1152000   0.80626424   -7.6086813    254.13161  0.018383363  0.018214929            8 
 1153000   0.78767106   -7.5951821    253.70908   0.01833688  0.018198258           26 
 1154000   0.79629996   -7.5922662     254.0848  0.018348123  0.018181596           18 
 1155000   0.79276556   -7.5922872    254.14093  0.018336287  0.018164975            9 
 1156000   0.79553813   -7.6041398    254.53177  0.018348599  0.018148413           11 
 1157000    0.7941477    -7.561099    254.30123  0.018316136  0.018131871           12 
 1158000   0.80332227   -7.5874785    254.03046  0.018280834  0.018115235           28 
 1159000   0.78539028    -7.586583    253.79265  0.018247962  0.018098628           21 
 1160000   0.78677001   -7.6208789    254.09952  0.018254276  0.018081979           18 
 1161000   0.77195595   -7.5970897    254.30569  0.018253351  0.018065421           13 
 1162000   0.79873075   -7.6069406    253.86712   0.01820619   0.01804879            6 
 1163000   0.78001159   -7.6222118    253.25517  0.018146687  0.018032172           16 
 1164000   0.78923389   -7.6196486    253.31975  0.018135721  0.018015543            8 
 1165000   0.79366011   -7.6439154    253.62341  0.018141875  0.017998903           11 
 1166000   0.79842251   -7.6226475     253.8612  0.018143311  0.017982302           15 
 1167000   0.77349979   -7.5937187    254.24918  0.018155469  0.017965793           16 
 1168000   0.78448069   -7.6055766    254.81672  0.018180416  0.017949247           29 
 1169000   0.80080551   -7.6214063    253.40304  0.018064089  0.017932728           27 
 1170000   0.77425516   -7.5987875    254.15259  0.018102037  0.017916256           11 
 1171000   0.78257849   -7.5990097    253.73132  0.018056598  0.017899724           21 
 1172000    0.7785844     -7.61524    253.81612  0.018047222  0.017883253           18 
 1173000   0.78121112   -7.5871531    254.45607    0.0180773  0.017866827           28 
 1174000   0.79807507   -7.5721771    253.85093  0.018018947  0.017850429           20 
 1175000   0.78385991    -7.583123     254.6126  0.018057631  0.017834002           26 
 1176000   0.77263532   -7.6219119    253.58259  0.017969288  0.017817563           15 
 1177000   0.76461673   -7.6146582    253.48056  0.017946797  0.017801105           23 
 1178000   0.79558468   -7.6006131    254.41308   0.01799753  0.017784679           21 
 1179000   0.77719435   -7.6197891    253.89287  0.017945495  0.017768326           15 
 1180000   0.81639096   -7.6272391    253.84327  0.017926784   0.01775194           13 
 1181000   0.78524329   -7.6453875     253.8637  0.017913047  0.017735555           19 
 1182000   0.78804274   -7.6036185    254.75662  0.017960845  0.017719133           13 
 1183000     0.785017    -7.573548    254.50562  0.017927981  0.017702849           27 
 1184000   0.77153089    -7.596506    254.19642  0.017891077  0.017686632            9 
 1185000   0.76059436    -7.614123    254.63744  0.017906993  0.017670344           27 
 1186000   0.78571165   -7.6370665    254.36135  0.017872495  0.017654013           21 
 1187000   0.76516511   -7.6382918    254.10222  0.017839246  0.017637648           30 
 1188000   0.79570916   -7.6322455    254.86309  0.017877602  0.017621368           10 
 1189000   0.78397659   -7.6268708    254.64717  0.017847433  0.017605177           17 
 1190000   0.77929274   -7.5847201    255.26317  0.017875572  0.017589076            7 
 1191000   0.78170344   -7.6060618    254.62238  0.017815727  0.017572969           10 
 1192000   0.78938434   -7.6107652    254.81762  0.017814431  0.017556847           10 
 1193000   0.76927076   -7.6090596    254.82718  0.017800166  0.017540751           15 
 1194000   0.76951909   -7.6096302    254.87023  0.017788263   0.01752466           10 
 1195000   0.76113215   -7.6213952    254.68762  0.017760643  0.017508548           25 
 1196000   0.77446286    -7.615945    254.93835  0.017763263  0.017492477           17 
 1197000   0.77521492   -7.6325838    254.69433  0.017731435   0.01747644           15 
 1198000   0.75372321   -7.6134463    255.25987  0.017755973  0.017460399           53 
 1199000   0.78889905   -7.6486563    254.63399  0.017697664  0.017444357           25 
 1200000   0.78821481   -7.6436443    254.72212  0.017689036  0.017428296           10 
 1201000   0.75234382   -7.6126311    255.18745  0.017706595  0.017412227            9 
 1202000   0.78258161   -7.6371303    254.34005  0.017633115  0.017396124            8 
 1203000   0.76213673   -7.6230137    254.98164  0.017662901  0.017380022           18 
 1204000   0.78781622   -7.6457722    255.06054  0.017653692  0.017363998           21 
 1205000   0.77505782   -7.6284842    254.71361  0.017615049  0.017347898           27 
 1206000   0.78497515   -7.6442457    254.94666  0.017616547  0.017331775           12 
 1207000   0.76840214   -7.6143654    254.83069  0.017593944   0.01731569           13 
 1208000   0.77791789   -7.6449385      255.353  0.017615411  0.017299672           18 
 1209000   0.78374464   -7.6515436    254.73861  0.017558493  0.017283589           33 
 1210000   0.76514038   -7.6307265    254.40617  0.017521086  0.017267495           26 
 1211000   0.78490113   -7.6214661    254.42178  0.017507692  0.017251445           22 
 1212000   0.77721374   -7.6171168    254.99538  0.017532685  0.017235507           21 
 1213000   0.76648669   -7.6310386    254.97402  0.017516764  0.017219541           46 
 1214000   0.75986819   -7.6608816     254.5168   0.01747095  0.017203599           27 
 1215000   0.76939764   -7.6709526    254.23899  0.017437517  0.017187601           40 
 1216000    0.7775319   -7.6724333    254.68936   0.01745404   0.01717159           27 
 1217000   0.77399158   -7.6465999    254.58603  0.017432623  0.017155595           32 
 1218000   0.76967275   -7.6293041    255.69983  0.017494515  0.017139697           30 
 1219000   0.76651605   -7.7000071     254.4413  0.017394128  0.017123769           38 
 1220000    0.7689165   -7.6636634    254.45469  0.017380785   0.01710783           18 
 1221000   0.75446465   -7.6589936    255.05317  0.017407397   0.01709199           34 
 1222000   0.76368625   -7.6502202    255.11094  0.017397091  0.017076137           16 
 1223000   0.76671201    -7.681466    254.66046  0.017352171  0.017060207           12 
 1224000   0.76295347   -7.6884265     254.6817   0.01733944  0.017044223           18 
 1225000   0.76726747   -7.6874137     253.8003  0.017265326  0.017028276           15 
 1226000   0.76556688   -7.6786914    254.87386  0.017324216  0.017012434           35 
 1227000   0.76714263   -7.6814088    254.36668   0.01727565  0.016996536           17 
 1228000   0.77691915   -7.6750509    254.60792  0.017277953  0.016980679           24 
 1229000   0.75365324   -7.6794303    254.30704  0.017243493  0.016964726           15 
 1230000   0.75215137   -7.7081137    254.78361  0.017261762  0.016948845           12 
 1231000   0.76444212   -7.6804096    254.68246  0.017240892  0.016932991           20 
 1232000   0.77151806   -7.6744966    254.46385  0.017212111  0.016917174           15 
 1233000   0.75155782   -7.6850434    254.40594  0.017194238  0.016901399           16 
 1234000   0.74884051    -7.690414    254.62019  0.017194772  0.016885618           18 
 1235000   0.75906945   -7.6810818    255.01136  0.017207244   0.01686982           12 
 1236000   0.75789162   -7.6778391    255.24988  0.017209404  0.016854103           11 
 1237000    0.7563606   -7.6926167    254.76796  0.017163026   0.01683837           12 
 1238000   0.78189484   -7.6858065    254.44507  0.017127428  0.016822686            8 
 1239000   0.75935349   -7.6724849    254.57291  0.017122202  0.016806978           32 
 1240000   0.77324038   -7.6990626    254.88514  0.017129378  0.016791243           13 
 1241000   0.76412683   -7.6975154    254.43895  0.017085613  0.016775484           18 
 1242000   0.76835192   -7.6877048    254.57876  0.017081237  0.016759766            8 
 1243000   0.76397061   -7.6987242    254.64314  0.017071811  0.016744034           18 
 1244000   0.77597225    -7.696003    254.41143  0.017042566  0.016728262           16 
 1245000   0.76244478   -7.6992939    254.97928  0.017066886    0.0167125           16 
 1246000   0.75055704   -7.7103031    254.60755  0.017028327  0.016696786           20 
 1247000   0.76812923   -7.7004203    254.60384  0.017014424  0.016681038           11 
 1248000   0.76657182   -7.7035116    253.99687  0.016960261  0.016665263           25 
 1249000   0.75919938   -7.7189561     254.1465  0.016956666  0.016649501           18 
 1250000   0.74064717   -7.7291229    254.10351  0.016940234  0.016633706           14 
 1251000   0.73966512   -7.6878719     253.8864   0.01691223  0.016617986           13 
 1252000   0.73915876   -7.7247084     254.3461   0.01692932  0.016602296           13 
 1253000   0.77071085   -7.7087843    254.65791  0.016936546  0.016586566           23 
 1254000    0.7486653   -7.6921021    255.07026  0.016950443   0.01657081           15 
 1255000   0.75093768   -7.7313494    254.42217  0.016893902  0.016555106           11 
 1256000   0.75280184   -7.7066726    254.27474   0.01687067  0.016539354           17 
 1257000   0.75838403   -7.7129475    254.55915  0.016876104  0.016523579           12 
 1258000   0.74445252   -7.7554695    254.41147  0.016852906  0.016507821           12 
 1259000   0.73258275   -7.7480295     254.5486  0.016848597  0.016492065           51 
 1260000   0.74469041   -7.7330833    253.93901  0.016794908  0.016476388            8 
 1261000   0.74462443   -7.7483589    254.33995  0.016808085  0.016460795           20 
 1262000   0.75969041   -7.7629441    253.98221  0.016771144  0.016445202           47 
 1263000   0.74645771   -7.7114051    254.90256  0.016818591  0.016429615           34 
 1264000   0.75359327   -7.7152928    254.39262  0.016771665    0.0164141           52 
 1265000   0.75571933   -7.7370475    254.93264  0.016793981  0.016398593           32 
 1266000   0.74143997   -7.6958912    254.84632  0.016775034  0.016383105           23 
 1267000   0.76038064   -7.7130308    255.45464  0.016801805  0.016367655           11 
 1268000   0.73594429   -7.7528028    254.00171  0.016693067  0.016352181           45 
 1269000   0.73349047   -7.7530224    254.06432  0.016684024  0.016336673           11 
 1270000   0.74419391   -7.7643392    253.94599  0.016663122  0.016321228           28 
 1271000   0.75026514   -7.7423557    254.55494  0.016689939  0.016305843           32 
 1272000   0.75016456   -7.7444143    254.04756  0.016643577  0.016290419           23 
 1273000   0.76743457   -7.7348762    254.81665  0.016680849  0.016275023           13 
 1274000   0.74075706   -7.7529941    254.83994  0.016669279  0.016259677            8 
 1275000   0.74658837   -7.7313457    254.35478  0.016624496  0.016244328           17 
 1276000   0.75746252   -7.7192785    255.07137  0.016658266  0.016228971           14 
 1277000    0.7240051   -7.7382201    255.09672  0.016646876  0.016213688           18 
 1278000   0.74080478   -7.7400888    255.25106  0.016643914  0.016198398           40 
 1279000   0.73052964   -7.7168526    255.03762  0.016616994  0.016183151           16 
 1280000   0.75105304   -7.7577117    254.54431  0.016571895  0.016167876           12 
 1281000   0.75186201    -7.763819    254.46486   0.01655379  0.016152675           10 
 1282000   0.73044233   -7.7650414    254.60159  0.016549765  0.016137404           53 
 1283000   0.75329098   -7.7553365    254.38737  0.016522952  0.016122104           51 
 1284000   0.73297724    -7.762825    254.83352   0.01653904  0.016106826           23 
 1285000   0.74239539   -7.7655177    255.04352  0.016539787   0.01609157           33 
 1286000   0.74420216   -7.7334503    254.86144  0.016515127  0.016076336           27 
 1287000   0.73275322   -7.7591765    255.04885  0.016514429  0.016061091           30 
 1288000   0.74280284   -7.7666849    253.57672  0.016406361  0.016045797           45 
 1289000   0.74717544   -7.7743327    255.08561  0.016491182  0.016030544           37 
 1290000     0.726351   -7.7865249    254.09845  0.016414629  0.016015293           31 
 1291000   0.73568825   -7.7758882    254.66991  0.016438801  0.015999986           33 
 1292000   0.73982411   -7.7975759    254.52784  0.016416914  0.015984725           60 
 1293000   0.75297123   -7.8079777    254.25106  0.016386379  0.015969479          158 
 1294000   0.73409864   -7.7655116    254.56263  0.016393781  0.015954245           27 
 1295000   0.72909391   -7.8014992    254.85239  0.016399768  0.015939032           80 
 1296000   0.73952988   -7.7660208     254.2437  0.016347974  0.015923814           55 
 1297000   0.72310327   -7.7815167    254.30647  0.016339403  0.015908617           78 
 1298000   0.74386635   -7.7962725    254.60656  0.016346081  0.015893456           42 
 1299000   0.72785815   -7.7829379    254.10686  0.016301441  0.015878351           78 
 1300000   0.74094093   -7.7923831     254.2989  0.016301212   0.01586321           84 
 1301000   0.73186393   -7.7707112    254.48121  0.016300359  0.015848078           56 
 1302000    0.7452618   -7.7561227     254.7774  0.016306797  0.015833018           75 
 1303000    0.7460198   -7.7857761    254.27905   0.01626241   0.01581792           39 
 1304000   0.73798476   -7.7869056    254.29546  0.016250988  0.015802832           47 
 1305000    0.7329173   -7.7874239    254.75025  0.016267576  0.015787781           72 
 1306000    0.7381359   -7.8232489    253.99173  0.016206721  0.015772756           66 
 1307000     0.721821   -7.8164409    254.16429  0.016205323  0.015757696           54 
 1308000   0.72546525    -7.818184     253.8918  0.016175573  0.015742627           53 
 1309000   0.73268878   -7.7883362    254.54783   0.01620498  0.015727556           78 
 1310000    0.7189654    -7.820224    254.45464  0.016186682  0.015712508           62 
 1311000   0.72273614   -7.8205141    253.96256  0.016143056  0.015697493           39 
 1312000   0.73831618   -7.8140197     254.5132  0.016165727  0.015682493           47 
 1313000    0.7160143   -7.8233182    254.09102  0.016126619  0.015667525           59 
 1314000   0.72377129   -7.8019143    254.55939  0.016144051  0.015652589           45 
 1315000   0.72924088   -7.7817188     254.7493  0.016143809  0.015637666           41 
 1316000    0.7263128   -7.7642555    254.43448  0.016111606  0.015622778           45 
 1317000   0.74016904   -7.8152277    254.31279  0.016091672  0.015607841           43 
 1318000   0.73294094   -7.7981094    254.14285  0.016068719  0.015592957           45 
 1319000   0.71616982   -7.8183746    254.06379  0.016051541  0.015578036           49 
 1320000   0.72934711   -7.8344654    254.36551  0.016058429  0.015563129           55 
 1321000   0.72530678   -7.8019524    254.38955  0.016047789  0.015548253           36 
 1322000   0.73737169   -7.8183545    254.07011  0.016015513  0.015533424           71 
 1323000   0.71788848   -7.8209757    254.29498  0.016017572  0.015518582           44 
 1324000   0.72378421   -7.8016612    254.47411  0.016016749  0.015503718           27 
 1325000   0.72909933   -7.8060159    254.77584  0.016023638  0.015488899           31 
 1326000   0.71110536   -7.8367174     254.1692  0.015973429  0.015474076           63 
 1327000   0.72165203   -7.8442597    253.64494  0.015928469  0.015459262           26 
 1328000   0.73339248   -7.8456368    253.95358  0.015935842  0.015444461           49 
 1329000   0.70578065   -7.8431416    254.43949  0.015954319  0.015429605           32 
 1330000   0.71587647    -7.841692    253.98709  0.015913978  0.015414743           49 
 1331000   0.71085954   -7.8436571    253.75933  0.015887762  0.015399913           22 
 1332000   0.72033173   -7.8156346    254.39678  0.015915714  0.015385109           26 
 1333000   0.73365613   -7.8284575     253.6449  0.015856771   0.01537032           32 
 1334000   0.73672948    -7.826349    254.14318  0.015876011  0.015355557           39 
 1335000   0.72533147   -7.8236078    254.25577  0.015871147   0.01534082           34 
 1336000   0.71362432   -7.8197426    253.96377  0.015841054  0.015326094           47 
 1337000   0.72075479   -7.8242788    254.16011  0.015841443  0.015311362           29 
 1338000    0.7298336   -7.8169881     254.2037  0.015832318  0.015296605           34 
 1339000   0.72776911   -7.8054615    253.88063  0.015800388  0.015281928           46 
 1340000   0.70706177   -7.8334072    254.18159  0.015807313  0.015267299           30 
 1341000   0.71214878   -7.8151794    254.33572  0.015805103  0.015252669           34 
 1342000    0.7092155   -7.8411094    254.23025  0.015786776  0.015238037           53 
 1343000   0.71155646   -7.8087959    253.95991  0.015758247  0.015223396           30 
 1344000   0.69153549   -7.8609362      253.576  0.015722718  0.015208754           52 
 1345000   0.72515123    -7.818213    254.27615  0.015754408  0.015194095           51 
 1346000   0.71567873   -7.8311962    253.89025  0.015718812  0.015179456           22 
 1347000   0.71339344   -7.8481883    253.83287  0.015703592  0.015164857           27 
 1348000   0.72185995   -7.8510585    253.99727  0.015702106  0.015150284           28 
 1349000   0.71453618   -7.8501583    254.40077  0.015715392  0.015135712           50 
 1350000   0.69756353   -7.8447496    253.56608  0.015652227  0.015121165           37 
 1351000   0.69290105   -7.8556666    253.87257  0.015659547  0.015106618           27 
 1352000   0.70602847   -7.8415744    254.14515  0.015664765  0.015092064           24 
 1353000    0.7134764   -7.8231464      253.786  0.015631067  0.015077586           12 
 1354000   0.73339357   -7.8389332    253.85917  0.015624026  0.015063139           24 
 1355000   0.71128574   -7.8124339    254.36278  0.015643467  0.015048683           37 
 1356000   0.71665082   -7.8463829    253.83205  0.015599315  0.015034243           55 
 1357000   0.70006752    -7.852965    254.03941  0.015600553  0.015019779           34 
 1358000   0.70355871   -7.8444923    254.12994   0.01559462  0.015005335           64 
 1359000   0.70984237   -7.8486889    254.18368  0.015586441  0.014990941           16 
 1360000   0.70894931   -7.8456353    254.10701  0.015570282  0.014976546           24 
 1361000   0.70215703   -7.8592622    253.94108  0.015548682  0.014962199           26 
 1362000   0.69719357   -7.8712626    253.36001  0.015501714   0.01494783           42 
 1363000   0.71125239   -7.8723205    254.49185  0.015559541  0.014933499           57 
 1364000   0.71480584   -7.8759017    253.58118  0.015492496  0.014919171           44 
 1365000   0.70185537   -7.8594755    254.40096  0.015531194  0.014904853           76 
 1366000   0.70772213     -7.85993    253.77813  0.015481828  0.014890525           35 
 1367000   0.70139599   -7.8373808    253.81361  0.015472666  0.014876229           25 
 1368000   0.72183244   -7.8644978    254.11726  0.015479852  0.014861978           52 
 1369000   0.71974804   -7.8810935    254.19194  0.015473091   0.01484773           62 
 1370000   0.71868474   -7.8531197    254.26749  0.015466392  0.014833489           36 
 1371000   0.69566149   -7.8418888    254.30158  0.015457183  0.014819257           24 
 1372000   0.69193547   -7.8494683    254.18637  0.015438919   0.01480505           43 
 1373000   0.69600986   -7.8809337    253.70735  0.015398601  0.014790844           23 
 1374000   0.70471541   -7.8763563    254.25498  0.015420608  0.014776653           19 
 1375000   0.68707381   -7.8654129    254.08971  0.015399377  0.014762446           24 
 1376000   0.70586922   -7.8488625    253.86836   0.01537478  0.014748274           38 
 1377000   0.69533344   -7.8505065    254.15006  0.015380662  0.014734086           45 
 1378000   0.69872998    -7.865515    254.00515  0.015360737  0.014719945           35 
 1379000   0.70823988    -7.855084    253.98364  0.015348298  0.014705804           27 
 1380000   0.69530863   -7.8602292    254.13691  0.015346432    0.0146917           19 
 1381000   0.68991724   -7.8628533    254.03071  0.015328911  0.014677608           27 
 1382000    0.7025845   -7.8637348    254.27278  0.015332416  0.014663549           35 
 1383000   0.68227054   -7.8848209    253.97315  0.015303275  0.014649481           54 
 1384000   0.70267524   -7.8555222    254.24294  0.015308462  0.014635435           26 
 1385000   0.68813448     -7.88279    253.84989   0.01527376  0.014621387           43 
 1386000   0.70166126   -7.8821955    254.19773  0.015283654  0.014607365           23 
 1387000   0.69816078   -7.8810406    254.60222  0.015296937  0.014593346           44 
 1388000   0.70076605    -7.867655    253.45041  0.015216763  0.014579351           36 
 1389000   0.68613227   -7.8978328    254.11277  0.015245546  0.014565386           36 
 1390000   0.70352619    -7.889528    254.33528  0.015247919  0.014551404           38 
 1391000   0.68951173   -7.8730866    253.79274  0.015204453  0.014537429           34 
 1392000   0.67904029   -7.9073195    253.61977  0.015183176  0.014523483           47 
 1393000   0.69988364   -7.8843073    254.01574  0.015195965   0.01450953           55 
 1394000   0.69832108   -7.9002881     253.9988  0.015184051    0.0144956           48 
 1395000   0.69241614   -7.9162161    253.35126  0.015134484  0.014481678           41 
 1396000   0.68604982   -7.8887023     253.7233  0.015145851  0.014467797           62 
 1397000   0.67410787   -7.8735211    254.04875  0.015154423  0.014453935           45 
 1398000   0.68926605   -7.9206081    253.96859  0.015138805  0.014440076           50 
 1399000    0.6980681   -7.9039252    254.12731  0.015137438  0.014426216           41 
 1400000   0.68763763   -7.9192872    253.63958  0.015097594  0.014412359           48 
 1401000   0.68803523   -7.9318965    253.67805  0.015089106  0.014398488           61 
 1402000   0.70472597   -7.9078185    253.43446  0.015063865   0.01438462           71 
 1403000   0.70154934   -7.9097567    253.99568  0.015086462  0.014370792           38 
 1404000   0.69473707   -7.9060134    253.49232   0.01504584   0.01435693           92 
 1405000    0.6944495   -7.8981024    253.48289  0.015034573  0.014343091           67 
 1406000   0.69718154   -7.9334583    253.09986  0.015001177  0.014329252          147 
 1407000   0.68298743   -7.9262601    253.36114   0.01500599  0.014315439           94 
 1408000   0.68932211   -7.9202961    254.11597  0.015040008  0.014301644          105 
 1409000   0.68952963    -7.900747    254.12016  0.015029582  0.014287862           77 
 1410000   0.69672767   -7.9263654    253.83763  0.015002224  0.014274134          101 
 1411000   0.67613391   -7.9228673    253.59896  0.014977496  0.014260422           90 
 1412000   0.68401834   -7.8972595     253.3357  0.014951351  0.014246719           81 
 1413000    0.6909707   -7.9279265    253.60234  0.014956495  0.014233069          160 
 1414000   0.68464737   -7.9279042    253.93274   0.01496539  0.014219435          136 
 1415000   0.67364203   -7.9045522    253.58504  0.014934337  0.014205796          120 
 1416000   0.68221234   -7.9201603    253.61934  0.014925808  0.014192156          148 
 1417000   0.69485056    -7.893032    254.33112  0.014957135  0.014178523          157 
 1418000   0.68457195   -7.9274284    253.50959  0.014898307  0.014164888          123 
 1419000   0.68620952   -7.9397533    253.54157  0.014889686  0.014151233          143 
 1420000   0.69553331     -7.93318    253.46731  0.014874842  0.014137622          117 
 1421000   0.68134629   -7.8997907    254.38034  0.014917918  0.014124022          135 
 1422000   0.70146004   -7.9257153    253.78277  0.014872408  0.014110436          123 
 1423000   0.69837478   -7.9043359    253.18459  0.014826926  0.014096867           99 
 1424000   0.68963275   -7.9490869    253.54102  0.014837372  0.014083289          145 
 1425000   0.70114666   -7.9484331    253.22369  0.014808403   0.01406971          156 
 1426000   0.70675525   -7.9009004    252.93286  0.014781022  0.014056156          165 
 1427000   0.68378336       -7.932    253.46098  0.014801505  0.014042635          137 
 1428000   0.69446495   -7.9341601    253.51805  0.014794471  0.014029102          154 
 1429000   0.68497425   -7.9493015    253.03515  0.014755957  0.014015579          126 
 1430000    0.6980019    -7.939654    253.13476  0.014751443  0.014002058          137 
 1431000   0.70463955   -7.9283268    253.11479  0.014739971   0.01398857          167 
 1432000   0.66958017   -7.9123833    253.45972  0.014749751  0.013975134          174 
 1433000   0.67951494   -7.9354767     252.8504  0.014704024  0.013961653          204 
 1434000    0.6787487   -7.9561479    253.17453  0.014712607  0.013948163          208 
 1435000   0.68897852   -7.9299769    253.55556  0.014724481  0.013934715          155 
 1436000   0.66646235   -7.9529596    253.26075  0.014697119  0.013921272          178 
 1437000   0.68510959    -7.945434    253.23764  0.014685551  0.013907823          166 
 1438000   0.68197199   -7.9524334    253.73713  0.014704285  0.013894401          141 
 1439000   0.68073263   -7.9644765    253.40098  0.014674599  0.013880973          188 
 1440000    0.6770081   -7.9590225    252.99893  0.014641142  0.013867565          135 
 1441000   0.67255694   -7.9395839    253.23561  0.014644668  0.013854183          133 
 1442000   0.67978191   -7.9444555    253.62785   0.01465718  0.013840834          184 
 1443000   0.69238366   -7.9788802    253.02051  0.014611949  0.013827484          145 
 1444000   0.66877097   -7.9540251    253.50326  0.014629689  0.013814127          143 
 1445000   0.67542024   -7.9598962    253.44074   0.01461596  0.013800828          120 
 1446000   0.65931115   -7.9693766    253.18961  0.014591379  0.013787529          149 
 1447000   0.66201671   -7.9611405    253.44201  0.014595831  0.013774219          147 
 1448000   0.68803929    -7.964623    253.39215  0.014582882  0.013760908          164 
 1449000   0.66139333   -7.9366823     253.4806  0.014577904  0.013747638          151 
 1450000   0.68696353   -7.9781082    252.90373  0.014534697  0.013734389          179 
 1451000   0.67843111   -7.9589262    253.79146  0.014575664  0.013721135          148 
 1452000   0.67098765   -7.9563194    253.52039  0.014550069  0.013707891          135 
 1453000   0.69560821   -7.9472016    253.51514  0.014539753  0.013694659          149 
 1454000   0.68065816   -7.9493904    253.03669  0.014502332  0.013681453          176 
 1455000   0.67407814   -7.9415861     253.2051   0.01450201  0.013668264          141 
 1456000   0.67386886   -7.9427155    253.55597  0.014512132  0.013655108          168 
 1457000   0.66684049   -7.9748218    252.94617  0.014467294  0.013641973          173 
 1458000   0.67306515   -7.9522764    253.50002  0.014489027  0.013628814          160 
 1459000   0.68401936   -7.9589285    253.12437  0.014457641  0.013615698          194 
 1460000   0.68414728   -7.9557936    253.45966  0.014466876  0.013602563          198 
 1461000     0.663026   -7.9625054    253.01398  0.014431553  0.013589465          176 
 1462000   0.66686522    -7.978142    253.06304  0.014424478  0.013576356          190 
 1463000   0.67091722   -7.9894901    253.10889   0.01441723  0.013563268          149 
 1464000   0.65996821   -7.9651775    253.05159  0.014404121  0.013550189          165 
 1465000   0.68827675   -7.9907375    253.14502  0.014399603  0.013537139          148 
 1466000   0.65819278   -7.9744037    253.18902  0.014392282  0.013524131          158 
 1467000   0.66463619   -7.9595243    252.88716  0.014365324  0.013511101          167 
 1468000   0.65241296   -7.9870012    252.72759   0.01434648  0.013498079          159 
 1469000   0.67499665   -7.9460264    253.41967  0.014375974  0.013485074          123 
 1470000   0.67167332     -7.99358    252.73249  0.014327239  0.013472122          147 
 1471000   0.65297381   -7.9771714    253.17711  0.014342687  0.013459142          179 
 1472000   0.66169654   -7.9683155    252.97334  0.014321407  0.013446182          149 
 1473000   0.66502184   -7.9735329    252.94402  0.014310026   0.01343324          159 
 1474000   0.66905854   -7.9994895    253.08476  0.014308275   0.01342029          151 
 1475000   0.65553722   -7.9716085    253.26739  0.014308892   0.01340736          193 
 1476000   0.65010634   -7.9818494    253.01045  0.014284691  0.013394442          147 
 1477000   0.66714209    -7.983973    253.16357  0.014283659  0.013381535          176 
 1478000   0.66808098   -7.9870001    253.17018  0.014274368  0.013368637          174 
 1479000   0.66074829   -7.9857607    252.50159  0.014227045  0.013355741          143 
 1480000   0.66074535    -7.987167    252.82982  0.014235913  0.013342861          131 
 1481000     0.677739   -7.9944184    252.80385   0.01422484  0.013330004          119 
 1482000   0.65778552   -8.0086211    252.20469   0.01418155  0.013317145          144 
 1483000   0.66194338   -7.9848838    253.19689  0.014227742  0.013304302          194 
 1484000    0.6682335   -7.9828804    252.56784   0.01418283  0.013291459          161 
 1485000   0.65718966   -7.9985265    252.67462  0.014179271  0.013278649          146 
 1486000   0.66202643   -8.0047125    252.77787   0.01417552  0.013265846          202 
 1487000   0.64103258    -8.001434      252.634  0.014157924   0.01325305          157 
 1488000   0.65704617    -7.993405      252.337  0.014131776   0.01324024          188 
 1489000   0.64682874   -8.0095314    253.02716  0.014160911  0.013227483          162 
 1490000   0.66174513   -8.0076469    252.70321  0.014133289  0.013214712          192 
 1491000   0.64415434   -7.9996049    252.21874  0.014096733  0.013201964          148 
 1492000   0.66510754   -7.9938798    253.14897  0.014139241  0.013189218          190 
 1493000   0.65999929    -7.983949    252.89808  0.014115767  0.013176497          176 
 1494000   0.65528845   -7.9992732    252.47553  0.014082749  0.013163804          144 
 1495000     0.650202   -8.0035158    252.39355   0.01406876  0.013151084          235 
 1496000   0.65350155   -7.9979017     252.4244  0.014061074   0.01313839          177 
 1497000   0.66344043   -8.0179083    252.45649  0.014053467  0.013125702          143 
 1498000   0.67597605   -8.0183359    252.20974   0.01403036   0.01311303          196 
 1499000     0.653096   -8.0011648     252.4619  0.014035018  0.013100356          208 
 1500000   0.67988543   -7.9962638    252.36207  0.014020115   0.01308769          177 
 1501000   0.66262635   -7.9986314    252.78851   0.01403445  0.013075081          176 
 1502000   0.63703261   -8.0361995    252.47695   0.01400782   0.01306248          181 
 1503000   0.64437497   -8.0234088    251.90062  0.013966546  0.013049875          195 
 1504000   0.65249172   -8.0118416    252.57052  0.013994377  0.013037282          193 
 1505000   0.65063384   -8.0178851    252.29126  0.013969616  0.013024694          224 
 1506000   0.66748027   -8.0413308    252.57837  0.013976227  0.013012103          199 
 1507000   0.63878132   -8.0063933    252.76735  0.013977403  0.012999558          235 
 1508000   0.64026583   -8.0069638     252.6431  0.013961268  0.012987016          173 
 1509000    0.6595553   -8.0177263    252.19335  0.013927179  0.012974489          227 
 1510000   0.64711698   -8.0205319    252.58608  0.013939629  0.012961967          163 
 1511000   0.65339492   -8.0358743    252.39689   0.01391997  0.012949424          206 
 1512000   0.64128051   -8.0203802    252.18728  0.013899211  0.012936919          196 
 1513000    0.6466966   -8.0475286    251.76557  0.013866797  0.012924422          209 
 1514000   0.66527864   -8.0162672     252.8791  0.013918929  0.012911952          177 
 1515000   0.66006621   -8.0135665    252.42804  0.013884931  0.012899515          149 
 1516000   0.65066944   -8.0219534    252.23967  0.013865417  0.012887075          181 
 1517000   0.64635723   -8.0324346    251.99497  0.013842835  0.012874631          253 
 1518000   0.65385067   -8.0081886    252.33627  0.013852452  0.012862213          180 
 1519000   0.64830791   -8.0268518    252.37891  0.013845672  0.012849814          171 
 1520000   0.64954754   -8.0270959    251.66229  0.013797274  0.012837443          188 
 1521000   0.64004063   -8.0492807    252.12586  0.013813602  0.012825096          161 
 1522000   0.63846015   -8.0340329    251.71075  0.013781798  0.012812751          189 
 1523000   0.63849388   -8.0371492    251.88349    0.0137822  0.012800399          156 
 1524000   0.64483225    -8.020224    252.62164  0.013813519  0.012788065          185 
 1525000    0.6475596   -8.0340282    252.19185  0.013780975  0.012775761          192 
 1526000   0.65074671   -8.0330123    251.96493  0.013759553  0.012763485          196 
 1527000   0.65016649   -8.0305563    251.91397  0.013747761    0.0127512          204 
 1528000   0.64726997   -8.0426114    251.60336  0.013721823  0.012738933          227 
 1529000   0.62935785   -8.0507548    252.44065  0.013758483  0.012726685          198 
 1530000   0.64255908   -8.0723868    252.06263  0.013728901  0.012714437          181 
 1531000    0.6434746   -8.0414363    252.35863  0.013736046  0.012702198          179 
 1532000    0.6404862   -8.0375732    252.56055  0.013738063  0.012689966          202 
 1533000   0.63654037   -8.0542047    252.09997  0.013704064  0.012677754          243 
 1534000   0.65389556    -8.056432    252.10072  0.013695171   0.01266555          226 
 1535000   0.63788914   -8.0369964    252.58865  0.013712739  0.012653349          239 
 1536000   0.64531409   -8.0660193     251.6312  0.013651866  0.012641156          209 
 1537000    0.6340296   -8.0785731    251.51457   0.01363666   0.01262897          299 
 1538000   0.62708726   -8.0520324    252.16088  0.013662813  0.012616804          230 
 1539000   0.64599415   -8.0476779    252.24347  0.013658407  0.012604706          248 
 1540000    0.6307776   -8.0552965    252.04369  0.013638728  0.012592597          233 
 1541000   0.63711242   -8.0609141    252.20082  0.013638374  0.012580505          275 
 1542000   0.64821176   -8.0547798    252.33539  0.013636802  0.012568412          267 
 1543000   0.64104947   -8.0405857    251.63564  0.013590173  0.012556356          276 
 1544000   0.63738426   -8.0437159    252.15142  0.013609209  0.012544336          266 
 1545000   0.62897622   -8.0590598     252.0125  0.013592907  0.012532314          276 
 1546000   0.63635502    -8.045767    252.15121  0.013591592  0.012520305          257 
 1547000   0.62406642   -8.0188373    252.39414  0.013595892  0.012508313          210 
 1548000   0.63257732   -8.0555209    251.96988   0.01356427  0.012496316          283 
 1549000   0.64690123   -8.0610929    252.48161  0.013583043  0.012484334          247 
 1550000   0.64220057   -8.0512055    251.76879  0.013535956  0.012472367          255 
 1551000   0.64250949   -8.0663938    252.04539   0.01354209  0.012460425          249 
 1552000   0.63760829   -8.0596681    252.13977  0.013538432  0.012448494          218 
 1553000   0.63585188   -8.0620544    251.58852  0.013500135  0.012436572          241 
 1554000    0.6323637   -8.0678834    251.97072  0.013511943  0.012424649          222 
 1555000   0.62547822   -8.0869017    252.05325  0.013507677   0.01241273          236 
 1556000   0.64471617   -8.0708342    251.75306  0.013482919  0.012400811          288 
 1557000   0.63250983   -8.0618933    252.09403  0.013492508  0.012388922          285 
 1558000   0.64076807   -8.0649828    252.21095  0.013490102  0.012377058          278 
 1559000   0.63114028   -8.0793854    252.05999   0.01347338  0.012365213          289 
 1560000   0.64102465   -8.0568133    252.28665  0.013476851  0.012353372          312 
 1561000    0.6312372   -8.0715915    252.03654  0.013454866  0.012341556          292 
 1562000   0.62488102   -8.0821739    251.73656  0.013430248  0.012329732          327 
 1563000    0.6332059   -8.0655339    251.97356  0.013434291  0.012317907          352 
 1564000   0.62756031   -8.0605161    252.52476   0.01345507   0.01230613          250 
 1565000   0.62209205   -8.0670087    251.82538  0.013409232  0.012294357          311 
 1566000   0.63312966     -8.07055    251.94872  0.013407233  0.012282589          293 
 1567000   0.63943591   -8.0718723    251.92783  0.013397566  0.012270849          240 
 1568000   0.61568249   -8.0731273    252.18067  0.013402459  0.012259117          265 
 1569000   0.62035092   -8.0692199    251.54883  0.013360358  0.012247387          309 
 1570000   0.64607622   -8.0510027    251.74969   0.01336251  0.012235666          284 
 1571000   0.63093203   -8.0886338    252.07059  0.013371026  0.012223966          289 
 1572000    0.6314153   -8.0657657     252.0148  0.013359563  0.012212268          289 
 1573000   0.62349433   -8.0637923    251.95336  0.013347815  0.012200577          248 
 1574000   0.63746114   -8.0808561    251.47197  0.013313848  0.012188911          272 
 1575000   0.62132234   -8.0700654    251.82649  0.013324153  0.012177248          212 
 1576000   0.62259767   -8.0900689    251.70917  0.013309495  0.012165563          238 
 1577000   0.61110346   -8.0912528    251.89596  0.013310926  0.012153919          263 
 1578000   0.63434956   -8.0771812    252.21107  0.013319131  0.012142298          301 
 1579000   0.62453734   -8.0837927    251.55081   0.01327585  0.012130677          270 
 1580000   0.61954497   -8.0780061    251.98403  0.013290297  0.012119079          258 
 1581000    0.6342254   -8.0597716    252.03437  0.013284544  0.012107489          243 
 1582000   0.61352566   -8.0800533    251.56647    0.0132515  0.012095918          260 
 1583000   0.64306898    -8.097729    251.55234  0.013242385  0.012084357          278 
 1584000   0.62189184   -8.0912159    251.38497  0.013225219  0.012072797          256 
 1585000   0.61605554   -8.0884701    251.98332  0.013248335  0.012061262          289 
 1586000   0.62527263   -8.1044778    251.57575  0.013218566  0.012049748          259 
 1587000   0.60894653   -8.1147871    251.21096  0.013191082   0.01203823          238 
 1588000   0.63678558   -8.1070549    251.54693  0.013200406  0.012026739          362 
 1589000   0.61509326   -8.1005776    251.38704  0.013183713  0.012015257          339 
 1590000   0.61877557   -8.0710838    251.74905  0.013194395  0.012003758          281 
 1591000   0.62338341   -8.1181606    251.69773  0.013183413  0.011992269          380 
 1592000   0.61420193   -8.1023644    251.37198  0.013158081  0.011980778          276 
 1593000   0.62027869   -8.0879169    251.20693  0.013141187  0.011969322          304 
 1594000   0.61681545   -8.1157497    251.41264  0.013143697  0.011957896          263 
 1595000   0.61296431   -8.1082533    251.22503  0.013125655  0.011946457          337 
 1596000   0.60605568   -8.1066079    251.36987  0.013124993  0.011935025          248 
 1597000    0.6089881   -8.1190402    252.00926  0.013150139  0.011923609          294 
 1598000    0.6176922   -8.1092918    251.17952   0.01309864  0.011912229          293 
 1599000   0.60627702   -8.1170683    251.75065  0.013120213  0.011900871          368 
 1600000   0.62360117   -8.0904625     251.9253  0.013121109  0.011889532          333 
 1601000   0.60095161   -8.1375543     251.1964  0.013074974  0.011878173          359 
 1602000   0.61115579   -8.1086439    251.62484  0.013089099  0.011866829          349 
 1603000   0.60969966    -8.105537    251.67206  0.013083388  0.011855505          286 
 1604000   0.61507866    -8.107118     251.5218  0.013067425  0.011844187          289 
 1605000   0.60882804   -8.0961275    250.88249   0.01302609  0.011832852          381 
 1606000   0.60205668    -8.102369    251.23416  0.013036227  0.011821558          241 
 1607000   0.60486455   -8.1226652    251.30334  0.013031702  0.011810272          319 
 1608000   0.61010176   -8.1075347     251.7125  0.013044802  0.011798986          315 
 1609000   0.62197786   -8.1341072    250.99348  0.012999455  0.011787724          268 
 1610000   0.60955531   -8.0838523    251.14781  0.012999369  0.011776479          332 
 1611000   0.60979862   -8.1263931    251.06673  0.012987106  0.011765253          307 
 1612000   0.60258654   -8.1145486      251.462  0.012999483   0.01175405          320 
 1613000   0.59348653   -8.1085564     250.9925  0.012967168  0.011742831          295 
 1614000   0.61886207   -8.1238216    251.39823  0.012980082  0.011731634          297 
 1615000   0.60753702   -8.1285857    251.59925  0.012982417  0.011720429          418 
 1616000   0.60773499   -8.1306263    251.15006   0.01295122  0.011709246          338 
 1617000   0.62204151   -8.1124767    251.56899  0.012964801  0.011698087          328 
 1618000    0.6030992   -8.1287767    250.94291  0.012924542  0.011686951          384 
 1619000   0.58934663    -8.133302    251.11576  0.012925456  0.011675797          353 
 1620000    0.6059396   -8.1157271    251.32454  0.012928217  0.011664674          304 
 1621000   0.60862568    -8.117236     250.6713  0.012886659  0.011653552          423 
 1622000   0.60281847   -8.1271411    250.74177  0.012882335  0.011642435          374 
 1623000   0.59923064   -8.1187816    251.15305  0.012895515  0.011631333          416 
 1624000   0.59606501    -8.119526    251.15245  0.012887544  0.011620248          307 
 1625000   0.60558955   -8.1552779    250.94378  0.012868912  0.011609186          331 
 1626000   0.60189507   -8.1265413    251.13147  0.012870617  0.011598115          460 
 1627000   0.59806483   -8.1364169     251.2595  0.012869264  0.011587077          408 
 1628000   0.60901209   -8.1469078     250.9472  0.012845373  0.011576051          289 
 1629000   0.59741288   -8.1200334    251.25309  0.012853135  0.011565026          439 
 1630000   0.59536156   -8.1499435    250.88219  0.012826288  0.011554019          296 
 1631000   0.60862577   -8.1429683    250.86452  0.012817521  0.011543014          379 
 1632000   0.60034335   -8.1382548    251.21062   0.01282734  0.011532018          271 
 1633000   0.60469046   -8.1458451     250.6323  0.012789972  0.011521039          327 
 1634000   0.60189644   -8.1377608    250.65036  0.012783066  0.011510067          350 
 1635000   0.59791077   -8.1592083    250.84928  0.012785386  0.011499101          380 
 1636000   0.59376392   -8.1356878    251.23527  0.012797233  0.011488141          328 
 1637000   0.60056142   -8.1562299    251.02731  0.012778829  0.011477193          390 
 1638000   0.59622135   -8.1520321    250.54526  0.012746503  0.011466263          294 
 1639000   0.59144805   -8.1514065    251.27474  0.012775816  0.011455338          363 
 1640000   0.59651325   -8.1488001    250.76614  0.012742182  0.011444438          408 
 1641000   0.58877558   -8.1449486    250.83922  0.012738128  0.011433549          392 
 1642000   0.60223232     -8.14816    250.88792  0.012732842  0.011422689          283 
 1643000   0.60020129    -8.153021    251.06509  0.012734079  0.011411831          281 
 1644000   0.59423389   -8.1519677    250.85723  0.012715796  0.011401003          328 
 1645000   0.59337215   -8.1515737    251.05373  0.012718021  0.011390167          375 
 1646000   0.58684807   -8.1347292    251.23263  0.012719351  0.011379354          274 
 1647000   0.59185602   -8.1755028    250.62113  0.012680689  0.011368552          295 
 1648000   0.60261857   -8.1422151    250.77498  0.012680774  0.011357765          271 
 1649000   0.59768896   -8.1366151     251.7168  0.012720679  0.011346987          281 
 1650000   0.58192364   -8.1600603    250.56228  0.012654661  0.011336232          329 
 1651000   0.58950976   -8.1550887    251.08629  0.012673445  0.011325484          273 
 1652000    0.5834896   -8.1715066    250.96842  0.012659827  0.011314742          262 
 1653000    0.5858817   -8.1554642    250.96421  0.012651957  0.011304013          329 
 1654000    0.5976978    -8.171446    251.06445  0.012649357  0.011293293          336 
 1655000   0.58561257   -8.1514822    250.47741  0.012612155  0.011282602          294 
 1656000   0.58848521   -8.1470344    250.49871  0.012605611  0.011271929          341 
 1657000   0.58043551   -8.1583414    250.46439  0.012596278  0.011261249          370 
 1658000   0.58163044   -8.1746165    250.62512  0.012596759  0.011250591          283 
 1659000   0.59334829   -8.1675199    250.45618   0.01258068  0.011239934          261 
 1660000   0.56733953   -8.1520567    250.74602  0.012587652  0.011229292          288 
 1661000   0.59667975   -8.1542815     250.8817   0.01258688  0.011218651          394 
 1662000   0.58995685   -8.1699993    250.78984  0.012574701  0.011208042          363 
 1663000    0.5886692    -8.184075    250.44249  0.012549734   0.01119742          342 
 1664000   0.57525758   -8.1600069    250.70124   0.01255515  0.011186831          298 
 1665000   0.60025025   -8.1834065    250.63895  0.012544492  0.011176244          268 
 1666000   0.57715735   -8.1594113    250.66286  0.012538158  0.011165671          301 
 1667000   0.56873057   -8.1810951    250.38436  0.012516715  0.011155103          316 
 1668000   0.58941348   -8.1728139    250.46362  0.012513171  0.011144544          297 
 1669000   0.57481052   -8.1779439    250.92916  0.012528917  0.011134009          284 
 1670000     0.579471   -8.1597792    250.88679  0.012519301  0.011123482          316 
 1671000   0.57986504    -8.167087    250.67963  0.012501478  0.011112967          295 
 1672000   0.58242315   -8.1588445    250.78341  0.012499173  0.011102463          287 
 1673000   0.60054373   -8.1401097    250.49866  0.012477518  0.011091983          407 
 1674000   0.59708435   -8.1523518    250.62048  0.012476129  0.011081513          301 
 1675000   0.58596908   -8.1614826    250.61866   0.01246859  0.011071056          399 
 1676000   0.58442265   -8.1572106    250.09672  0.012435199  0.011060608          308 
 1677000   0.57397019   -8.1676524     250.4672  0.012446193  0.011050176          337 
 1678000   0.59023905   -8.1745759    250.90114  0.012460327  0.011039757          355 
 1679000   0.59636869   -8.1585291    250.91073  0.012453382  0.011029349          344 
 1680000   0.58295958   -8.1724912    250.38334  0.012419808  0.011018958          286 
 1681000    0.5856108   -8.1864926    250.25175  0.012405897  0.011008568          323 
 1682000   0.57019634   -8.1638216    250.47888  0.012409774  0.010998183          278 
 1683000   0.58162907   -8.1751879    250.35599  0.012396316  0.010987818          381 
 1684000   0.58495509   -8.1750185    250.89169  0.012415463  0.010977466          319 
 1685000   0.58256338   -8.1820689    250.64665  0.012395977   0.01096713          390 
 1686000   0.57743728   -8.1883368    250.21985  0.012367529  0.010956817          282 
 1687000   0.58323501   -8.1909146    250.01563   0.01235011  0.010946503          364 
 1688000   0.57813987   -8.1884838    250.54082  0.012368722  0.010936205          335 
 1689000   0.58395711   -8.1748694    250.73251  0.012370856  0.010925904          439 
 1690000   0.57479267   -8.1894961     250.8726  0.012370444   0.01091562          402 
 1691000   0.57219769   -8.1748746    249.93056  0.012316704   0.01090536          388 
 1692000   0.58860638   -8.1748799    250.60807  0.012342793  0.010895111          343 
 1693000   0.57101587   -8.1955097    250.25615   0.01231818  0.010884879          352 
 1694000   0.57814919   -8.1807215    250.80701  0.012338007  0.010874649          346 
 1695000   0.58435315   -8.1737966    250.31443  0.012306511  0.010864432          298 
 1696000    0.5909516   -8.2132894    250.15386  0.012291365  0.010854216          296 
 1697000   0.57251186    -8.187646    250.53104  0.012302644  0.010844021          336 
 1698000   0.56958492   -8.1622351    250.93008  0.012314982   0.01083385          328 
 1699000   0.58657114   -8.1881119    250.45848  0.012284603  0.010823684          409 
 1700000   0.57397638   -8.1891144    250.63881  0.012286216  0.010813524          434 
 1701000   0.56641791    -8.192198    250.21315   0.01225814  0.010803388          339 
 1702000    0.5680077   -8.1926435    250.53679  0.012266784  0.010793255          374 
 1703000   0.57332207   -8.2077541    250.53533  0.012259509  0.010783117          375 
 1704000   0.58535459   -8.2119913     250.2718  0.012239427  0.010773012          376 
 1705000   0.57893467   -8.1903475    250.10778  0.012224232  0.010762901          378 
 1706000   0.57413706   -8.1988335    250.18404  0.012220791  0.010752806          320 
 1707000   0.58595754   -8.2014347    250.11485  0.012210255  0.010742717          315 
 1708000   0.57564901   -8.2177942    249.85993  0.012190668  0.010732646          393 
 1709000     0.573099   -8.2102917    250.34194  0.012207038  0.010722578          426 
 1710000   0.57562225   -8.2052795    250.35162  0.012200371  0.010712528          303 
 1711000    0.5839582   -8.1936659    250.77318  0.012213773  0.010702487          327 
 1712000   0.56509861    -8.181461    250.23188   0.01218029  0.010692473          292 
 1713000   0.56281403   -8.2013008    250.30636  0.012176803  0.010682461          397 
 1714000   0.57108608   -8.2141472    250.14947  0.012162071  0.010672474          360 
 1715000   0.56601847   -8.2115512      250.161  0.012155539  0.010662495          404 
 1716000   0.56181286   -8.2233473    249.81837  0.012131817  0.010652527          335 
 1717000   0.56848424   -8.1918799    250.47979  0.012156853  0.010642561          337 
 1718000   0.57790541   -8.2193492    250.38405  0.012145132  0.010632602          304 
 1719000   0.56370953   -8.2117951    250.03148  0.012120976  0.010622668          381 
 1720000   0.58559098   -8.2118259    250.35089  0.012129404   0.01061274          410 
 1721000   0.55938462   -8.2001808    250.15404  0.012112824  0.010602808          325 
 1722000   0.56943437   -8.2047286    250.37994  0.012116722  0.010592897          401 
 1723000   0.56931143   -8.2155289    250.12874   0.01209754  0.010583001          352 
 1724000   0.56112046    -8.216257    250.32497  0.012100008  0.010573112          374 
 1725000   0.56856997   -8.1951225    249.87857  0.012071429  0.010563217          393 
 1726000   0.55552177   -8.2136084    250.09571  0.012074918  0.010553343          293 
 1727000   0.56373722    -8.220321    249.86239  0.012056668   0.01054347          344 
 1728000   0.56045838   -8.2108126     249.9198  0.012052459  0.010533623          442 
 1729000   0.55967089     -8.20035    249.81658  0.012040514  0.010523793          330 
 1730000    0.5634252   -8.2105962    249.81241  0.012033353  0.010513972          330 
 1731000   0.56477016   -8.2129721    249.64506  0.012018345  0.010504149          340 
 1732000   0.57348735   -8.2113451    250.01256  0.012029088  0.010494344          384 
 1733000   0.56965382   -8.2201927    250.05336  0.012024109  0.010484549          316 
 1734000   0.56022722   -8.2025355     250.1788  0.012023203  0.010474779          308 
 1735000    0.5747263   -8.2424195    250.07609   0.01201134  0.010465022          298 
 1736000   0.56212858   -8.2103425    250.14686  0.012007818  0.010455271          310 
 1737000   0.57005005   -8.2079269    250.01414  0.011994538  0.010445523          361 
 1738000   0.55345296   -8.2045374    250.42858  0.012007508  0.010435801          323 
 1739000   0.56879707   -8.2200417    249.74003  0.011967608  0.010426076          327 
 1740000   0.55012114   -8.2261554      249.912  0.011968966  0.010416351          295 
 1741000    0.5678598   -8.2339859    250.06177   0.01196926  0.010406634          300 
 1742000   0.56205646   -8.2394121    250.21428  0.011969684  0.010396948          357 
 1743000    0.5644242    -8.197032    249.63029  0.011934896  0.010387275          259 
 1744000   0.55131788   -8.1962284     250.2088  0.011955696  0.010377622          314 
 1745000   0.55178656   -8.2065751    249.87724  0.011933011  0.010367987          293 
 1746000   0.54423744   -8.2266279    249.82659  0.011923758  0.010358339          377 
 1747000   0.54317141   -8.2231413    250.06766  0.011928433  0.010348708          355 
 1748000   0.55151659   -8.2284364    249.38575  0.011889099  0.010339088          299 
 1749000   0.55233686   -8.2290362    250.32271  0.011926945  0.010329477          380 
 1750000   0.56367371   -8.2192736    250.12313  0.011910625  0.010319879          331 
 1751000   0.55787681   -8.2117907    249.46396  0.011872452  0.010310293          339 
 1752000   0.55810749   -8.2210108    249.72161  0.011877931  0.010300718          406 
 1753000   0.57057503   -8.2284778    249.73497   0.01187179  0.010291168          362 
 1754000   0.55271828    -8.204126    249.85248  0.011870604  0.010281614          411 
 1755000   0.54725834   -8.2045939    249.42508  0.011843546  0.010272079          393 
 1756000   0.56090616   -8.2352399    250.10022  0.011868841   0.01026255          255 
 1757000   0.56025471   -8.2343603    249.28831  0.011823577  0.010253017          349 
 1758000   0.54672779   -8.2318385    250.05762  0.011853319  0.010243508          391 
 1759000   0.55801454   -8.2217673    249.85192  0.011836835  0.010234017          344 
 1760000   0.56225975    -8.223106    250.10347   0.01184202  0.010224532          317 
 1761000   0.56057313   -8.2400381    249.62836  0.011812813  0.010215067          423 
 1762000    0.5477235   -8.2366359    249.71589  0.011810248  0.010205602          347 
 1763000   0.56200572   -8.2499867    249.38287  0.011787808  0.010196146          349 
 1764000   0.54450359   -8.2483983    250.02492  0.011811457   0.01018671          331 
 1765000   0.55149199   -8.2472495    249.73235  0.011790951  0.010177286          303 
 1766000   0.54948269   -8.2389089    249.88389  0.011791426  0.010167851          300 
 1767000   0.55475232   -8.2423859     250.0039  0.011790412  0.010158428          351 
 1768000   0.54408866   -8.2485583    249.70424  0.011769619  0.010149013          424 
 1769000   0.53877874   -8.2438584    250.06469  0.011779946  0.010139615          432 
 1770000   0.54332427   -8.2263392    249.57023  0.011750011  0.010130218          318 
 1771000   0.55214957   -8.2435425    249.54176  0.011742037  0.010120842          347 
 1772000   0.54694169   -8.2339067    249.83483  0.011749193  0.010111478          369 
 1773000   0.55024851   -8.2535061    249.16441  0.011711055  0.010102127          357 
 1774000   0.54120133   -8.2381016     249.8091  0.011734738  0.010092806          354 
 1775000   0.56474192   -8.2438283    249.67278  0.011721727  0.010083476          292 
 1776000   0.53332578   -8.2302863    249.60431  0.011711914  0.010074163          317 
 1777000   0.52919903   -8.2582935    249.49041  0.011699982  0.010064853          420 
 1778000   0.55974847   -8.2591579    249.63492  0.011700174   0.01005556          438 
 1779000   0.55245523   -8.2473623     249.2554   0.01167582  0.010046272          298 
 1780000   0.53736186   -8.2543167     249.5869   0.01168478  0.010037001          469 
 1781000   0.53899852   -8.2482448     249.6033  0.011678986  0.010027741          307 
 1782000   0.54122901   -8.2534209    249.20739  0.011653918  0.010018481          429 
 1783000   0.54528141   -8.2399739     249.6252   0.01166691  0.010009248          318 
 1784000    0.5367547   -8.2516989    249.85413  0.011671063  0.010000013          309 
 1785000   0.54021226   -8.2477996    249.34673  0.011640837 0.0099907923          321 
 1786000   0.54910596   -8.2620422    249.47277    0.0116402  0.009981587          382 
 1787000   0.54406213   -8.2418302    249.64807  0.011641861 0.0099723985          324 
 1788000   0.53824431   -8.2488823    249.74732  0.011639976 0.0099632127          304 
 1789000   0.53603069   -8.2697923    248.98148  0.011597796 0.0099540353          356 
 1790000   0.53098766   -8.2390927    249.31149   0.01160668 0.0099448708          382 
 1791000    0.5338714   -8.2604326    249.32424  0.011600793 0.0099357128          271 
 1792000   0.54128191   -8.2567782    249.42264  0.011598895 0.0099265654          289 
 1793000   0.54301779   -8.2560132    249.70989  0.011605777 0.0099174317          378 
 1794000   0.53724063   -8.2612544    249.61553  0.011594924 0.0099083157          372 
 1795000     0.537719   -8.2566829    249.72113  0.011593367 0.0098992065          346 
 1796000   0.53750705   -8.2579219    249.53242  0.011578156 0.0098901138          297 
 1797000   0.52898296   -8.2560696    249.91203  0.011589317 0.0098810224          335 
 1798000   0.52933301    -8.271463    249.27179  0.011553198 0.0098719423          312 
 1799000   0.53379952    -8.268231    249.37397  0.011551509   0.00986289          319 
 1800000   0.53922082   -8.2655606    249.50137  0.011550989 0.0098538418          351 
 1801000   0.53670346   -8.2372178    249.59316  0.011548823 0.0098448148          435 
 1802000   0.53215307   -8.2360382     249.8781  0.011555591  0.009835788          357 
 1803000   0.53496692   -8.2542227    249.45815  0.011529772 0.0098267717          452 
 1804000   0.53624288   -8.2706686    249.50385  0.011525492 0.0098177666          314 
 1805000    0.5337032   -8.2814118    249.31714  0.011510487 0.0098087697          299 
 1806000   0.53772558   -8.2683579     249.2327  0.011500217 0.0097997794          298 
 1807000   0.53728877   -8.2594567    249.34179  0.011498883 0.0097908212          418 
 1808000   0.52726847   -8.2644035    249.35805  0.011493273 0.0097818563          355 
 1809000   0.53480242   -8.2751158    249.15567  0.011477597  0.009772911          306 
 1810000   0.52797046   -8.2647515    249.62443  0.011492838 0.0097639694          299 
 1811000   0.53232608   -8.2711527     249.0039  0.011457938 0.0097550432          304 
 1812000   0.53270329   -8.2658006    249.38608  0.011469191 0.0097461283          362 
 1813000   0.53773644   -8.2734816    249.10131  0.011449775 0.0097372188          334 
 1814000   0.52625669   -8.2811449    249.03514  0.011440423 0.0097283151          446 
 1815000    0.5362271   -8.2648578    249.26593  0.011444716 0.0097194365          436 
 1816000   0.52447668   -8.2783987    248.82886  0.011418358 0.0097105608          322 
 1817000   0.52823256   -8.2728055    249.42114  0.011439238 0.0097016944          419 
 1818000   0.53749223   -8.2651534    249.73587  0.011447372 0.0096928459          354 
 1819000   0.52224424   -8.2623713    249.86053   0.01144679 0.0096840007          508 
 1820000   0.53223275   -8.2720488    249.34255  0.011416783  0.009675178          356 
 1821000   0.53208517   -8.2809496    249.32786  0.011409842 0.0096663526          288 
 1822000   0.52246608   -8.2670047    249.34445  0.011404338 0.0096575388          355 
 1823000    0.5150931   -8.2670838    249.63555  0.011411389  0.009648738          353 
 1824000   0.52696628   -8.2668163    248.85036   0.01136926 0.0096399421          346 
 1825000   0.52585603    -8.265759    249.13502  0.011376028 0.0096311618          357 
 1826000    0.5305065   -8.2759696    249.42924  0.011383225 0.0096223761          277 
 1827000   0.52488117   -8.2655206    248.96738  0.011355929  0.009613604          482 
 1828000   0.52577442   -8.2809475    249.41887  0.011370299 0.0096048491          281 
 1829000   0.52194858   -8.2948738    249.22805  0.011355388  0.009596104          360 
 1830000   0.51828583   -8.2844048    248.86702  0.011332742 0.0095873687          276 
 1831000   0.51315124   -8.3040075    249.17779  0.011340697  0.009578641          404 
 1832000   0.51657221    -8.283017    249.13182  0.011332415 0.0095699243          427 
 1833000   0.52157451   -8.2896754    248.50864  0.011297901 0.0095612193          293 
 1834000   0.52178723    -8.270867     249.1938  0.011322873 0.0095525254          430 
 1835000   0.51041778   -8.2884864    249.02628  0.011309095 0.0095438404          517 
 1836000   0.53294375   -8.2793186    248.56154  0.011281842 0.0095351654          324 
 1837000   0.52518681   -8.2887748    249.14516  0.011302176 0.0095265037          391 
 1838000   0.51469002   -8.2856772    249.14207  0.011295886 0.0095178485          461 
 1839000   0.52605216   -8.2858933    248.89427  0.011278515 0.0095092062          441 
 1840000   0.52096869   -8.2849194    248.85746  0.011270718 0.0095005734          370 
 1841000   0.50625499   -8.2801596    248.91275  0.011267099 0.0094919534          347 
 1842000   0.51776155   -8.2715449    249.27843  0.011277526 0.0094833303          423 
 1843000     0.519995   -8.3028466    249.30638  0.011272671 0.0094747375          600 
 1844000   0.51263084   -8.2852947    249.19762  0.011261642 0.0094661372          292 
 1845000   0.51179153   -8.2983974    249.21762  0.011256442 0.0094575581          314 
 1846000   0.51869073   -8.2801265    248.58873  0.011221954 0.0094489732          408 
 1847000   0.51457748   -8.2948205    248.78244  0.011224618 0.0094403953          427 
 1848000   0.51531344   -8.2920343    249.37106  0.011245087 0.0094318333          267 
 1849000   0.52281741   -8.2971532    249.11225  0.011227341 0.0094232833          371 
 1850000   0.50917441   -8.2901392    249.11883  0.011221569 0.0094147532          349 
 1851000   0.52212912   -8.2961878    249.28134  0.011222823 0.0094062174          321 
 1852000   0.50746555   -8.3005184    249.13099  0.011209998 0.0093976949          377 
 1853000   0.51650909   -8.3062427    248.62599  0.011181237 0.0093891823          442 
 1854000    0.5109101   -8.2850257    248.73236  0.011179987 0.0093806897          339 
 1855000   0.51569409   -8.2852271    248.74327  0.011174451  0.009372193          404 
 1856000   0.51621846   -8.2898417    249.01718  0.011180728 0.0093637145          423 
 1857000   0.52280472   -8.2998422    249.08718  0.011177849 0.0093552408          279 
 1858000   0.51220677   -8.3023263    248.66104   0.01115272 0.0093467773          307 
 1859000   0.51528748    -8.299745    248.97255  0.011160685 0.0093383295          323 
 1860000   0.51862066   -8.3065565    248.80182  0.011147035 0.0093298857          411 
 1861000   0.50516655   -8.3162685    248.62922  0.011133316 0.0093214562          299 
 1862000   0.50675516   -8.3024758    249.05487  0.011146387 0.0093130365          399 
 1863000   0.50077189   -8.3057933    248.62623  0.011121231 0.0093046267          334 
 1864000   0.51523041   -8.3216369    248.71987   0.01111945 0.0092962244          375 
 1865000   0.50417626   -8.2981666    248.74651  0.011114679 0.0092878296          357 
 1866000   0.51069274   -8.3054932    248.79092  0.011110706 0.0092794415          509 
 1867000    0.5091982   -8.3096789    248.43382  0.011088815  0.009271074          400 
 1868000   0.50955567     -8.30764    248.99066   0.01110772 0.0092627077          478 
 1869000   0.51350319   -8.3061492    248.72354  0.011089867 0.0092543513          448 
 1870000   0.51136822   -8.2968596     248.9293  0.011093106 0.0092459971          311 
 1871000   0.50665647   -8.3083496    248.75251  0.011079303 0.0092376588          362 
 1872000   0.49985096   -8.2832585    248.72318  0.011072079 0.0092293248          380 
 1873000   0.51484037    -8.299107    248.81394  0.011070206 0.0092210089          300 
 1874000   0.50924127   -8.3057076    248.56296  0.011053138 0.0092127017          326 
 1875000   0.51234465   -8.3087704    248.77872  0.011056832 0.0092044097          311 
 1876000   0.50659719    -8.320966    249.01035  0.011061227 0.0091961201          312 
 1877000   0.51679734   -8.3133626    248.31991  0.011024681 0.0091878415          405 
 1878000   0.51074927   -8.3155678    248.60351  0.011031395 0.0091795717          332 
 1879000   0.50559884   -8.3287798    248.88991  0.011038226 0.0091713092          329 
 1880000   0.49470081   -8.3271764    249.21645  0.011046829 0.0091630597          517 
 1881000   0.47683508   -8.3104414    248.95046  0.011029171  0.009154812          282 
 1882000   0.50252756   -8.3167554    248.79408  0.011016387 0.0091465716          385 
 1883000   0.50458786   -8.3261654     248.6534   0.01100431 0.0091383461          439 
 1884000   0.49837631   -8.3081234    249.00589  0.011014061  0.009130126          383 
 1885000    0.5070284   -8.3053961    248.73775  0.010996364 0.0091219152          405 
 1886000   0.50716805   -8.3084117    248.56285  0.010982806 0.0091137153          453 
 1887000   0.50224809   -8.3160001    248.91635  0.010992596 0.0091055183          425 
 1888000   0.50014534   -8.3137281    249.11903   0.01099572 0.0090973358          331 
 1889000    0.4977775   -8.3078183    248.36989  0.010956851 0.0090891642          319 
 1890000   0.50366557   -8.3181076    248.27494  0.010946867 0.0090810088          390 
 1891000   0.49785216   -8.3088793    248.64892  0.010957559 0.0090728622          416 
 1892000   0.49179871   -8.3052603    248.42812  0.010942042 0.0090647256          308 
 1893000   0.49618564   -8.3222261    248.62919  0.010945113  0.009056592          388 
 1894000   0.49376341   -8.3197172     249.0463  0.010957687 0.0090484669          397 
 1895000    0.5040064   -8.3181204    248.54096  0.010929682 0.0090403598          407 
 1896000   0.50163533   -8.3310845    248.59737  0.010926396 0.0090322562          349 
 1897000   0.49692222   -8.3117319    248.58603  0.010920138 0.0090241599          371 
 1898000   0.49539476   -8.3332638    248.33365  0.010903304 0.0090160704          462 
 1899000   0.50080417   -8.3155248    248.10734  0.010887631 0.0090079949          382 
 1900000   0.48942113   -8.3264411    248.64821  0.010905623 0.0089999245          265 
 1901000   0.48338259   -8.3426711    248.27717  0.010883621 0.0089918714          459 
 1902000    0.4967813   -8.3447525    248.32833  0.010880141 0.0089838196          483 
 1903000   0.49812126   -8.3308677    248.61874  0.010887141 0.0089757759          346 
 1904000   0.49003802   -8.3105526    248.70827  0.010885341 0.0089677437          369 
 1905000   0.49626778   -8.3417366    248.57537  0.010873813 0.0089597125          366 
 1906000   0.49006564   -8.3171113    248.63806  0.010870849 0.0089517041          411 
 1907000   0.49013253   -8.3438017    248.38163  0.010853943 0.0089436999          468 
 1908000   0.48838026   -8.3485087    248.40672   0.01084935 0.0089356975          308 
 1909000   0.49681002   -8.3512049    248.63921  0.010853816 0.0089277074          353 
 1910000   0.49346325   -8.3464948    248.46467  0.010840518 0.0089197265          310 
 1911000   0.48130175   -8.3201477    248.67241  0.010843904 0.0089117568          317 
 1912000   0.49699848   -8.3315349    248.36317  0.010824754 0.0089037967          470 
 1913000   0.49374651   -8.3339662    248.31736    0.0108171 0.0088958414          325 
 1914000   0.48687886   -8.3457108    248.30631  0.010810968  0.008887891          340 
 1915000    0.5000602   -8.3470733    248.26515  0.010803531 0.0088799536          460 
 1916000   0.49435678   -8.3194363      248.586  0.010811847 0.0088720317          329 
 1917000   0.49206998   -8.3411309    248.47578  0.010801416  0.008864113          437 
 1918000   0.48731519    -8.351316    248.65586  0.010803609 0.0088562037          429 
 1919000   0.49791649   -8.3409707    248.41281  0.010787425 0.0088482999          402 
 1920000    0.4931428   -8.3387766    248.47523  0.010784515 0.0088404106          370 
 1921000   0.49232421   -8.3478203    248.29808  0.010771216 0.0088325263          418 
 1922000   0.49362884   -8.3425119    247.92432  0.010749407 0.0088246463          373 
 1923000   0.47747598   -8.3435456    248.22959  0.010757046 0.0088167831          419 
 1924000   0.49217057   -8.3635134    247.73278  0.010729937 0.0088089274          483 
 1925000   0.47833517   -8.3528448    248.33528  0.010750445 0.0088010842          435 
 1926000    0.4903757   -8.3639106    248.48256  0.010751236 0.0087932526          316 
 1927000   0.48306633   -8.3542786     248.5872  0.010750182 0.0087854266          396 
 1928000   0.48732071   -8.3531897    248.00527  0.010719453 0.0087776203          356 
 1929000   0.48048138   -8.3361699    248.58188  0.010738806 0.0087698167          306 
 1930000   0.47810726   -8.3479719    247.89245  0.010703474 0.0087620179          447 
 1931000   0.47899444   -8.3410145    248.23488  0.010712708 0.0087542267          448 
 1932000   0.47507376    -8.351093    248.51555   0.01071927 0.0087464456          394 
 1933000   0.48222157    -8.359698    247.91204  0.010687707 0.0087386754          313 
 1934000   0.48535839   -8.3480644    248.01069  0.010686431 0.0087309131          419 
 1935000   0.47466054   -8.3512873    248.18237  0.010688302 0.0087231588          342 
 1936000   0.47793586   -8.3630507    248.28959  0.010687396 0.0087154064          298 
 1937000   0.47254049   -8.3620745     248.1149  0.010674363 0.0087076717          493 
 1938000    0.4824219   -8.3407504    248.05271  0.010666181 0.0086999417          456 
 1939000   0.47732895   -8.3673448    248.00325  0.010658555 0.0086922209          434 
 1940000    0.4824351   -8.3453085    248.26118   0.01066414 0.0086845056          386 
 1941000   0.48469563   -8.3790521    248.19204  0.010655677  0.008676799          289 
 1942000    0.4770252   -8.3555961    248.16929  0.010649214 0.0086691081          453 
 1943000   0.47699148   -8.3452416    247.65573  0.010621708 0.0086614242          493 
 1944000   0.47786402   -8.3668461    248.10707  0.010635591 0.0086537462          475 
 1945000   0.47663709   -8.3522966    248.03873  0.010627195 0.0086460811          507 
 1946000   0.48053971   -8.3612889    248.35088  0.010635101 0.0086384269          394 
 1947000   0.48228913   -8.3618273    248.01424   0.01061523 0.0086307777          338 
 1948000   0.47781865   -8.3527321    248.50376  0.010630722 0.0086231304          394 
 1949000   0.46948293    -8.367029    247.76074  0.010593498 0.0086154978          321 
 1950000   0.46735635   -8.3689194    248.24411  0.010608723  0.008607876          324 
 1951000   0.47689137    -8.358121    248.31012  0.010606105 0.0086002658          465 
 1952000   0.47807423   -8.3637447    248.06399  0.010590163 0.0085926597          400 
 1953000   0.47806863   -8.3633567    248.34895    0.0105969  0.008585066          423 
 1954000   0.47250645   -8.3670192    248.06825  0.010579506 0.0085774819          535 
 1955000   0.46859794   -8.3651672    247.86637  0.010565489 0.0085698998          455 
 1956000   0.46575901   -8.3482827    247.82951  0.010558517 0.0085623351          360 
 1957000   0.47993466   -8.3662147     247.6983  0.010547534 0.0085547777          457 
 1958000   0.47289033   -8.3509908    247.97743  0.010554028 0.0085472252          422 
 1959000   0.47244901   -8.3594067    247.93608  0.010546881 0.0085396778          321 
 1960000   0.46729168   -8.3620078    248.14122  0.010550222 0.0085321385          467 
 1961000   0.46336477   -8.3703101    248.09173  0.010542739 0.0085246134          308 
 1962000   0.47093626   -8.3533228    248.13957  0.010539397  0.008517101          423 
 1963000   0.46605858   -8.3606486    248.28057  0.010540014 0.0085095964          380 
 1964000   0.47006336   -8.3749583    248.04269  0.010524554 0.0085020922          366 
 1965000   0.46869218   -8.3559174    248.03297  0.010518786  0.008494603          375 
 1966000   0.46975525   -8.3777849    247.92502   0.01050886 0.0084871215          375 
 1967000   0.45605147   -8.3741234     247.9501   0.01050458 0.0084796511          506 
 1968000   0.46746252   -8.3803783    247.87115  0.010495899 0.0084721834          520 
 1969000   0.46623712   -8.3786448    247.89075  0.010491398 0.0084647241          330 
 1970000   0.46679876   -8.3782049    247.75811  0.010480462 0.0084572699          432 
 1971000   0.46250902   -8.3705203    247.66427  0.010471176 0.0084498252          439 
 1972000   0.46633231   -8.3715968    247.76034  0.010469926 0.0084423894          381 
 1973000   0.45761302   -8.3727142     247.7365  0.010463613  0.008434965          510 
 1974000   0.46247541   -8.3748007    248.14962  0.010475752 0.0084275517          415 
 1975000   0.47356872   -8.3715854    247.83168  0.010457033 0.0084201497          382 
 1976000   0.47203213   -8.3643719    247.86026  0.010452946 0.0084127596          344 
 1977000   0.45188299   -8.3886337    247.57588  0.010435672 0.0084053742          440 
 1978000   0.46552805   -8.3676296    248.19622  0.010456531 0.0083979991          328 
 1979000   0.45924011   -8.3770859    247.48723  0.010421393 0.0083906293          457 
 1980000   0.47647528   -8.3928361    247.67913  0.010424206 0.0083832672          448 
 1981000   0.46607257   -8.3896454    247.54357  0.010413241  0.008375911          316 
 1982000   0.47157847   -8.3861141      247.866  0.010421544 0.0083685607          466 
 1983000   0.45933501   -8.3863185    248.08995    0.0104257 0.0083612241          489 
 1984000   0.47031037    -8.386805    247.95586  0.010414813 0.0083538889          492 
 1985000   0.45993253   -8.3906074    247.88399  0.010406549 0.0083465653          539 
 1986000    0.4605913   -8.3838514    247.72345  0.010394572 0.0083392441          393 
 1987000   0.46915158   -8.3839668    247.75955  0.010390855 0.0083319359          403 
 1988000   0.45289589   -8.4013185    247.60297  0.010379065  0.008324636          437 
 1989000    0.4621361   -8.3981597    247.51212   0.01037004 0.0083173446          393 
 1990000    0.4583799   -8.3931173      247.718  0.010373451 0.0083100628          450 
 1991000   0.46272025   -8.3848189    247.85062  0.010373791 0.0083027851          388 
 1992000   0.46341014   -8.3961603    247.69976  0.010362272 0.0082955183          317 
 1993000   0.45834706   -8.3975596    247.86746  0.010364085 0.0082882627          426 
 1994000   0.45363885   -8.3746809    247.86198  0.010358658 0.0082810133          562 
 1995000   0.46154853   -8.3836303    247.88706  0.010354514 0.0082737666          480 
 1996000   0.45847737   -8.3720326    247.28058  0.010324005 0.0082665331          423 
 1997000   0.45456788    -8.380527    247.50703  0.010328285 0.0082593088          445 
 1998000   0.45887231   -8.3970964    248.04087  0.010345382 0.0082520882          403 
 1999000   0.46155207   -8.3893981    247.49396  0.010317407 0.0082448797          396 
 2000000   0.45292732   -8.4075235    247.62193   0.01031758 0.0082376726          421 
 2001000   0.44937878   -8.3925362    247.52333  0.010308318 0.0082304805          332 
 2002000   0.45920943   -8.3773528      247.946  0.010320762 0.0082232958          362 
 2003000   0.45618831   -8.3871184     247.3983  0.010292823  0.008216123          436 
 2004000   0.44845621   -8.3816409    247.53009  0.010293168 0.0082089583          426 
 2005000   0.45358334   -8.3925885    247.69371  0.010294834 0.0082018056          402 
 2006000    0.4534841   -8.3955899    247.58566  0.010285213 0.0081946651          556 
 2007000   0.45497541   -8.3959357    247.77962  0.010288142 0.0081875165          523 
 2008000   0.45720926   -8.3980939    247.62689   0.01027668 0.0081803789          388 
 2009000   0.46264592   -8.3916137    247.50641  0.010266568 0.0081732558          478 
 2010000   0.45288976   -8.4026058    247.72781  0.010270639 0.0081661373          489 
 2011000   0.44520432   -8.3872389    247.36625  0.010250549 0.0081590291          416 
 2012000   0.44619973   -8.3876571    247.43756  0.010248408 0.0081519288          556 
Loop time of 5277.69 on 48 procs for 2000000 steps with 4000 atoms

Performance: 65483.240 tau/day, 378.954 timesteps/s
99.4% CPU use with 48 MPI tasks x no OpenMP threads

MPI task timing breakdown:
Section |  min time  |  avg time  |  max time  |%varavg| %total
---------------------------------------------------------------
Pair    | 401.86     | 429.88     | 462.7      |  79.9 |  8.15
Neigh   | 36.986     | 38.23      | 39.65      |  11.1 |  0.72
Comm    | 337.69     | 370.66     | 402.03     |  91.1 |  7.02
Output  | 4.9865     | 4.9883     | 5.0329     |   0.3 |  0.09
Modify  | 4370.1     | 4384.2     | 4399.2     |  11.7 | 83.07
Other   |            | 49.68      |            |       |  0.94

Nlocal:        83.3333 ave          89 max          78 min
Histogram: 6 5 5 2 3 10 6 1 6 4
Nghost:        2428.79 ave        2455 max        2406 min
Histogram: 2 4 5 11 6 8 5 3 2 2
Neighs:        16835.1 ave       19491 max       14769 min
Histogram: 5 7 7 6 2 7 2 6 3 3
FullNghs:      33668.8 ave       36018 max       31292 min
Histogram: 3 6 5 4 3 9 7 1 6 4

Total # of neighbors = 1616103
Ave neighs/atom = 404.02575
Neighbor list builds = 106593
Dangerous builds = 0

#clear
#
#next RN
#
#jump SELF
Total wall time: 1:28:01
