
units lj                  # Use reduced LJ style units
atom_style atomic         # Uncharged point particles
atom_modify map hash      # Needed for indexing of clusters etc
                          # Used to be able to find where atoms are in relation to each other.

lattice fcc 1.0 spacing 1 1 1
Lattice spacing in x,y,z = 1.5874011 1.5874011 1.5874011
region box block 0 10 0 10 0 10 units lattice
create_box 2 box
Created orthogonal box = (0.0000000 0.0000000 0.0000000) to (15.874011 15.874011 15.874011)
  3 by 4 by 4 MPI processor grid
create_atoms 1 box
Created 4000 atoms
  using lattice units in orthogonal box = (0.0000000 0.0000000 0.0000000) to (15.874011 15.874011 15.874011)
  create_atoms CPU = 0.003 seconds
set type 1 type/fraction 2 0.3 78393
Setting atom values ...
  1229 settings made for type/fraction
mass 1 1.0
mass 2 1.0
pair_style lj/cut  3.5
pair_modify tail  yes
pair_coeff 1  1  1.0  1.0   # Intearaction between 1 and 1 set with epsilon = 1 and sigma = 1
pair_coeff 1  2  1.5  0.8
pair_coeff 2  2  0.5  0.88

write_data data.0
System init for write_data ...
Neighbor list info ...
  update every 1 steps, delay 10 steps, check yes
  max neighbors/atom: 2000, page size: 100000
  master list distance cutoff = 3.8
  ghost atom cutoff = 3.8
  binsize = 1.9, bins = 9 9 9
  1 neighbor lists, perpetual/occasional/extra = 1 0 0
  (1) pair lj/cut, perpetual
      attributes: half, newton on
      pair build: half/bin/atomonly/newton
      stencil: half/bin/3d
      bin: standard
WARNING: Not all mixed pair coeffs generated from mixing. Use write_data with 'pair ij' option to store all pair coeffs. (../write_data.cpp:312)


#############################
#   M E L T   S Y S T E M   #
#############################

velocity all create 2.4 3143649 mom yes dist gaussian # Assign velocities
                                                    # Temperature 2.4, random number seed, zero linear momentum
                                                                                # Gaussian distribution

timestep 0.002   # simulation timestep
thermo 1000       # output thermodynamic data every 1000 steps bf 100

# Define a fix  in this case with index 1 applied to all
# particles in the simulation. This fix is for simulations
# in the anisotropic NPT ensemble. Note that we use the MTK
# correction.
fix 1 all npt temp 2.4 2.4 0.1 iso 5.68 5.68 0.5 mtk yes tchain 5 pchain 5 # Use NPT ensemble
                                                                         # Set temperature and pressure and damping
                                                                         # Numbers of thermostats in chain and in barostat
run 10000          # run for 10000 steps
Per MPI rank memory allocation (min/avg/max) = 3.642 | 3.644 | 3.648 Mbytes
Step Temp E_pair E_mol TotEng Press Volume 
       0          2.4   -6.4318281            0   -2.8327281   -3.9834666         4000 
    1000    2.4249793   -4.9665046            0    -1.329945    5.9491793    4137.5691 
    2000    2.4442073   -5.0413001            0   -1.3759057    6.1744029    4088.7258 
    3000    2.4298062   -4.9978644            0   -1.3540663    5.4393942    4164.9658 
    4000    2.3665516   -4.9923063            0   -1.4433663    5.5312574    4172.3826 
    5000    2.4336024    -4.992986            0   -1.3434951    5.5252655    4167.2834 
    6000    2.4325801   -4.9782841            0   -1.3303261    5.6977262    4151.1542 
    7000    2.3824341   -4.9435668            0   -1.3708091    5.8652449    4152.4173 
    8000    2.4172118   -4.9417671            0   -1.3168558    5.9520503    4153.4046 
    9000    2.3679558   -5.0100346            0   -1.4589889    5.6139851    4147.6196 
   10000     2.425032   -4.9095889            0   -1.2729504    6.1915328     4152.749 
Loop time of 2.40001 on 48 procs for 10000 steps with 4000 atoms

Performance: 719995.633 tau/day, 4166.641 timesteps/s
99.6% CPU use with 48 MPI tasks x no OpenMP threads

MPI task timing breakdown:
Section |  min time  |  avg time  |  max time  |%varavg| %total
---------------------------------------------------------------
Pair    | 1.0496     | 1.1158     | 1.2192     |   3.2 | 46.49
Neigh   | 0.20669    | 0.21323    | 0.22386    |   0.8 |  8.88
Comm    | 0.7006     | 0.81921    | 0.88858    |   4.5 | 34.13
Output  | 0.00024194 | 0.00024713 | 0.00030764 |   0.0 |  0.01
Modify  | 0.20829    | 0.23669    | 0.26481    |   3.1 |  9.86
Other   |            | 0.01479    |            |       |  0.62

Nlocal:        83.3333 ave          93 max          75 min
Histogram: 5 5 3 5 4 10 6 7 2 1
Nghost:        1601.75 ave        1635 max        1576 min
Histogram: 1 4 8 8 9 8 5 4 0 1
Neighs:        9183.98 ave       10492 max        7617 min
Histogram: 2 1 4 9 2 6 13 7 3 1

Total # of neighbors = 440831
Ave neighs/atom = 110.20775
Neighbor list builds = 913
Dangerous builds = 235

# Equilibrate just above the melting temperature to avoid step fn in T

fix 1 all npt temp 1.25 1.25 0.1 iso 5.68 5.68 0.5 mtk yes tchain 5 pchain 5
run 2000
Per MPI rank memory allocation (min/avg/max) = 3.643 | 3.645 | 3.649 Mbytes
Step Temp E_pair E_mol TotEng Press Volume 
   10000     2.425032   -4.9095889            0   -1.2729504    6.1915328     4152.749 
   11000     1.269155   -6.8851655            0    -4.981909    5.5854209    3338.8442 
   12000    1.2502398   -6.8952686            0   -5.0203777    5.4191067    3338.2338 
Loop time of 0.588173 on 48 procs for 2000 steps with 4000 atoms

Performance: 587582.252 tau/day, 3400.360 timesteps/s
99.6% CPU use with 48 MPI tasks x no OpenMP threads

MPI task timing breakdown:
Section |  min time  |  avg time  |  max time  |%varavg| %total
---------------------------------------------------------------
Pair    | 0.24999    | 0.27586    | 0.33223    |   2.8 | 46.90
Neigh   | 0.037094   | 0.040162   | 0.047296   |   0.8 |  6.83
Comm    | 0.16265    | 0.22193    | 0.25599    |   3.5 | 37.73
Output  | 5.083e-05  | 5.2204e-05 | 6.8333e-05 |   0.0 |  0.01
Modify  | 0.037732   | 0.045441   | 0.052516   |   2.1 |  7.73
Other   |            | 0.004724   |            |       |  0.80

Nlocal:        83.3333 ave          92 max          75 min
Histogram: 1 2 10 1 12 8 4 7 1 2
Nghost:        1846.46 ave        1877 max        1811 min
Histogram: 1 2 4 6 9 5 8 8 4 1
Neighs:        11450.0 ave       13231 max        9987 min
Histogram: 4 3 5 10 6 8 4 4 1 3

Total # of neighbors = 549600
Ave neighs/atom = 137.40000
Neighbor list builds = 143
Dangerous builds = 12

#############################
# L I N E A R  Q U E N C H  #
#############################

# Define solid atoms. This closely follows ten Wolde  Ruiz-Montero and Frenkel  Faraday Discuss  1996  104  93-110
# Compute components of the per-atom q6 vector
compute q6 all orientorder/atom degrees 1 6 components 6 nnn NULL cutoff 1.3 # compute the Q6 parameter.
                                                                             # Use all neighbours within 1.3 unit cell.

# get number of connections
compute coord_number all coord/atom orientorder q6 0.5

# An atom is solid if it has 8 or more connections (of a possible 14)
variable is_solid atom c_coord_number>=8
group solid dynamic all var is_solid    # Must be dynamic to update
dynamic group solid defined

# do clustering
compute cluster solid cluster/atom 1.3 # Create a cluster where all atoms within are solid and max 1.3 units from another member

# define chunks one chunk per cluster
compute clus_chunks solid chunk/atom c_cluster nchunk every compress yes  # Says which atoms are in which chunk

# count the size of each chunk
compute size_chunks solid property/chunk clus_chunks count


# Find the maximum entry in the vector of chunk sizes
variable max_n equal max(c_size_chunks)


# Thermo style which includes this variable
# thermo_style custom step temp pe vol v_max_n

thermo ${N}  # Print the thermo information every 100 steps
thermo 1000  

# Reset the npt fix at a lower temperature (below freezing)
fix 1  all npt temp  ${temp} ${temp}  0.1  iso  5.68  5.68  0.5  mtk yes tchain  5  pchain  5
fix 1  all npt temp  0.45 ${temp}  0.1  iso  5.68  5.68  0.5  mtk yes tchain  5  pchain  5
fix 1  all npt temp  0.45 0.45  0.1  iso  5.68  5.68  0.5  mtk yes tchain  5  pchain  5

dump dmp2 all dcd ${N} traj.dcd
dump dmp2 all dcd 1000 traj.dcd


compute msd all msd com yes
variable twopoint equal c_msd[4]/6/(step*dt+1.0e-6)
fix 9 all vector 10 c_msd[4]
variable fit equal slope(f_9)/6/(10*dt)
thermo_style custom step temp pe c_msd[4] v_twopoint v_fit v_max_n

fix 1 all npt temp 1.25 ${temp} 0.1 iso 5.68 5.68 0.5 mtk yes tchain 5 pchain 5
fix 1 all npt temp 1.25 0.45 0.1 iso 5.68 5.68 0.5 mtk yes tchain 5 pchain 5
run 2000000 # 5000000  # Run for this many steps
Neighbor list info ...
  update every 1 steps, delay 10 steps, check yes
  max neighbors/atom: 2000, page size: 100000
  master list distance cutoff = 3.8
  ghost atom cutoff = 3.8
  binsize = 1.9, bins = 8 8 8
  4 neighbor lists, perpetual/occasional/extra = 1 3 0
  (1) pair lj/cut, perpetual
      attributes: half, newton on
      pair build: half/bin/atomonly/newton
      stencil: half/bin/3d
      bin: standard
  (2) compute orientorder/atom, occasional
      attributes: full, newton on
      pair build: full/bin/atomonly
      stencil: full/bin/3d
      bin: standard
  (3) compute coord/atom, occasional
      attributes: full, newton on
      pair build: full/bin/atomonly
      stencil: full/bin/3d
      bin: standard
  (4) compute cluster/atom, occasional
      attributes: full, newton on
      pair build: full/bin/atomonly
      stencil: full/bin/3d
      bin: standard
Per MPI rank memory allocation (min/avg/max) = 9.806 | 9.815 | 9.823 Mbytes
Step Temp PotEng c_msd[4] v_twopoint v_fit v_max_n 
   12000    1.2502398   -6.8952686            0            0 8.3333333e+20            1 
   13000    1.2691013   -6.8829806    0.4906951 0.0031454813   0.04020126            1 
   14000     1.269804   -6.8631457    0.9524685 0.0056694551  0.039041997            2 
   15000    1.2188564   -6.8947038    1.4074642  0.007819245  0.038394394            1 
   16000    1.2496068    -6.881006    1.8848653 0.0098170065  0.038493677            1 
   17000    1.2499612   -6.8947738    2.3717743  0.011626344  0.038769055            1 
   18000    1.2325815    -6.851927    2.8009742  0.012967473  0.038538146            1 
   19000    1.2460182   -6.9088577    3.2762642  0.014369579  0.038645844            3 
   20000    1.2582527   -6.8902182    3.6851299  0.015354708  0.038582013            2 
   21000    1.2359332   -6.8952686    4.1429964  0.016440462  0.038326532            1 
   22000    1.2555697   -6.8941986    4.5735789  0.017324162  0.038075628            2 
   23000    1.2132177    -6.893859    5.0025069  0.018125024  0.037888706            1 
   24000    1.2698359   -6.8441097    5.4586429  0.018953621  0.037751769            2 
   25000    1.2369122   -6.8951808    5.9393975  0.019797991  0.037706238            1 
   26000    1.2614443     -6.88228    6.4165093  0.020565735  0.037706811            3 
   27000    1.2452912   -6.8604067    6.9540846  0.021463224  0.037828471            2 
   28000     1.229187   -6.9061612    7.4595831   0.02220114  0.038051097            2 
   29000    1.2451028   -6.8730827     7.923025  0.022767313  0.038284401            2 
   30000    1.1967335   -6.9222665    8.4055943  0.023348873  0.038429089            2 
   31000    1.2788025   -6.8892659    8.9408569  0.024034561  0.038606841            2 
   32000    1.2471795   -6.8690803    9.4333912  0.024566123   0.03878615            2 
   33000    1.2405703   -6.8871633    9.7992116  0.024745484  0.038904408            2 
   34000    1.2291292   -6.8652942    10.325756  0.025308226  0.038970505       -1e+20 
   35000    1.2153828   -6.9235944    10.756497  0.025610706   0.03902098            2 
   36000    1.2279245    -6.913725    11.275118   0.02609981  0.039109189            1 
   37000    1.2520496   -6.9204975    11.741945  0.026445821  0.039155442            1 
   38000    1.2255994    -6.884157    12.303928  0.026982297  0.039215483            3 
   39000    1.2453363    -6.904672    12.810817   0.02737354   0.03928836            1 
   40000    1.2461137   -6.9226489    13.386342  0.027888213  0.039397407            1 
   41000    1.2139254   -6.9039531    13.990759  0.028436502  0.039567321            2 
   42000    1.2563758   -6.9220558    14.487146  0.028744338  0.039737914            1 
   43000    1.2341693   -6.9409641    14.839642  0.028758996  0.039852614            2 
   44000    1.2455836   -6.9277326    15.279429  0.028938313  0.039933699            1 
   45000    1.2475829   -6.8634498    15.770329  0.029204313  0.039975291            4 
   46000    1.2248859   -6.9259998    16.291022   0.02951272   0.03999295            2 
   47000    1.2366003   -6.9426869    16.810151  0.029805233  0.040033032            2 
   48000    1.2254814   -6.9022976    17.377928  0.030170013  0.040092052            3 
   49000    1.2451797   -6.9331078     17.94244  0.030514354  0.040185802            1 
   50000    1.2692844   -6.8619451    18.521923  0.030869871   0.04028725            1 
   51000     1.215539   -6.9102143    18.982436  0.031017052  0.040389613            3 
   52000    1.2217236   -6.9063753    19.553172  0.031335211   0.04048036            1 
   53000    1.2267617   -6.8817816    20.000876  0.031447919  0.040557276            3 
   54000    1.2393953   -6.9433179    20.442122  0.031546484  0.040623318            1 
   55000    1.2316688   -6.9474938    20.805687  0.031523767  0.040660741            1 
   56000    1.2005845   -6.9146719    21.267267  0.031647718  0.040671349            2 
   57000    1.2014203   -6.9260429    21.610162  0.031593805   0.04065329            1 
   58000    1.2342516   -6.9295528    22.147463  0.031821067  0.040638065            1 
   59000    1.2495924     -6.93263    22.589651  0.031906287  0.040636854            1 
   60000    1.2368142   -6.9785343    23.060379  0.032028304  0.040642155            1 
   61000    1.2204475   -6.9834393    23.489333  0.032089252   0.04062352            1 
   62000    1.2219273   -6.9346385    23.838682   0.03204124  0.040584501            1 
   63000    1.2072864   -6.8869561     24.34163  0.032197922  0.040532436            1 
   64000    1.2284979   -6.9114735    24.841445  0.032345631  0.040493452            1 
   65000    1.2199596   -6.9291628     25.15149    0.0322455  0.040432651            1 
   66000     1.234849   -6.9616757    25.415241  0.032089951    0.0403547            2 
   67000    1.2075562   -6.9438071     26.16114  0.032538732  0.040276337            2 
   68000    1.2416506   -6.9203651    26.579751  0.032573224  0.040231384            2 
   69000    1.2282167   -6.9293429    27.086842  0.032713577  0.040192524            1 
   70000    1.2519987   -6.9306844    27.619267  0.032880079  0.040162109            1 
   71000    1.2536523    -6.893441    28.224521  0.033127372  0.040146056            3 
   72000    1.2042154   -6.9039943     28.61915  0.033124016   0.04012118            3 
   73000    1.2508357   -6.9428397    28.865787  0.032951811  0.040076881            1 
   74000    1.2441004   -6.9104397    29.541898  0.033267903  0.040043534            2 
   75000    1.2159928   -6.9049601    30.099416  0.033443795   0.04002676            2 
   76000    1.2467505   -6.9554522    30.638868   0.03359525  0.040027574            3 
   77000    1.2196258   -6.9380703    30.993607  0.033542865  0.040025736            1 
   78000    1.2015792   -6.9225045    31.553157  0.033710638  0.040020895            2 
   79000    1.2286279    -6.966809    31.988126  0.033742748  0.040015066            2 
   80000    1.2212941    -6.960191    32.388122  0.033737627  0.040003399            2 
   81000     1.238117   -6.9389415    32.695107  0.033636941  0.039976757            3 
   82000    1.2255965   -6.9338729    33.044383  0.033581689  0.039941115            1 
   83000    1.2284093   -6.9110727    33.443764  0.033578076  0.039889925            1 
   84000     1.233916   -6.9669094    33.662297  0.033395136  0.039824919            2 
   85000    1.1983452   -6.9244943     33.97856  0.033312314  0.039754272            1 
   86000    1.2215969   -6.9506868    34.355307  0.033290026  0.039669848            1 
   87000    1.2048731   -6.9616566    34.782885  0.033316939  0.039582841            1 
   88000    1.2238601   -6.9132493    35.148507   0.03328457  0.039505142            1 
   89000    1.2200886   -6.9279695    35.611697  0.033344285   0.03942713            2 
   90000    1.2224762   -6.9755436    36.007902   0.03334065  0.039347296            1 
   91000    1.2148666   -6.9192762    36.354963  0.033292091  0.039264994            1 
   92000    1.2345029   -6.9382763    36.776392  0.033311949  0.039190685            3 
   93000    1.2037496   -6.9918901    37.246804  0.033375272  0.039114865            1 
   94000     1.206822   -6.9092513    37.799597  0.033510281  0.039043532            1 
   95000    1.2382025    -6.949364    38.201846  0.033510391  0.038975161            1 
   96000    1.2182307   -6.9374131    38.426445  0.033356289  0.038915772            1 
   97000    1.2305071    -6.928931    39.141697  0.033626887  0.038858625            1 
   98000    1.2019711   -6.9519289    39.423367  0.033523271   0.03880297            1 
   99000    1.2347497   -6.9154448    39.947844  0.033626131  0.038751727            2 
  100000    1.2373361   -6.9476813    40.436403  0.033697002  0.038703992            1 
  101000    1.2148879   -6.9956091    40.780194  0.033647025  0.038658466            1 
  102000    1.1996575   -6.9470763     41.20832  0.033666928  0.038612619            3 
  103000    1.1920719   -6.9546219    41.742202  0.033772008  0.038563143            1 
  104000    1.2040627    -6.922533    42.352812  0.033936548  0.038521444            1 
  105000    1.2199426   -6.9493903    42.496891  0.033727691   0.03847851            1 
  106000    1.2406535   -6.9671665    42.832448  0.033673308  0.038436226            1 
  107000    1.2109701   -6.9837561    43.479828  0.033862794  0.038392702            2 
  108000    1.1820561   -6.9395339    43.734065   0.03374542  0.038347622            2 
  109000    1.2016342   -6.8955537    44.338552  0.033897975  0.038310997            1 
  110000    1.2205068   -6.9213074    44.727611  0.033884554  0.038273757            2 
  111000    1.1952764   -6.9674339    44.991816  0.033777639  0.038226485            1 
  112000    1.2016671   -6.9372782    45.499424  0.033853738  0.038178856            1 
  113000    1.2174364   -6.9273206    45.885682  0.033838998  0.038134101            2 
  114000    1.2153739   -6.9161957    46.477134  0.033974513  0.038096913            2 
  115000    1.2198972   -6.9569545    46.830682  0.033935277  0.038059255            2 
  116000    1.2142128   -6.9821031    47.229152  0.033928988  0.038021956            1 
  117000    1.2126457   -6.9861231    47.464685  0.033806756  0.037985673            2 
  118000    1.2146955   -6.9702944    48.085069  0.033958382  0.037952325            1 
  119000    1.2232581   -7.0019004    48.457159  0.033933585  0.037918572            2 
  120000     1.225613   -6.9492021    49.000664  0.034028238  0.037887892            3 
  121000    1.2064963   -6.9815691    49.324376  0.033969956  0.037856699            1 
  122000    1.1928763   -6.9691725    49.692012  0.033942631  0.037820657            1 
  123000    1.2335082   -6.9493194    49.950317  0.033841678  0.037781161            2 
  124000    1.2037743   -6.9451434    50.414676   0.03388083   0.03773687            3 
  125000    1.2127835   -6.9380448    50.894625   0.03392975  0.037695959            2 
  126000    1.2170246   -6.9688418    51.218634  0.033874758  0.037659254            3 
  127000    1.2023401   -6.9730479    51.461878  0.033767636  0.037618973            1 
  128000    1.1873446   -6.9404575    52.154025  0.033954443  0.037579255            1 
  129000    1.1972682   -6.9883959    52.515968  0.033925044  0.037542685            1 
  130000    1.2061213    -6.971917    52.877064  0.033895554  0.037507233            1 
  131000    1.1868841   -6.9662296    53.174053  0.033825734   0.03747122            1 
  132000    1.2119765   -7.0015921    53.501181  0.033775998  0.037429244            3 
  133000    1.1552812   -6.9584321    53.954597  0.033806138  0.037388273            2 
  134000    1.2076889   -7.0056237    54.534432  0.033914447  0.037356061            4 
  135000    1.2140019   -6.9613632     55.22711  0.034090809   0.03732682            1 
  136000      1.23174     -6.98733    55.516314  0.034017349  0.037298135            2 
  137000     1.185059   -6.9776512    55.773089  0.033925236  0.037266823            1 
  138000    1.1995203   -6.9908641    56.360295  0.034033994  0.037236052            1 
  139000    1.1954009    -7.016267    56.514875   0.03388182  0.037203777            1 
  140000    1.1900529   -7.0012202    56.995476  0.033925878  0.037166793            1 
  141000    1.1718746   -6.9743738    57.335464  0.033886208   0.03713296            2 
  142000    1.2011453   -6.9736458    57.797503  0.033918722  0.037100467            2 
  143000    1.1628063   -6.9662818    58.172182  0.033899873   0.03706617            1 
  144000    1.2110973   -6.9640363    58.349006  0.033766786  0.037030071            1 
  145000    1.2229554   -6.9869001    58.831135  0.033810997  0.036992997            1 
  146000    1.1936422    -7.000302    59.154187  0.033763805   0.03695811            5 
  147000    1.2057834   -6.9645287    59.716378  0.033852822  0.036921786            1 
  148000    1.1564089   -6.9910469    59.943758  0.033752116  0.036882418            1 
  149000    1.2156313   -7.0172897    60.125232  0.033627087   0.03684092            1 
  150000    1.2059819   -7.0006546    60.327169  0.033515094   0.03679764            1 
  151000    1.1917174   -7.0095556    61.004468  0.033666925  0.036752812            1 
  152000    1.1989547   -7.0222645    61.189656   0.03354696  0.036710467            2 
  153000    1.1981515   -6.9913454    61.732641  0.033623443  0.036670693            2 
  154000    1.1904076   -6.9892649    62.059556  0.033582011  0.036628997            1 
  155000    1.1902003   -6.9411753    62.504234  0.033604427  0.036586346            1 
  156000    1.2080861   -7.0240308    62.288413  0.033273725  0.036543156            2 
  157000    1.2040895   -7.0079258    62.841567  0.033355397  0.036496423            2 
  158000     1.171959   -6.9948132    63.329666  0.033401722  0.036452611            2 
  159000     1.200565   -6.9968705    63.818002   0.03344759  0.036412513            1 
  160000    1.1937017   -7.0084669    64.214177  0.033444884  0.036373308            1 
  161000    1.1670322   -7.0079528    64.646477  0.033460909  0.036333401            2 
  162000    1.1859765   -7.0312166    64.721845   0.03329313  0.036292087            2 
  163000    1.2014149   -7.0008333    65.181333   0.03332379  0.036251324            1 
  164000     1.195061    -7.026323    65.837089  0.033453805  0.036209421            2 
  165000    1.1509124   -7.0356013    66.135117  0.033401574   0.03616993            2 
  166000    1.1944852   -7.0184997    66.241054  0.033253541  0.036125358            3 
  167000    1.1877149   -7.0088492    66.722346  0.033294584  0.036082426            2 
  168000    1.1911832   -7.0160204    66.801578  0.033135703  0.036038983            3 
  169000    1.1898004   -7.0219731    67.361383  0.033215672  0.035998101            2 
  170000    1.1536357   -6.9701489    68.092971  0.033378907  0.035961899            1 
  171000    1.1952951   -6.9830365    68.760056  0.033508799  0.035927773            2 
  172000     1.190828   -6.9875404    68.855429  0.033360188  0.035893422            2 
  173000    1.1705527   -7.0124005    68.932873  0.033204659  0.035856765            2 
  174000    1.1705817   -7.0013668     69.60037   0.03333351  0.035818747            1 
  175000     1.157061   -6.9880577    70.014854  0.033340407  0.035782328            2 
  176000    1.1942382   -7.0088192    70.116284  0.033198998  0.035744231            2 
  177000    1.1926637   -6.9983308    70.529091  0.033205786  0.035709182            2 
  178000    1.1898383   -7.0363689    70.900206   0.03319298  0.035671571            2 
  179000     1.187916   -7.0157754    71.324381  0.033205019  0.035635051            3 
  180000    1.1903659    -7.028592    71.811325  0.033245984  0.035600432            1 
  181000    1.1878317   -7.0260046    71.941925  0.033122433  0.035565764            1 
  182000    1.1992969   -7.0112414    72.243326  0.033078446  0.035531115            2 
  183000    1.1670501   -7.0266224    72.777263   0.03314083  0.035496771            3 
  184000    1.1903976   -7.0205202     73.16305  0.033135439   0.03546029            1 
  185000    1.1571087   -7.0373926    73.346871  0.033039131  0.035426505            2 
  186000    1.1712698   -7.0227715    73.962691  0.033137406  0.035393081            1 
  187000    1.1682774   -7.0210826    74.459847   0.03318175  0.035360183            1 
  188000    1.1603958   -7.0702159     74.62685  0.033079277  0.035329426            1 
  189000    1.1612653    -7.002457    75.305434  0.033203454  0.035297294            4 
  190000    1.1699376   -7.0283787    75.324227  0.033036942  0.035264607            1 
  191000    1.1516647   -7.0027111    75.900596  0.033115443  0.035232115            1 
  192000    1.1787615    -7.030479    76.197998  0.033072048  0.035200944            1 
  193000    1.2110871   -7.0586573    76.110212  0.032862786  0.035168367            1 
  194000     1.172701   -7.0245559     76.80472  0.032991718  0.035134431            1 
  195000    1.1700857   -7.0262557    77.130128  0.032961593  0.035098611            1 
  196000    1.1867804   -7.0614541    77.513455  0.032956401  0.035065896            2 
  197000    1.1562424    -7.026236    77.873394  0.032941368  0.035033277            4 
  198000    1.1667965   -7.0122439    78.054716  0.032851311  0.035002374            4 
  199000    1.1632752   -7.0467164    78.523311  0.032882458  0.034972734            1 
  200000    1.1728613   -7.0416103    79.477694  0.033115706   0.03494527            2 
  201000    1.1781505   -7.0161244    80.049354  0.033187958  0.034920782            6 
  202000    1.1731197   -7.0198889    80.310004   0.03313119  0.034898657            1 
  203000    1.1827202    -7.015905    80.458017  0.033028742  0.034874255            1 
  204000     1.189458   -7.0416204    81.044922  0.033106586  0.034849421            2 
  205000    1.1934672   -7.0592756    81.126789  0.032978369  0.034823258            3 
  206000    1.1768176   -7.0217778    81.967565    0.0331584  0.034800147            4 
  207000    1.1441941   -7.0530206    82.481311  0.033205036  0.034781201            2 
  208000    1.1760753   -7.0406742    82.740118  0.033149085  0.034761135            1 
  209000    1.1797506   -7.0434356    82.911421   0.03305878  0.034740087            1 
  210000    1.1563462   -7.0562807    83.162134  0.033000847  0.034718257            1 
  211000    1.1715992   -7.0339714    83.699861  0.033056817  0.034695645            2 
  212000    1.1703317   -7.0416651    83.991084  0.033015363  0.034671507            4 
  213000    1.1759062   -7.0597361    84.009516  0.032867573  0.034646136            1 
  214000    1.1540963   -7.0727435    84.556983  0.032927174  0.034621828            2 
  215000    1.1751363   -7.0134948      85.1639  0.033009263  0.034598795            1 
  216000    1.1524793    -7.059144     85.56947  0.033012913  0.034576484            2 
  217000    1.1812268   -7.0840988    85.701743  0.032911576  0.034552451            2 
  218000    1.1544338   -7.0844082    85.963407   0.03286063  0.034527956            1 
  219000    1.1846653   -7.0533977    86.570157   0.03294146  0.034503738            1 
  220000    1.1683936   -7.0978602    87.017225   0.03296107  0.034481277            2 
  221000    1.1795484   -7.0828476    87.314487  0.032924015  0.034459957            1 
  222000    1.1472294   -7.0303963    87.789195  0.032953902  0.034439218            1 
  223000    1.1659076   -7.0634342    88.138451  0.032936641  0.034419752            1 
  224000    1.1502506   -7.0624558    88.340066  0.032864608  0.034399772            2 
  225000      1.18296   -7.0850535    88.672682  0.032841734  0.034377371            1 
  226000    1.1497712   -7.0901344    88.957513  0.032801443   0.03435496            3 
  227000    1.1803384    -7.039943    89.423681  0.032828077  0.034333259            2 
  228000    1.1473571   -7.0262507     89.52138  0.032719803  0.034309541            1 
  229000    1.1614141    -7.098634    89.813689  0.032683293  0.034284853            1 
  230000    1.1574878   -7.0669634    90.007917  0.032611564  0.034257975            1 
  231000    1.1708056   -7.0485476    90.658814    0.0327052  0.034231781            2 
  232000    1.1487591   -7.0949429    90.784341  0.032609318  0.034206126            1 
  233000    1.1572632    -7.118983    90.630736  0.032414426  0.034180072            2 
  234000    1.1522174   -7.0540556    91.185912  0.032473615  0.034153506            1 
  235000    1.1475596   -7.0148363     92.10595  0.032661684  0.034129024            3 
  236000    1.1533489   -7.0718206     92.35953  0.032612828  0.034104385            1 
  237000    1.1629165   -7.0786799    92.382552  0.032483316  0.034078893            1 
  238000    1.1475458   -7.0648973     92.79131  0.032489954  0.034053414            2 
  239000    1.1339863   -7.0829039    93.129093   0.03247179  0.034027184            3 
  240000    1.1678839   -7.0634473    92.994889  0.032289892   0.03400045            1 
  241000     1.153125    -7.060897    93.659251  0.032385633  0.033973566            1 
  242000    1.1599054   -7.0770586    94.031358  0.032379944  0.033947581            4 
  243000    1.1524325   -7.1008852    94.201728  0.032305119  0.033920914            1 
  244000    1.1507779   -7.0839867    94.908573   0.03241413  0.033893423            3 
  245000    1.1742485   -7.0944082    95.170825  0.032371029  0.033867159            2 
  246000    1.1339195   -7.0244905    95.972674  0.032511068  0.033843206            1 
  247000    1.1519034   -7.1152656    96.268383  0.032479212  0.033820626            1 
  248000    1.1464284   -7.0613872    96.154167  0.032309868  0.033796832            1 
  249000     1.162107   -7.1199107    96.691504  0.032359941  0.033773024            1 
  250000    1.1597149     -7.06484    97.357469   0.03245249  0.033751282            1 
  251000     1.150716   -7.0981425     97.70842  0.032439715  0.033730897            2 
  252000    1.1545387   -7.0610079    98.202353  0.032474323  0.033710135            1 
  253000    1.1645566   -7.0566575      98.5997  0.032476844  0.033690168            2 
  254000    1.1462021   -7.0549708    99.027134  0.032489217  0.033672063            2 
  255000     1.148614   -7.0832701    99.685875  0.032577083  0.033654505            1 
  256000    1.1436525   -7.0303691    100.30121  0.032650133  0.033638435            2 
  257000    1.1373404   -7.0803371    100.30994  0.032525921  0.033623103            3 
  258000     1.162572    -7.090131     101.2588   0.03270633  0.033607529            2 
  259000    1.1670352   -7.1030304    100.94796  0.032480037  0.033592759            3 
  260000    1.1467597   -7.0932601    101.14592  0.032418563   0.03357672            2 
  261000    1.1577583   -7.1393473    101.51756  0.032413014  0.033560054            4 
  262000    1.1603443   -7.0903061    102.03639  0.032454323  0.033542337            2 
  263000    1.1830411   -7.1323095    102.04001  0.032332069  0.033523929            3 
  264000    1.1316966   -7.0916244    102.52787  0.032363596  0.033505277            2 
  265000    1.1450253    -7.098406    102.92513  0.032366392  0.033485797            1 
  266000    1.1203828   -7.1288125    103.07891  0.032292893  0.033466864            4 
  267000    1.1470675   -7.0710296     103.7163   0.03237088  0.033447663            2 
  268000    1.1515491   -7.1066907    103.91638  0.032312308  0.033427368            2 
  269000    1.1373399    -7.082021     104.2656  0.032300371  0.033407423            6 
  270000    1.1512099   -7.1037966    104.17955  0.032154181   0.03338759            4 
  271000    1.1492107   -7.0490382     104.6795  0.032189268  0.033366431            1 
  272000     1.152162   -7.0682367    105.37035  0.032282582  0.033346262            2 
  273000    1.1573161   -7.0797142    105.82025  0.032301665  0.033327003            2 
  274000    1.1713101   -7.1210155    106.10458  0.032270251  0.033308065            1 
  275000    1.1616738   -7.1444247    106.24244  0.032194679  0.033288818            2 
  276000    1.1550573   -7.1278428    106.70405  0.032217406  0.033270095            3 
  277000    1.1393471   -7.1029769    107.04332  0.032203163  0.033252565            1 
  278000    1.1420257   -7.1191788    107.21811  0.032139722  0.033234733            2 
  279000    1.1326569   -7.1141067    107.59002   0.03213561  0.033215055            1 
  280000     1.130169   -7.1177219    108.02703  0.032150902  0.033196527            3 
  281000    1.1333993   -7.0933029    108.28808  0.032113903  0.033177198            1 
  282000    1.1559732   -7.1213304    108.71593  0.032126457  0.033158022            1 
  283000    1.1254372   -7.0554701    108.92124  0.032073393  0.033139283            1 
  284000    1.1354737   -7.0913566    108.93884  0.031965622  0.033118682            2 
  285000    1.1338918   -7.1128262    109.07888  0.031894409  0.033096615            1 
  286000    1.1221819   -7.1489776    109.36865  0.031867321  0.033073703            1 
  287000    1.1424199   -7.1311467    109.35641  0.031752733  0.033050395            1 
  288000    1.1172315   -7.1100761    110.04849  0.031842734  0.033028449            1 
  289000    1.1486591   -7.0895444    110.64835  0.031905522    0.0330068            1 
  290000     1.126777   -7.0824794    110.70137   0.03181074  0.032984017            2 
  291000    1.1472768   -7.1373221    110.80052  0.031729817  0.032960167            1 
  292000    1.1243152   -7.1585066    111.48299  0.031815921  0.032938473            2 
  293000    1.1480161   -7.1114627    111.94629  0.031839104  0.032917512            1 
  294000    1.1715214   -7.0986507    112.00384   0.03174712   0.03289601            2 
  295000     1.122044   -7.1194094    112.30677  0.031725075  0.032873461            2 
  296000    1.1635618   -7.0796831    112.53561  0.031682323  0.032850615            1 
  297000    1.1503809    -7.124974    113.37965  0.031812471   0.03282839            3 
  298000    1.1425938   -7.1162272    113.25745  0.031671547  0.032805272            4 
  299000    1.1213661   -7.1331635    113.79968  0.031716744  0.032783033            3 
  300000    1.1522018   -7.1341447    113.80298  0.031611939  0.032760582            1 
  301000    1.1178077   -7.0891239    114.68671   0.03175158  0.032738311            3 
  302000    1.1221972   -7.1642843    114.30028  0.031539812  0.032715542            1 
  303000    1.1616865   -7.1681559    114.58816  0.031514894  0.032692294            1 
  304000    1.1113178   -7.1537707    115.47818  0.031655202   0.03266992            2 
  305000    1.1335576   -7.1155554    115.84481  0.031651589  0.032649044            1 
  306000    1.1688928   -7.1363691    115.95344  0.031577733  0.032627986            2 
  307000    1.1358373   -7.1453757    116.32817  0.031576592  0.032607605            2 
  308000    1.1417307   -7.1392496    116.48209  0.031515718  0.032587476            2 
  309000    1.1458881   -7.1539429    116.80944  0.031502008  0.032565655            6 
  310000    1.1214919    -7.084655    117.14434  0.031490413  0.032544103            2 
  311000    1.1106267   -7.1239786    117.41947   0.03146288  0.032522285            1 
  312000    1.1204979   -7.1381272    117.66639   0.03142799  0.032499232            2 
  313000    1.1362183    -7.159072    118.02604  0.031423332  0.032475906            1 
  314000    1.1086982   -7.1247763    118.46519  0.031439807  0.032453198            1 
  315000     1.121018   -7.1302733    118.93256  0.031463641   0.03243144            2 
  316000    1.1175056    -7.115004    119.16127  0.031424385  0.032410537            2 
  317000    1.1206005   -7.1152234    119.58688   0.03143714  0.032389453            1 
  318000    1.1315538   -7.1286156    119.44483  0.031301056  0.032368486            3 
  319000    1.1487733   -7.1350676     119.7289  0.031277143  0.032346489            2 
  320000    1.1473911   -7.1372261    120.48405  0.031376054  0.032323616            1 
  321000    1.1135145    -7.149553    120.37431   0.03124982   0.03230113            1 
  322000    1.1128067   -7.1392226    120.72874  0.031244499  0.032278482            2 
  323000    1.1171751   -7.1620161    120.92362  0.031198044  0.032256194            2 
  324000    1.1468893   -7.1438665    121.68311  0.031297097    0.0322343            1 
  325000    1.1562226   -7.1319472    121.81488  0.031234584  0.032212935            2 
  326000    1.1531906   -7.1639755    122.14922  0.031224238  0.032192081            1 
  327000    1.1334548   -7.0980902    122.78824  0.031291599  0.032171047            3 
  328000    1.1114688   -7.1565688    122.75446  0.031187618  0.032150427            1 
  329000    1.1160394    -7.133052    123.43599  0.031265447  0.032130593            2 
  330000    1.1490108   -7.1469382    124.16603  0.031355058  0.032111571            2 
  331000    1.1213813    -7.111281     124.8519  0.031433007  0.032094383            2 
  332000     1.116419   -7.1576295      125.003  0.031376254  0.032077004            2 
  333000    1.1303407   -7.1301919    125.33102   0.03136412  0.032059712            2 
  334000    1.0981137   -7.1577639    125.55512  0.031326127  0.032042805            2 
  335000    1.1406949   -7.1444055    125.94088  0.031328576  0.032025327            1 
  336000    1.1231561   -7.1561132    126.44955  0.031361497  0.032009123            1 
  337000    1.1372368   -7.1658133    126.44323  0.031266872  0.031992829            2 
  338000    1.1295393   -7.1511994    126.96587  0.031303223  0.031977801            4 
  339000    1.1167698   -7.1683595    127.24315  0.031279044  0.031962472            3 
  340000    1.1415619   -7.1591911    127.73784  0.031308293   0.03194642            2 
  341000    1.1046373   -7.1395435     127.8655  0.031247679  0.031930134            2 
  342000    1.1083754   -7.1713726    128.39306  0.031284859  0.031913219            2 
  343000    1.1302027   -7.1609108    128.81247  0.031295547   0.03189634            2 
  344000    1.1279893   -7.1559502    129.04605  0.031261157   0.03187921            1 
  345000     1.106306   -7.1214044    129.14001  0.031193239  0.031862398            1 
  346000    1.1229104   -7.1885439    129.57259  0.031207272   0.03184603            1 
  347000    1.0924534     -7.16971    129.74282  0.031158219  0.031828634            1 
  348000    1.0956297   -7.1715167     130.1831  0.031174113  0.031811328            2 
  349000     1.128705   -7.1282388    130.39545  0.031135493  0.031795343            3 
  350000    1.1156842   -7.1789751    130.83546    0.0311513   0.03177941            1 
  351000    1.1327528    -7.152116    131.62516  0.031250038  0.031764043            2 
  352000    1.0980709   -7.1445347     131.8878  0.031223438  0.031749326            1 
  353000    1.1247396   -7.1715289    132.01604  0.031165259  0.031734433            3 
  354000    1.1130859   -7.1745377    131.99402  0.031072039  0.031719211            2 
  355000    1.1149569   -7.1622004    132.26505  0.031048134   0.03170312            1 
  356000    1.1310613   -7.1509714    133.13776  0.031165205  0.031687624            1 
  357000    1.1305362   -7.1808077    133.22918  0.031099247  0.031672492            1 
  358000    1.1242535   -7.1474784    133.87925  0.031163698  0.031657309            1 
  359000    1.1224894   -7.1848892    134.28395  0.031170834  0.031641875            1 
  360000    1.1033414   -7.1868304     134.0063  0.031019977  0.031625647            1 
  361000    1.1278614   -7.1607287    134.32371  0.031007319  0.031608772            3 
  362000    1.1188528   -7.1658742    134.74182  0.031017914  0.031592744            3 
  363000    1.1383435   -7.1695635    134.85817  0.030959175  0.031576252            1 
  364000    1.1113399   -7.1616557    135.59385  0.031042548  0.031560361            2 
  365000    1.1086464   -7.2087208    134.65094  0.030742224   0.03154315            2 
  366000    1.1105842   -7.1238163    135.54034  0.030860734  0.031525336            2 
  367000    1.1103642    -7.189258    135.47022  0.030760721  0.031507823            4 
  368000    1.1056044   -7.1668461    135.92871  0.030780958  0.031489397            3 
  369000    1.1061654   -7.2140231    136.14301  0.030745936   0.03147164            3 
  370000    1.1137246   -7.2120858    136.44304  0.030730413  0.031453797            4 
  371000    1.1483144   -7.1835131    137.47635  0.030879684  0.031436852            3 
  372000    1.0963707   -7.1760221    137.73842  0.030855381  0.031420251            2 
  373000    1.1133334   -7.1701601    137.79089  0.030784381  0.031402699            4 
  374000    1.0860711   -7.1925444    138.22413  0.030798603  0.031385839            3 
  375000    1.0985824   -7.2165212    138.27093  0.030726873  0.031369133            4 
  376000    1.0765276   -7.1354891    139.16382  0.030843045  0.031351496            3 
  377000    1.0798707   -7.1970722    138.73559  0.030666577  0.031334063            2 
  378000    1.0934694   -7.1833205    138.88598  0.030618603  0.031315525            1 
  379000    1.1237741   -7.1427238    139.43983  0.030659594  0.031296683            1 
  380000    1.1111543      -7.1673    139.25984   0.03053944    0.0312788            2 
  381000    1.1052454   -7.1720564    140.24088  0.030673858  0.031260849            2 
  382000    1.0963814   -7.1703388     140.6811  0.030689594  0.031243399            1 
  383000    1.1182069   -7.2162339    140.69824  0.030613194  0.031226882            2 
  384000     1.108086   -7.1596166     141.2327  0.030649457  0.031210153            2 
  385000    1.0909987   -7.1989393    140.98351  0.030515911  0.031193599            1 
  386000    1.0915813   -7.2068805    140.84185  0.030406272    0.0311756            2 
  387000    1.1155329   -7.2020186    141.26588   0.03041901  0.031156416            1 
  388000    1.1198238   -7.2111724    141.59883   0.03041212  0.031137476            1 
  389000    1.1104876   -7.1776158    141.99212  0.030418192  0.031118766            1 
  390000    1.0774143   -7.1762723    142.57985  0.030465779  0.031100505            2 
  391000    1.1095338    -7.185699    142.73572  0.030421082  0.031081793            2 
  392000    1.1113001   -7.2017449    142.70325  0.030336575   0.03106277            1 
  393000    1.1034992   -7.2064153     143.2218  0.030369339  0.031043467            1 
  394000    1.1027172    -7.200089    143.69754   0.03039288  0.031024727            1 
  395000    1.1060882   -7.2252695    143.58455    0.0302921  0.031006137            3 
  396000    1.0805686   -7.2297104    143.93197  0.030288714  0.030987182            2 
  397000    1.1050027   -7.2304989    144.29222   0.03028804  0.030968729            2 
  398000    1.1170111   -7.2587033    144.82847   0.03032422  0.030950877            2 
  399000    1.0948926   -7.2467331    145.04269  0.030292959  0.030933978            1 
  400000    1.0940372   -7.1860879    145.67649  0.030349268  0.030916892            3 
  401000    1.0949688   -7.2005301    146.00502  0.030341857  0.030899667            6 
  402000    1.1332981   -7.2280957    146.36567  0.030341143  0.030882392            3 
  403000    1.0930763   -7.2066642    146.46315  0.030286012  0.030865683            1 
  404000    1.0686654   -7.1616964    147.19367   0.03036173  0.030848632            1 
  405000    1.1088253   -7.1932227    147.76869  0.030405079  0.030832675            2 
  406000    1.0784692   -7.1949176    147.50868  0.030276822  0.030816306            1 
  407000    1.0867211   -7.1912703    147.59253  0.030219601   0.03079942            2 
  408000    1.0916203   -7.1816637    148.23239  0.030276224  0.030782227            2 
  409000    1.0789115   -7.2511696     148.0302  0.030161003  0.030765438            4 
  410000    1.0962115   -7.2156413    148.43759  0.030170241  0.030747838            1 
  411000    1.0525242   -7.1990359    149.10824  0.030232814  0.030730313            2 
  412000    1.0654325   -7.1875298    148.98972  0.030135462  0.030713291            1 
  413000    1.1192226   -7.2246938    149.34376  0.030133931  0.030696456            1 
  414000    1.0721873   -7.1935587     149.9537  0.030183917  0.030679119            2 
  415000    1.1041346   -7.2163707    150.07433  0.030135408  0.030661744            1 
  416000    1.0763222    -7.224757    150.47245  0.030142719  0.030644298            1 
  417000    1.0684474   -7.2122271    151.02241  0.030180337  0.030627575            2 
  418000    1.1133902   -7.2160156    150.83082   0.03006994  0.030610975            2 
  419000    1.0859656   -7.2195759    151.45838  0.030122988  0.030594362            1 
  420000    1.0768967   -7.1906443    151.72047  0.030103267  0.030578096            2 
  421000    1.0673034   -7.2142459    152.48024  0.030182153  0.030561528            1 
  422000    1.1178443    -7.248935    151.87517  0.029991148  0.030544916            2 
  423000    1.0984248    -7.222983    152.47169  0.030037765  0.030528481            2 
  424000    1.0978232   -7.2133717    153.10489  0.030091369  0.030513045            1 
  425000    1.0705231   -7.2526361    153.14262  0.030027965  0.030497048            1 
  426000    1.0577068   -7.2388753    153.69507  0.030065545  0.030481347            3 
  427000    1.0745113   -7.2412274    154.48351  0.030149006   0.03046585            2 
  428000    1.0706738   -7.2027154    154.44831  0.030071712  0.030449681            1 
  429000    1.0773919   -7.2263714    154.67476  0.030045602  0.030434427            1 
  430000    1.0584557   -7.2317944    154.59451  0.029960175  0.030419547            1 
  431000    1.0952817   -7.2495881    155.28618  0.030024397  0.030404525            1 
  432000    1.0946727   -7.2499011    155.38135  0.029973255  0.030389543            2 
  433000    1.0597411   -7.2241862    156.31365  0.030083458  0.030374773            1 
  434000    1.0631871   -7.2281375    156.12354  0.029977638  0.030360188            1 
  435000    1.0824626   -7.2343063    156.30869  0.029944194   0.03034551            1 
  436000    1.1125666    -7.219616    157.09043  0.030024928  0.030330972            1 
  437000    1.0911721   -7.2526401    157.04204  0.029946995  0.030316875            1 
  438000    1.0686543   -7.2481536    157.44553  0.029955391  0.030302284            3 
  439000    1.0776759   -7.2423566    157.45812  0.029889545  0.030287784            2 
  440000    1.0843756   -7.2798995    157.84902  0.029895648  0.030273189            3 
  441000    1.0838423   -7.2744801     158.2498   0.02990359  0.030258232            2 
  442000    1.0998501   -7.2858911    158.57549   0.02989734  0.030243561            1 
  443000    1.0763956   -7.2482747     158.5674   0.02982833  0.030228141            4 
  444000    1.0598331   -7.2638197    158.70059  0.029786146  0.030212439            3 
  445000    1.0995399   -7.2714819    159.05261  0.029785134    0.0301964            2 
  446000    1.0730509   -7.2708565     159.4462  0.029791892  0.030181078            2 
  447000    1.0852627   -7.2357436    159.96037  0.029821097  0.030165904            2 
  448000    1.0644617   -7.2754478    159.73686  0.029712958  0.030150085            1 
  449000    1.0984364   -7.2594843    160.45484  0.029780037  0.030134199            1 
  450000    1.0644242   -7.2429495    160.49991  0.029722206  0.030119263            1 
  451000    1.0683977   -7.2775765    160.86062  0.029722952  0.030103915            2 
  452000    1.0604928   -7.2327316     161.1413  0.029708942  0.030088796            3 
  453000    1.0652196   -7.2517698    161.53941  0.029716595  0.030073383            3 
  454000    1.0857099   -7.2493949    161.47303  0.029638955  0.030057778            1 
  455000    1.0816085   -7.2521864    162.27907  0.029721441  0.030042286            2 
  456000    1.0725599   -7.2305735     162.5696  0.029709357  0.030026965            1 
  457000    1.0606993   -7.2297755    162.38556  0.029610789   0.03001111            1 
  458000    1.0443027    -7.238233    162.80283  0.029622058  0.029995189            1 
  459000    1.0728933    -7.260821    162.90324  0.029575751  0.029979187            1 
  460000      1.09895   -7.2149787    163.39969  0.029601394  0.029963291            2 
  461000    1.0600955   -7.2243619     163.8994  0.029627512  0.029947242            2 
  462000    1.0547834   -7.2700483    163.50087  0.029491499  0.029931535            2 
  463000    1.0730711   -7.2306269    164.00133  0.029517879  0.029915851            1 
  464000    1.0404477   -7.2573238    164.49487    0.0295429  0.029900672            2 
  465000    1.0797974   -7.2517025    164.55084  0.029489398   0.02988484            3 
  466000     1.067093   -7.2475779    164.56738  0.029429074  0.029868442            2 
  467000    1.0527157   -7.2540934     164.0792  0.029278944  0.029851953            2 
  468000    1.0644255   -7.2521143    165.42491  0.029456002  0.029834856            1 
  469000    1.0714272   -7.2806797    165.15038  0.029344417  0.029817838            1 
  470000    1.0595839   -7.3127107    165.16719  0.029284963  0.029800467            1 
  471000     1.092395   -7.2928553    165.07928  0.029207232  0.029782505            1 
  472000     1.051327    -7.286346     165.6833  0.029251996   0.02976507            1 
  473000    1.0637824   -7.2984399    166.18161  0.029277944  0.029748116            1 
  474000    1.0598977   -7.2986629    165.96238  0.029177633  0.029730949            2 
  475000    1.0686493   -7.2513292    167.08892  0.029313845  0.029714068            2 
  476000     1.046884    -7.262391    167.67522  0.029354906  0.029698272            1 
  477000    1.0601342   -7.2683271    167.73043   0.02930301  0.029682357            2 
  478000     1.065237   -7.2678943    168.17473  0.029319165  0.029666504            1 
  479000    1.0733482   -7.3062206    168.49016  0.029312832  0.029650606       -1e+20 
  480000    1.0651591   -7.3093028    168.69525   0.02928737  0.029634982            2 
  481000    1.0513686   -7.2761718     168.9621  0.029272712  0.029619435            2 
  482000    1.0641258    -7.259118    169.16011  0.029246215  0.029603881            2 
  483000    1.0639418   -7.2823888    169.02117  0.029161693   0.02958785            3 
  484000    1.0670213    -7.265583    169.53166  0.029189335  0.029571411            1 
  485000     1.057161   -7.2973771    169.64318  0.029148312  0.029555189            2 
  486000    1.0352344   -7.2925676    170.42452  0.029222311  0.029538826            1 
  487000    1.0559928   -7.3003097    170.53758  0.029181653  0.029522686            1 
  488000    1.0516693   -7.3117526    170.58705  0.029130302  0.029506684            1 
  489000      1.06606   -7.2154198    171.35936  0.029202346  0.029490993            1 
  490000     1.082068   -7.3145202    170.91211  0.029066686  0.029475533            2 
  491000    1.0697954   -7.3074772    171.43177  0.029095684  0.029460007            3 
  492000    1.0560273   -7.3232542    171.36827  0.029025791  0.029443766            2 
  493000    1.0529937   -7.2913701    172.52936  0.029163178  0.029427753            4 
  494000    1.0500591   -7.2790266    172.80764  0.029151087  0.029412607            2 
  495000    1.0476137   -7.2609565    173.09999  0.029141413  0.029397118            2 
  496000    1.0721781   -7.2776942    172.75793   0.02902519  0.029381391            3 
  497000    1.0792245   -7.2887752    173.37214  0.029069775  0.029365589            2 
  498000    1.0424755   -7.2828161    173.21074  0.028984395  0.029350393            2 
  499000    1.0755541   -7.2583684    174.14371  0.029082115  0.029334923            2 
  500000    1.0396386   -7.2885828    174.05622   0.02900937   0.02931934            2 
  501000     1.056012   -7.2874152    173.99518  0.028941314  0.029303217            1 
  502000    1.0725847    -7.349683     173.3194  0.028771481  0.029286661            1 
  503000    1.0538727   -7.2900306    174.57896  0.028922956   0.02926995            2 
  504000    1.0578418   -7.2737218    174.22872  0.028807658  0.029252885            2 
  505000    1.0501442   -7.2849728    175.09602  0.028893733  0.029236488            2 
  506000    1.0659114   -7.3175646     175.3378  0.028876449  0.029219885            3 
  507000    1.0529079   -7.2771608    175.66559  0.028873371  0.029203759            2 
  508000    1.0580524   -7.3213465     175.6327  0.028811138   0.02918806            2 
  509000    1.0616161   -7.3136213    176.24318  0.028854482   0.02917262            1 
  510000    1.0270532   -7.2676421    176.60157  0.028856465  0.029157657            4 
  511000    1.0482275   -7.3026324    177.29328  0.028912798  0.029142137            2 
  512000    1.0395487    -7.294244    177.28723  0.028855343  0.029126779            1 
  513000    1.0347126   -7.3143153    177.99868  0.028914665  0.029111855            4 
  514000    1.0380513   -7.3318633    177.57537  0.028789781  0.029096811            1 
  515000    1.0510299   -7.3009943    178.25114  0.028843226  0.029081535            3 
  516000    1.0637945   -7.2959975    179.21529  0.028943038  0.029066537            1 
  517000    1.0444137   -7.3463335    178.82394  0.028823975  0.029051478            1 
  518000    1.0523975   -7.3096322    179.11899  0.028815797  0.029037011            1 
  519000    1.0385951   -7.3003137    179.51986   0.02882464  0.029022435            1 
  520000     1.049416   -7.3346098    179.62308   0.02878575  0.029007466            2 
  521000    1.0249344   -7.3252481      179.045  0.028638036  0.028992562            1 
  522000    1.0379329   -7.3056532    179.82521  0.028707728  0.028977318            1 
  523000    1.0589114   -7.2861409    180.42128  0.028747814  0.028962461            2 
  524000    1.0469334    -7.322572    180.51704  0.028708181  0.028947548            2 
  525000    1.0425948   -7.2725435    181.07688  0.028742362  0.028932645            2 
  526000    1.0532936   -7.3075922    181.39872  0.028738708   0.02891784            1 
  527000    1.0370127    -7.336455    181.17256  0.028648413  0.028902629            1 
  528000    1.0347311   -7.3230042    181.92437  0.028712811  0.028888294            1 
  529000    1.0480276    -7.295565    182.20616  0.028702924  0.028873657            2 
  530000    1.0472568   -7.3430922    182.20819  0.028649087   0.02885915       -1e+20 
  531000    1.0436079   -7.3671282     182.2125   0.02859581  0.028844495            1 
  532000    1.0365339   -7.3575409    182.71078   0.02862011  0.028829674            3 
  533000    1.0299195   -7.3169399    183.57159  0.028700999  0.028815217            1 
  534000    1.0522909   -7.3436664    182.90694  0.028543529   0.02880087            1 
  535000    1.0303687   -7.3005776    183.99852  0.028660206  0.028786855            2 
  536000    1.0487995    -7.357333    183.61583  0.028547237  0.028772555            1 
  537000    1.0162542   -7.3101712    184.37283   0.02861155  0.028758377            1 
  538000    1.0388157   -7.3472995    184.23714  0.028537351  0.028744447            1 
  539000    1.0378231   -7.3726317    184.11159  0.028464995  0.028730218            1 
  540000    1.0506481   -7.3137919    185.05719  0.028558208  0.028715687            1 
  541000    1.0475265   -7.2962015    184.67305  0.028446249  0.028700642            2 
  542000    1.0295169   -7.3512666    185.21009  0.028476336  0.028686196            1 
  543000    1.0391856    -7.344645    185.61206  0.028485583  0.028671586            2 
  544000    1.0393789   -7.3523252    185.37971  0.028397627  0.028656087            3 
  545000    1.0380837    -7.371456    185.52592  0.028367878  0.028640749            2 
  546000    1.0533395   -7.3706292    185.17682  0.028262641  0.028625194            2 
  547000    1.0066815   -7.3470615    186.28608  0.028379964  0.028610079            1 
  548000   0.99826437   -7.3044107    186.47858  0.028357449  0.028594813            2 
  549000    1.0377136   -7.3298313    186.66267  0.028333739   0.02857967            2 
  550000    1.0003954   -7.3432469    186.15699  0.028205604  0.028563964            1 
  551000    1.0443616    -7.371615    186.91466  0.028269005  0.028548059            2 
  552000    1.0229101   -7.3340774    187.63197  0.028326083  0.028532358            2 
  553000    1.0362783   -7.3388632    187.12696  0.028198758  0.028516277            3 
  554000    1.0307799    -7.314201    187.75933  0.028242979  0.028500305            2 
  555000    1.0366263   -7.3655027    187.89474  0.028212424    0.0284844            2 
  556000     1.028691   -7.3324959    187.97779  0.028174129  0.028468423            1 
  557000    1.0247332   -7.3251453    188.14458    0.0281485  0.028452602            1 
  558000    1.0215545   -7.3575869    187.87478  0.028057764  0.028436463            2 
  559000    1.0403505   -7.3298445    188.86603  0.028155341  0.028420137            2 
  560000    1.0296156    -7.349053    188.58135  0.028062701  0.028403623            1 
  561000    1.0357287   -7.3321792    188.40805  0.027986936  0.028387557            4 
  562000    1.0261973   -7.3948657    188.58574  0.027963485  0.028370857            1 
  563000    1.0425268    -7.390267    188.99646  0.027974609  0.028353854            1 
  564000    1.0395547   -7.3582047    189.37857  0.027981467  0.028337029            2 
  565000    1.0438505   -7.3285908     189.9955  0.028022934  0.028320293            1 
  566000    1.0204189   -7.3654872    189.69099  0.027928591  0.028303968            2 
  567000    1.0166769   -7.3976265    189.67096   0.02787639  0.028287105            2 
  568000    1.0060244   -7.3492982    190.16702  0.027900092  0.028270348       -1e+20 
  569000    1.0065944   -7.3444014    190.29714  0.027870114  0.028253229            2 
  570000   0.99417312   -7.3772634    190.44159  0.027842338  0.028236076            2 
  571000    1.0251972   -7.3661861    191.05295    0.0278828  0.028219507            3 
  572000    1.0344323   -7.3438419    191.63888  0.027919417  0.028203065            2 
  573000    1.0215594   -7.3512522    190.81197  0.027750432  0.028186666            1 
  574000    1.0168558   -7.3932988    191.45504  0.027795447  0.028169564            3 
  575000    1.0287766   -7.3681014    191.87829  0.027808448  0.028152321            1 
  576000    1.0316532   -7.3634447    191.87253  0.027759336  0.028135471            4 
  577000    1.0315717   -7.3486523    192.59165  0.027815085  0.028118661            2 
  578000    1.0165945    -7.348016    192.63421  0.027773098  0.028102154            2 
  579000    1.0199158   -7.3445442    192.92581    0.0277671  0.028085099            3 
  580000    1.0227707   -7.3632794    192.55411  0.027665821  0.028068223            1 
  581000    1.0148749   -7.3826625    192.63079  0.027629201   0.02805087            2 
  582000    1.0446084   -7.2954003    193.25093  0.027670522  0.028033837            3 
  583000    1.0353888   -7.3554576    193.18201  0.027613208   0.02801685            5 
  584000    1.0465915   -7.3626066    193.82867    0.0276582  0.027999622            2 
  585000    1.0249561   -7.3700238    193.55218  0.027571536  0.027982161            2 
  586000    1.0351171   -7.4078564    194.08367  0.027600067  0.027965031            2 
  587000    1.0159146   -7.3695748    194.16019  0.027563911  0.027947731            2 
  588000    1.0193324   -7.4025557    194.18491  0.027520537  0.027930117            1 
  589000    1.0219647   -7.3413464    194.79234  0.027559753  0.027912569            2 
  590000    1.0079075   -7.4143807    193.54606  0.027337015  0.027894609            1 
  591000    1.0246146   -7.3504683    195.46395  0.027561188  0.027876623            2 
  592000   0.99320696   -7.3808565    194.72951  0.027411249  0.027858678            3 
  593000    1.0208027   -7.4087185    194.47447  0.027329183  0.027840673            1 
  594000    1.0068142   -7.3911185    194.64644  0.027307301  0.027822232            3 
  595000    1.0245452   -7.3935766     194.7072  0.027269916  0.027803651            3 
  596000    1.0261308   -7.3613959    195.53831  0.027340368  0.027785216            2 
  597000    1.0102749   -7.3806473    195.35078  0.027268395  0.027766669            1 
  598000   0.99424991    -7.355856    195.19309  0.027200821  0.027748058            1 
  599000    1.0325752   -7.3856311    195.23582  0.027161354  0.027729544            1 
  600000   0.99028118   -7.4039925    195.77628   0.02719115  0.027710509            1 
  601000   0.99992805   -7.3507429    195.87306  0.027159326  0.027691594            4 
  602000    1.0061175   -7.4094709    196.28569   0.02717133  0.027673337            2 
  603000    1.0162837   -7.3576297     197.8289  0.027339538  0.027655675            2 
  604000    1.0348117   -7.3867514    197.69879  0.027276323   0.02763833            2 
  605000    1.0239569   -7.4344063    197.71651   0.02723368  0.027620771            1 
  606000    1.0019916   -7.3818884    197.91674  0.027216274  0.027602911            1 
  607000    1.0202314   -7.3806977    197.85078  0.027162381  0.027585354            2 
  608000    1.0158371   -7.3934692    197.73907  0.027102395  0.027567529            2 
  609000    1.0162378   -7.3947061    197.82286  0.027069357  0.027549508            1 
  610000    1.0009398   -7.3774003    198.21152  0.027078076  0.027531333            1 
  611000    1.0124969   -7.3915793    198.11452   0.02702053  0.027513287            2 
  612000     1.019994   -7.3825965    198.42294  0.027018374  0.027495206            1 
  613000    1.0129004   -7.3851674    198.52491   0.02698816  0.027477114            1 
  614000   0.98153671    -7.395654    199.13626   0.02702718  0.027459321            1 
  615000   0.99003599   -7.3639669    199.56311  0.027041072  0.027441599            1 
  616000    1.0332467   -7.3938264    200.09586  0.027069245  0.027423864            3 
  617000    1.0066663   -7.4147279    199.31059  0.026919312  0.027406117            3 
  618000    1.0089337   -7.3700163    201.07682  0.027113919  0.027388394            3 
  619000   0.99607031   -7.3991138    200.42317  0.026982118   0.02737092            2 
  620000   0.99720092   -7.4094618    200.75322  0.026982959  0.027353186            1 
  621000    1.0033183   -7.4087669    200.29569  0.026878112  0.027335516            2 
  622000    1.0178378    -7.429013    200.95291  0.026922951  0.027318121            1 
  623000     1.008246   -7.4359173    201.52533  0.026956304  0.027300933            2 
  624000    1.0049882   -7.3978785     202.1872  0.027001495   0.02728383            2 
  625000    0.9880122   -7.4009801    202.34303   0.02697907  0.027266971            2 
  626000    1.0068094   -7.4155901    201.97234  0.026886627  0.027250317            2 
  627000   0.98938609   -7.3779359    202.76995  0.026949754  0.027233487            3 
  628000     1.014244   -7.4133648    202.93899  0.026929272  0.027217297            5 
  629000    1.0067352   -7.4094991    203.26389  0.026929503  0.027201018            3 
  630000    1.0078132   -7.3999942    203.59363  0.026930375  0.027184588            1 
  631000    1.0008861   -7.4078962     203.1824  0.026833386  0.027167769            2 
  632000   0.98088637   -7.3967588    203.35609   0.02681383  0.027150952            3 
  633000   0.99113701   -7.3957045    204.31465  0.026897663  0.027134428            1 
  634000    1.0142084   -7.4057937    203.94281  0.026806364   0.02711782            3 
  635000   0.99118208   -7.4028858    204.28023  0.026808429  0.027101311            1 
  636000    1.0048759   -7.4080664    204.51564  0.026797123  0.027084705            2 
  637000   0.99082412   -7.4236409    204.21931  0.026716289  0.027067524            2 
  638000    1.0096276     -7.40042    205.23406  0.026806956   0.02705049            2 
  639000    1.0033861   -7.4285199     205.0895  0.026746153  0.027033397            1 
  640000   0.98231185   -7.4476082    204.44815  0.026620853  0.027016176            1 
  641000    1.0008516   -7.4186462    204.68565    0.0266102  0.026998917            1 
  642000   0.98830057   -7.4098002    204.87361  0.026593148  0.026981638            2 
  643000   0.99948992    -7.417187    205.89024  0.026683546  0.026964716            4 
  644000    1.0058151   -7.4449848    205.19269  0.026551849  0.026947654            2 
  645000   0.97191833   -7.4502829    205.98123  0.026612562  0.026930073            1 
  646000   0.98687994    -7.458729    205.19732  0.026470242  0.026912326            1 
  647000    0.9869731   -7.4727755    205.96536  0.026528254  0.026894666            1 
  648000    1.0073303   -7.4262117    205.73087  0.026457159  0.026877039            3 
  649000    1.0221281   -7.4070018    206.18657  0.026474906  0.026859375            2 
  650000   0.99347481   -7.4137009    206.80901  0.026513975  0.026841783            1 
  651000   0.98274305   -7.4386342    206.40996  0.026422166  0.026824173            2 
  652000    1.0071818    -7.413585    206.84389  0.026437102  0.026806655            2 
  653000    1.0167303   -7.4477295    206.58718  0.026363857  0.026789171            3 
  654000    1.0024073   -7.4404699    207.73145  0.026469349  0.026771713            5 
  655000   0.99347918   -7.4596658    206.97785  0.026333059  0.026754058            2 
  656000   0.99583869   -7.4417729    207.31754  0.026336069  0.026736187            4 
  657000    1.0031614   -7.4302019    207.35009  0.026300113   0.02671839            2 
  658000   0.98152962   -7.4466399    207.52926  0.026282834  0.026700585            1 
  659000   0.99657889   -7.4477138    208.39032  0.026351835  0.026682932            5 
  660000    1.0134434   -7.4492505    207.86639  0.026245756  0.026665434            1 
  661000   0.98482371   -7.3996298    209.19817   0.02637395  0.026647966            1 
  662000   0.97886116   -7.4436702    209.28504  0.026345045  0.026630406            1 
  663000    0.9995284   -7.4383506    208.74497  0.026237427  0.026612898            2 
  664000   0.98819894   -7.4701916    209.07653  0.026239525  0.026595225            1 
  665000   0.99247337   -7.4026054    209.75621  0.026285239  0.026577852            2 
  666000   0.96914471   -7.4309583    209.65576  0.026233203  0.026560651            1 
  667000   0.98083903    -7.405668     210.0114  0.026238305   0.02654346            3 
  668000   0.99885043   -7.4569759    209.61294  0.026149319  0.026526175            2 
  669000    1.0110849   -7.4103955    210.37621  0.026205308  0.026508629            8 
  670000   0.99170586   -7.4414765    210.43543  0.026173562  0.026491068            1 
  671000    0.9907616   -7.4425599    210.36513  0.026125823   0.02647331            4 
  672000     0.991302   -7.4543649     210.3523  0.026085355  0.026455749            4 
  673000     1.008461   -7.4593814    210.71899     0.026092  0.026438405            2 
  674000   0.99361552    -7.483071    210.57234  0.026035156  0.026420945            2 
  675000    1.0159315   -7.4582024    211.07383  0.026058498  0.026403335            2 
  676000   0.99086862   -7.4766572    211.73789  0.026101811  0.026385634            3 
  677000   0.96085884   -7.5099762    211.47717  0.026031163  0.026368147            1 
  678000    1.0117847   -7.4766445    211.74475  0.026025657  0.026350631            3 
  679000   0.95287901   -7.4394922    211.58241  0.025967404  0.026332992            2 
  680000   0.97790449   -7.4666424     211.8737  0.025964914   0.02631517            2 
  681000   0.98724067   -7.4513868    212.09234  0.025953541  0.026297294            4 
  682000   0.99168131   -7.4448466    212.95353  0.026020715   0.02627966            1 
  683000   0.99617355   -7.4124148    212.82615  0.025967075   0.02626225            3 
  684000   0.97874894   -7.4489532    213.44225  0.026004172  0.026245083            2 
  685000   0.97654354   -7.4698952    213.18826  0.025935311  0.026227714            1 
  686000   0.99818414   -7.4603476    213.18719  0.025897375  0.026210354            2 
  687000   0.98247579   -7.5013064    213.11343  0.025850731  0.026193158            2 
  688000   0.99318766    -7.455409    213.70343  0.025884621  0.026176021            2 
  689000   0.94972394    -7.447772    214.60569  0.025956179  0.026159339            1 
  690000    0.9845088   -7.4432504    214.52642  0.025908988   0.02614272            2 
  691000   0.96767404   -7.4706379    214.65961  0.025887556  0.026125917            4 
  692000   0.97917472   -7.5029975    214.74531  0.025860466  0.026109325            3 
  693000   0.96684326   -7.5059438     214.6157  0.025807563  0.026092569            2 
  694000   0.98192239    -7.476743    215.21722  0.025842605  0.026075813            1 
  695000   0.97637918   -7.4809399    215.15373   0.02579781  0.026059023            2 
  696000   0.98934919   -7.4743146    215.36247  0.025785736  0.026042191            1 
  697000    1.0006007   -7.4702431    216.30476  0.025861401   0.02602551            2 
  698000   0.97489446   -7.4465807     215.8549  0.025770642  0.026009006            1 
  699000   0.97398827   -7.4737147    216.24829  0.025780673  0.025992657            3 
  700000   0.97118087   -7.4840048     216.6234    0.0257885  0.025976315            3 
  701000   0.97998355   -7.4492525    217.08649  0.025806763  0.025960173            3 
  702000   0.97761415   -7.5346917    216.53201  0.025704179  0.025943857            1 
  703000   0.95393142   -7.4949795    217.80305  0.025818285  0.025927398            3 
  704000   0.97442205   -7.5069276    216.38875  0.025614199  0.025910851            3 
  705000   0.96721537    -7.509762    216.72207  0.025617266  0.025894303            3 
  706000   0.95810483   -7.4576006    217.59389  0.025683887  0.025877916            3 
  707000   0.95509064   -7.4916846    217.83394  0.025675853   0.02586154            2 
  708000   0.96057921   -7.4895481    218.13677  0.025675232   0.02584542            1 
  709000   0.94761059   -7.5226572    217.78911  0.025598156  0.025829194            4 
  710000   0.96099923   -7.5088615    218.11704  0.025600592   0.02581292            1 
  711000   0.97764889   -7.4953523    219.79549   0.02576131  0.025796889            2 
  712000   0.97297068   -7.4640951      220.158  0.025767556  0.025780873            2 
  713000   0.94455014   -7.4334931    219.55236  0.025660631  0.025765168            2 
  714000   0.99058827   -7.4914993     219.5209   0.02562102  0.025749641            3 
  715000   0.98229538   -7.5007513    220.44246  0.025692594  0.025734005            1 
  716000   0.94732517   -7.4877229    220.63307  0.025678896  0.025718233            4 
  717000   0.96221065   -7.4872865    220.62593  0.025642251  0.025702786            3 
  718000   0.97050522   -7.5170323     220.8019  0.025626962  0.025687461            3 
  719000   0.94073505   -7.5168989    221.07475  0.025622943  0.025672014            2 
  720000   0.97772308   -7.5122789    221.07432  0.025587306  0.025656318            2 
  721000   0.97225426   -7.5064726    220.59592  0.025496523  0.025640677            3 
  722000   0.98104963   -7.4996379    221.04381  0.025512905  0.025625139            5 
  723000   0.93055512   -7.4941999    221.41962  0.025520934  0.025609434            1 
  724000   0.97433142   -7.4846779     221.4569  0.025489975  0.025593761            4 
  725000   0.96150764   -7.5251316    221.29608  0.025436331  0.025577937            3 
  726000   0.96826797   -7.4766243    221.92823  0.025473856  0.025562288            1 
  727000   0.96754025   -7.4879336    221.78876  0.025422829  0.025546824            1 
  728000   0.97407205   -7.4784242     222.3294  0.025449794  0.025531374            4 
  729000   0.97421967   -7.5067074    222.29024  0.025410407  0.025515751            1 
  730000   0.97553018   -7.5192387    221.88472  0.025329306  0.025500098            1 
  731000   0.96081918   -7.5278597    222.59351  0.025375458  0.025484329            1 
  732000   0.96973067   -7.4909747    223.49261  0.025443147  0.025468664            3 
  733000   0.96297224    -7.503957    223.90892  0.025455766  0.025452948            3 
  734000   0.95300929   -7.4726066    223.81172   0.02541005  0.025437339            1 
  735000   0.98459155   -7.4823045    223.72353   0.02536548  0.025421815            1 
  736000   0.95987366   -7.5023313    223.47475  0.025302848   0.02540639            2 
  737000   0.97224778   -7.5247526    224.10713   0.02534002  0.025390844            4 
  738000   0.92531827   -7.5255076    223.52979  0.025240491  0.025375179            1 
  739000   0.94914435   -7.5262788    223.85239  0.025242715  0.025359569            3 
  740000   0.97211111   -7.5809803    224.02897  0.025228487  0.025343986            2 
  741000   0.95434963   -7.5280796     224.4734  0.025244422  0.025328614            2 
  742000   0.95755811   -7.5239261    224.62592  0.025227529  0.025313107            5 
  743000    0.9674109   -7.5540323    224.29015  0.025155916  0.025297364            2 
  744000   0.93776829   -7.5446284    224.12803  0.025103946  0.025281589            3 
  745000   0.95968334   -7.5394017    224.59577   0.02512257  0.025265579            3 
  746000   0.96311047   -7.5495753    224.96059  0.025129646  0.025249778            2 
  747000   0.96744282   -7.5299341    224.49657  0.025044241  0.025233868            1 
  748000   0.97426512   -7.5451099    224.82363  0.025047195  0.025217685            2 
  749000    0.9525645   -7.5486105    225.42868  0.025081072  0.025201791            1 
  750000   0.96918319   -7.4945991    226.27827  0.025142029  0.025186323            1 
  751000   0.95672643   -7.5232571    226.13759  0.025092942  0.025170991            3 
  752000   0.95598569   -7.5589232    225.76079  0.025017818  0.025155259            2 
  753000     0.960597   -7.5430008    225.56974   0.02496345  0.025139351            1 
  754000   0.95867497   -7.5288556    226.38679  0.025020644  0.025123406            2 
  755000     0.953815   -7.5017447    225.93352  0.024937475  0.025107372            1 
  756000   0.93605221   -7.5334425    225.88811  0.024899483  0.025091023            1 
  757000   0.97159699   -7.5267767    227.41963  0.025035186  0.025074764            3 
  758000   0.96844209   -7.5476994    226.52096   0.02490336  0.025058707            2 
  759000   0.95479717   -7.5229794    226.57788  0.024876799  0.025042627            3 
  760000   0.94797668   -7.5312265    227.08852  0.024900057  0.025026674            1 
  761000   0.94901874   -7.5148339    228.01227  0.024968492  0.025010782            1 
  762000   0.94884462   -7.5649329    227.60033  0.024890675  0.024995048            1 
  763000   0.96802538   -7.4963288     228.5038  0.024956727  0.024979527            2 
  764000   0.98198097   -7.4866629    229.16509  0.024996192  0.024964301            2 
  765000   0.93519846   -7.5553753    229.42187  0.024991489  0.024949197            3 
  766000   0.94738973   -7.4936042    229.37745  0.024954031  0.024934246            6 
  767000   0.93853356   -7.5432212    229.38029  0.024921805  0.024919218            3 
  768000   0.93633651   -7.5489498    229.39017  0.024890426  0.024903921            3 
  769000   0.96046758   -7.5547366    229.49484  0.024869402  0.024888682            2 
  770000   0.92758363   -7.5768936    229.71859  0.024861319  0.024873229            2 
  771000   0.94067863   -7.5650466    229.56534   0.02481251  0.024858142            3 
  772000   0.94914241   -7.5577071     230.3026  0.024859952   0.02484311            2 
  773000   0.95619518   -7.5239313    230.07578  0.024803339  0.024828028            1 
  774000   0.95996427   -7.5135419     230.7912  0.024848321  0.024813286            3 
  775000   0.94812656   -7.5243196    231.24659  0.024865225  0.024798341            2 
  776000   0.95466893   -7.5349047    230.66072  0.024770266  0.024783143            2 
  777000   0.93801471   -7.5747198    230.35722  0.024705837  0.024767949            1 
  778000   0.95122344   -7.5423444    230.51643  0.024691134  0.024752607            3 
  779000   0.94549547   -7.5507581    230.52198  0.024660032  0.024737109            3 
  780000   0.94229175   -7.5446655    230.88037  0.024666706   0.02472163            2 
  781000   0.95113312    -7.572855    230.61845  0.024607175  0.024706066            3 
  782000   0.92412837   -7.5530717    231.20033  0.024637716  0.024690442            5 
  783000   0.92369831   -7.5007543    231.61785  0.024650687  0.024675025            2 
  784000   0.91151345   -7.5252825    231.97762  0.024657485  0.024659591            2 
  785000   0.94617379   -7.5475312    232.00496  0.024628976   0.02464436            1 
  786000   0.94778921   -7.5192698    231.91671  0.024588286  0.024628989            3 
  787000   0.92838184   -7.5738989    231.40934  0.024503319  0.024613674            1 
  788000   0.95617074   -7.6071444    232.09684  0.024544928  0.024598226            1 
  789000   0.94921238   -7.5712019    231.84035  0.024486729  0.024582549            1 
  790000   0.93591866   -7.6022216    231.73267  0.024444374  0.024566826            2 
  791000   0.92792645   -7.5998677    232.26482  0.024469535  0.024551345            2 
  792000   0.91906729   -7.5939187    232.85192  0.024500413  0.024535959            2 
  793000   0.93863282   -7.6071111    232.32598  0.024414248  0.024520798            2 
  794000   0.93700663   -7.6042463    232.57536  0.024409672  0.024505123            1 
  795000   0.93564547   -7.5894772    233.48797   0.02447463  0.024489516            2 
  796000   0.93169324   -7.5878806    232.95927  0.024388533  0.024474097            2 
  797000   0.92961899   -7.5598025    233.79327  0.024445135   0.02445874            1 
  798000   0.95397944    -7.588509    233.89172  0.024424782  0.024443595            2 
  799000   0.95911661   -7.5511769    234.02151   0.02440775  0.024428478            4 
  800000   0.94442701   -7.5746685    234.22604  0.024398545  0.024413349            2 
  801000   0.92290343   -7.5471003    234.26515  0.024372155  0.024398232            1 
  802000   0.92332002   -7.5700213    234.47017  0.024363068  0.024382938            1 
  803000   0.93035038   -7.5572697    234.79682  0.024366627  0.024367662            2 
  804000   0.92454976   -7.5485389    235.20685  0.024378819  0.024352524            2 
  805000   0.94373487   -7.6024188    234.30892  0.024255582  0.024336977            2 
  806000   0.93216917   -7.6007891    234.09553  0.024203425  0.024321281            1 
  807000   0.93223547     -7.59492    234.46957  0.024212058  0.024305675            2 
  808000   0.93294213   -7.5753778    235.59934  0.024298612   0.02429021            1 
  809000   0.93375848   -7.5850427    235.36429  0.024244364  0.024274584            2 
  810000   0.92483434   -7.6031991    234.63872  0.024139786  0.024258928            4 
  811000   0.93464112   -7.5945369    234.83235  0.024129917  0.024243208            1 
  812000   0.93854406   -7.5948489    235.00919  0.024118348  0.024227186            1 
  813000   0.94364325   -7.5965487    235.00268  0.024088016  0.024211273            3 
  814000   0.94005767   -7.5885026    235.26799  0.024085585   0.02419531            2 
  815000   0.93278284   -7.5994985    235.70696  0.024100916  0.024179493            1 
  816000   0.92895334   -7.5766788    235.45738  0.024045893  0.024163937            1 
  817000   0.93671636   -7.5745788      236.767  0.024150041  0.024148499            3 
  818000   0.93519155   -7.6090417    236.29764  0.024072702  0.024133012            2 
  819000   0.93005291   -7.5950688    236.79924  0.024094347  0.024117472            2 
  820000   0.92941878   -7.5813036    236.88136  0.024073309  0.024102001            1 
  821000   0.95379039   -7.5982077    236.55052  0.024010406  0.024086567            2 
  822000   0.91459339    -7.568765    237.19853   0.02404689  0.024071128            2 
  823000   0.91222885   -7.5996942    236.64399  0.023961522  0.024055611            2 
  824000   0.92646271   -7.6378567     236.6467  0.023932716   0.02403995            2 
  825000   0.93837588   -7.6396487    236.84707  0.023923946  0.024024138            2 
  826000    0.9275551   -7.6290768    236.85431  0.023895714   0.02400812            4 
  827000    0.9311469   -7.6450003    236.86029  0.023867422  0.023992197            3 
  828000   0.91019195   -7.6117174    236.87464  0.023840041  0.023976322            3 
  829000   0.89683209   -7.6211287    236.94894  0.023818752  0.023960492            5 
  830000   0.90651972   -7.5880769    238.23421  0.023919097   0.02394472            2 
  831000   0.94271507   -7.5943107    238.06813   0.02387366  0.023929012            1 
  832000   0.90955292   -7.5970055    238.67817  0.023906067  0.023913275            2 
  833000   0.91741268   -7.6138614    238.32235  0.023841772  0.023897545            2 
  834000   0.93928648   -7.6110633    238.29969  0.023810921  0.023881887            2 
  835000   0.88711101   -7.5859081    238.42082  0.023794493  0.023866258            2 
  836000   0.93036995   -7.5809667    238.75694  0.023799536  0.023850666            3 
  837000   0.89854265   -7.5939357    238.50768  0.023746284  0.023834973            1 
  838000    0.9009019   -7.5927695    239.09098  0.023775952  0.023819155            2 
  839000   0.92524886   -7.5804029     239.2099  0.023759426  0.023803282            1 
  840000   0.94200041   -7.6023778    238.49393  0.023660113  0.023787508            1 
  841000   0.92053215   -7.5962429    239.57955  0.023739551  0.023771648            2 
  842000    0.9175155   -7.6418849    238.58156  0.023612585  0.023755844            2 
  843000   0.90869091   -7.6295159      238.494  0.023575919  0.023739781            2 
  844000   0.92136882   -7.5892505    238.70333  0.023568654  0.023723602            2 
  845000   0.92827095   -7.6473933    238.83265  0.023553516  0.023707307            6 
  846000   0.92199622    -7.624595    239.23685   0.02356549  0.023690966            2 
  847000   0.90680734   -7.6526652    239.40243  0.023553958  0.023674693            2 
  848000   0.89617449   -7.6006721    240.01481  0.023586361  0.023658647            2 
  849000   0.91691936   -7.6511466    239.49557  0.023507614  0.023642796            2 
  850000   0.89285441   -7.6169988    239.67646  0.023497692  0.023626827            2 
  851000   0.92345614   -7.6415887    239.59269  0.023461877  0.023610905            4 
  852000   0.92827256   -7.6006953    240.37612  0.023510967  0.023595047            2 
  853000   0.93357592   -7.6174916    241.22003  0.023565849   0.02357945            2 
  854000    0.9103829   -7.6246177    240.47942  0.023465986  0.023563706            2 
  855000   0.90327311   -7.6099756    240.70056  0.023460093  0.023547934            1 
  856000   0.91141211   -7.6292848     241.3926  0.023500058  0.023532196            3 
  857000    0.9126231   -7.6322616    241.50449  0.023483518  0.023516651            3 
  858000   0.90852696   -7.6089599    241.75837  0.023480805  0.023501269            1 
  859000   0.91206808   -7.6076105    242.06384  0.023483104  0.023485823            2 
  860000    0.9004998   -7.6209084    242.00672  0.023450264  0.023470371            2 
  861000   0.90715478   -7.6361123     241.3103  0.023355623  0.023454915            2 
  862000   0.92131406   -7.5994183     242.8669  0.023479012  0.023439462            1 
  863000   0.89901707   -7.6244218    242.53483   0.02341974  0.023424113            2 
  864000   0.91841032   -7.6169934    242.64099  0.023402873  0.023408893            2 
  865000   0.89509323   -7.6312384     242.7195  0.023383381  0.023393753            2 
  866000   0.93991894   -7.6208542    242.83602  0.023367592  0.023378717            6 
  867000   0.91065195   -7.6404724    243.73616  0.023427158    0.0233635            2 
  868000   0.89379968   -7.6274256    243.28429  0.023356787  0.023348389            2 
  869000   0.93440331   -7.6612337    243.72593  0.023372261  0.023333311            1 
  870000   0.88690551   -7.6800894    243.24185  0.023299028  0.023318153            1 
  871000   0.89102724   -7.6371656    244.37729  0.023380911  0.023303233            3 
  872000   0.90930439   -7.6507512    244.18597  0.023335815  0.023288621            3 
  873000   0.90667384   -7.6477906    244.25263  0.023315448  0.023273903            2 
  874000   0.90480679   -7.6603401    245.02741  0.023362644   0.02325931            2 
  875000    0.9272107   -7.6130406     245.3365   0.02336538  0.023244818            4 
  876000   0.91220451   -7.6160184    245.31973  0.023337113  0.023230333            4 
  877000   0.90712754   -7.6526971    245.23452  0.023302406  0.023215871            2 
  878000   0.89505033   -7.6723545    245.80537  0.023330047  0.023201544            3 
  879000   0.90728634   -7.6384664    245.97987  0.023320049   0.02318733            2 
  880000   0.92436888   -7.6697562    245.82945  0.023279304  0.023173054            4 
  881000   0.89805941   -7.6297845     245.9299  0.023262382  0.023158722            2 
  882000    0.8965712   -7.6330804    246.16947  0.023258642  0.023144607            2 
  883000   0.90663324   -7.6453024    246.55766  0.023268937  0.023130386            1 
  884000   0.89975436   -7.6508265    246.95702  0.023280262  0.023116139            2 
  885000   0.89343867   -7.6765657    246.92548  0.023250986  0.023101805            2 
  886000   0.88991118   -7.6506175    247.05216  0.023236659  0.023087481            1 
  887000   0.92067367   -7.6428368     246.5505  0.023163331  0.023073319            1 
  888000    0.8933535   -7.6704675    247.31573  0.023209059  0.023059028            6 
  889000   0.90234846   -7.6658593    246.79607   0.02313424  0.023044738            2 
  890000   0.89859464   -7.6388603    248.03047  0.023223827  0.023030459            1 
  891000   0.89486312    -7.628348    247.57065  0.023154755  0.023016394            2 
  892000   0.91109884   -7.6585381    246.86105  0.023062504  0.023002062            5 
  893000   0.87885033   -7.6688567     247.9333  0.023136739  0.022987637            2 
  894000   0.89184834   -7.6658745    248.28018  0.023143193  0.022973156            2 
  895000   0.90498215   -7.6793312    248.11359  0.023101824  0.022958744            3 
  896000   0.88533164   -7.6552173    248.25184  0.023088899  0.022944476            1 
  897000   0.88720486   -7.6794471    248.06062  0.023045394  0.022929969            1 
  898000   0.89009427   -7.6614135    247.95567  0.023009991  0.022915457            2 
  899000   0.91266667   -7.6680041    248.49329  0.023034232    0.0229011            2 
  900000   0.87827986   -7.6710646      248.662   0.02302426  0.022886789            2 
  901000   0.89683756   -7.6517542    248.88054  0.023018918  0.022872458            1 
  902000   0.88578216   -7.6701348    248.20291  0.022930794  0.022858041            2 
  903000   0.87814658   -7.7036815    247.88799  0.022876337  0.022843267            2 
  904000   0.88373384   -7.6340186    248.87759  0.022942256  0.022828675            3 
  905000   0.88475868   -7.6747832    248.61207  0.022892456  0.022814016            4 
  906000   0.88782243   -7.6788791    248.32136  0.022840449  0.022799223            4 
  907000   0.90509809   -7.6731511    249.05512  0.022882683  0.022784537            2 
  908000   0.88989711   -7.6610767    249.50994  0.022899223  0.022769786            3 
  909000    0.9041518   -7.6676187    249.08146  0.022834751  0.022755039            2 
  910000   0.89206941   -7.6727863    249.60411  0.022857519  0.022740537            2 
  911000   0.87585837   -7.6978786    249.85206  0.022855109  0.022725893            1 
  912000   0.90501763   -7.7048134    249.30082   0.02277968  0.022711091            3 
  913000   0.89473239   -7.6969506    249.58365  0.022780545  0.022696364            2 
  914000   0.88297751   -7.6404176    250.44706  0.022834342   0.02268177            1 
  915000   0.90457959   -7.6781164    249.49834  0.022722982  0.022667336            4 
  916000   0.90882527   -7.6990332    249.87533  0.022732471  0.022652825            3 
  917000   0.89274414    -7.670365    250.38904  0.022754365  0.022638269            2 
  918000   0.88965635   -7.6744427    250.31141  0.022722532  0.022623782            2 
  919000   0.90560839   -7.6792156    250.48128   0.02271321  0.022609273            2 
  920000   0.87729852   -7.6950083    250.66967  0.022705586  0.022594668            3 
  921000   0.88679246   -7.7028166    250.56152  0.022671147  0.022580004            1 
  922000   0.89584728   -7.7327893    250.27139  0.022620335  0.022565369            2 
  923000   0.87147402   -7.7046892    250.31476  0.022599744  0.022550678            2 
  924000   0.87892306   -7.6973174    250.40235  0.022583185  0.022535773            2 
  925000   0.87235368    -7.659733    251.22725  0.022633085  0.022521099            3 
  926000   0.88829292   -7.6971538    250.71162  0.022562241  0.022506418            3 
  927000    0.8771214   -7.7111757    250.75258  0.022541584  0.022491851            1 
  928000   0.88797989   -7.6937826    251.61005  0.022594293  0.022477235            3 
  929000   0.87303989   -7.6872787    251.14846  0.022528567  0.022462554            1 
  930000   0.89818295   -7.7014299    250.00521    0.0224019  0.022447673            2 
  931000   0.88593323   -7.7169518    251.31327  0.022494922  0.022432859            2 
  932000   0.88436203   -7.6953236    251.68335  0.022503876  0.022418038            1 
  933000    0.8702392   -7.7309298    251.02526  0.022420977  0.022403104            2 
  934000   0.88309812   -7.6881235     251.9139  0.022476258  0.022388155            2 
  935000   0.89167811   -7.7200108      251.463  0.022412032  0.022373417            3 
  936000   0.86960921   -7.7095496    251.47609  0.022389253  0.022358474           11 
  937000   0.88207639   -7.7323172    251.82357  0.022396262  0.022343572            2 
  938000     0.898537   -7.7271447    251.96308  0.022384779  0.022328796            2 
  939000   0.86841571   -7.6982711    251.93234  0.022358213  0.022313817            2 
  940000   0.86896957   -7.7067506    252.67543  0.022400304  0.022298938            5 
  941000   0.88916829   -7.7137915    252.96637  0.022402265  0.022284139            3 
  942000      0.89628   -7.7030038    253.15297  0.022394991  0.022269446            4 
  943000   0.88181023   -7.7102175    252.51447  0.022314817  0.022254638            3 
  944000   0.86600966   -7.6778609    253.20727  0.022352337  0.022240027            2 
  945000   0.90518862   -7.7080413    252.90137  0.022301708  0.022225312            2 
  946000    0.8787072   -7.7160912    252.89256  0.022277357  0.022210512            3 
  947000    0.8894523   -7.7714218     252.7375  0.022240188  0.022195607            2 
  948000    0.8832078   -7.7467667    253.67996  0.022299574  0.022180774            2 
  949000   0.88201887     -7.69938    253.51521   0.02226161  0.022166041            2 
  950000   0.87352219   -7.7210166    253.13347  0.022204691  0.022151262            2 
  951000   0.87700558   -7.7271121    252.43043  0.022119736  0.022136484            2 
  952000   0.86790922   -7.7181408    253.02308  0.022148379  0.022121559            2 
  953000   0.87910832   -7.7278308    253.65215  0.022180146   0.02210672            4 
  954000   0.87527923   -7.7182185    253.86935  0.022175869  0.022091992            1 
  955000   0.87669669   -7.7380925    253.54428  0.022124282   0.02207724            6 
  956000    0.8901697    -7.694354    253.88523   0.02213086  0.022062401            2 
  957000   0.87629371   -7.7287436    253.38415  0.022064103  0.022047514            1 
  958000   0.87438085   -7.7384582    253.57816  0.022057947  0.022032567            2 
  959000    0.8771778   -7.7223713    254.06152  0.022076948  0.022017606            1 
  960000   0.87276101    -7.723347    254.05657  0.022053522  0.022002746            3 
  961000   0.88820862   -7.7218006    254.39512   0.02205993  0.021987981            2 
  962000   0.87854189   -7.7424087     253.8846  0.021992775  0.021973186            6 
  963000   0.86230208   -7.7219253    254.30368  0.022006203  0.021958408            1 
  964000   0.87374714   -7.7120391    255.52721  0.022089143  0.021943622            5 
  965000   0.88049732   -7.7424422    255.02537  0.022022916  0.021928974            5 
  966000    0.8654627   -7.7538138     254.4823   0.02195327  0.021914146            2 
  967000   0.88093638   -7.7395293    255.09524  0.021983389  0.021899326            2 
  968000   0.86227188   -7.7538371     255.6033  0.022004416  0.021884477            4 
  969000    0.8848853   -7.7548138    255.12859  0.021940883  0.021869675            1 
  970000   0.86675133   -7.7539135     254.6279  0.021875249  0.021854846            4 
  971000   0.87623834   -7.7306491    255.18454  0.021900493  0.021840011            3 
  972000   0.86387201   -7.7374118    254.70187   0.02183658  0.021825043            3 
  973000   0.85702704   -7.7618852    255.22801    0.0218592  0.021810143            2 
  974000   0.85185124   -7.7516877    255.73618  0.021880235  0.021795354            4 
  975000   0.88462759   -7.7801234    255.23308  0.021814793  0.021780538            2 
  976000   0.86054243   -7.7471214    256.41457  0.021893321  0.021765724            4 
  977000   0.88277107   -7.7553404    255.45903  0.021789409  0.021750956            3 
  978000   0.84354565   -7.7470839    255.75391  0.021792255  0.021736184            3 
  979000   0.86377519   -7.7486135    256.18251  0.021806479  0.021721271            3 
  980000   0.85629869   -7.7566938    255.42228  0.021719582  0.021706503            3 
  981000   0.86052095   -7.7594471    256.00566  0.021746998  0.021691722            2 
  982000   0.84658691   -7.7822567    256.47734   0.02176488  0.021676942            1 
  983000   0.85706732   -7.7340639    256.60508  0.021753567  0.021662267            1 
  984000     0.852565   -7.7531029    256.65198  0.021735432  0.021647611            2 
  985000   0.85205231   -7.7421449    256.83653  0.021728979  0.021632923            1 
  986000   0.86702667   -7.7603036     256.9898  0.021719895  0.021618203            2 
  987000   0.85446804   -7.7787154    256.39355  0.021647547   0.02160331            3 
  988000   0.85236493   -7.7588659    256.52196  0.021636468  0.021588466            3 
  989000   0.86198045   -7.7894553    255.97862  0.021568808  0.021573756            2 
  990000   0.86924204   -7.7485796    258.12028  0.021727297  0.021559023            1 
  991000   0.85450409   -7.7635136    256.86325  0.021599668   0.02154443            2 
  992000   0.87100885   -7.7584271    257.31878  0.021616161  0.021529825            2 
  993000   0.85130375   -7.7204886    257.45212  0.021605583  0.021515224            2 
  994000   0.85238155   -7.7568094     257.6157  0.021597561  0.021500566            2 
  995000   0.86529636   -7.7691579    257.74537  0.021586715  0.021485935            3 
  996000   0.86224924   -7.7535476    257.95021  0.021582179  0.021471361            3 
  997000   0.86643787   -7.7921717    257.73188  0.021542284  0.021456797            2 
  998000    0.8633312   -7.7626277    258.28195  0.021566629   0.02144218            3 
  999000   0.85171355   -7.7773428    258.63253  0.021574285  0.021427407            2 
 1000000   0.85033679   -7.7665362    258.07656   0.02150638  0.021412672            2 
 1001000   0.83046204   -7.7493534    258.22333  0.021497114  0.021397947            1 
 1002000   0.84247089   -7.7637581    257.77292    0.0214382  0.021383115            3 
 1003000   0.85494603    -7.796938    257.66546  0.021407898  0.021368114            2 
 1004000   0.88486519    -7.746454    258.40452  0.021447918  0.021353166            1 
 1005000   0.84900725    -7.777325    257.41444  0.021344481  0.021338405            1 
 1006000   0.83472891   -7.7796722    257.93015  0.021365984   0.02132351            1 
 1007000   0.87241177   -7.7961159    257.93199  0.021344918   0.02130861            3 
 1008000   0.84961147   -7.8071198    257.65848  0.021301131  0.021293652            2 
 1009000   0.83871046   -7.7730898    258.34166  0.021336443  0.021278984            1 
 1010000   0.83590274   -7.7779325    258.66382  0.021341899  0.021264183            3 
 1011000   0.83261938   -7.7922128    257.91644  0.021259186  0.021249363            2 
 1012000   0.84230689   -7.7764758    258.86752  0.021316495  0.021234553            3 
 1013000    0.8496564    -7.792255    258.84704  0.021293768  0.021219701            2 
 1014000   0.85987801   -7.8009654    258.86019  0.021273848  0.021204853            3 
 1015000   0.85008697    -7.783713    258.76959  0.021245451   0.02118997            2 
 1016000   0.86265883   -7.7985521    259.23335  0.021262578  0.021175247            2 
 1017000   0.86095375   -7.8242906    258.49687  0.021181324   0.02116043            2 
 1018000   0.84556194   -7.8057736    259.15528  0.021214414  0.021145486            2 
 1019000   0.84092806   -7.7881429    259.63898  0.021233152   0.02113066            2 
 1020000    0.8550725    -7.756217    259.47459  0.021198904  0.021115869            2 
 1021000   0.85073609   -7.7632236    260.07299  0.021226983  0.021101186            3 
 1022000   0.84719687   -7.7992982    259.63497  0.021170497  0.021086465            2 
 1023000    0.8493656   -7.7902085    259.36423  0.021127748  0.021071625            1 
 1024000   0.84964432   -7.7791211    259.84101  0.021145916  0.021056845            2 
 1025000   0.84404603   -7.8125893    259.52927  0.021099941  0.021042073            2 
 1026000    0.8465189   -7.7774241     260.0436   0.02112115  0.021027397            2 
 1027000   0.83722755   -7.7771399       260.72  0.021155469  0.021012826            2 
 1028000   0.82314071   -7.7547481     260.3948  0.021108528  0.020998249            3 
 1029000   0.83144765    -7.798907     260.0247  0.021058042  0.020983449            2 
 1030000   0.85933847   -7.7901588    260.48749  0.021075039  0.020968737            4 
 1031000   0.84184457   -7.8097288    260.43761  0.021050567  0.020954067            2 
 1032000   0.85051064   -7.7958069    260.71925  0.021052911  0.020939324            2 
 1033000   0.83028998   -7.7950783    260.57803  0.021021138  0.020924639            1 
 1034000   0.84315875   -7.7821031    260.29153  0.020977719  0.020909888            4 
 1035000   0.84322294   -7.7824716    260.58976  0.020981462  0.020895056            5 
 1036000   0.82021336   -7.7892236      261.226  0.021012387  0.020880317            4 
 1037000   0.84104089   -7.7594848    260.78361  0.020956575  0.020865643            3 
 1038000    0.8371083   -7.8074421    260.54517  0.020917243  0.020850908            3 
 1039000   0.83979475   -7.8221032    260.83926  0.020920698  0.020836227            4 
 1040000   0.83452445   -7.7913744    261.73253  0.020972158  0.020821603            2 
 1041000   0.81823861   -7.8201894    261.29246  0.020916783  0.020806896            2 
 1042000   0.83664208   -7.7985565    261.28114  0.020895805  0.020792167            1 
 1043000   0.84570351   -7.8353407    260.59666  0.020821082  0.020777406            2 
 1044000   0.83548778   -7.8477246    260.93372  0.020828043  0.020762663            2 
 1045000   0.81635902   -7.8213458    261.88164  0.020883704  0.020748029            2 
 1046000   0.82887695   -7.8102091      261.481   0.02083182  0.020733295            3 
 1047000   0.82891655   -7.8062596     261.3705  0.020803128  0.020718516            2 
 1048000   0.84028237   -7.8510521     262.0833  0.020839957  0.020703724            1 
 1049000    0.8305827   -7.8106054     261.4308  0.020768256   0.02068896            3 
 1050000   0.81188765   -7.8201289    261.62998  0.020764284  0.020674288            3 
 1051000   0.82998203   -7.8302968    261.76924  0.020755569  0.020659729            2 
 1052000   0.83079274   -7.8431626    262.05565  0.020758528  0.020645069            2 
 1053000   0.84431699   -7.8325806     262.1301  0.020744705  0.020630409            3 
 1054000   0.84102636   -7.8340075    262.53424  0.020756977  0.020615815            2 
 1055000   0.82972447   -7.8338218    262.07578  0.020701088  0.020601308            3 
 1056000   0.81600236   -7.8005375    262.45359  0.020711299  0.020586804            3 
 1057000   0.83771489   -7.8551181    261.72206  0.020634032  0.020572201            2 
 1058000   0.85431412   -7.8202066    262.98914   0.02071433  0.020557549            1 
 1059000   0.82627872   -7.8124302    262.70678  0.020672551   0.02054291            1 
 1060000    0.8315557   -7.8334861    262.26504  0.020618321  0.020528317            5 
 1061000   0.83789965   -7.8186189    262.92165  0.020650459  0.020513663            4 
 1062000   0.82082774   -7.8464716    262.57987  0.020604196  0.020498887            1 
 1063000   0.84308895   -7.8306117    262.31202  0.020563814  0.020484063            2 
 1064000   0.82747594   -7.8246293    261.88086  0.020510719  0.020469236            2 
 1065000   0.84349069   -7.8183873    262.81129  0.020564264  0.020454464            2 
 1066000   0.82254129   -7.8268415    262.28087  0.020503507  0.020439685            1 
 1067000   0.82004406   -7.8112121    263.46487  0.020576763  0.020424969            2 
 1068000     0.831846   -7.8463474    262.57513  0.020488072  0.020410209            2 
 1069000   0.82333648   -7.8321389    262.15529  0.020436178  0.020395398            3 
 1070000   0.81141894   -7.8454656     263.2262  0.020500483  0.020380643            2 
 1071000   0.82952624   -7.8525172    262.69703  0.020440167  0.020365862            3 
 1072000   0.82318346   -7.8174629    262.73046  0.020423699  0.020351078            2 
 1073000   0.83204613   -7.8300143    262.76017  0.020406972  0.020336356            3 
 1074000   0.82355449   -7.8263915    263.28172  0.020428439  0.020321655            4 
 1075000   0.83218671   -7.8948386    262.89363  0.020379351  0.020306875            2 
 1076000   0.84703815   -7.8773628    263.86018  0.020435268  0.020292115            2 
 1077000   0.81670039   -7.8221619    262.03812  0.020275311  0.020277431            3 
 1078000   0.82932351   -7.8553285    263.32843  0.020356248  0.020262706            1 
 1079000   0.81416903   -7.9004172    263.77113  0.020371573  0.020248048            3 
 1080000   0.82559922    -7.859072    263.14124  0.020304108   0.02023329            4 
 1081000   0.83106129    -7.854269    263.40817  0.020305903  0.020218486            2 
 1082000   0.81739092   -7.8863097    262.99399  0.020255236  0.020203701            3 
 1083000   0.84218645   -7.8621468    263.46184  0.020272533  0.020188987            3 
 1084000   0.80869562   -7.8593799    263.61934  0.020265939   0.02017418            2 
 1085000   0.81258147   -7.8722307    264.40782   0.02030782  0.020159571            3 
 1086000   0.81779246   -7.8518713    263.90976  0.020250902   0.02014501            1 
 1087000   0.82595434   -7.8615012    264.30212  0.020262352  0.020130465            2 
 1088000    0.8125177   -7.8262495    264.48721  0.020257905  0.020115953            4 
 1089000   0.82420622   -7.8657532    264.22326  0.020219104  0.020101539            2 
 1090000   0.80491963   -7.8604368    265.51402  0.020299237  0.020087093            3 
 1091000   0.83225146   -7.8680813    264.86904  0.020231366  0.020072647            5 
 1092000   0.81839877   -7.8868166    264.98606  0.020221769  0.020058246            4 
 1093000   0.82085467   -7.8717479     265.1373  0.020214799  0.020043815            4 
 1094000   0.81738876   -7.8640538    265.05244  0.020189856   0.02002937            5 
 1095000   0.81688707   -7.8714863    265.06371  0.020172276  0.020014909            2 
 1096000   0.81431764   -7.8653488    265.07897  0.020155031  0.020000512            4 
 1097000   0.81096625   -7.8869918    264.71652  0.020109125  0.019986188            1 
 1098000   0.81445089   -7.8710314    265.45822  0.020147103  0.019971813            4 
 1099000   0.82782858   -7.8757437    265.70193   0.02014725  0.019957531            3 
 1100000   0.83003338   -7.8971136    265.78274  0.020135056  0.019943265            3 
 1101000    0.7966704   -7.8772156    265.89758   0.02012546  0.019929048            2 
 1102000   0.80828422   -7.8510545    265.93109  0.020109731  0.019914857            2 
 1103000   0.80319463   -7.8524872    266.44449  0.020130288  0.019900684            2 
 1104000   0.80656644   -7.8736169    265.44022  0.020036248  0.019886404            2 
 1105000    0.8092677   -7.8437854    266.14706  0.020071422  0.019872201            3 
 1106000   0.80340999   -7.8618439    266.68535  0.020093833  0.019858016            2 
 1107000   0.82349988   -7.8866698    265.35557  0.019975577  0.019843706            4 
 1108000   0.79489894   -7.8595854    265.87182  0.019996377  0.019829414            3 
 1109000   0.81511434    -7.857898    265.84669  0.019976457  0.019815115            4 
 1110000   0.81656571   -7.8444303    266.04333  0.019973223   0.01980089            1 
 1111000   0.80613151     -7.87684    266.54415   0.01999281  0.019786618            3 
 1112000     0.814475   -7.8974303    265.81591  0.019920257  0.019772291           12 
 1113000   0.81881336   -7.8735632    266.46136  0.019950686  0.019757956            2 
 1114000   0.80875436   -7.8784428    266.01641  0.019899492  0.019743625            2 
 1115000   0.82864621   -7.8918685    266.15412  0.019891937  0.019729239            2 
 1116000   0.79891322   -7.9052933    265.67569  0.019838387  0.019714882            4 
 1117000   0.79461622   -7.8903366    265.80528  0.019830295  0.019700431            6 
 1118000   0.78716601   -7.8773653    265.67707  0.019803002  0.019685935            1 
 1119000   0.81447461   -7.8683372    265.90815  0.019802514  0.019671449            2 
 1120000   0.80574183   -7.8270783    266.73294  0.019846201  0.019657103            5 
 1121000   0.80147035    -7.881845    266.62123  0.019820193  0.019642807            3 
 1122000    0.7898304   -7.8925434    266.06547   0.01976125  0.019628438            2 
 1123000   0.82207491    -7.879079    266.48987  0.019775146  0.019614017            2 
 1124000   0.81665938   -7.9080299    266.37431  0.019748985   0.01959954            1 
 1125000   0.79636604   -7.8672198    266.36303  0.019730595  0.019585054            3 
 1126000   0.79239974   -7.9221801     265.8231  0.019673113  0.019570524            1 
 1127000   0.80308897   -7.8754636    266.45831  0.019702626  0.019555965            2 
 1128000   0.79448967   -7.8881418    265.82337  0.019638251  0.019541471            4 
 1129000    0.8159034   -7.8990116     266.0166   0.01963512  0.019526966            2 
 1130000    0.8034482   -7.8758987    266.38033  0.019644567  0.019512461            1 
 1131000   0.80456244   -7.8758857    266.34781  0.019624802  0.019497993            3 
 1132000   0.80654978    -7.926174    266.46722  0.019616256  0.019483391            2 
 1133000    0.8120586   -7.9285042    266.05254  0.019568442  0.019468722            2 
 1134000   0.78158062   -7.9052572    266.33763  0.019572136  0.019454067            2 
 1135000    0.8032864   -7.9208515     266.0939  0.019536997  0.019439425            2 
 1136000   0.79023804   -7.9159187    266.49792  0.019549437  0.019424698            2 
 1137000   0.79389809   -7.9247146    265.90604  0.019488862  0.019409967            3 
 1138000      0.78707   -7.9230701     266.4608  0.019512361   0.01939534            2 
 1139000   0.79609247   -7.9178122    266.73549  0.019515327  0.019380753            2 
 1140000   0.79080013   -7.9439393    265.90803  0.019437722  0.019366113            4 
 1141000   0.80197558   -7.8850589    266.72062  0.019480033   0.01935151            2 
 1142000   0.80945129   -7.9218793    266.89582   0.01947576  0.019336967            2 
 1143000   0.77881393   -7.9164454    267.08877  0.019472788  0.019322424            4 
 1144000   0.79176561   -7.9157563    267.13509  0.019459141   0.01930787            3 
 1145000   0.81062454   -7.8865013    266.87679  0.019423347  0.019293363            2 
 1146000    0.8024938   -7.9482807    267.29603  0.019436884  0.019278878            2 
 1147000   0.79884705   -7.8888874      267.533  0.019437155  0.019264452            2 
 1148000   0.79307994   -7.8992675    267.43961  0.019413444   0.01925006            3 
 1149000   0.78119911   -7.9119387    267.25518  0.019383173  0.019235615            2 
 1150000   0.81141247   -7.9158829    267.39885  0.019376728  0.019221241            2 
 1151000   0.78479051   -7.9273929    267.01304  0.019331961  0.019206867            2 
 1152000   0.80706141   -7.9325641    267.74992  0.019368484    0.0191924            2 
 1153000    0.7775389    -7.932135    267.24294  0.019315043  0.019177906            5 
 1154000   0.80011214   -7.9230231    267.33509   0.01930496   0.01916348            2 
 1155000   0.78933162   -7.8951544    267.39821    0.0192928  0.019149089            2 
 1156000   0.79354772   -7.9298451     267.5701  0.019288502  0.019134648            3 
 1157000   0.79841533   -7.9161521    267.63568  0.019276555  0.019120216            4 
 1158000   0.77883826   -7.9061092     267.4246  0.019244718   0.01910572            1 
 1159000   0.77701322   -7.9404931    267.24276  0.019215039  0.019091144            1 
 1160000   0.79190663   -7.9488123    267.69219  0.019230761  0.019076607            2 
 1161000   0.81415971   -7.9161542    267.43917  0.019196035  0.019062177            1 
 1162000   0.78425773   -7.9300829    267.36754  0.019174379  0.019047668            4 
 1163000   0.79235877   -7.9652595    267.83486  0.019191377  0.019033261            4 
 1164000   0.80028886   -7.9422143    267.68329  0.019164039  0.019018809            1 
 1165000   0.79785296   -7.9116224    268.31809  0.019192996  0.019004416            2 
 1166000   0.78883675    -7.915977    267.85823   0.01914367  0.018990103            1 
 1167000   0.78988425   -7.9653805    267.96189  0.019134668   0.01897582            4 
 1168000   0.79192089   -7.9279043     268.6753  0.019169186  0.018961503            4 
 1169000   0.78494725   -7.9505992    268.71785  0.019155821  0.018947128            3 
 1170000   0.79808961   -7.9782433     268.4173  0.019118041  0.018932776            2 
 1171000   0.79599415   -7.9740867    268.31778  0.019094633  0.018918477            5 
 1172000   0.76979747   -7.9679053    268.11576  0.019063976  0.018904146            2 
 1173000   0.78205872   -7.9727943    268.17629  0.019052024  0.018889837            3 
 1174000   0.78996465   -7.9531229    268.10877  0.019031003  0.018875556            2 
 1175000   0.78834358   -7.9615438    267.64781  0.018982114  0.018861282            2 
 1176000   0.79096869   -7.9661474    268.05725  0.018994986  0.018846953            5 
 1177000    0.7856007     -7.95172    269.13133  0.019054895  0.018832577            5 
 1178000   0.79017699    -7.947172    268.07896  0.018964273  0.018818384            2 
 1179000   0.78077144   -7.9634654    268.17717  0.018955129  0.018804083            2 
 1180000   0.78654481   -7.9733314    268.56607   0.01896653   0.01878983            2 
 1181000   0.76624406   -7.9668359    268.57864  0.018951357  0.018775526            2 
 1182000   0.78469508   -7.9302787    268.55154  0.018933414  0.018761173            1 
 1183000   0.77654223   -7.9370558    268.60566  0.018921221  0.018746882            3 
 1184000   0.77938752   -7.9673834    268.52347  0.018899456  0.018732576            3 
 1185000   0.77957291   -7.9768569    268.35368  0.018871567   0.01871823            2 
 1186000    0.7917059   -7.9305281    269.30177  0.018922272  0.018704022            1 
 1187000   0.77561376   -7.9587823    268.53726  0.018852658  0.018689874            3 
 1188000   0.77997845   -7.9724631    268.84235   0.01885819  0.018675705            2 
 1189000   0.77326534    -7.959461    268.47951  0.018816899  0.018661489            5 
 1190000   0.78503198   -7.9468785    269.35436   0.01886235  0.018647223            1 
 1191000   0.78449853   -7.9611968    269.09299  0.018828225  0.018632951            4 
 1192000   0.78048141   -7.9585761     269.0642  0.018810417  0.018618766            3 
 1193000   0.78009121   -7.9692084    269.06046  0.018794388  0.018604561            5 
 1194000    0.7793327   -7.9740701    268.28802  0.018724736  0.018590322            4 
 1195000   0.77878113   -7.9859692    268.95691  0.018755712  0.018576074            3 
 1196000    0.7700123   -7.9798421    269.30147  0.018764038   0.01856178            2 
 1197000   0.78429674   -7.9669241    268.88907  0.018719651  0.018547533            2 
 1198000   0.77130882   -7.9773854    269.34756  0.018735918  0.018533301            3 
 1199000   0.77441615   -7.9374198    269.47826  0.018729376  0.018519087            5 
 1200000   0.78090911   -7.9751779    269.80772  0.018736647  0.018504887            2 
 1201000   0.79436153    -7.973681    269.04415  0.018668065  0.018490742            3 
 1202000   0.77784809   -7.9757521    268.89311  0.018642063  0.018476545            2 
 1203000   0.78541176   -7.9560599    269.54263   0.01867156  0.018462328            1 
 1204000   0.77289933   -7.9703836    268.95902  0.018615658  0.018448163            2 
 1205000   0.77404833   -7.9425463    268.85017  0.018592681  0.018433952            2 
 1206000    0.7735478   -8.0017375     269.0058  0.018588018  0.018419711            3 
 1207000   0.76700525   -7.9979385    269.04745  0.018575494  0.018405441            4 
 1208000   0.76259515    -8.006893    268.78295   0.01854187   0.01839119            1 
 1209000   0.77149407   -7.9887247    269.19112  0.018554668  0.018376945            3 
 1210000   0.78803921    -7.991441    268.80259  0.018512575  0.018362716            1 
 1211000   0.76568322   -7.9999928    269.26275  0.018528953  0.018348541            2 
 1212000   0.78405675   -7.9967872    269.60142  0.018536951  0.018334408            3 
 1213000   0.77784146   -7.9671386    269.66911   0.01852632  0.018320272            3 
 1214000   0.76145716   -7.9983332    269.25074  0.018482341  0.018306185            1 
 1215000   0.77095343   -7.9884934    269.94566  0.018514791  0.018292162            4 
 1216000   0.76039222   -7.9764637    269.70995  0.018483412  0.018278086            2 
 1217000   0.76887234   -7.9835614    270.00771  0.018488613  0.018264112            3 
 1218000   0.78306792   -7.9883584    269.70593  0.018452787  0.018250162            2 
 1219000   0.75910905   -7.9762815    270.47469  0.018490203  0.018236212            2 
 1220000   0.76906462   -7.9857266    270.28486   0.01846208  0.018222212            1 
 1221000   0.78691332   -7.9737745    271.35755  0.018520172  0.018208279            2 
 1222000   0.75739554   -7.9592697    270.99078  0.018480004  0.018194414            2 
 1223000   0.77606075   -7.9690546    270.56215  0.018435688  0.018180529            1 
 1224000   0.74993009   -7.9641454    270.62311  0.018424776  0.018166589            3 
 1225000   0.75178474   -7.9805495    270.50558   0.01840174  0.018152655            2 
 1226000   0.78935706    -7.998091    270.60854  0.018393729  0.018138723            3 
 1227000   0.76136156   -8.0066477    269.85327  0.018327443  0.018124809            1 
 1228000     0.759792   -8.0016055    270.31504  0.018343855  0.018110816            2 
 1229000   0.76869746    -7.975348    270.52489  0.018343158  0.018096856            2 
 1230000   0.77704659   -8.0080639    270.48137  0.018325296  0.018082878            2 
 1231000   0.74619568   -8.0115338    270.26306  0.018295631   0.01806893            2 
 1232000   0.76293376   -8.0026274    270.68604  0.018309391  0.018054958            2 
 1233000   0.76291998   -7.9808608    270.93049  0.018311063  0.018041063            5 
 1234000   0.75873358   -7.9895062    270.77549  0.018285757  0.018027221            2 
 1235000   0.74816884   -8.0126073    269.90773  0.018212398  0.018013242            2 
 1236000   0.77578422   -8.0318998    270.11836  0.018211864  0.017999266            2 
 1237000   0.75966391   -7.9999189    270.33527  0.018211753  0.017985313            4 
 1238000   0.76365118   -8.0032098    270.82499  0.018230008  0.017971347            2 
 1239000   0.75126136   -8.0379024    270.60793  0.018200695  0.017957351            3 
 1240000   0.75272948   -7.9953961    271.16686  0.018223579  0.017943369            2 
 1241000   0.75273918    -8.026909     270.7041   0.01817782  0.017929401            3 
 1242000   0.76175222   -8.0192199    270.47428  0.018147765  0.017915472            2 
 1243000   0.76597899   -8.0195956    270.87523  0.018160045  0.017901584            3 
 1244000   0.77131132   -8.0172126    270.71529  0.018134733  0.017887714            3 
 1245000   0.76587989   -8.0268224    271.12317  0.018147468  0.017873873            2 
 1246000   0.75448869   -7.9873938      271.249  0.018141319  0.017860099            6 
 1247000   0.76878836   -8.0212668    270.57434  0.018081685  0.017846332            2 
 1248000   0.76260524   -8.0134563    271.23705  0.018111448  0.017832517            2 
 1249000   0.74282514   -8.0090283    270.40925  0.018041717  0.017818667            1 
 1250000   0.76377722   -8.0169784     270.7526  0.018050173  0.017804834            3 
 1251000   0.73970405   -8.0249337     270.7212  0.018033653   0.01779091            3 
 1252000   0.76320499   -8.0264881    270.64914  0.018014453  0.017776991            3 
 1253000   0.75460663   -8.0479481    271.09352   0.01802963  0.017763036            2 
 1254000   0.75218798   -8.0169378    271.18487  0.018021323  0.017749137            2 
 1255000   0.76800725   -8.0434812    270.62196  0.017969585  0.017735246            3 
 1256000   0.75966749   -8.0529155     270.5777  0.017952342   0.01772136            2 
 1257000   0.76961455   -8.0547163    270.48915   0.01793219   0.01770745            1 
 1258000   0.75948014   -8.0345285    271.15734  0.017962198  0.017693527            3 
 1259000   0.74230772   -8.0444688    270.90465  0.017931205  0.017679604            4 
 1260000    0.7475016   -8.0228976    271.06539  0.017927605   0.01766573            2 
 1261000   0.74629673   -8.0291694    271.07311  0.017913898  0.017651848            3 
 1262000   0.74292378   -8.0473868    271.38872  0.017920544  0.017638002            2 
 1263000   0.76644271   -8.0595968    270.94225  0.017876897  0.017624171            7 
 1264000    0.7554149   -8.0335437    270.77768  0.017851904  0.017610298            4 
 1265000   0.76555965   -8.0446779    270.48724  0.017818659   0.01759644            5 
 1266000   0.74337222   -8.0295569    271.20164  0.017851609  0.017582583            1 
 1267000   0.73895593   -8.0417748    270.64012  0.017800587  0.017568732            2 
 1268000   0.75129657   -8.0332159    271.16019  0.017820727   0.01755488            2 
 1269000    0.7577639   -8.0488252    271.49227  0.017828492  0.017541108            4 
 1270000   0.74859877     -8.03855    271.06696  0.017786546  0.017527322            3 
 1271000   0.72662634   -8.0439111    271.24928  0.017784506  0.017513542            3 
 1272000   0.74431051    -8.031114    271.44074  0.017783067  0.017499846            3 
 1273000   0.74264837   -8.0416006    271.19591  0.017753071  0.017486216            3 
 1274000   0.75118291    -8.037319    271.51558  0.017760046  0.017472586            3 
 1275000   0.76063344   -8.0266699    271.74864  0.017761349  0.017458977            5 
 1276000   0.74949468   -8.0277589    271.81721  0.017751908  0.017445366            3 
 1277000   0.75262207   -8.0277863    272.23387  0.017765196   0.01743175            4 
 1278000   0.73357025   -8.0556407    271.37377  0.017695212  0.017418139            2 
 1279000   0.75988486   -8.0211785    271.98341  0.017721098  0.017404523            1 
 1280000   0.74648093   -8.0396477    271.94053  0.017704462  0.017391036            2 
 1281000   0.75790947   -8.0163891    272.27326  0.017712286  0.017377462            1 
 1282000    0.7505505   -8.0487816    271.98518  0.017679744  0.017363879            2 
 1283000    0.7538851   -8.0413269    271.97211  0.017665115  0.017350286            2 
 1284000   0.74779064   -8.0811773    272.09276  0.017659187  0.017336722            3 
 1285000   0.73392215   -8.0720391    271.86693  0.017630799  0.017323059            4 
 1286000   0.72404237   -8.0635727    271.64477  0.017602694   0.01730938            2 
 1287000   0.74392977   -8.0585312    271.87456  0.017603895  0.017295755            5 
 1288000   0.73825881   -8.0411115    272.51055  0.017631376  0.017282065            2 
 1289000    0.7347942   -8.0542314    272.23996  0.017600204    0.0172685            3 
 1290000   0.74164825   -8.0539179    271.81661  0.017559213   0.01725494            4 
 1291000   0.73791307   -8.0791859    271.50382  0.017525421  0.017241347            1 
 1292000   0.74989852   -8.0868077    271.70699   0.01752496  0.017227758            3 
 1293000   0.72640334   -8.0720265    272.35588  0.017553228  0.017214199            2 
 1294000   0.73017456   -8.0569297    272.60837  0.017555923  0.017200645            1 
 1295000   0.73783787   -8.0487129    272.26001  0.017519949  0.017187102            4 
 1296000   0.74415283   -8.0704539    272.01329  0.017490566  0.017173554            1 
 1297000   0.74413969   -8.0620741    271.82326  0.017464871  0.017159981            1 
 1298000   0.74823545   -8.0952055    271.40903  0.017424822  0.017146404            1 
 1299000   0.72364759    -8.079769    271.69037  0.017429457  0.017132769            3 
 1300000   0.73933217   -8.0907807      271.645  0.017413141  0.017119189            2 
 1301000   0.72564137   -8.1203341    271.90759  0.017416576  0.017105607            4 
 1302000   0.74047386   -8.1027006    272.09764  0.017415364  0.017092042            1 
 1303000   0.73119513   -8.0917987    271.95396  0.017392809  0.017078465            3 
 1304000   0.73228253   -8.0787764    272.10479   0.01738911  0.017064901            3 
 1305000   0.73354334    -8.093198    271.71153  0.017350672  0.017051245            3 
 1306000   0.72558703   -8.0898617    271.26729  0.017309041  0.017037589            6 
 1307000   0.71947999   -8.1042621    271.22597  0.017293163  0.017023931            2 
 1308000   0.72180862   -8.1103258    271.41984  0.017292293  0.017010265            1 
 1309000   0.72073355   -8.0980149    271.50661  0.017284607  0.016996625            2 
 1310000   0.72869317   -8.1006111    271.42631  0.017266305  0.016982989            3 
 1311000   0.73621965   -8.0976966    270.93885  0.017222149  0.016969347            2 
 1312000   0.71524517   -8.0929151    271.21736  0.017226713  0.016955686            2 
 1313000   0.74819827   -8.0985918     271.7474  0.017247232  0.016942117            2 
 1314000   0.71314908   -8.0878195    271.82127  0.017238792  0.016928477            2 
 1315000    0.7136852   -8.1083742    271.48343  0.017204273  0.016914865            5 
 1316000   0.73352098    -8.101902    271.59409  0.017198207  0.016901256            3 
 1317000   0.74581521   -8.0736239    272.01845     0.017212  0.016887721            5 
 1318000   0.73738326   -8.0877624    271.92359  0.017192943  0.016874245            3 
 1319000   0.72884905   -8.0776671    272.01204  0.017185497   0.01686069            1 
 1320000   0.73362547   -8.1331371    271.68443  0.017151795  0.016847094            2 
 1321000   0.73543369   -8.1259137    271.80842  0.017146633  0.016833446            4 
 1322000   0.72176509   -8.0827992    272.49998  0.017177256  0.016819845            5 
 1323000   0.72639402   -8.0918766    272.05712  0.017136377  0.016806288            1 
 1324000   0.74086833   -8.1159964    272.13624  0.017128414  0.016792733            1 
 1325000    0.7332256   -8.1210065    271.56427  0.017079514  0.016779123            3 
 1326000   0.71599751   -8.0938406    271.86467  0.017085512   0.01676555            4 
 1327000   0.72247973   -8.1119366    271.82999  0.017070459  0.016751954            3 
 1328000   0.71794299   -8.1240004    270.65228  0.016983702  0.016738351            2 
 1329000   0.71767959   -8.1371837    271.33781  0.017013908  0.016724741            2 
 1330000   0.71608997   -8.1083542    271.64806  0.017020555  0.016711112            2 
 1331000   0.72187621   -8.1192453    271.87267   0.01702183  0.016697522            2 
 1332000   0.73118561   -8.1305588    271.24685  0.016969898  0.016683924            3 
 1333000    0.7293051    -8.131124    271.66221  0.016983134  0.016670308            3 
 1334000   0.72391056   -8.1231541    271.62137  0.016967852  0.016656739            1 
 1335000   0.72849463   -8.1352761    272.23465  0.016993424   0.01664315            2 
 1336000   0.70089852   -8.0948134    271.65093  0.016944295  0.016629625            2 
 1337000   0.72713634   -8.1065684     271.9863  0.016952524  0.016616112            2 
 1338000   0.72519374   -8.1057927    271.24387  0.016893615  0.016602559            1 
 1339000   0.70597019   -8.1330651    271.96244  0.016925718  0.016588989            2 
 1340000    0.7347118   -8.1184156     271.5416  0.016886915  0.016575475            3 
 1341000   0.70545742   -8.1259193    271.45431  0.016868898   0.01656198            1 
 1342000   0.72093301   -8.1325843    272.12625  0.016898053  0.016548485            1 
 1343000   0.70332431   -8.1320738    272.00824  0.016878148  0.016534997            3 
 1344000   0.69872391   -8.1336835    271.65962  0.016843974  0.016521505            4 
 1345000   0.73217771   -8.1220882    271.57679  0.016826319  0.016508014            1 
 1346000    0.7232855   -8.1212034    271.57651  0.016813801  0.016494498            2 
 1347000   0.70973418   -8.1184759    271.67315  0.016807297   0.01648096            2 
 1348000   0.72417309   -8.1438127    271.56139   0.01678792   0.01646744            3 
 1349000   0.70722649   -8.1362134    271.39454  0.016765168  0.016453925            1 
 1350000   0.71282526   -8.1549738    271.55206  0.016762473  0.016440436            3 
 1351000    0.7139069   -8.1231255    271.96549  0.016775567  0.016426972            2 
 1352000   0.70730502   -8.1382598    272.07323    0.0167698  0.016413519            2 
 1353000   0.69585016   -8.1368359    271.59417  0.016727899  0.016400049            1 
 1354000   0.71774179   -8.1109894    271.60614  0.016716282  0.016386581            3 
 1355000   0.72251322   -8.1500505    271.22215  0.016680329  0.016373123            1 
 1356000   0.70727762   -8.1478628    271.74274  0.016700021  0.016359624            3 
 1357000   0.71338201   -8.1532368    271.26014  0.016658078  0.016346133            2 
 1358000   0.70312374   -8.1454231    271.13452  0.016638103  0.016332643            4 
 1359000   0.69719846   -8.1461201    271.83029  0.016668524  0.016319184            1 
 1360000   0.70568526   -8.1408932    271.07949  0.016610263  0.016305702            3 
 1361000   0.71815639   -8.1300611    272.22174  0.016667998   0.01629227            2 
 1362000   0.69850242   -8.1131737     272.0964  0.016648091  0.016278907            3 
 1363000   0.70869601   -8.1199661    271.98596  0.016629125   0.01626552            4 
 1364000   0.72884124   -8.1250198     272.1326  0.016625892  0.016252133            3 
 1365000   0.71822445    -8.115069    272.17189   0.01661611  0.016238797            1 
 1366000    0.7082609   -8.1322857    271.65587  0.016572466  0.016225404            2 
 1367000   0.69971188   -8.1506749    271.84544    0.0165719  0.016212032            2 
 1368000   0.71810969   -8.1440204    272.50369  0.016599884    0.0161987            2 
 1369000   0.71652874   -8.1246665    271.62287  0.016534141  0.016185378            4 
 1370000   0.70709294   -8.1579193     271.6191  0.016521843  0.016172007            2 
 1371000   0.69902288   -8.1670664    271.57924   0.01650737  0.016158646            5 
 1372000   0.70652637   -8.1554343    271.54451  0.016493229  0.016145335            3 
 1373000   0.71439991   -8.1425106    271.07866  0.016452941  0.016132004            2 
 1374000   0.70849477   -8.1252392    272.24833  0.016511908  0.016118712            2 
 1375000   0.70414389   -8.1406788     271.5357  0.016456709  0.016105447            2 
 1376000   0.69560844   -8.1263727    272.85645  0.016524736   0.01609219            2 
 1377000   0.70909653   -8.1620821     271.7169  0.016443773  0.016078886            2 
 1378000   0.71279111   -8.1538089    271.67029  0.016429021  0.016065566            2 
 1379000   0.69524878   -8.1413108    271.69013  0.016418306  0.016052267            3 
 1380000   0.72380222   -8.1648859    271.84089  0.016415512  0.016038953            2 
 1381000   0.69400807   -8.1521539    271.95327  0.016410407  0.016025653            3 
 1382000   0.69775775   -8.1567215    271.38747  0.016364415  0.016012306            2 
 1383000   0.68583706   -8.1586097    271.81471  0.016378327  0.015999001            1 
 1384000   0.70370913   -8.1794995    271.17298  0.016327853  0.015985671            4 
 1385000   0.69946692    -8.173762    271.13731  0.016313917  0.015972339            1 
 1386000   0.69713552     -8.16007     271.5045  0.016324225  0.015959049            2 
 1387000   0.70039618   -8.1651757    270.91655   0.01627713  0.015945754            2 
 1388000   0.69743705   -8.1887865    271.46683  0.016298441  0.015932446            3 
 1389000   0.71443062   -8.1736116    271.42437  0.016284159  0.015919169            2 
 1390000   0.69579497   -8.1736429     271.6364  0.016285156  0.015905956            2 
 1391000   0.71780476   -8.1956134    271.33045  0.016255119  0.015892699            3 
 1392000   0.68257208   -8.1635562    271.44644  0.016250386  0.015879489            4 
 1393000   0.68116045   -8.1819238    271.22009  0.016225179  0.015866243            3 
 1394000    0.7086043   -8.1810487    271.81934  0.016249363  0.015853038            2 
 1395000   0.69111921   -8.1687942     271.3886  0.016211984  0.015839859            1 
 1396000   0.70026619   -8.1705567    271.75332  0.016222142  0.015826725            2 
 1397000   0.69122599   -8.1726315    271.28879   0.01618282  0.015813539            2 
 1398000   0.70334982   -8.2000056    271.48387  0.016182873  0.015800327            2 
 1399000   0.68806668   -8.2176746    271.71961  0.016185347  0.015787127            2 
 1400000   0.70140995   -8.1759857    271.66615  0.016170604  0.015773924            3 
 1401000   0.69737489   -8.1853428    271.35491  0.016140549  0.015760736            3 
 1402000   0.70157742   -8.1826617    271.14374  0.016116485  0.015747571            4 
 1403000   0.71804021   -8.1797426    271.07332  0.016100815  0.015734421            1 
 1404000   0.69425999   -8.1964509     271.6494   0.01612354  0.015721255            1 
 1405000   0.68404626   -8.1836499    271.61404  0.016109967  0.015708138            2 
 1406000   0.69580703   -8.2008862    271.22634   0.01607553  0.015695017            3 
 1407000   0.70629511    -8.191218    271.64909  0.016089143  0.015681941            3 
 1408000   0.70842658   -8.2000924    271.21591  0.016052078  0.015668825            2 
 1409000   0.68618294   -8.1796952    271.25885  0.016043225  0.015655779            2 
 1410000   0.68972379   -8.1957763    271.05695  0.016019914  0.015642712            3 
 1411000   0.69390155   -8.1828539    271.28888  0.016022258  0.015629639            1 
 1412000   0.68503026    -8.201626    271.62341  0.016030655  0.015616562            2 
 1413000   0.68075432   -8.1988235    271.25644  0.015997667  0.015603511            4 
 1414000    0.6878033   -8.2040435    271.46851  0.015998852  0.015590474            2 
 1415000    0.6929602   -8.2003289    271.55813  0.015992823  0.015577452            1 
 1416000   0.69007343   -8.2075277    271.49236  0.015977658  0.015564436            2 
 1417000   0.66616718   -8.2305108    272.01506  0.015997122  0.015551386            2 
 1418000   0.69275361   -8.2132559    272.13163  0.015992691  0.015538365            3 
 1419000   0.69557488   -8.2133144    271.88011  0.015966649  0.015525377            3 
 1420000   0.70209942   -8.2164142    271.69876  0.015944763  0.015512407            3 
 1421000   0.68560711   -8.2131492    271.09896  0.015898367   0.01549942            1 
 1422000   0.69127814   -8.2078505    271.93628  0.015936256  0.015486464            3 
 1423000   0.69414569   -8.2235314    271.96174  0.015926549    0.0154735            1 
 1424000   0.68622507   -8.2383728    271.66709  0.015898121  0.015460538            2 
 1425000   0.69842812   -8.2078979    271.18046  0.015858507  0.015447581            2 
 1426000   0.68178487   -8.1798255    272.11396  0.015901938  0.015434659            3 
 1427000   0.68970043   -8.2332403    271.38506  0.015848228  0.015421744            2 
 1428000   0.68993006   -8.2290153    270.89854  0.015808738  0.015408823            5 
 1429000   0.69108757   -8.2235465    271.63043  0.015840356  0.015395906            3 
 1430000   0.67698666   -8.2394659    271.71095  0.015833971  0.015382998            2 
 1431000   0.68499941   -8.2351992    271.63686  0.015818592  0.015370082            3 
 1432000   0.68699225   -8.2431683    271.08742  0.015775571  0.015357154            3 
 1433000   0.67993134   -8.2454609    271.46932  0.015786772  0.015344222            1 
 1434000   0.68498478   -8.2398101    271.55173  0.015780551   0.01533129            2 
 1435000   0.69434187   -8.2483435     271.2387  0.015751376  0.015318382            3 
 1436000   0.66586859   -8.2302133    271.56299  0.015759227  0.015305473            1 
 1437000   0.66159169   -8.2578221    272.05951  0.015777054  0.015292603            3 
 1438000   0.67536713   -8.2526359    270.98607  0.015703875  0.015279717            5 
 1439000   0.67748098   -8.2464911    271.40517  0.015717232   0.01526683            3 
 1440000    0.6756499   -8.2525902    271.11052  0.015689266  0.015253952            4 
 1441000   0.66352477   -8.2474563    271.35719  0.015692643   0.01524107            3 
 1442000   0.68947898   -8.2591188     271.2368  0.015674804  0.015228197            3 
 1443000   0.67322983   -8.2684588    271.26914  0.015665809  0.015215309            4 
 1444000   0.68244556   -8.2539649    271.07973  0.015644029  0.015202437            1 
 1445000   0.68304753   -8.2632186    271.69325  0.015668584  0.015189582            1 
 1446000   0.69241249   -8.2475161    271.55064   0.01564953  0.015176768            2 
 1447000   0.68552995   -8.2460148    271.13234  0.015614624  0.015163981            1 
 1448000   0.67199088   -8.2401162    271.86515  0.015646015  0.015151204            1 
 1449000   0.67321559   -8.2111239    271.49113  0.015613707  0.015138452            3 
 1450000   0.66613344   -8.2486965    271.26579  0.015589988  0.015125727            8 
 1451000   0.67744211   -8.2287417     271.4687  0.015590897  0.015112991            5 
 1452000   0.66590769   -8.2573473    271.51194  0.015582641  0.015100236            2 
 1453000   0.68406551   -8.2470768    271.26145  0.015557551  0.015087487            1 
 1454000   0.68199289    -8.258924    271.38836  0.015554124  0.015074755            4 
 1455000   0.68109203   -8.2596804    272.01556  0.015579356  0.015062039            1 
 1456000   0.67374996   -8.2312762    272.17788  0.015577946  0.015049378            1 
 1457000   0.67936915   -8.2288818    271.65135   0.01553714  0.015036735            1 
 1458000   0.67401227   -8.2559268    271.67796  0.015528004  0.015024107            2 
 1459000   0.67163005   -8.2261142    271.71063  0.015519227  0.015011526            1 
 1460000     0.645214   -8.2525364    271.61647  0.015503223  0.014998937            5 
 1461000   0.68706347   -8.2342037    272.44657   0.01553996   0.01498637            5 
 1462000    0.6808602   -8.2342488    271.43937   0.01547192  0.014973794            5 
 1463000   0.66034748    -8.252037    272.29844  0.015510278  0.014961249            1 
 1464000   0.66709136   -8.2311925    272.17446  0.015492626  0.014948707            1 
 1465000   0.67728414   -8.2457564     271.3266  0.015433823   0.01493618            1 
 1466000   0.66730938   -8.2185956    272.13617  0.015469314   0.01492365            1 
 1467000   0.66665984   -8.2430784    271.89445  0.015445038  0.014911141            3 
 1468000   0.65348277   -8.2365072    271.89707  0.015434665  0.014898639            3 
 1469000   0.65765655   -8.2561935     271.4681  0.015399824  0.014886154            1 
 1470000   0.67374183   -8.2571634    271.86984  0.015412122  0.014873651            3 
 1471000   0.65723537   -8.2481378     272.0164  0.015409948  0.014861188            2 
 1472000   0.65764409   -8.2727835    271.67818  0.015380332  0.014848748            2 
 1473000   0.67948211   -8.2625395    272.32319  0.015406381  0.014836289            3 
 1474000   0.66475991   -8.2384025    272.22997  0.015390658  0.014823879            1 
 1475000   0.65184715   -8.2720644    272.08659  0.015372123  0.014811465            4 
 1476000   0.66067236   -8.2618604    271.93987  0.015353425   0.01479905            3 
 1477000   0.66438356   -8.2727422     271.9253  0.015342208  0.014786641            4 
 1478000   0.64481546   -8.2764335      272.052  0.015338971  0.014774254            1 
 1479000   0.65430196   -8.2655214    271.98461  0.015324803  0.014761894            4 
 1480000    0.6688149   -8.2577493    271.90448  0.015309937   0.01474955            3 
 1481000   0.64533419   -8.2439122    271.59334  0.015282092   0.01473722            2 
 1482000   0.65901832   -8.2605787    272.04916  0.015297411  0.014724904            3 
 1483000   0.64021703   -8.2534648    271.97864  0.015283133  0.014712607            2 
 1484000   0.66906418    -8.264133    271.99212  0.015273592  0.014700275            2 
 1485000   0.65505624   -8.2478119    272.16349  0.015272923    0.0146879            2 
 1486000   0.65252693   -8.3044062    271.72077  0.015237818   0.01467554            4 
 1487000   0.64773855   -8.2780256    271.98399  0.015242322  0.014663213            2 
 1488000   0.66649742   -8.2748508     272.0187  0.015234022  0.014650877            1 
 1489000   0.66664069   -8.2665864    272.03375  0.015224633  0.014638562            2 
 1490000   0.64028705   -8.2676531    271.98486  0.015211681  0.014626225            4 
 1491000   0.67114674    -8.277604    272.00909  0.015202833  0.014613935            4 
 1492000    0.6297454   -8.2660685    271.97271  0.015190612  0.014601647            4 
 1493000   0.64425067   -8.2526615    272.03569  0.015183952  0.014589387            3 
 1494000   0.64140153   -8.2640727    271.76875  0.015158899  0.014577136            3 
 1495000   0.65642818   -8.2779444    272.02083  0.015162811  0.014564884            3 
 1496000   0.64073254   -8.2743933    271.93016  0.015147625  0.014552663            3 
 1497000   0.66283689   -8.2943161    271.76315  0.015128209  0.014540431            7 
 1498000   0.65749602   -8.2715551    271.65904  0.015112319  0.014528222            1 
 1499000   0.64978261   -8.2714365    272.03166  0.015122952  0.014515992            3 
 1500000   0.66982579   -8.2712538    272.05694  0.015114275  0.014503821            6 
 1501000   0.64223353   -8.2518214    271.66396  0.015082387  0.014491624            3 
 1502000   0.64847032   -8.2790731    271.76574  0.015077993  0.014479417            2 
 1503000   0.65506692   -8.2862831    271.75599   0.01506742  0.014467215            2 
 1504000   0.64813949   -8.2718999    271.31565  0.015033004  0.014455013            2 
 1505000   0.65440493    -8.292076     271.6641  0.015042309  0.014442879            3 
 1506000   0.64959097   -8.2636589     271.9263  0.015046829  0.014430761            1 
 1507000   0.64244506   -8.2794295    271.89014  0.015034845  0.014418701            2 
 1508000   0.65206138   -8.2767733    271.59908  0.015008791  0.014406598            2 
 1509000   0.66219783   -8.2620279    272.47229  0.015047067  0.014394527            3 
 1510000   0.66399567   -8.2814869    272.02866  0.015012619   0.01438245            2 
 1511000   0.66018072   -8.2391438    272.23205  0.015013901  0.014370414            2 
 1512000   0.64799841   -8.2700206     271.6773  0.014973396  0.014358362            4 
 1513000    0.6318992   -8.2641393    271.78418  0.014969386  0.014346304            3 
 1514000   0.64804262   -8.2961662    271.86315  0.014963846  0.014334224            3 
 1515000   0.65014749   -8.2750523    271.88304  0.014955063  0.014322158            3 
 1516000   0.64943772   -8.2789071    271.53579   0.01492611   0.01431012            8 
 1517000   0.63527908   -8.3083461    271.69353  0.014924936  0.014298065            5 
 1518000   0.63546861   -8.2839321    272.12683  0.014938891  0.014285992           10 
 1519000   0.63011959   -8.2899524    271.97499  0.014920726  0.014273916            4 
 1520000   0.65734442   -8.2698895      271.588  0.014889693  0.014261869            1 
 1521000   0.65671331    -8.286102    272.01968  0.014903555  0.014249823            1 
 1522000   0.63411717   -8.3044205    271.53713  0.014867342  0.014237795            5 
 1523000    0.6485774   -8.3031347    271.77235   0.01487045  0.014225773            3 
 1524000    0.6422018   -8.2937362     271.6702  0.014855107  0.014213749            1 
 1525000   0.64586928    -8.291346    271.69083  0.014846493  0.014201724            1 
 1526000   0.64937544   -8.3155224    271.57687  0.014830541  0.014189719            4 
 1527000   0.64924559   -8.3026384    271.53886  0.014818755  0.014177727            4 
 1528000   0.65457934   -8.3109385    271.81708   0.01482423  0.014165769            4 
 1529000   0.64306772   -8.2885519    271.86302  0.014817038  0.014153797            2 
 1530000   0.63677805   -8.3133886    271.66705   0.01479668  0.014141856            3 
 1531000   0.63267786    -8.301949    272.17974  0.014814922  0.014129932            2 
 1532000   0.64172034    -8.301356    271.46204  0.014766212   0.01411799            5 
 1533000   0.64492555   -8.2968322    271.90852   0.01478085  0.014106081            3 
 1534000   0.65011632     -8.28286    271.75617  0.014762938  0.014094181            6 
 1535000   0.64335801   -8.3101877    271.03316   0.01471407  0.014082285            2 
 1536000   0.63913712   -8.2945939    271.64653  0.014737768  0.014070398            2 
 1537000   0.63976049   -8.3083979    271.76408  0.014734552  0.014058523            7 
 1538000   0.63175233   -8.3296827    270.72323  0.014668576  0.014046608            2 
 1539000   0.64166173   -8.2954935    271.77291  0.014715882  0.014034738            3 
 1540000    0.6318814    -8.336974    271.42894  0.014687713  0.014022863            2 
 1541000   0.64588601   -8.3090208     271.9196  0.014704716  0.014010978            2 
 1542000   0.65509879   -8.3135927    271.50198   0.01467261  0.013999116            2 
 1543000    0.6362067   -8.3340879    271.23658  0.014648768  0.013987256            1 
 1544000   0.62480815   -8.3400942    271.19539  0.014637057  0.013975387            2 
 1545000   0.64041006   -8.3385181    271.20873  0.014628303  0.013963525            6 
 1546000   0.62800834   -8.3264838    271.33434  0.014625611  0.013951697            2 
 1547000   0.63811808   -8.3153459    270.99403  0.014597826  0.013939858            3 
 1548000   0.65098417   -8.3155237    271.33611  0.014606811  0.013928013            4 
 1549000   0.64869914   -8.3171439    271.02836  0.014580824  0.013916184            2 
 1550000   0.63802731   -8.3248166     271.0649  0.014573382  0.013904378            2 
 1551000   0.65158868   -8.3265193    271.95887  0.014612017  0.013892597            4 
 1552000   0.63502634   -8.3322997     270.9591  0.014548921  0.013880813            2 
 1553000   0.63014759   -8.3115072    271.01585  0.014542597  0.013869034            2 
 1554000   0.63250235   -8.3107763    271.82046  0.014576387  0.013857254            2 
 1555000   0.63067262   -8.3651735     270.9707  0.014521474  0.013845496            3 
 1556000   0.63379558   -8.3406586    271.81536  0.014557378  0.013833758            4 
 1557000   0.62940047   -8.3494583    270.96368  0.014502445  0.013822028            1 
 1558000   0.63233431   -8.3556116    271.21363  0.014506506  0.013810296            4 
 1559000   0.62736013   -8.3399917    271.09949    0.0144911  0.013798582            2 
 1560000   0.62634491   -8.3521841    271.34951  0.014495166  0.013786891            5 
 1561000    0.6327739   -8.3455179    271.18711  0.014477211  0.013775249            4 
 1562000   0.64199706    -8.321988    271.17674  0.014467389  0.013763609            2 
 1563000   0.62157613   -8.3469712    271.41201  0.014470677  0.013751981            2 
 1564000   0.61748148   -8.3381252    271.41042   0.01446134   0.01374035            2 
 1565000   0.62870047   -8.3451419    271.05185  0.014433006   0.01372871            2 
 1566000   0.62964116   -8.3305315    270.94907   0.01441832  0.013717082            5 
 1567000   0.63588149   -8.3442457    271.12286  0.014418361  0.013705462            4 
 1568000   0.63260158   -8.3410932    271.21773  0.014414207  0.013693839            3 
 1569000   0.62904846   -8.3456511    271.11061  0.014399331   0.01368222            2 
 1570000   0.61808752   -8.3359655    271.86025   0.01442995  0.013670612            3 
 1571000   0.62674401   -8.3383864    270.79326  0.014364166  0.013659004            3 
 1572000   0.62774236   -8.3463486    271.04389  0.014368315  0.013647406            1 
 1573000   0.63389462   -8.3599922    270.96689  0.014355101  0.013635793            1 
 1574000   0.62508201   -8.3634183    270.78443  0.014336321  0.013624189            1 
 1575000    0.6288743   -8.3322701    271.06553  0.014342092  0.013612579            2 
 1576000   0.62223289   -8.3568041    271.11525   0.01433562  0.013601024            2 
 1577000    0.6294318   -8.3688127    270.55313  0.014296826  0.013589457            1 
 1578000   0.63205227   -8.3566463    271.08032  0.014315606   0.01357791            3 
 1579000   0.62137532   -8.3875261    270.75133  0.014289177  0.013566364            1 
 1580000   0.61485773    -8.382889    270.58214   0.01427121  0.013554821            3 
 1581000   0.61282279   -8.3730605     271.0393   0.01428628  0.013543309            2 
 1582000   0.62939162   -8.3859855     270.8243  0.014265924  0.013531804            3 
 1583000   0.62045628   -8.3802007    270.98999  0.014265634  0.013520315            1 
 1584000   0.61451226   -8.3581731    271.55783  0.014286502  0.013508866            1 
 1585000    0.6196569   -8.3589287    271.54088  0.014276597  0.013497424            1 
 1586000   0.61425407   -8.3718776    271.07346  0.014243036   0.01348599            2 
 1587000   0.62110631   -8.3555396    271.39949  0.014251181  0.013474558            2 
 1588000   0.61070765   -8.3762011    270.81982  0.014211787  0.013463107            4 
 1589000   0.62511266   -8.3689211     270.9663  0.014210525  0.013451683            2 
 1590000   0.62892014   -8.3759504    271.02563  0.014204698  0.013440254            2 
 1591000    0.6178155   -8.3817712    270.92893  0.014190705  0.013428834            1 
 1592000   0.63697943   -8.3605736    270.55216  0.014162069  0.013417419            4 
 1593000   0.61883386   -8.3665007    271.00542   0.01417689  0.013406021            4 
 1594000   0.63039431   -8.3885572    270.91455  0.014163245  0.013394636            2 
 1595000   0.61761241    -8.370204    270.97512   0.01415753  0.013383256            2 
 1596000   0.60236311   -8.3794616    270.78798  0.014138888  0.013371888            3 
 1597000   0.60172566   -8.3783446    270.74646  0.014127868  0.013360519            4 
 1598000   0.61345444   -8.3753152    271.13503   0.01413929  0.013349168            2 
 1599000   0.60584073   -8.3867656    270.79533  0.014112744  0.013337824            2 
 1600000   0.61466922   -8.3736715    270.64966  0.014096336  0.013326492            4 
 1601000   0.60339508   -8.3879119    270.92364  0.014101793  0.013315162            4 
 1602000   0.61709262   -8.3698195     271.3232  0.014113775  0.013303873            2 
 1603000    0.6011858   -8.3783056    270.86114  0.014080949  0.013292594            3 
 1604000    0.6105916   -8.3695486    271.17598  0.014088528   0.01328131            3 
 1605000   0.61043458   -8.3721165    270.92107  0.014066515  0.013270034            4 
 1606000   0.61527147    -8.389183     270.5462  0.014038304  0.013258766            4 
 1607000   0.61404315   -8.3773285    271.14863  0.014060808  0.013247496            2 
 1608000   0.61103484   -8.3964361    270.67486  0.014027511   0.01323623            2 
 1609000    0.6177367   -8.3803023     270.5199  0.014010767  0.013224969            2 
 1610000   0.60802419   -8.3986933    270.97466  0.014025604  0.013213691            3 
 1611000   0.60320627   -8.3733239    270.53363  0.013994084   0.01320245            6 
 1612000    0.6175853   -8.3886201    270.17946  0.013967094  0.013191238            3 
 1613000   0.61506706   -8.3829052    270.51046  0.013975535  0.013179997            4 
 1614000   0.60475817   -8.4101731    270.92098  0.013988072  0.013168797            3 
 1615000   0.62153046   -8.4043898    270.33328  0.013949086  0.013157587            2 
 1616000   0.61683718    -8.386561    270.24294  0.013935795  0.013146384            2 
 1617000   0.61123129   -8.3722275    270.75289  0.013953457  0.013135186            7 
 1618000   0.59899165   -8.4098316    270.62252  0.013938119  0.013124013            6 
 1619000     0.604117   -8.4140689    270.40982  0.013918562  0.013112846            1 
 1620000   0.62438037   -8.3914969    271.37342  0.013959538  0.013101694            3 
 1621000   0.60353927   -8.4176002    270.43488  0.013902677  0.013090562            1 
 1622000   0.60116775   -8.4054168    270.88942  0.013917459  0.013079434            2 
 1623000    0.6095873   -8.4069134    270.30507   0.01387888  0.013068299            1 
 1624000   0.62042588   -8.4135258    270.58532  0.013884715  0.013057193            2 
 1625000   0.59969833   -8.3867496    270.82734  0.013888582   0.01304609            3 
 1626000   0.60923936   -8.4037045    270.47764  0.013862118  0.013035009            2 
 1627000   0.60097151   -8.4166397    270.77536  0.013868847  0.013023921            1 
 1628000   0.59135902   -8.3980163    270.58803  0.013850739  0.013012835            2 
 1629000   0.59930481   -8.4192473    270.61358  0.013843543  0.013001778            1 
 1630000   0.60923634   -8.4071079    271.16679  0.013863333  0.012990729            2 
 1631000   0.59355913   -8.4428477    270.17485  0.013804151  0.012979677            1 
 1632000   0.59067655    -8.428021     270.3122  0.013802706   0.01296863            2 
 1633000   0.60448618   -8.4380484    270.37541   0.01379748  0.012957611            1 
 1634000   0.59430582   -8.4301227    270.54618  0.013797745  0.012946597            1 
 1635000   0.61194968    -8.390263    270.62608  0.013793378  0.012935595            1 
 1636000   0.59597953   -8.3929035    270.43426  0.013775176  0.012924616            2 
 1637000   0.59998171   -8.4209016    270.89397  0.013790164  0.012913652            3 
 1638000   0.60358491   -8.4305376    270.56401  0.013764958  0.012902697            2 
 1639000   0.59096396   -8.4193958    271.10576  0.013784104  0.012891738            2 
 1640000   0.58797583   -8.4185634    270.23423  0.013731414   0.01288079            3 
 1641000   0.59707055   -8.4166633     270.7543  0.013749456  0.012869854            1 
 1642000    0.6011173   -8.3959941    270.92222  0.013749605  0.012858939            1 
 1643000    0.5920745   -8.4194121    270.59132  0.013724453  0.012848044            3 
 1644000   0.58821174   -8.4179638    270.48018  0.013710472  0.012837141            2 
 1645000   0.60072714   -8.3933763    270.79395  0.013718032  0.012826259            1 
 1646000   0.60005591   -8.4263447    270.55595  0.013697648  0.012815391            2 
 1647000   0.59399433   -8.4090246    271.24588   0.01372424   0.01280455            3 
 1648000   0.58576374   -8.4101426     270.8575  0.013696273  0.012793719            2 
 1649000   0.59616159    -8.419912    270.96311  0.013693305  0.012782889            2 
 1650000   0.59285429   -8.4325565    270.15198   0.01364404  0.012772053            2 
 1651000   0.60047937   -8.4263378    270.65889  0.013661361  0.012761219            3 
 1652000   0.60181053   -8.4128139     270.2996  0.013634968  0.012750398            2 
 1653000   0.59986287   -8.4284692    270.34359  0.013628937   0.01273959            2 
 1654000   0.59324821   -8.4242623    270.62824  0.013635038  0.012728777            2 
 1655000   0.59199286   -8.4414426    270.78006  0.013634444  0.012717982            3 
 1656000   0.57660414   -8.4220478    271.05336  0.013639964  0.012707207            4 
 1657000   0.58939424   -8.4199365    270.71846  0.013614889  0.012696448            4 
 1658000   0.59715493   -8.4286516     270.6802  0.013604755  0.012685677            5 
 1659000   0.57102323   -8.4292446     270.9693  0.013611076  0.012674923            5 
 1660000   0.60273179   -8.4329056    270.50656  0.013579647  0.012664177            2 
 1661000   0.57318828   -8.4555365    270.87102  0.013589756  0.012653448            5 
 1662000   0.58378454   -8.4417923    270.51093  0.013563524  0.012642715            4 
 1663000   0.58557804   -8.4333384    270.47751  0.013553694  0.012632002            2 
 1664000   0.58224069   -8.4617926     270.2471   0.01353401  0.012621261            1 
 1665000   0.57460278   -8.4374607     270.6549  0.013546291  0.012610534            2 
 1666000   0.58909176   -8.4413255    270.42945  0.013526883  0.012599841            1 
 1667000   0.58792372    -8.439416    270.36545  0.013515569  0.012589151            3 
 1668000   0.58069073    -8.435944    270.56383  0.013517378  0.012578467            3 
 1669000   0.59548453   -8.4599458    270.16241  0.013489236  0.012567789            1 
 1670000    0.5909987    -8.444407    270.22648  0.013484355  0.012557122            4 
 1671000   0.58539405   -8.4455102     270.0527  0.013467619  0.012546471            1 
 1672000   0.58997251   -8.4451398    270.09465  0.013461655  0.012535822            2 
 1673000   0.59602113   -8.4440818    270.70396  0.013483959  0.012525188            2 
 1674000    0.5813039   -8.4616236    270.27514  0.013454557  0.012514566            3 
 1675000   0.59341905   -8.4424506    270.50969  0.013458193  0.012503959            3 
 1676000   0.59605829   -8.4349982    270.64909  0.013457095  0.012493371            1 
 1677000   0.58179487   -8.4447243     270.4164  0.013437508   0.01248278            3 
 1678000    0.5793889   -8.4488736    270.35478  0.013426439  0.012472199            2 
 1679000   0.56942954   -8.4558804    269.99302  0.013400487  0.012461608            2 
 1680000   0.57493384   -8.4400433    270.49563  0.013417442  0.012451049            2 
 1681000   0.57300678   -8.4440852    270.29613   0.01339957  0.012440508            2 
 1682000   0.57511661   -8.4365018    270.16772  0.013385242  0.012429955            3 
 1683000   0.58888909   -8.4403492    270.35445  0.013386535  0.012419429            1 
 1684000   0.57301531   -8.4224546    270.10136  0.013366061  0.012408899            4 
 1685000   0.57880838   -8.4476484    270.28144  0.013367035  0.012398392            3 
 1686000   0.57617216   -8.4460095    270.26499  0.013358293  0.012387896            2 
 1687000     0.587183   -8.4481649     270.4596  0.013359988  0.012377417            3 
 1688000   0.57704459   -8.4428018    270.47901  0.013353032  0.012366938            3 
 1689000   0.58087035    -8.466307    270.43615  0.013343011  0.012356467            6 
 1690000   0.58588465   -8.4643549    270.29403  0.013328108  0.012346008            3 
 1691000   0.59488062   -8.4352358    270.45071  0.013327948  0.012335572            6 
 1692000   0.57649144   -8.4466445    269.77545  0.013286813  0.012325141            2 
 1693000    0.5763841   -8.4511844    270.02225  0.013291113  0.012314719            3 
 1694000   0.57198365   -8.4534832    269.84266  0.013274432  0.012304309            2 
 1695000   0.58088081   -8.4348171    270.16967  0.013282678  0.012293902            1 
 1696000    0.5714146   -8.4436213    270.47442   0.01328982  0.012283515            1 
 1697000   0.58216758   -8.4334438    270.09416  0.013263316  0.012273139            1 
 1698000   0.57471139   -8.4373244    270.20127  0.013260761  0.012262756            2 
 1699000   0.57638338   -8.4520107    269.96071  0.013241157  0.012252363            2 
 1700000   0.56530781   -8.4579079    270.04513  0.013237506  0.012241988            2 
 1701000   0.57556765   -8.4486203    270.30791  0.013242598  0.012231626            3 
 1702000   0.57369219   -8.4584268     269.7961  0.013209758   0.01222127            5 
 1703000   0.56859861   -8.4628006    270.10606  0.013217169  0.012210921            1 
 1704000   0.57442579   -8.4740878    269.74132  0.013191575  0.012200574            2 
 1705000   0.57364826   -8.4704734    269.92204  0.013192671  0.012190245            1 
 1706000   0.56964668   -8.4474619    270.40263  0.013208413  0.012179932            3 
 1707000   0.57252247   -8.4538844    270.29113  0.013195232  0.012169632            1 
 1708000   0.57793016   -8.4440782    270.42126  0.013193855  0.012159356            2 
 1709000   0.57069401   -8.4364137    270.12929  0.013171898  0.012149073            4 
 1710000   0.57781915   -8.4659728     270.0166  0.013158704  0.012138801            3 
 1711000   0.56969351   -8.4679048    269.45196  0.013123513  0.012128526            4 
 1712000    0.5818518   -8.4550562    269.93477  0.013139348  0.012118267            2 
 1713000   0.56661352   -8.4674397    269.77449  0.013123881  0.012108031            2 
 1714000   0.56593872   -8.4650624    269.96066  0.013125275  0.012097792            3 
 1715000    0.5713297     -8.46413     269.7408  0.013106939  0.012087557            2 
 1716000   0.57006182   -8.4736462    269.85878   0.01310503  0.012077325            2 
 1717000   0.56103178   -8.4830732    269.99342  0.013103932  0.012067109            1 
 1718000    0.5647789   -8.4852324    269.75587  0.013084782    0.0120569            2 
 1719000   0.55852871   -8.4789159    269.80514  0.013079559  0.012046702            2 
 1720000   0.56029168   -8.4636524    269.86298  0.013074757  0.012036526            2 
 1721000   0.56787227   -8.4635873    269.89073  0.013068503   0.01202635            3 
 1722000   0.58411629    -8.462654    270.58668  0.013094594   0.01201619            2 
 1723000   0.57489757   -8.4910807    269.74618  0.013046343  0.012006039            1 
 1724000   0.57302206   -8.4716063     269.5154   0.01302762    0.0119959            2 
 1725000   0.56302063   -8.4701719    269.82167  0.013034863  0.011985761            3 
 1726000    0.5626096    -8.473232    269.54294  0.013013854  0.011975639            3 
 1727000   0.58203825   -8.4645588     269.9429  0.013025618  0.011965527            4 
 1728000    0.5530899   -8.4854636    270.09779  0.013025549  0.011955406            6 
 1729000   0.55995489   -8.4736045     270.2829  0.013026937  0.011945309            3 
 1730000   0.55258539   -8.5077544    270.05544  0.013008451  0.011935217            3 
 1731000   0.57030331   -8.4599174    269.93045  0.012994919  0.011925135            6 
 1732000   0.56452498   -8.4651133    269.49801   0.01296661  0.011915068            2 
 1733000   0.55870861   -8.4840887    270.00971  0.012983733  0.011904999            4 
 1734000   0.55294775   -8.4695612     269.8351  0.012967854  0.011894936            1 
 1735000   0.56212404   -8.4733948    269.63409  0.012950725  0.011884892            1 
 1736000   0.55861355   -8.4892264    269.62901  0.012943021  0.011874851            2 
 1737000   0.55867513   -8.4720429    270.11715  0.012958988  0.011864837            2 
 1738000   0.55111707   -8.4932043    269.99988  0.012945909  0.011854831            1 
 1739000    0.5507074   -8.4913491    269.53596  0.012916233  0.011844843            5 
 1740000   0.55215722     -8.49114    269.77863  0.012920432  0.011834846            3 
 1741000   0.55490024   -8.4768253    269.81238  0.012914627   0.01182486            3 
 1742000   0.56381778   -8.4956571    269.55889  0.012895087  0.011814875            4 
 1743000   0.55362927   -8.4970904     269.5322  0.012886412  0.011804895            2 
 1744000    0.5540629   -8.4863139    269.75395  0.012889619  0.011794941            1 
 1745000   0.55025405   -8.4883879    269.81593  0.012885192  0.011784981            2 
 1746000   0.56155765   -8.4951462    270.25252   0.01289865  0.011775047            1 
 1747000   0.56013881   -8.4960927    269.55893  0.012858182  0.011765118            1 
 1748000   0.55055382   -8.5059865    269.71909  0.012858461  0.011755211            2 
 1749000    0.5569758   -8.4818233    270.02301  0.012865591  0.011745301            2 
 1750000   0.57181262   -8.5036393    269.47205  0.012832003  0.011735408            2 
 1751000   0.56629437   -8.4973819    269.40366  0.012821419  0.011725524            3 
 1752000   0.54962156   -8.4852469    270.02712  0.012843756  0.011715637            2 
 1753000    0.5551207   -8.4791568    269.96742  0.012833591  0.011705769            3 
 1754000   0.54661317   -8.4983996     269.8038  0.012818501  0.011695909            4 
 1755000    0.5363134    -8.482359    269.77271  0.012809721  0.011686069            6 
 1756000   0.53916295   -8.5213879    269.77176  0.012802381  0.011676232            2 
 1757000    0.5496455   -8.4921215    269.98959  0.012805425  0.011666401            2 
 1758000   0.54486728   -8.5164799    269.48827  0.012774378  0.011656586            2 
 1759000   0.54998604   -8.4949815     269.7046  0.012777364  0.011646769            2 
 1760000    0.5487917   -8.5161503    269.80732  0.012774968  0.011636958            3 
 1761000   0.53700969   -8.5051488    270.03475  0.012778476  0.011627162            2 
 1762000   0.54568059   -8.4845875    269.39947  0.012741178  0.011617364            3 
 1763000   0.55521307   -8.5094585    269.89005   0.01275714  0.011607571            3 
 1764000   0.54527291   -8.4999493    269.87066  0.012748992  0.011597798            2 
 1765000   0.54515884   -8.5100192    269.56987  0.012727567  0.011588046            2 
 1766000   0.55845889    -8.515727    269.36019  0.012710466  0.011578316            4 
 1767000   0.55329819   -8.5197919    269.37875  0.012704148  0.011568569            4 
 1768000   0.54342253    -8.509544    269.67852  0.012711092  0.011558837            1 
 1769000   0.54202007   -8.5215396    270.03357  0.012720632  0.011549129            2 
 1770000   0.55249188   -8.5128436    269.48689  0.012687707  0.011539416            2 
 1771000    0.5404044   -8.5141962    269.34366  0.012673803  0.011529703            7 
 1772000   0.54446697   -8.5144433    270.16566  0.012705307  0.011520014            2 
 1773000   0.53972892   -8.5038726    269.41318  0.012662774  0.011510329            3 
 1774000   0.54270739    -8.505359    268.88982  0.012631051  0.011500664            2 
 1775000   0.53924184   -8.5108314    269.24686  0.012640698  0.011490983            2 
 1776000   0.52937818   -8.5169826    269.10302  0.012626831  0.011481315            3 
 1777000   0.54919646    -8.523994    269.35112   0.01263136  0.011471647            3 
 1778000   0.55045869   -8.5043952    269.46589  0.012629635   0.01146201            4 
 1779000   0.53345676   -8.5207525    269.21969  0.012611003  0.011452374            1 
 1780000   0.53944615   -8.5268087    269.64975  0.012624052  0.011442766            3 
 1781000   0.54504877   -8.5194341     269.0927  0.012590899  0.011433155            2 
 1782000   0.54146397   -8.5178137    269.41463  0.012598889   0.01142353            3 
 1783000    0.5404002    -8.511657    269.13855  0.012578919  0.011413924            2 
 1784000   0.54005648   -8.5204015    269.24412  0.012576799  0.011404339            2 
 1785000   0.54253669   -8.5357232    269.36912  0.012575589  0.011394764            2 
 1786000   0.54709471   -8.5152162    269.49286  0.012574322  0.011385187            2 
 1787000   0.54132862   -8.5389926    269.30169   0.01255837  0.011375625            6 
 1788000   0.55505435   -8.5379083    269.24585  0.012548744  0.011366068            2 
 1789000   0.54278448   -8.5230617    269.51943  0.012554473  0.011356516            2 
 1790000   0.53783595    -8.526105    269.29402  0.012536965  0.011346961            2 
 1791000   0.55072821   -8.5139842    269.24618   0.01252774  0.011337432            2 
 1792000   0.54167043   -8.5376378    269.00003  0.012509302  0.011327905            3 
 1793000   0.54539196   -8.5355446    268.98906  0.012501815  0.011318387            3 
 1794000   0.53952929   -8.5230722    269.29291  0.012508961   0.01130888            4 
 1795000   0.51516714   -8.5329667    268.74044  0.012476343  0.011299376            2 
 1796000   0.53642557   -8.5393996    269.23444  0.012492318  0.011289882            1 
 1797000   0.53364008   -8.5256942    268.85777  0.012467899  0.011280414            4 
 1798000   0.52240677   -8.5306101    269.20723  0.012477161  0.011270945            2 
 1799000   0.54687214   -8.5346498    269.49131  0.012483385  0.011261483            3 
 1800000     0.516684   -8.5499631    269.02605   0.01245491  0.011252022            2 
 1801000   0.53462931   -8.5509008    268.77124  0.012436204  0.011242582            2 
 1802000    0.5304993   -8.5400845    269.02618  0.012441092  0.011233147            2 
 1803000   0.52966487   -8.5600885    268.96245  0.012431246  0.011223727            3 
 1804000   0.53841454   -8.5463737    268.86631  0.012419914  0.011214309            5 
 1805000   0.54355181   -8.5332847    269.09365   0.01242353  0.011204904            2 
 1806000   0.53136308   -8.5441725    268.97498  0.012411175  0.011195501            2 
 1807000   0.52781558   -8.5386106    268.95539  0.012403403  0.011186101            3 
 1808000   0.53309105   -8.5443359    268.64933  0.012382436  0.011176711            2 
 1809000   0.53998319   -8.5330802      269.091  0.012395937  0.011167332            4 
 1810000    0.5357918   -8.5471197    268.82478  0.012376831  0.011157964            3 
 1811000   0.52734164   -8.5524994    268.48125   0.01235419  0.011148608            2 
 1812000   0.53857376   -8.5438913     268.9479  0.012368833   0.01113926            3 
 1813000   0.54274222   -8.5314723    269.11461  0.012369673  0.011129927            3 
 1814000   0.51337462   -8.5427723    269.48054  0.012379665  0.011120604            2 
 1815000   0.52315253   -8.5478939    268.56458  0.012330789  0.011111279            4 
 1816000   0.52527615   -8.5598062    269.27478  0.012356589  0.011101963            3 
 1817000   0.53052363   -8.5639398    269.19114  0.012345952  0.011092668            1 
 1818000   0.52779672   -8.5415286    269.15101  0.012337322  0.011083381            2 
 1819000   0.51401438   -8.5533602    269.10812  0.012328575   0.01107411            1 
 1820000   0.53560434   -8.5446285     269.2819  0.012329757  0.011064839            4 
 1821000   0.53113823   -8.5398784    269.28808  0.012323269  0.011055576            1 
 1822000   0.52177972   -8.5540071    268.76756  0.012292699  0.011046331            2 
 1823000   0.52383942   -8.5327013    268.81267  0.012288017  0.011037085            2 
 1824000   0.52731872   -8.5454737    268.99811  0.012289753  0.011027847            2 
 1825000   0.52974663   -8.5463469    268.83602  0.012275618  0.011018623            3 
 1826000   0.52952218   -8.5461795    268.65869  0.012260802  0.011009416            2 
 1827000   0.53481218   -8.5546942    269.11543  0.012274924  0.011000208            2 
 1828000   0.52189059   -8.5463541    268.74948  0.012251526  0.010991001            2 
 1829000   0.52296917   -8.5335831    269.20657  0.012265654  0.010981812            2 
 1830000   0.53814876   -8.5358364    268.18617  0.012212485  0.010972634            1 
 1831000   0.52290727   -8.5565054    269.02986  0.012244213  0.010963461            1 
 1832000   0.51423277   -8.5658423    268.96991  0.012234803  0.010954299            3 
 1833000   0.51382434   -8.5452455    268.48687  0.012206168  0.010945145            6 
 1834000   0.51626554   -8.5388579    268.96681   0.01222132  0.010935992            6 
 1835000   0.51889822   -8.5359381    268.98097  0.012215303  0.010926846            3 
 1836000   0.52980046   -8.5547341    268.94221  0.012206891  0.010917716            3 
 1837000   0.51589789    -8.545386    268.97078  0.012201541  0.010908599            3 
 1838000   0.51962606   -8.5462912    268.90309  0.012191834  0.010899484            2 
 1839000   0.52038405   -8.5521354    268.62395  0.012172555  0.010890372            2 
 1840000   0.51846365   -8.5562273    268.99246  0.012182629  0.010881274            8 
 1841000   0.50538013   -8.5873021    268.82507  0.012168435  0.010872182            2 
 1842000   0.52346692   -8.5540078    268.90472  0.012165432  0.010863106            2 
 1843000   0.51823207    -8.556148    268.69473  0.012149337  0.010854044            2 
 1844000   0.51088235   -8.5622413    268.34908  0.012127128  0.010844984            5 
 1845000   0.52104554   -8.5647693    268.40384  0.012123028  0.010835935            4 
 1846000   0.51590059   -8.5527023    268.91464  0.012139519  0.010826899            1 
 1847000     0.523898   -8.5567966    268.59862  0.012118689  0.010817871            3 
 1848000   0.52154897   -8.5724864    268.77589  0.012120125  0.010808856            3 
 1849000   0.51846081   -8.5516519    268.45537  0.012099124  0.010799832            3 
 1850000   0.51738617   -8.5484925    268.71005  0.012104056  0.010790827            2 
 1851000   0.51370651   -8.5665104    268.85858  0.012104204   0.01078184            4 
 1852000   0.51220456   -8.5666267    268.39232  0.012076688  0.010772858            4 
 1853000    0.5168068   -8.5665641    268.58132   0.01207867  0.010763891            3 
 1854000   0.51212997   -8.5602657     268.3051   0.01205974  0.010754928            4 
 1855000   0.51016951   -8.5673579    268.74242  0.012072885  0.010745982            2 
 1856000   0.51302102   -8.5638302    268.82595  0.012070131  0.010737033            2 
 1857000   0.52199015   -8.5722229    268.41364  0.012045128    0.0107281            3 
 1858000    0.5072923   -8.5677981    268.59184  0.012046638  0.010719175            4 
 1859000   0.50892536   -8.5618541    268.70532  0.012045245  0.010710254           10 
 1860000   0.50132704   -8.5790504    268.62451  0.012035148  0.010701329            9 
 1861000   0.50203817   -8.5824381    268.47525  0.012021998   0.01069241            6 
 1862000   0.52253731   -8.5775543    268.69904  0.012025557  0.010683498            4 
 1863000   0.51179437   -8.5734082     268.2992  0.012001217  0.010674593            9 
 1864000   0.50856875   -8.5761937    268.55181  0.012006072  0.010665709            1 
 1865000   0.50643757   -8.5701653    268.37547  0.011991755  0.010656827            7 
 1866000   0.50058605   -8.5709902    269.05062   0.01201548  0.010647951            8 
 1867000   0.52083275   -8.5950169    267.98132  0.011961316  0.010639078            7 
 1868000   0.51870383   -8.5788254    268.38548  0.011972942  0.010630216           11 
 1869000   0.50367073   -8.5554336    267.86172  0.011943184  0.010621355           10 
 1870000   0.50905133   -8.5810772    268.01132  0.011943463  0.010612517            4 
 1871000   0.51233373   -8.5848086    268.20355  0.011945642  0.010603691           10 
 1872000   0.49937657   -8.5889216    267.80412   0.01192148  0.010594857            3 
 1873000   0.50692726   -8.5849272      268.281  0.011936332   0.01058604            4 
 1874000   0.50980143   -8.5849394    268.28726  0.011930241   0.01057722           12 
 1875000   0.51556233   -8.5760818     268.6521  0.011940093  0.010568422            4 
 1876000   0.50022241   -8.5958845      268.254  0.011916045   0.01055963            5 
 1877000   0.51139164   -8.5915276     268.1839  0.011906584  0.010550837            3 
 1878000   0.49084062   -8.5807866    268.32765  0.011906623  0.010542057           11 
 1879000   0.51923354    -8.599986    268.43158  0.011904895  0.010533289            4 
 1880000   0.51217214   -8.5806234    268.40048  0.011897184  0.010524532            4 
 1881000    0.4961939   -8.5819973    268.23583  0.011883565  0.010515783            4 
 1882000   0.50185596   -8.5840937    268.22138  0.011876611  0.010507033            2 
 1883000   0.49378325   -8.5787896    268.12636  0.011866099  0.010498306            5 
 1884000   0.49904663    -8.586203    267.91649  0.011850517  0.010489577            8 
 1885000    0.5158907   -8.6022148    268.20761    0.0118571  0.010480846           12 
 1886000   0.49937706   -8.5803733    268.01466  0.011842288  0.010472132            5 
 1887000   0.50874105   -8.5856982    268.14265  0.011841664  0.010463435            3 
 1888000   0.50818299   -8.6072969    268.08752  0.011832959  0.010454732            6 
 1889000   0.49654459   -8.5991449    267.53551  0.011802343   0.01044604            7 
 1890000   0.50704424   -8.5974681    267.71116  0.011803843   0.01043736            3 
 1891000   0.51012985   -8.5793201    268.23768  0.011820804  0.010428696            5 
 1892000   0.49794312   -8.5910836    268.09393  0.011808225  0.010420029            6 
 1893000   0.49988199   -8.5936576     267.8875  0.011792899  0.010411375            4 
 1894000   0.48936248   -8.5896599      267.778  0.011781855  0.010402734            3 
 1895000   0.48359878   -8.6065721    268.29825  0.011798516  0.010394102            4 
 1896000   0.49604792   -8.6002397    268.11912   0.01178442  0.010385472            4 
 1897000   0.49709364   -8.6129181     268.2656  0.011784643  0.010376853            2 
 1898000    0.4828591   -8.5989431    267.97063  0.011765482  0.010368245            2 
 1899000   0.50220023   -8.5961192    268.32877  0.011775003  0.010359648            4 
 1900000    0.4871646   -8.5965579    267.51386  0.011733064  0.010351059            6 
 1901000   0.49808881    -8.618098    268.07435  0.011751462  0.010342469            3 
 1902000   0.49568559   -8.5828604      268.502   0.01176402    0.0103339            8 
 1903000   0.49611663   -8.5986828    268.10472  0.011740441  0.010325339            4 
 1904000   0.48611625   -8.6136659    268.47861  0.011750639  0.010316788            5 
 1905000   0.50038811   -8.6048248    267.78562  0.011714157  0.010308238            3 
 1906000   0.50165733   -8.6267757    268.35567  0.011732934  0.010299708            6 
 1907000   0.49286481   -8.6012595    267.91672    0.0117076  0.010291179            4 
 1908000   0.48715069   -8.6177364    268.09111  0.011709081   0.01028267            3 
 1909000   0.49936665   -8.6044684    267.88133  0.011693789  0.010274156            6 
 1910000   0.49088401   -8.5977876    268.13339  0.011698664  0.010265656            5 
 1911000   0.50019083   -8.5918263    268.00897  0.011687117  0.010257169            4 
 1912000   0.48823123   -8.6167155    267.48863  0.011658326  0.010248686            5 
 1913000   0.49434262    -8.609042    268.21386  0.011683824  0.010240203            7 
 1914000   0.49322484   -8.6138822    267.73198  0.011656739  0.010231734            4 
 1915000    0.4939912   -8.6132786     268.3136  0.011675962  0.010223274            6 
 1916000   0.48798595   -8.6196691    267.82676  0.011648694  0.010214826            8 
 1917000   0.48918462   -8.5960608    267.81125  0.011641943   0.01020638           11 
 1918000   0.48918861   -8.6020338    268.17281  0.011651582  0.010197942            5 
 1919000   0.48482793   -8.6043191    268.01784  0.011638781  0.010189517            4 
 1920000   0.48439514   -8.6093189    267.70416  0.011619104  0.010181103            5 
 1921000   0.47718354   -8.6179991    267.98278  0.011625142  0.010172693            8 
 1922000   0.49142999   -8.6254149    267.81331  0.011611746  0.010164288            4 
 1923000   0.48385386    -8.606744     267.8123  0.011605664  0.010155897            4 
 1924000   0.48082593   -8.6108031      267.712  0.011595288  0.010147522            6 
 1925000   0.48795677   -8.6047178    267.65982  0.011587005   0.01013915            3 
 1926000    0.4842818   -8.6102576    267.79692  0.011586921  0.010130788            3 
 1927000   0.47748997   -8.6301103    267.73719  0.011578325  0.010122428            2 
 1928000   0.48171875   -8.6234762    268.40217  0.011601062  0.010114078            3 
 1929000    0.4782442   -8.6122732    267.99692  0.011577541  0.010105744            2 
 1930000   0.47394979   -8.6315871     267.8326  0.011564447  0.010097409            4 
 1931000   0.49086023   -8.6198203    267.79593  0.011556876  0.010089087            3 
 1932000   0.48189174   -8.6237459    267.65952   0.01154501   0.01008078            2 
 1933000   0.47596066   -8.6280187     267.5823  0.011535709  0.010072483            2 
 1934000   0.48264939   -8.6281685     267.6737  0.011533683   0.01006419            3 
 1935000   0.48978118   -8.6358427    267.64758  0.011526597  0.010055904            3 
 1936000   0.46953212   -8.6455704    268.28514  0.011548086  0.010047626            3 
 1937000   0.47646567    -8.609204    267.67976   0.01151608  0.010039358            2 
 1938000   0.48401073   -8.6134304    267.31243  0.011494343  0.010031091            2 
 1939000   0.47569869   -8.6135645    267.97266  0.011516789  0.010022843            4 
 1940000   0.47679511   -8.5966035    267.79641  0.011503282  0.010014605            3 
 1941000   0.46590138   -8.6368022     267.8242  0.011498549  0.010006366            2 
 1942000    0.4872763   -8.6204868    267.69762  0.011487196 0.0099981392            2 
 1943000   0.47527811   -8.6194802    267.70529  0.011481613 0.0099899119            3 
 1944000   0.46571057   -8.6158853    267.35902  0.011460863 0.0099816963            3 
 1945000   0.47407625   -8.6336598    267.83157  0.011475217 0.0099734922            3 
 1946000   0.46782531   -8.6324474    268.04748  0.011478566 0.0099653022            3 
 1947000   0.47360223   -8.6262957    267.71486  0.011458434 0.0099571206            4 
 1948000   0.47718189   -8.6145433    267.79078    0.0114558 0.0099489457            3 
 1949000   0.46807273     -8.62918     267.5029  0.011437613 0.0099407837            3 
 1950000   0.46785903   -8.6148855    267.80928  0.011444841 0.0099326369            4 
 1951000   0.47197407   -8.6216545    267.93558  0.011444369 0.0099244868            2 
 1952000   0.46939177   -8.6229154    267.39768  0.011415543 0.0099163448            2 
 1953000   0.47817362   -8.6242312    267.46746  0.011412676 0.0099082152            4 
 1954000   0.48675708   -8.6338156    267.48466  0.011407568 0.0099000829            1 
 1955000   0.46693717     -8.63071    267.34705  0.011395868 0.0098919665            3 
 1956000   0.47050424   -8.6308056     267.8587   0.01141184 0.0098838636            4 
 1957000   0.46800026   -8.6340509     267.6853  0.011398624 0.0098757629            4 
 1958000   0.46793376   -8.6501601    267.55382  0.011387207 0.0098676722            3 
 1959000   0.47325649   -8.6376193    267.48289  0.011378377 0.0098595848            5 
 1960000   0.46254213   -8.6300758    267.22172  0.011361468 0.0098515051            4 
 1961000   0.46601137   -8.6371531    267.42457  0.011364294 0.0098434335            3 
 1962000   0.47306328   -8.6355619    267.55286  0.011363951  0.009835375            5 
 1963000   0.47146063   -8.6468988    267.58104  0.011359358 0.0098273306            5 
 1964000   0.47306628   -8.6548362    267.61848  0.011355163 0.0098192882            4 
 1965000    0.4737888   -8.6313059    267.83672  0.011358639  0.009811255            5 
 1966000    0.4671717   -8.6484583    267.30043   0.01133013 0.0098032261            5 
 1967000   0.47488882   -8.6402435    267.85295  0.011347778 0.0097952042            2 
 1968000   0.46937094   -8.6561057    267.24991  0.011316476 0.0097871923            3 
 1969000   0.47593348   -8.6382557    267.62745  0.011326708 0.0097791874            4 
 1970000   0.46584013   -8.6324564    267.47139  0.011314356 0.0097711934            5 
 1971000   0.46492988   -8.6601139    267.38445   0.01130494 0.0097632078            3 
 1972000    0.4636736   -8.6441881    267.53269  0.011305472 0.0097552237           12 
 1973000   0.46156654   -8.6392916    267.12458  0.011282505 0.0097472521            5 
 1974000   0.47776574   -8.6577297    267.70593  0.011301331 0.0097392857            4 
 1975000   0.45753988   -8.6389425    267.60906  0.011291522 0.0097313299            3 
 1976000   0.45784127   -8.6453371    267.32856  0.011273978 0.0097233803            3 
 1977000   0.46397699   -8.6394078    267.24567  0.011264781 0.0097154378            2 
 1978000   0.46132179   -8.6433517     267.1144  0.011253556  0.009707496            3 
 1979000   0.45852368   -8.6513055    267.23989  0.011253153 0.0096995678            4 
 1980000   0.45346264   -8.6384838    267.02458  0.011238408 0.0096916449            8 
 1981000   0.46958124   -8.6507144     266.7579  0.011221517  0.009683726            7 
 1982000   0.45017591   -8.6523934    267.43984  0.011244527 0.0096758208            7 
 1983000   0.46273587   -8.6432507    267.35338  0.011235224 0.0096679267            2 
 1984000   0.46258346    -8.637554    267.50516  0.011235936 0.0096600355            2 
 1985000   0.46384094   -8.6462153    267.01365  0.011209641 0.0096521582            5 
 1986000   0.45926204   -8.6523306    267.11433  0.011208221 0.0096442885            8 
 1987000   0.47350118   -8.6579715    267.39987  0.011214556 0.0096364305            9 
 1988000    0.4703396   -8.6589196    267.05649  0.011194521 0.0096285771            2 
 1989000   0.46386473   -8.6522057    267.16731  0.011193536 0.0096207263            1 
 1990000   0.46336292   -8.6562208    267.44083  0.011199365 0.0096128856            3 
 1991000   0.45117303   -8.6376879    267.45461  0.011194317 0.0096050548            3 
 1992000   0.44961359   -8.6502869    267.20434  0.011178227 0.0095972267            3 
 1993000   0.45929598   -8.6671886    267.37747  0.011179857 0.0095894162            8 
 1994000   0.45708538   -8.6679165    267.47678  0.011178401 0.0095816038            2 
 1995000   0.45531511   -8.6625511    267.08752  0.011156538 0.0095738007            6 
 1996000   0.46955495   -8.6556571    267.30741  0.011160129 0.0095660041            5 
 1997000   0.45999716   -8.6603864    267.08975  0.011145458 0.0095582191            3 
 1998000   0.45890401   -8.6728147    267.23543  0.011145955 0.0095504402            7 
 1999000   0.45488696   -8.6666771     267.0046  0.011130757 0.0095426724            3 
 2000000   0.44689157   -8.6582845    267.18086  0.011132536 0.0095349108            3 
 2001000   0.45790556    -8.657577    267.00388  0.011119602  0.009527151            3 
 2002000   0.46110353   -8.6669921    267.35589    0.0111287 0.0095194061            4 
 2003000   0.44003628   -8.6656115    267.17059  0.011115435 0.0095116685            3 
 2004000   0.45823986   -8.6780394    266.95711  0.011101011 0.0095039319            7 
 2005000   0.45463478    -8.654356    266.99887   0.01109721 0.0094962081            9 
 2006000   0.44901157   -8.6651005    266.77775  0.011082492 0.0094884897            6 
 2007000   0.46165516   -8.6728725    267.06042  0.011088707 0.0094807743            2 
 2008000   0.45850801   -8.6604975    267.24945   0.01109103  0.009473069            2 
 2009000   0.45270984   -8.6764612    266.82728  0.011067997 0.0094653746            4 
 2010000   0.44258663   -8.6575581     266.9023  0.011065601 0.0094576896            5 
 2011000   0.44748421   -8.6836533    266.89954  0.011059984 0.0094500135            5 
 2012000   0.45150841   -8.6513642    267.01703  0.011059354 0.0094423434            4 
Loop time of 4899.12 on 48 procs for 2000000 steps with 4000 atoms

Performance: 70543.316 tau/day, 408.237 timesteps/s
99.4% CPU use with 48 MPI tasks x no OpenMP threads

MPI task timing breakdown:
Section |  min time  |  avg time  |  max time  |%varavg| %total
---------------------------------------------------------------
Pair    | 306.81     | 325.8      | 341.45     |  49.9 |  6.65
Neigh   | 31.871     | 33.114     | 34.095     |   8.3 |  0.68
Comm    | 290.57     | 315.61     | 342.52     |  70.9 |  6.44
Output  | 4.0461     | 4.0478     | 4.0811     |   0.2 |  0.08
Modify  | 4153.7     | 4176.1     | 4196.5     |  15.6 | 85.24
Other   |            | 44.46      |            |       |  0.91

Nlocal:        83.3333 ave          90 max          77 min
Histogram: 2 2 3 14 7 5 4 5 3 3
Nghost:        2059.60 ave        2091 max        2032 min
Histogram: 3 5 5 4 8 11 5 2 3 2
Neighs:        13366.8 ave       14686 max       12048 min
Histogram: 2 3 3 12 5 7 4 5 4 3
FullNghs:      26732.9 ave       29130 max       24534 min
Histogram: 2 2 6 11 10 3 3 5 4 2

Total # of neighbors = 1283181
Ave neighs/atom = 320.79525
Neighbor list builds = 107089
Dangerous builds = 0

#clear
#
#next RN
#
#jump SELF
Total wall time: 1:21:42
