
units lj                  # Use reduced LJ style units
atom_style atomic         # Uncharged point particles
atom_modify map hash      # Needed for indexing of clusters etc
                          # Used to be able to find where atoms are in relation to each other.

lattice fcc 1.0 spacing 1 1 1
Lattice spacing in x,y,z = 1.5874011 1.5874011 1.5874011
region box block 0 10 0 10 0 10 units lattice
create_box 2 box
Created orthogonal box = (0.0000000 0.0000000 0.0000000) to (15.874011 15.874011 15.874011)
  3 by 4 by 4 MPI processor grid
create_atoms 1 box
Created 4000 atoms
  using lattice units in orthogonal box = (0.0000000 0.0000000 0.0000000) to (15.874011 15.874011 15.874011)
  create_atoms CPU = 0.002 seconds
set type 1 type/fraction 2 0.85 78393
Setting atom values ...
  3394 settings made for type/fraction
mass 1 1.0
mass 2 1.0
pair_style lj/cut  3.5
pair_modify tail  yes
pair_coeff 1  1  1.0  1.0   # Intearaction between 1 and 1 set with epsilon = 1 and sigma = 1
pair_coeff 1  2  1.5  0.8
pair_coeff 2  2  0.5  0.88

write_data data.0
System init for write_data ...
Neighbor list info ...
  update every 1 steps, delay 10 steps, check yes
  max neighbors/atom: 2000, page size: 100000
  master list distance cutoff = 3.8
  ghost atom cutoff = 3.8
  binsize = 1.9, bins = 9 9 9
  1 neighbor lists, perpetual/occasional/extra = 1 0 0
  (1) pair lj/cut, perpetual
      attributes: half, newton on
      pair build: half/bin/atomonly/newton
      stencil: half/bin/3d
      bin: standard
WARNING: Not all mixed pair coeffs generated from mixing. Use write_data with 'pair ij' option to store all pair coeffs. (../write_data.cpp:312)


#############################
#   M E L T   S Y S T E M   #
#############################

velocity all create 2.4 1741580 mom yes dist gaussian # Assign velocities
                                                    # Temperature 2.4, random number seed, zero linear momentum
                                                                                # Gaussian distribution

timestep 0.002   # simulation timestep
thermo 1000       # output thermodynamic data every 1000 steps bf 100

# Define a fix  in this case with index 1 applied to all
# particles in the simulation. This fix is for simulations
# in the anisotropic NPT ensemble. Note that we use the MTK
# correction.
fix 1 all npt temp 2.4 2.4 0.1 iso 5.68 5.68 0.5 mtk yes tchain 5 pchain 5 # Use NPT ensemble
                                                                         # Set temperature and pressure and damping
                                                                         # Numbers of thermostats in chain and in barostat
run 10000          # run for 10000 steps
Per MPI rank memory allocation (min/avg/max) = 3.642 | 3.644 | 3.648 Mbytes
Step Temp E_pair E_mol TotEng Press Volume 
       0          2.4   -3.4381692            0   0.16093083   -2.9520202         4000 
    1000    2.3817078   -2.6370165            0   0.93465214    5.7415267    3877.6618 
    2000    2.4345685   -2.6865581            0   0.96438164    5.6583733    3865.4744 
    3000    2.4191163   -2.6237432            0    1.0040241    5.7347078    3899.5933 
    4000    2.3850981   -2.6291414            0   0.94761131    5.8712657    3882.6002 
    5000    2.4064089   -2.6426064            0    0.9661045    5.7745069    3875.5641 
    6000    2.3948947   -2.6769879            0   0.91445617    5.4461817    3889.8808 
    7000    2.4105433   -2.6736146            0   0.94129645    5.7478664    3871.9791 
    8000    2.3672807   -2.6788605            0   0.87117274     5.568637    3861.4373 
    9000    2.4332423   -2.6554682            0   0.99348283    5.8118004    3858.8165 
   10000    2.4346922   -2.6702094            0   0.98091595    5.3903559    3905.9272 
Loop time of 2.53404 on 48 procs for 10000 steps with 4000 atoms

Performance: 681913.918 tau/day, 3946.261 timesteps/s
99.6% CPU use with 48 MPI tasks x no OpenMP threads

MPI task timing breakdown:
Section |  min time  |  avg time  |  max time  |%varavg| %total
---------------------------------------------------------------
Pair    | 1.1043     | 1.1862     | 1.2589     |   2.8 | 46.81
Neigh   | 0.21021    | 0.21666    | 0.23162    |   0.9 |  8.55
Comm    | 0.79269    | 0.8605     | 0.93887    |   4.1 | 33.96
Output  | 0.00024782 | 0.00025408 | 0.00039811 |   0.0 |  0.01
Modify  | 0.21587    | 0.25502    | 0.2814     |   3.6 | 10.06
Other   |            | 0.01544    |            |       |  0.61

Nlocal:        83.3333 ave          93 max          73 min
Histogram: 2 1 8 9 4 4 3 5 5 7
Nghost:        1668.33 ave        1710 max        1631 min
Histogram: 2 5 8 5 5 7 7 1 6 2
Neighs:        9786.81 ave       11621 max        8199 min
Histogram: 2 6 7 5 6 8 2 9 1 2

Total # of neighbors = 469767
Ave neighs/atom = 117.44175
Neighbor list builds = 904
Dangerous builds = 190

# Equilibrate just above the melting temperature to avoid step fn in T

fix 1 all npt temp 1.25 1.25 0.1 iso 5.68 5.68 0.5 mtk yes tchain 5 pchain 5
run 2000
Per MPI rank memory allocation (min/avg/max) = 3.643 | 3.645 | 3.649 Mbytes
Step Temp E_pair E_mol TotEng Press Volume 
   10000    2.4346922   -2.6702094            0   0.98091595    5.3903559    3905.9272 
   11000    1.2684444   -3.9374041            0   -2.0352132    5.5224041    2998.4608 
   12000    1.2438618   -3.9045368            0   -2.0392106    5.9796155    2990.4063 
Loop time of 0.610726 on 48 procs for 2000 steps with 4000 atoms

Performance: 565883.801 tau/day, 3274.791 timesteps/s
99.7% CPU use with 48 MPI tasks x no OpenMP threads

MPI task timing breakdown:
Section |  min time  |  avg time  |  max time  |%varavg| %total
---------------------------------------------------------------
Pair    | 0.28325    | 0.29982    | 0.32406    |   1.7 | 49.09
Neigh   | 0.039579   | 0.041477   | 0.044363   |   0.5 |  6.79
Comm    | 0.19195    | 0.22086    | 0.23908    |   2.2 | 36.16
Output  | 5.1676e-05 | 5.2933e-05 | 6.6413e-05 |   0.0 |  0.01
Modify  | 0.040358   | 0.043687   | 0.047185   |   0.9 |  7.15
Other   |            | 0.004826   |            |       |  0.79

Nlocal:        83.3333 ave          89 max          77 min
Histogram: 3 2 3 4 7 13 2 6 6 2
Nghost:        1997.02 ave        2032 max        1976 min
Histogram: 5 5 10 6 7 8 5 0 1 1
Neighs:        12767.9 ave       14261 max       11663 min
Histogram: 4 4 7 5 10 8 5 2 2 1

Total # of neighbors = 612858
Ave neighs/atom = 153.21450
Neighbor list builds = 142
Dangerous builds = 10

#############################
# L I N E A R  Q U E N C H  #
#############################

# Define solid atoms. This closely follows ten Wolde  Ruiz-Montero and Frenkel  Faraday Discuss  1996  104  93-110
# Compute components of the per-atom q6 vector
compute q6 all orientorder/atom degrees 1 6 components 6 nnn NULL cutoff 1.3 # compute the Q6 parameter.
                                                                             # Use all neighbours within 1.3 unit cell.

# get number of connections
compute coord_number all coord/atom orientorder q6 0.5

# An atom is solid if it has 8 or more connections (of a possible 14)
variable is_solid atom c_coord_number>=8
group solid dynamic all var is_solid    # Must be dynamic to update
dynamic group solid defined

# do clustering
compute cluster solid cluster/atom 1.3 # Create a cluster where all atoms within are solid and max 1.3 units from another member

# define chunks one chunk per cluster
compute clus_chunks solid chunk/atom c_cluster nchunk every compress yes  # Says which atoms are in which chunk

# count the size of each chunk
compute size_chunks solid property/chunk clus_chunks count


# Find the maximum entry in the vector of chunk sizes
variable max_n equal max(c_size_chunks)


# Thermo style which includes this variable
# thermo_style custom step temp pe vol v_max_n

thermo ${N}  # Print the thermo information every 100 steps
thermo 1000  

# Reset the npt fix at a lower temperature (below freezing)
fix 1  all npt temp  ${temp} ${temp}  0.1  iso  5.68  5.68  0.5  mtk yes tchain  5  pchain  5
fix 1  all npt temp  0.45 ${temp}  0.1  iso  5.68  5.68  0.5  mtk yes tchain  5  pchain  5
fix 1  all npt temp  0.45 0.45  0.1  iso  5.68  5.68  0.5  mtk yes tchain  5  pchain  5

dump dmp2 all dcd ${N} traj.dcd
dump dmp2 all dcd 1000 traj.dcd


compute msd all msd com yes
variable twopoint equal c_msd[4]/6/(step*dt+1.0e-6)
fix 9 all vector 10 c_msd[4]
variable fit equal slope(f_9)/6/(10*dt)
thermo_style custom step temp pe c_msd[4] v_twopoint v_fit v_max_n

fix 1 all npt temp 1.25 ${temp} 0.1 iso 5.68 5.68 0.5 mtk yes tchain 5 pchain 5
fix 1 all npt temp 1.25 0.45 0.1 iso 5.68 5.68 0.5 mtk yes tchain 5 pchain 5
run 5000000 # 5000000  # Run for this many steps
Neighbor list info ...
  update every 1 steps, delay 10 steps, check yes
  max neighbors/atom: 2000, page size: 100000
  master list distance cutoff = 3.8
  ghost atom cutoff = 3.8
  binsize = 1.9, bins = 8 8 8
  4 neighbor lists, perpetual/occasional/extra = 1 3 0
  (1) pair lj/cut, perpetual
      attributes: half, newton on
      pair build: half/bin/atomonly/newton
      stencil: half/bin/3d
      bin: standard
  (2) compute orientorder/atom, occasional
      attributes: full, newton on
      pair build: full/bin/atomonly
      stencil: full/bin/3d
      bin: standard
  (3) compute coord/atom, occasional
      attributes: full, newton on
      pair build: full/bin/atomonly
      stencil: full/bin/3d
      bin: standard
  (4) compute cluster/atom, occasional
      attributes: full, newton on
      pair build: full/bin/atomonly
      stencil: full/bin/3d
      bin: standard
Per MPI rank memory allocation (min/avg/max) = 9.831 | 9.834 | 9.839 Mbytes
Step Temp PotEng c_msd[4] v_twopoint v_fit v_max_n 
   12000    1.2438618   -3.9045368 8.3382598e-31 5.7904579e-33 8.3333333e+20            2 
   13000    1.2267887   -3.8843934   0.89920116 0.0057641098  0.076113456            1 
   14000    1.2497711   -3.9112752    1.8788806  0.011183813  0.077408181            1 
   15000    1.2527138   -3.9145401    2.8454748  0.015808193  0.080268358            1 
   16000    1.2733782   -3.9247655    3.6995129  0.019268296  0.079004879            2 
   17000    1.2655997    -3.897621    4.6434391  0.022761956  0.078098407            2 
   18000    1.2596029   -3.9203729    5.5848622  0.025855843  0.077779583            1 
   19000    1.2683075   -3.9188657    6.4687748  0.028371818  0.077644741            2 
   20000    1.2413491   -3.9308459    7.3241269  0.030517195  0.077020347            1 
   21000    1.2696414   -3.8755019    8.2845744  0.032875294   0.07670482            3 
   22000     1.255369   -3.9339344    9.1805022  0.034774629   0.07647575            1 
   23000    1.2449226   -3.9323149    10.047118    0.0364026  0.076490225            2 
   24000    1.2523701   -3.9434046    10.888728  0.037808083    0.0761424            2 
   25000    1.2382462   -3.9125423    11.845358  0.039484525  0.075838335            3 
   26000    1.2552699    -3.926145    12.662518  0.040584993  0.075563698            3 
   27000    1.2204561   -3.9259404    13.587856  0.041937827   0.07540862            2 
   28000    1.2259289   -3.8912386    14.424916  0.042931298  0.075203754            2 
   29000    1.2712646   -3.9208864    15.469765  0.044453346  0.075209365            1 
   30000    1.2276527   -3.9046469    16.257344  0.045159288  0.075127231            2 
   31000    1.2343153   -3.8986171    17.231783  0.046321997   0.07497441            3 
   32000    1.2192641   -3.9559443    18.161384  0.047295271  0.075016715            2 
   33000    1.2497287   -3.9191467    19.195535  0.048473573   0.07515284            2 
   34000    1.2354434   -3.9245981     20.13017   0.04933865  0.075344732            2 
   35000    1.2763759   -3.9234706    21.165803  0.050394768  0.075538076            3 
   36000    1.2186164   -3.9085858    21.963202  0.050840746  0.075712978            2 
   37000    1.2897597    -3.898071    23.004871  0.051812772   0.07587296            2 
   38000    1.2466125    -3.912997    23.904492  0.052422131  0.075995149            3 
   39000    1.2570264   -3.9449163    24.654753  0.052681095  0.076104679            3 
   40000     1.240163   -3.9131943    25.842668  0.053838891  0.076205262            1 
   41000    1.2477122   -3.9204573    26.715781  0.054300368  0.076327422            2 
   42000    1.2194912   -3.9291125    27.709677  0.054979517  0.076365209            2 
   43000    1.2417244   -3.9177889    28.543994  0.055317816  0.076447567            5 
   44000    1.2394224   -3.9132365    29.632382  0.056121935  0.076506308            4 
   45000    1.2586002   -3.8996138    30.366867  0.056234938  0.076578132            2 
   46000    1.2197726   -3.9079999    31.466761  0.057005002  0.076679384            3 
   47000    1.2561443   -3.9133111    32.561159  0.057732551  0.076836306            2 
   48000    1.2536166   -3.8956063    33.874268  0.058809493  0.077075462            2 
   49000    1.2472167   -3.8939509    34.653514  0.058934548  0.077258803            1 
   50000    1.2670305   -3.9418673    35.352333  0.058920555  0.077396348            2 
   51000     1.223904   -3.9089625    36.429768  0.059525765  0.077477615            1 
   52000    1.2323145   -3.9348113    37.349899  0.059855607  0.077591259            2 
   53000    1.2580659   -3.9345757    38.225416  0.060102854  0.077665512            1 
   54000    1.2261199   -3.9197756    39.404996  0.060810178  0.077772065            2 
   55000    1.2508915   -3.8996204     40.27529  0.061023166  0.077857277            1 
   56000     1.233095   -3.9166969    41.169485  0.061264114  0.077947598            2 
   57000    1.2444049   -3.9439614    42.097668  0.061546298  0.078054627            2 
   58000    1.2290309   -3.9366329    42.786764  0.061475235   0.07810739            4 
   59000    1.2380609   -3.9053218    43.827778  0.061903641  0.078121583            2 
   60000    1.2153456   -3.9376853    44.629374  0.061985242   0.07813642            3 
   61000    1.2609019   -3.9441527    45.790549  0.062555395  0.078174974            2 
   62000    1.2404582   -3.9282477    46.795323   0.06289694   0.07820406            3 
   63000    1.2309159   -3.9313702    47.973505  0.063457017  0.078276771            3 
   64000    1.2388393   -3.9031346    49.045507  0.063861337  0.078355731            2 
   65000    1.2290621   -3.9454029    50.074329  0.064197857  0.078453973            3 
   66000    1.2391375   -3.9182173    50.705114  0.064021608  0.078555159            3 
   67000    1.2296307   -3.9625643    51.889745  0.064539483  0.078650532            1 
   68000    1.2473253    -3.947825    52.942486  0.064880497  0.078729324            4 
   69000    1.2478955   -3.9258601    54.183646  0.065439186  0.078829063            1 
   70000    1.2095254   -3.9268976    55.026848  0.065508152  0.078917955            1 
   71000    1.2287924   -3.9251856    55.763575  0.065450205  0.078997784            2 
   72000    1.2260827   -3.9581417    56.589101  0.065496644  0.079030173            3 
   73000    1.2412408   -3.9165838    57.687476  0.065853283  0.079058618            3 
   74000    1.2512731   -3.9268621    58.256464  0.065604126  0.079087443            2 
   75000    1.2390298   -3.9572275    59.009037  0.065565596  0.079080689            2 
   76000    1.2259283   -3.9177944    59.955953  0.065741176  0.079048037            3 
   77000    1.2521425   -3.9316467    61.084347  0.066108601   0.07901586            2 
   78000    1.2465624   -3.9341398    61.967594  0.066204694  0.079006287            2 
   79000    1.2511334   -3.9397086    62.996969  0.066452499  0.078991376            2 
   80000    1.2341883   -3.9072767    64.155348  0.066828487  0.078996725            1 
   81000    1.2299549   -3.9235821    64.666885  0.066529717  0.078991105            2 
   82000     1.236905   -3.9457204    65.538742  0.066604412  0.078968611            1 
   83000    1.2234061   -3.9656755    66.547529  0.066814787   0.07894882            1 
   84000    1.2485309   -3.9259306    67.719532  0.067182075  0.078923079            1 
   85000    1.2713433   -3.9636559    68.277098  0.066938331  0.078898232            2 
   86000    1.2867212   -3.9341516    68.864921  0.066729574  0.078862984            2 
   87000    1.2290538   -3.9124917    70.328018  0.067364001  0.078838757            1 
   88000     1.234022   -3.9383933    71.120715  0.067349161  0.078834708            6 
   89000    1.2510038   -3.9166223    72.105146  0.067514181  0.078808099            1 
   90000    1.2380703   -3.9160888    73.124509  0.067707879  0.078778637            3 
   91000    1.2383628   -3.9541578    73.913391  0.067686255  0.078757825            3 
   92000    1.2320909   -3.9306957    75.073464  0.068001325   0.07874294            1 
   93000    1.2376644   -3.9362848    75.925448  0.068033556  0.078742712            2 
   94000    1.2276527   -3.9523908    77.005358  0.068267161  0.078737098            1 
   95000     1.221503   -3.9242799     77.86358  0.068301385  0.078721682            1 
   96000    1.2165056   -3.9519086    78.463514  0.068110689  0.078720788            4 
   97000    1.2416775   -3.8977321    80.184217  0.068886784   0.07871927            1 
   98000    1.2383456   -3.9502722    80.383221  0.068353079  0.078706988            1 
   99000    1.2360088   -3.9428289    81.124726  0.068286806  0.078682792            2 
  100000    1.2052381   -3.9390713    82.042439  0.068368698  0.078663281            3 
  101000    1.2525681   -3.9311844    83.455977  0.068858067  0.078643879            3 
  102000    1.2328329   -3.9403412    84.644258  0.069153805  0.078634945            1 
  103000    1.2240066   -3.9284423    85.436987  0.069123776  0.078630369            2 
  104000    1.2103108   -3.9280767     86.52648  0.069332115  0.078621183            2 
  105000    1.2083691     -3.94901    87.410015  0.069373027  0.078613344            1 
  106000    1.2378317   -3.9303734     88.30178  0.069419638  0.078604873            3 
  107000     1.243619   -3.9423102    88.815445  0.069170907  0.078593866            2 
  108000    1.2431187   -3.9284346     90.23949  0.069629236  0.078581683            2 
  109000    1.2477124   -3.9650931    91.195817  0.069721572  0.078582524            2 
  110000     1.221012   -3.9110382    92.224546   0.06986708  0.078575629            1 
  111000    1.2318156   -3.9112444    92.905722   0.06974904  0.078571141            1 
  112000    1.2196951   -3.9481442    93.830141  0.069814093  0.078563159            6 
  113000     1.244264   -3.9589361    94.779315   0.06989625  0.078564429            2 
  114000     1.225933   -3.9116502    96.187433  0.070312451  0.078563031            2 
  115000    1.2348615   -3.9520246    96.280517   0.06976849  0.078563881            2 
  116000    1.2337155   -3.9356398    97.701074  0.070187553  0.078556066            2 
  117000    1.2542413   -3.9238782    98.321634  0.070029654  0.078537216            2 
  118000    1.2496923   -3.9734668    98.338115  0.069447821  0.078509882            1 
  119000    1.2580279   -3.9827843    99.536366  0.069703337  0.078483484            1 
  120000    1.2361317   -3.9612621     100.5337  0.069815069  0.078458548            4 
  121000    1.2422563   -3.9433356    102.05301  0.070284439  0.078431771            1 
  122000    1.2091695   -3.9226468    103.19288  0.070486939  0.078422479            1 
  123000    1.2355134   -3.9442841    104.11399  0.070537936   0.07840456            2 
  124000    1.2608693    -3.922827    105.49787  0.070899107  0.078399109            2 
  125000    1.2515097   -3.9591218    106.12492  0.070749947   0.07839941            5 
  126000    1.2376563   -3.9121313    107.00518  0.070770624  0.078402285            5 
  127000    1.2305268   -3.9006284    107.96371  0.070842326  0.078401855            1 
  128000    1.2408582   -3.9306485    108.75192  0.070802029  0.078402347            1 
  129000    1.2448386   -3.9464142     110.2233  0.071203684  0.078406047            2 
  130000    1.2259002   -3.9349967     111.1064  0.071222053  0.078410645            3 
  131000     1.227939   -3.9384208    110.73381  0.070441357  0.078412906            2 
  132000    1.2415658   -3.9330252    112.22578  0.070849608  0.078401893            2 
  133000    1.2164689   -3.9398594    113.06809  0.070844666  0.078385001            1 
  134000    1.1927486   -3.9507201    113.77631  0.070756412  0.078356846            3 
  135000    1.2374493   -3.9605688    113.91816   0.07031985  0.078318946            2 
  136000    1.2631375   -3.9564988    115.27175  0.070632197  0.078279609            2 
  137000    1.2226006   -3.9578112    116.31835  0.070753257  0.078241282            2 
  138000    1.2249928   -3.8969912    116.59024  0.070404735  0.078209105            2 
  139000    1.2249307   -3.9399588    118.01249  0.070750893  0.078182443            2 
  140000      1.21288   -3.9290616    119.23806  0.070975036  0.078156116            4 
  141000    1.2108502   -3.9518261    119.94827   0.07089141  0.078131171            1 
  142000    1.2383136   -3.9662191    120.15699  0.070514663  0.078105703            1 
  143000    1.2058289    -3.927346    121.84394  0.071004626  0.078082632            1 
  144000    1.2359944   -3.9324799    122.85328  0.071095646  0.078056539            2 
  145000    1.2152444    -3.961232    123.64284  0.071059105  0.078037965            2 
  146000    1.2511858   -3.9218317    125.01499  0.071355588  0.078026328            3 
  147000    1.2157919   -3.9664078    126.07486  0.071471008  0.078014157            2 
  148000     1.235086    -3.945493    127.05867  0.071542041  0.078001963            1 
  149000    1.2388814   -3.9443623    128.09359  0.071640713  0.077986819            2 
  150000     1.249107   -3.9681604     128.1394  0.071188553   0.07796573            2 
  151000    1.2274351   -3.9356973    129.49956   0.07146775  0.077939635            2 
  152000    1.2059993   -3.9340535    130.40006  0.071491262  0.077918331            1 
  153000    1.2399044   -3.9810057    130.58976  0.071127321   0.07790015            1 
  154000    1.2242113   -3.9674131    131.74452  0.071290326  0.077881673            1 
  155000    1.2455006   -3.9365706    132.58867  0.071284233  0.077861935            1 
  156000    1.2385871    -3.938293    133.71624  0.071429617  0.077840346            2 
  157000    1.2088891   -3.9321944    134.12726  0.071192815  0.077818089            3 
  158000    1.2393322   -3.9607183    135.50218  0.071467396  0.077799814            2 
  159000    1.2317624   -3.9576973    136.38724  0.071481782  0.077783056            4 
  160000    1.2538124   -3.9346292    137.82525  0.071783986  0.077768365            1 
  161000    1.2392342   -3.9508677    138.42463   0.07164836  0.077760397            3 
  162000    1.2368764   -3.9448541    140.05435  0.072044418  0.077756201            2 
  163000    1.2194356   -3.9445581    140.39073  0.071774401  0.077753217            2 
  164000    1.2629644   -3.9957317     141.2875  0.071792426  0.077743997            1 
  165000    1.2096508   -3.9887248    142.42784  0.071933254    0.0777422            1 
  166000    1.2440725   -3.9239625    143.92765  0.072252836  0.077742773            1 
  167000    1.2176003   -3.9706392    144.96633  0.072338486   0.07774962            1 
  168000    1.2363453   -3.9339185    146.42285   0.07263038  0.077757705            3 
  169000    1.2152605   -3.9758169    147.28732  0.072626885  0.077763287            2 
  170000    1.2125823   -3.9199304      149.026  0.073051962  0.077779839            3 
  171000    1.1864824   -3.9334401    149.32668  0.072771286  0.077793614            2 
  172000    1.2261099   -3.9526647    149.31678  0.072343401  0.077798848            4 
  173000    1.2162647   -3.9326886    150.09633  0.072300738  0.077801451            4 
  174000    1.2124078   -3.9536015    151.11941  0.072375198  0.077800932            1 
  175000    1.2326232   -3.9457214    152.91277  0.072815605  0.077802728            3 
  176000     1.216523   -3.9839585    152.83804  0.072366494  0.077804449            3 
  177000    1.2199102   -3.9604845    154.19444  0.072596254  0.077802446            1 
  178000    1.2415514   -3.9281236    155.42448  0.072764272  0.077807167            2 
  179000    1.2144131   -3.9677717    155.37284  0.072333724  0.077801803            4 
  180000    1.2380922   -3.9647563    156.91521  0.072645929  0.077791437            1 
  181000    1.2105372   -3.9389815    157.88436  0.072690773  0.077788489            1 
  182000    1.2115496   -3.9911683    158.78175  0.072702267  0.077787865            1 
  183000    1.2178669   -3.9616099    160.06209  0.072888017   0.07779167            1 
  184000    1.2230127   -3.9365409    160.20911  0.072558472  0.077794928            3 
  185000    1.2097402   -3.9516395     160.9088  0.072481441  0.077790352            2 
  186000    1.2075131    -3.928994    162.30465  0.072717138  0.077783989            5 
  187000    1.2199866   -3.9534688    163.10148  0.072683371  0.077777719            2 
  188000    1.2302497   -3.9398384     164.0378  0.072711793  0.077771804            3 
  189000    1.2015206   -3.9345266    165.09579  0.072793557  0.077768033            2 
  190000    1.2089588   -3.9499103     165.8796  0.072754212  0.077764361            2 
  191000    1.2427243   -3.9571984    166.39974  0.072600234   0.07775631            2 
  192000    1.2414908   -3.9471876     167.4332   0.07267066  0.077744913            2 
  193000    1.2247675   -3.9765192    167.58953  0.072361629  0.077731591            2 
  194000    1.2335091   -4.0279376    168.66114  0.072448944  0.077721984            2 
  195000     1.248403   -3.9714401    170.83978  0.073008454  0.077714316            3 
  196000    1.2062662    -3.962195    171.51792  0.072924284  0.077713651            2 
  197000    1.2099497   -3.9439968    172.79566  0.073094612  0.077714109            4 
  198000    1.2168831   -3.9849908    173.69478  0.073103864  0.077712395            2 
  199000    1.2341082   -3.9559712     173.9355  0.072837312  0.077715557            2 
  200000    1.2344065   -3.9671686    175.63534  0.073181391  0.077719264            2 
  201000    1.2137103   -3.9785968    177.15254  0.073446327  0.077724892            3 
  202000    1.2168831   -3.9430459    177.85365  0.073371968   0.07773666            1 
  203000    1.2318701   -3.9610059    179.15776  0.073545879  0.077748443            1 
  204000    1.2189197   -3.9612604     181.0173  0.073944974  0.077759756            2 
  205000    1.2365383   -3.9483569    182.07557  0.074014458  0.077774953            1 
  206000    1.2189939   -3.9809981    181.96059  0.073608651    0.0777911            5 
  207000    1.2103368   -3.9710255     182.6179  0.073517674  0.077804555            2 
  208000    1.2256948    -3.942927    182.69009  0.073193145  0.077805613            1 
  209000    1.2108679   -3.9370203    183.62727  0.073216614  0.077801178            1 
  210000    1.2329326   -3.9688026    183.99706  0.073014704  0.077801673            3 
  211000    1.2390138   -3.9351715    185.27179  0.073172112  0.077798519            2 
  212000    1.2026457   -3.9692181    185.90133  0.073074424   0.07779491            1 
  213000    1.1958475   -3.9309094    186.88852  0.073117573  0.077786864            2 
  214000    1.2141129   -3.9965989    187.38938  0.072970943  0.077776142            2 
  215000    1.2078991   -3.9641725     189.6195  0.073495931  0.077776472            1 
  216000    1.2227104   -3.9387598    190.63129  0.073546021  0.077775155            1 
  217000    1.1889392    -3.954769    192.49306  0.073922067  0.077782968            1 
  218000    1.2113983    -3.978104    192.57354  0.073613739  0.077785569            2 
  219000    1.2311357   -3.9273755    194.49283  0.074007926  0.077787923            1 
  220000    1.2348337   -3.9417118    194.79963  0.073787737   0.07779268            1 
  221000    1.2040671    -3.967545    194.25564  0.073248732  0.077789617            1 
  222000    1.2101625   -3.9742006    195.51667  0.073392143   0.07778488            1 
  223000    1.2304615   -3.9497495    196.19705  0.073317284  0.077776857            5 
  224000    1.2175681   -3.9854737    196.14737  0.072971493  0.077763679            1 
  225000    1.2511569   -3.9628612    197.74811  0.073240039  0.077747097            1 
  226000    1.2398333   -3.9750892    197.48496  0.072818937  0.077733034            3 
  227000    1.2319147   -4.0068383    198.81901  0.072987889  0.077716969            1 
  228000    1.2012425   -3.9551651    200.61062  0.073322596  0.077704102            1 
  229000    1.2034749   -3.9404725    200.95811  0.073128861  0.077692777            1 
  230000    1.2130644   -3.9816477    201.19944  0.072898349  0.077672848            3 
  231000    1.2102681   -4.0009659    201.37043  0.072644454  0.077651513            2 
  232000    1.2157266   -3.9465488    202.96297  0.072903365  0.077625043            3 
  233000    1.2063963   -3.9645372    204.18745  0.073028414  0.077599909            2 
  234000    1.1926572   -3.9502179    204.51227  0.072832006  0.077576653            3 
  235000    1.2321914   -3.9761219    205.74766  0.072960163  0.077554459            1 
  236000    1.2509488   -3.9726438    205.97663  0.072731862  0.077530379            3 
  237000    1.2281719   -3.9504429    206.53326  0.072620697  0.077504701            3 
  238000    1.2233648    -3.959166     209.0021  0.073180008  0.077482648            1 
  239000    1.2004147    -3.941732    209.63103  0.073093108  0.077459311            2 
  240000     1.209071   -3.9906632    210.33469  0.073032879  0.077442126            1 
  241000    1.2219554   -3.9747177    211.52979  0.073143082  0.077432024            2 
  242000    1.2042431   -3.9541788    212.14524  0.073052769  0.077414469            4 
  243000    1.2279585    -3.984861    213.17288  0.073104554  0.077397376            3 
  244000    1.2009567   -3.9608262    214.66806  0.073315593  0.077383639            1 
  245000    1.1986394   -3.9759068    215.51227  0.073303494  0.077371256            3 
  246000    1.2189216   -3.9918251    216.62283  0.073381716  0.077359451            2 
  247000    1.2294052   -3.9943053    217.94164  0.073529567  0.077348519            1 
  248000    1.2106302   -3.9977493    218.88774  0.073550987   0.07734229            1 
  249000    1.1880108   -3.9699595    220.10388  0.073662611  0.077339681            1 
  250000    1.2139449   -3.9904777     221.0529    0.0736843  0.077337415            2 
  251000    1.2046682   -3.9095975    222.63083  0.073914618  0.077335007            2 
  252000    1.2220987   -3.9733169     222.9711   0.07373383  0.077332873            3 
  253000    1.1955852    -3.967468    223.62139  0.073656584  0.077330577            2 
  254000    1.1905616   -3.9816802    224.40876  0.073624921  0.077329318            2 
  255000    1.2041116   -3.9515313    225.28522   0.07362262  0.077324758            2 
  256000    1.2137709   -3.9801802    226.41782  0.073703718  0.077321956            2 
  257000    1.2123246   -3.9765883    227.27142  0.073693715  0.077324053            2 
  258000    1.2093172    -3.966406    229.27639   0.07405568  0.077325485            2 
  259000    1.2026257   -3.9705369    230.48247  0.074157809  0.077326842            3 
  260000    1.2162805    -3.988293    231.63631  0.074242408   0.07733275            2 
  261000    1.2231651   -3.9878092    231.85372  0.074027368  0.077334673            1 
  262000    1.2057725   -3.9637849     233.0748  0.074133206  0.077335915            3 
  263000    1.2024686   -3.9686914    233.99426  0.074142669  0.077339901            2 
  264000    1.2072018   -3.9725958    234.32402  0.073965916  0.077345613            4 
  265000    1.1775931   -3.9410972     235.0145   0.07390393  0.077349184            2 
  266000    1.2065603   -3.9641782    235.45329   0.07376356   0.07735338            2 
  267000    1.1782959   -3.9860511    237.73875  0.074200608  0.077351906            1 
  268000    1.2126753   -4.0024727    237.07174  0.073716337  0.077351203            7 
  269000    1.2200603   -3.9962992    237.26917  0.073503462   0.07734414            4 
  270000    1.1902907   -3.9981525    239.04049  0.073777928  0.077339196            2 
  271000    1.1975861    -3.999725    239.97357   0.07379261  0.077333697            1 
  272000    1.2116918   -3.9880216    240.30048   0.07362147  0.077329678            2 
  273000    1.2097337   -3.9990775    241.30534  0.073658528  0.077325878            2 
  274000    1.2048934   -3.9887803    242.92033  0.073880877   0.07732279            3 
  275000    1.2122991   -4.0014822     244.8429  0.074194819  0.077324367            1 
  276000    1.2108325   -3.9512133    245.73395  0.074195033  0.077327355            1 
  277000    1.1945902   -3.9710533    246.62481  0.074195189  0.077333252            2 
  278000    1.2087507   -4.0017928    247.36395  0.074149866  0.077339785            6 
  279000    1.2056402   -3.9675305    248.73962  0.074294987   0.07734229            2 
  280000    1.2199886   -3.9815234    248.37573  0.073921349  0.077342701            1 
  281000    1.2317833    -3.992717     249.9937  0.074138108  0.077341558            3 
  282000    1.1865626   -3.9948301    250.97213  0.074164341  0.077341206            3 
  283000    1.2061164   -4.0013682    251.94058   0.07418745  0.077341889            1 
  284000    1.2224794    -3.967815    252.27207  0.074023494  0.077342938            2 
  285000    1.2147396   -3.9805693    252.35955  0.073789341  0.077341225            5 
  286000     1.201403   -3.9241783    256.23623  0.074660906  0.077337301            2 
  287000    1.2043908    -3.968138    254.70644  0.073956574   0.07733423            1 
  288000    1.1966209   -3.9577116    255.63051  0.073967163  0.077329274            3 
  289000    1.1904324   -4.0030085    256.16555  0.073865499  0.077325123            1 
  290000    1.2033208   -3.9488294    259.02275  0.074431824  0.077326704            1 
  291000    1.2255506   -3.9908658    259.28967  0.074252484  0.077324609            2 
  292000    1.2025433    -3.975471    260.20233  0.074258654  0.077327135            1 
  293000    1.2142986   -3.9729541     263.0991  0.074829095  0.077327221            3 
  294000    1.2118073   -3.9947543     261.4885  0.074118055  0.077325212            4 
  295000    1.1937616   -3.9630569    262.56885  0.074171992  0.077323487            1 
  296000    1.2259673   -3.9790124    263.82658  0.074275501  0.077320751            4 
  297000    1.2331707   -3.9910924    264.68507  0.074266293  0.077317242            2 
  298000    1.2028359   -3.9858647    264.36195  0.073926719  0.077311003            1 
  299000    1.2140628   -3.9786891    265.71208  0.074055763  0.077302913            4 
  300000    1.2015592   -3.9549668    266.87683  0.074132452  0.077295135            4 
  301000    1.1898294   -4.0106165    267.18468  0.073971395  0.077286347            1 
  302000    1.2200852   -3.9695827    269.58017  0.074387463  0.077281774            3 
  303000    1.2331142   -3.9808032    269.98717  0.074253897  0.077278774            2 
  304000    1.1901921   -3.9908364    270.78256  0.074227677  0.077277903            8 
  305000    1.2093064   -3.9923613    272.49233  0.074451456  0.077275844            2 
  306000    1.2042429   -3.9825889    270.73219  0.073728811  0.077271968            1 
  307000    1.2198875   -3.9939622    273.92448   0.07435518  0.077265395            2 
  308000    1.2099101   -4.0073888    273.09861  0.073890316  0.077258885            1 
  309000    1.1976657   -3.9585646    276.11644  0.074465058  0.077254111            2 
  310000     1.183189   -4.0142353    275.15972  0.073967667  0.077247042            5 
  311000    1.1667258   -4.0004772    277.09221  0.074247645  0.077238773            1 
  312000    1.2044576   -3.9610805    279.45929  0.074641903  0.077234373            2 
  313000    1.1986332   -4.0108428    278.26494  0.074085448  0.077230673            2 
  314000    1.1972074   -4.0155603    280.21244  0.074366359  0.077225025            3 
  315000    1.1801126   -3.9756098    281.33406  0.074427001  0.077224325            1 
  316000    1.2058303   -3.9478699    282.10268  0.074394167  0.077224921            2 
  317000    1.1901923   -3.9856787    283.53445  0.074535871   0.07722499            1 
  318000    1.1996618   -3.9885089    284.30776  0.074504131  0.077224291            2 
  319000    1.2044123   -3.9868559    284.55957  0.074336356  0.077222035            4 
  320000    1.2168755    -3.991474    284.31751  0.074041018  0.077222578            1 
  321000     1.221376   -3.9698194     287.5339  0.074645354  0.077221617            3 
  322000    1.1817383   -4.0107594    288.21586  0.074590026  0.077220756            2 
  323000    1.1780716   -4.0024625    288.13485  0.074338196  0.077220212            3 
  324000    1.1787693   -3.9885803    289.34238  0.074419336  0.077216809            2 
  325000    1.2034144   -3.9849487     291.6097  0.074771718  0.077213963            2 
  326000    1.2070835   -3.9965519    290.72404   0.07431596  0.077214452            7 
  327000    1.2230189   -3.9739217    290.83848  0.074117858  0.077212977            2 
  328000    1.2056068   -3.9970867    291.43702  0.074043959  0.077210231            4 
  329000    1.1816774   -4.0484053    293.46231  0.074331893  0.077207867            2 
  330000    1.1811841   -4.0149183    294.93673  0.074478971  0.077203628            2 
  331000    1.2162199   -4.0107606    295.67674  0.074440267  0.077200517            2 
  332000    1.2069708    -4.002639    296.06164  0.074312661  0.077199954            1 
  333000    1.1965448   -3.9880161    296.99856  0.074323964  0.077198445            4 
  334000     1.203813   -3.9881804    298.15855  0.074390855  0.077197227            1 
  335000    1.1950912   -3.9850346    299.77198  0.074570145  0.077198038            1 
  336000    1.1895709   -4.0143735    301.86225  0.074866629  0.077202603            1 
  337000    1.1955589   -4.0218702     301.1246  0.074462066  0.077203656            2 
  338000    1.1994758   -3.9964016    303.02029  0.074709145  0.077206688            2 
  339000    1.2077068   -3.9741421    303.27837  0.074552204  0.077206932            2 
  340000    1.1875702   -3.9832358    303.63202  0.074419612  0.077205096            4 
  341000    1.1959406   -3.9997176    304.45447  0.074402362  0.077201222            2 
  342000    1.2349648   -3.9716695    306.17386  0.074603767  0.077197286            3 
  343000    1.2016421   -4.0057142    306.32137  0.074422102  0.077190285            2 
  344000    1.1726675   -3.9985903    307.30781  0.074444722  0.077185174            2 
  345000    1.2208652   -4.0386077    307.96413  0.074387471  0.077180779            2 
  346000    1.1852734   -4.0236395    309.84034  0.074624359  0.077174745            1 
  347000    1.2235708   -4.0112018    309.76947  0.074392284   0.07717127            2 
  348000    1.2155339   -3.9734633    309.87642  0.074204123  0.077166127            1 
  349000    1.1909031   -3.9820216    311.80664  0.074452398  0.077159228            1 
  350000    1.2035497   -3.9960725     311.5866  0.074187285  0.077152123            1 
  351000     1.195826   -4.0263424    311.91875  0.074054784  0.077144832            2 
  352000    1.1770062   -4.0107297    312.79206  0.074051151  0.077137664            2 
  353000    1.2032889   -3.9987043    313.38757  0.073981956  0.077128783            2 
  354000    1.1754631   -4.0034607    315.26475  0.074214865  0.077119656            1 
  355000    1.1825933   -4.0002394    315.44957  0.074049194  0.077109891            3 
  356000    1.2030755   -4.0272049    315.43723  0.073838302  0.077097605            5 
  357000    1.2194539    -4.007582     318.8467  0.074427334  0.077088483            1 
  358000    1.2033071   -4.0019121    320.45616  0.074594079  0.077080388            5 
  359000    1.2131334   -3.9947883    318.76226  0.073993097  0.077071695            2 
  360000    1.2069481   -4.0195046    320.86063  0.074273294  0.077063489            1 
  361000    1.1800413   -3.9577373    322.35266  0.074411971  0.077054157            1 
  362000    1.1802434   -4.0373403    320.82758  0.073855335  0.077046604            3 
  363000    1.1805364   -4.0402165    322.15665  0.073956989  0.077035653            2 
  364000     1.204848   -3.9978549    323.89648  0.074152125   0.07702441            2 
  365000    1.2168498   -4.0037662     324.9463  0.074188653  0.077011809            2 
  366000      1.17323   -3.9843443    325.17024   0.07403694  0.077000287            2 
  367000    1.2096217   -4.0088688    324.04682  0.073580113  0.076989406            4 
  368000    1.1920072   -4.0081492    326.62513  0.073964025  0.076975751            2 
  369000    1.1969364   -4.0218383    326.19217  0.073665803  0.076961234            2 
  370000    1.1896464   -4.0312777    326.32276  0.073496116  0.076945748            2 
  371000    1.2039398   -4.0088458    330.03466  0.074131775   0.07693183            4 
  372000    1.2188034   -3.9793053    330.09328  0.073945627  0.076918032            3 
  373000    1.1799907   -4.0200359    331.22382  0.073999959   0.07690538            2 
  374000    1.2108857   -3.9686479    332.66967  0.074124258  0.076893892            1 
  375000     1.216825   -4.0184898    332.55202   0.07390045   0.07688263            4 
  376000    1.1798272   -3.9756779    333.63699  0.073944369  0.076872235            1 
  377000    1.1910923   -4.0149798    334.97234  0.074043399  0.076863037            2 
  378000    1.1799444   -4.0212693    336.66734  0.074221196  0.076854851            1 
  379000    1.1795012   -4.0324017    337.60648  0.074231857  0.076845913            3 
  380000    1.1964006   -4.0213851    339.27707  0.074402866  0.076840431            2 
  381000    1.1845591   -4.0370816    338.79993  0.074103222  0.076834799            3 
  382000     1.175865   -4.0252682    341.13871   0.07441944  0.076830173            1 
  383000    1.2020522   -4.0043455    342.44612  0.074509599  0.076826005            2 
  384000    1.1914737   -4.0503492    342.33461  0.074291364  0.076822216            5 
  385000    1.1864947   -3.9958266    346.20082  0.074935243  0.076818854            2 
  386000    1.2067646   -3.9960728    344.87133  0.074454086  0.076815891            3 
  387000    1.2084022   -3.9791399    344.62188  0.074207984  0.076808155            4 
  388000    1.1882786   -4.0105872    344.87019  0.074070058  0.076801116            3 
  389000    1.1860079   -4.0070334    345.44872  0.074003581  0.076790671            1 
  390000    1.1837451   -3.9882457    346.18459  0.073971066  0.076779448            2 
  391000    1.2061885   -4.0157572    349.81058  0.074554685  0.076769392            2 
  392000    1.1810628     -4.00943    348.30545  0.074044526  0.076761595            2 
  393000    1.1987664    -3.997712    351.01529  0.074430724  0.076754859            1 
  394000    1.1904992   -4.0658028    350.26912  0.074083994  0.076745735            3 
  395000    1.1679596   -4.0406174    350.71304  0.073990093  0.076738097            1 
  396000    1.1753435   -3.9902688    352.71891  0.074225359  0.076730238            1 
  397000    1.1615199   -3.9780745    353.54942  0.074212725  0.076725479            4 
  398000    1.1925872   -3.9906288    355.93752   0.07452628  0.076721649            2 
  399000    1.1871204   -3.9951987    354.10653  0.073957087  0.076715873            2 
  400000    1.1892126   -4.0542467    354.59819  0.073874623  0.076707175            2 
  401000    1.1882966   -3.9898932    356.85105  0.074158571  0.076697495            2 
  402000     1.180215   -4.0165996    359.01259  0.074422179  0.076689127            3 
  403000    1.1909339   -4.0019601    358.61121   0.07415451  0.076680803            3 
  404000    1.1864274   -4.0355209    358.38866  0.073925054  0.076671706            3 
  405000    1.1998153   -4.0412458    360.42669  0.074161871  0.076663415            2 
  406000    1.1939881   -4.0421693    359.88984  0.073869015  0.076655142            5 
  407000     1.187447   -4.0058739    359.54532  0.073616978  0.076644459            2 
  408000    1.1927967   -3.9744337     362.3043   0.07400006  0.076634999            2 
  409000    1.1888743   -3.9611404    364.15795  0.074196811  0.076623438            2 
  410000    1.1878909   -4.0067416     360.3625  0.073244411  0.076609538            3 
  411000    1.2002528   -3.9960674    362.78041  0.073556449  0.076595727            1 
  412000    1.1821146   -4.0365953    364.79545  0.073785487     0.076582            4 
  413000     1.184407   -4.0483968    366.52388  0.073955586  0.076567631            2 
  414000    1.1690403   -4.0281064     366.0699  0.073685567  0.076551241            2 
  415000     1.171532   -4.0132281    367.18424  0.073731775  0.076535885            1 
  416000    1.1550861   -4.0120258    366.80186  0.073477937  0.076521758            1 
  417000    1.1950005   -4.0327236    369.64443   0.07386979  0.076508306            1 
  418000    1.2081367   -3.9946421    370.55365  0.073874333  0.076495976            6 
  419000    1.1686363   -4.0227147    371.30306  0.073847069  0.076485415            2 
  420000    1.1911605   -4.0321686    372.25902  0.073860917  0.076475033            1 
  421000    1.1807758   -4.0390022    373.41247  0.073913791  0.076463165            4 
  422000    1.1870244   -4.0338603    373.82579  0.073820259   0.07645224            2 
  423000    1.1838983   -4.0068611    376.52715  0.074177926  0.076442311            4 
  424000    1.1692593   -4.0250851     375.6597  0.073832488  0.076431342            1 
  425000    1.1887375   -4.0244716    376.50175  0.073823873  0.076419908            4 
  426000    1.1686176   -4.0638968    375.77916  0.073509225  0.076408823            2 
  427000    1.1989952   -3.9969833    378.72262  0.073911518  0.076396869            2 
  428000    1.1837701   -4.0318034    379.19884  0.073831549  0.076384661            2 
  429000    1.1723794   -4.0056388    380.03686  0.073822235  0.076371913            2 
  430000    1.2093524   -4.0217709    381.66079   0.07396527  0.076360269            2 
  431000    1.1674115   -4.0104313     381.8895  0.073837878  0.076348639            1 
  432000    1.1822362   -4.0394927    381.57064  0.073605447  0.076335206            2 
  433000    1.1905527   -4.0158657    383.33157   0.07377436  0.076321075            2 
  434000    1.1799943   -3.9843861    382.46413  0.073437814   0.07630748            2 
  435000    1.1828336   -4.0000629    384.77948  0.073712544  0.076293721            4 
  436000    1.1831585   -4.0155857    384.37313  0.073465813  0.076282047            3 
  437000    1.1860109   -4.0102696    386.72494  0.073746174  0.076268896            1 
  438000    1.1896276   -4.0339919    388.53379  0.073921954  0.076253583            2 
  439000    1.1826934   -4.0346054    389.15025  0.073870586  0.076239244            1 
  440000    1.1767629   -4.0334691    386.58073  0.073216048  0.076224163            2 
  441000    1.2030753    -4.034738    389.79621  0.073657636  0.076209087            2 
  442000    1.2097239   -3.9828369    391.33826  0.073781723  0.076196621            1 
  443000    1.1647324   -4.0313124    389.76054  0.073318387  0.076182523            3 
  444000    1.1756027   -4.0593018    389.49166  0.073102788   0.07616596            2 
  445000    1.1932353   -4.0140469    390.85544  0.073193902  0.076150909            2 
  446000    1.1792026   -3.9731615    393.90525  0.073599635  0.076135973            4 
  447000    1.1727448    -4.019186    393.38942  0.073338818  0.076120669            1 
  448000     1.206089   -4.0141238    395.16541   0.07350547  0.076103206            2 
  449000    1.1693292   -4.0359033    396.42459  0.073575461   0.07608658            3 
  450000    1.1620814   -4.0037101    396.52951  0.073431391  0.076069976            3 
  451000    1.1862914   -4.0054961    398.17193   0.07357205  0.076055165            2 
  452000    1.1900951   -3.9994028    399.68822  0.073688831  0.076042095            1 
  453000     1.192117   -3.9996134    399.72265  0.073532497   0.07603072            3 
  454000    1.1842975   -4.0025147     403.2046  0.074009656  0.076018675            2 
  455000    1.1630625   -3.9678681    401.79721  0.073589232  0.076006977            2 
  456000    1.1667732   -3.9987697    402.62183  0.073578551   0.07599702            1 
  457000    1.1867325   -4.0400434    402.43927  0.073384258  0.075984987            1 
  458000    1.1910797   -4.0348941    403.11821  0.073347563  0.075972946            4 
  459000    1.1812014   -4.0130608    404.30942  0.073404035  0.075961017            1 
  460000    1.1588969    -4.033744    405.57616  0.073473942  0.075947954            2 
  461000    1.2016525   -4.0244906    407.35602  0.073636302  0.075935543            3 
  462000    1.1631247   -4.0423771    407.78191  0.073553736  0.075923457            3 
  463000     1.175931   -4.0500306    406.49571  0.073163375  0.075909712            4 
  464000    1.1743313   -4.0316037    409.43172  0.073532995  0.075895922            3 
  465000    1.1925532   -4.0322929    410.06097  0.073487628  0.075881659            3 
  466000    1.1778878   -4.0226369    410.21365  0.073357233  0.075865593            3 
  467000    1.1847588   -4.0070842    410.67293  0.073282108  0.075850176            2 
  468000     1.169939   -4.0283054    410.38269   0.07307384  0.075833862            1 
  469000    1.2021308   -4.0206342    413.31092  0.073438329  0.075818831            5 
  470000    1.1766865   -4.0588744    411.40464  0.072944085  0.075803341            4 
  471000    1.1588218   -4.0295974    414.85249  0.073399237  0.075789025            6 
  472000    1.1987263   -4.0240524    414.99191  0.073268346  0.075775144            3 
  473000    1.1553475   -4.0751949    416.05198  0.073300208  0.075760658            3 
  474000    1.1731795   -4.0099451    418.31319  0.073543106  0.075748953            1 
  475000    1.1793393   -4.0440903    416.48145   0.07306692  0.075735148            2 
  476000    1.1809338   -3.9888445     420.2318  0.073569993  0.075722036            2 
  477000    1.1571798   -4.0564568    417.08005  0.072865138  0.075706264            1 
  478000    1.1695748   -4.0218664    419.19425  0.073081285  0.075691035            2 
  479000     1.167237   -3.9926364    421.63101  0.073352645  0.075675758            3 
  480000    1.1612248   -4.0472328    419.71098  0.072866489   0.07565947            1 
  481000    1.1740532   -4.0371156     421.7687    0.0730715  0.075642973            3 
  482000    1.1520271   -4.0161855    422.20612  0.072995526  0.075625488            2 
  483000     1.182488   -4.0291336    420.86374  0.072612791  0.075605765            3 
  484000    1.1652072   -4.0203529    423.46824  0.072911199  0.075587655            1 
  485000    1.1579908   -4.0236073    422.10548  0.072526715   0.07556835            2 
  486000    1.1848749   -4.0392315    424.30753  0.072755063  0.075547589            2 
  487000    1.1754795   -4.0125187    427.46408  0.073145805  0.075528442            4 
  488000    1.1739768   -4.0387161    423.42885  0.072306838  0.075509678            2 
  489000    1.1998331   -4.0354155    425.43275  0.072500469  0.075489156            2 
  490000    1.1330927   -4.0674471    428.40668  0.072858278  0.075469512            1 
  491000    1.1985861   -4.0189637    427.60536   0.07257389  0.075450921            3 
  492000    1.1888316   -4.0543685    428.52711  0.072582505  0.075431958            6 
  493000     1.187245   -4.0330966    429.62624  0.072621068   0.07541239            2 
  494000    1.1989953   -4.0329071    431.16194  0.072733121  0.075393538            1 
  495000    1.1722364   -4.0620877    429.82294  0.072360764  0.075372902            3 
  496000    1.1582529   -4.0225725    432.07574  0.072593371  0.075351543            4 
  497000    1.1848694   -4.0183017    431.90038  0.072417904  0.075331818            3 
  498000    1.1560897   -4.0043124    432.46509  0.072366983  0.075309028            2 
  499000    1.1649322   -4.0547675    432.43367  0.072216711  0.075285573            1 
  500000    1.1644434   -4.0495848    433.13817  0.072189695   0.07526293            2 
  501000    1.1873894   -4.0073824     436.3586  0.072581272  0.075241105            1 
  502000    1.1639388   -4.0640625    434.13439  0.072067462  0.075219916            2 
  503000    1.1696863   -4.0499638    435.28766  0.072115251   0.07519665            1 
  504000    1.1633946   -4.0373944    436.69709  0.072205207  0.075172565            2 
  505000    1.1696883   -4.0670613    435.67904   0.07189423  0.075149319            2 
  506000    1.2119767   -3.9893815    438.95489  0.072291649  0.075125135            2 
  507000    1.1577233     -4.01129    439.98977   0.07231916  0.075101421            3 
  508000    1.1581534   -4.0262398    440.09459  0.072193994  0.075076465            2 
  509000    1.1902182   -4.0272989     440.8781  0.072180435  0.075052146            4 
  510000    1.1589591   -4.0154826    442.02818  0.072226827  0.075028987           10 
  511000     1.149591   -4.0201139     441.1406  0.071940738  0.075006527            2 
  512000    1.1425801   -4.0462547    444.48219  0.072344107  0.074983957            2 
  513000    1.1745811   -4.0232721    444.32853  0.072178123  0.074962291            3 
  514000    1.2003813   -4.0192845    444.61783  0.072084603  0.074940349            3 
  515000    1.1711984   -4.0563313    443.02991  0.071687687  0.074916571            3 
  516000     1.167221   -4.0238492    444.99768   0.07186655  0.074893969            2 
  517000    1.1654743   -4.0088842    448.40997  0.072277558  0.074871159            3 
  518000    1.1507185    -4.026401    447.20383  0.071943987  0.074849011            1 
  519000    1.1269724   -4.0704861    448.08453  0.071946778  0.074825181            4 
  520000     1.165252   -4.0127472    448.67748  0.071903442  0.074803443            3 
  521000    1.1976652     -4.02959    450.91828  0.072123845  0.074781153            1 
  522000     1.169783   -4.0289657    450.25475  0.071879749  0.074759187            2 
  523000    1.1441621   -4.0323819     453.3894  0.072241778  0.074738129            2 
  524000    1.1620063    -4.036311    453.93915  0.072191341  0.074717409            2 
  525000    1.1382955   -4.0367415     454.4395  0.072133254  0.074697317            3 
  526000    1.1721559   -4.0570526    453.91273  0.071912663  0.074676163            3 
  527000    1.1856361   -4.0371271    457.96775  0.072417417  0.074654801            2 
  528000    1.1518018   -4.0498603    456.08157  0.071982571  0.074635185            2 
  529000    1.1659816   -4.0713562    456.93733  0.071981306  0.074615217            2 
  530000    1.1705024   -4.0278094    455.92974  0.071687066   0.07459367            1 
  531000    1.1629951   -4.0528037    458.97562  0.072030072  0.074572474            2 
  532000    1.1626234   -4.0382531    459.30422  0.071946149  0.074551719            6 
  533000    1.1783872   -4.1016271    457.56828  0.071539756  0.074531591            2 
  534000    1.1702283   -4.0515806    461.51233  0.072021276  0.074510607            3 
  535000    1.1683044   -4.0221296    462.86616  0.072097533  0.074491414            1 
  536000    1.1306938   -4.0386609    464.31677  0.072188552  0.074471292            1 
  537000    1.1725685   -4.0382495    462.12461  0.071713936  0.074452895            4 
  538000    1.1441176   -4.0954619    462.70032  0.071669814  0.074431369            3 
  539000    1.1678623   -4.0427048    464.38876  0.071797891  0.074409752            1 
  540000    1.1671338   -4.0654425    464.13476  0.071625735  0.074388655            2 
  541000    1.1481883   -4.0556852    464.25733   0.07151222  0.074365664            2 
  542000    1.1875123   -4.0598088    465.88689  0.071630825  0.074343001            4 
  543000    1.1507364   -4.0495317    466.61125  0.071610075  0.074319536            5 
  544000    1.1799159   -4.0355193    466.89538  0.071521965  0.074297341            2 
  545000    1.1460297   -4.0740664       466.79  0.071374618  0.074275241            1 
  546000    1.1425602    -4.060882    469.57002  0.071668195  0.074252613            4 
  547000    1.1792175   -4.0233641    469.38155  0.071508463  0.074229236            4 
  548000    1.1816911   -4.0647528    469.39721  0.071380354  0.074207032            1 
  549000    1.1493114   -4.0244607    472.17372  0.071671785  0.074182973            1 
  550000    1.1827051   -4.0462651    470.34967  0.071265102  0.074158977            1 
  551000    1.1309763   -4.0316838    474.63987  0.071784614  0.074135151            1 
  552000    1.1705762   -4.0805063    469.69356  0.070907844  0.074111177            3 
  553000    1.1831377    -4.053629    472.61518  0.071219888  0.074087784            2 
  554000     1.173995   -4.0500466    475.37424  0.071506353  0.074063437            2 
  555000    1.1559892   -4.0325465    474.96154  0.071315547  0.074039855            1 
  556000    1.1399925   -4.0572427    474.30728   0.07108922    0.0740161            1 
  557000     1.140098    -4.043955    475.89294  0.071198824  0.073991838            3 
  558000    1.1491687   -4.0674837    476.18913  0.071115462  0.073966862            6 
  559000    1.1839821   -4.0238229    478.40768  0.071318974  0.073942299            2 
  560000    1.1405619   -4.0619594    478.35229  0.071183377  0.073917565            2 
  561000    1.1582566   -4.0424013    479.22263  0.071185774   0.07389219            1 
  562000    1.1562725   -4.0437559     477.8056  0.070848992  0.073866161            1 
  563000    1.1668618   -4.0506925    478.59868  0.070840539  0.073840112            3 
  564000    1.1574658   -4.0065386    480.39975   0.07098105  0.073814568            2 
  565000    1.1992223   -4.0505268    482.16319  0.071115514  0.073789216            2 
  566000    1.1590159   -4.0858965    481.02874  0.070822842  0.073764351            3 
  567000     1.159817   -4.0365729    480.60223  0.070635249  0.073736691            3 
  568000    1.1866168   -4.0513048    483.14167   0.07088346  0.073712317            1 
  569000    1.1694964    -4.077061    483.57576  0.070822461  0.073687708            2 
  570000    1.1584484   -4.0228739    488.67012  0.071443001  0.073663635            2 
  571000    1.1590169    -4.078889    485.87871  0.070910494  0.073639199            3 
  572000    1.1645733   -4.0652981    488.34194  0.071145387  0.073615295            1 
  573000    1.1541417   -4.0476312    487.84627  0.070949137  0.073591614            2 
  574000     1.164864   -4.0307154    488.19084  0.070875558  0.073568459            2 
  575000    1.1587253   -4.1070751    488.76838  0.070835997  0.073542839            3 
  576000    1.1659421   -4.0487781    488.54886  0.070681259  0.073517427            5 
  577000    1.1964102   -4.0670545    488.64007  0.070571934  0.073492272            4 
  578000    1.1562455   -4.0669094    491.19961   0.07081886  0.073467759            4 
  579000    1.1542716   -4.0365913    492.06759  0.070821473  0.073443917            1 
  580000    1.1377164   -4.0532269    494.21752  0.071008265  0.073420232            3 
  581000    1.1461309   -4.0581485    496.35584  0.071192748  0.073397442            4 
  582000     1.148396   -4.0558486    493.55019  0.070668699  0.073374474            1 
  583000    1.1671333   -4.0499354    492.93043  0.070458895  0.073351271            2 
  584000     1.157313   -4.0376716    496.51438  0.070849654  0.073328321            3 
  585000    1.1390459   -4.0804597     494.2431     0.070405   0.07330444            2 
  586000    1.1539242   -4.0082907    496.95739  0.070670846  0.073280967            7 
  587000     1.139801   -4.0898269    496.59771   0.07049939  0.073256527            2 
  588000    1.1571387    -4.049673    500.26464  0.070899183  0.073232807            2 
  589000    1.1524059   -4.0819757    498.44518   0.07052139  0.073209716            3 
  590000    1.1654662   -4.0529334     499.1695  0.070504166  0.073184825            2 
  591000    1.1510564   -4.0819845    500.89193  0.070627739  0.073161301            4 
  592000    1.1466265   -4.0693339    500.17899  0.070408078  0.073137229            2 
  593000    1.1585705   -4.0462638    504.55917  0.070904887  0.073115265            5 
  594000    1.1658321   -4.0595941     503.5307  0.070641232  0.073093441            1 
  595000    1.1776896   -4.0690989    504.36616  0.070639518  0.073072639            2 
  596000    1.1317623   -4.0557042    505.40291  0.070665954  0.073050958            2 
  597000    1.1524287   -4.0147207    506.87509  0.070753083  0.073028697            2 
  598000    1.1795988   -4.0893015    506.60527  0.070597167  0.073007995            3 
  599000    1.1717456    -4.105244    507.24138  0.070567805  0.072985421            2 
  600000    1.1597871   -4.0118673     510.6058  0.070917472  0.072963319            2 
  601000    1.1608356   -4.0842967    510.28026  0.070754335  0.072940654            4 
  602000    1.1476198   -4.0647909     509.7435    0.0705625  0.072918714            2 
  603000    1.1473785   -4.0704132    510.55042  0.070556996  0.072895724            3 
  604000    1.1572319   -4.0486369    511.53538  0.070576073  0.072874596            2 
  605000    1.1657756   -4.0953967    510.58747  0.070328853  0.072851914            3 
  606000    1.1465438   -4.0779964     513.2239  0.070575344  0.072830795            2 
  607000    1.1686152   -4.0794027    514.47329    0.0706306  0.072809489            2 
  608000    1.1602661   -4.0799277    513.65631  0.070402454  0.072788251            2 
  609000    1.1402172   -4.0564965    514.76178   0.07043812   0.07276528            1 
  610000    1.1601454   -4.0271718    515.06277  0.070363767  0.072742897            2 
  611000    1.1512336   -4.0706239    516.10225  0.070390378  0.072721059            2 
  612000    1.1768348   -4.0730817    515.66611  0.070215973   0.07269779            4 
  613000    1.1432567   -4.0604558    517.96389  0.070413797  0.072675884            1 
  614000    1.1505422   -4.0541229    518.59335  0.070384548  0.072653899            3 
  615000    1.1605508   -4.0950246    516.37065  0.069968923   0.07263172            4 
  616000    1.1370218   -4.0656403    518.59863   0.07015674  0.072608942            2 
  617000    1.1684958   -4.0379907    520.79635  0.070339864  0.072585931            2 
  618000    1.1552481    -4.029703    518.78381  0.069954667  0.072562495            4 
  619000    1.1423985    -4.063761    521.37631  0.070190671  0.072538785            2 
  620000    1.1502588   -4.0561195    520.36251  0.069941198  0.072515345            2 
  621000    1.1462347   -4.0486558    523.24039   0.07021476  0.072491475            2 
  622000     1.161148   -4.0853358    522.81952  0.070045488  0.072467275            4 
  623000     1.192288   -4.0500475    523.28779  0.069995692  0.072443714            4 
  624000    1.1705553   -4.0960781    521.44295  0.069637146  0.072419228            3 
  625000     1.137687   -4.1017612    523.19633  0.069759511  0.072393862            2 
  626000    1.1572005   -4.0680276    524.66036  0.069842966     0.072369            2 
  627000    1.1415702   -4.0349034    525.98705  0.069907902  0.072345013            1 
  628000     1.146152   -4.0559539    527.78164  0.070034719  0.072320939            3 
  629000    1.1539775   -4.0698758    529.29684  0.070124118  0.072298329            1 
  630000    1.1542996   -4.0482985    530.30646  0.070146357  0.072276528            3 
  631000    1.1396545   -4.0893429    528.80334  0.069836679  0.072254291            3 
  632000    1.1853794   -4.0571207    530.93528  0.070007289  0.072233491            4 
  633000     1.136816   -4.0552126    533.51546  0.070236369  0.072211592            1 
  634000    1.1590642   -4.0568217    532.70723  0.070019351  0.072189359            2 
  635000    1.1479256   -4.0520291    535.30531  0.070250041   0.07216751            3 
  636000    1.1573958   -4.0662753    533.47218  0.069899394   0.07214555            1 
  637000    1.1374717   -4.0909137     535.2034  0.070016143  0.072123002            3 
  638000    1.1356569     -4.08264    534.86531   0.06986224   0.07210124            2 
  639000    1.1630728   -4.0765799    536.71083  0.069993588  0.072079056            2 
  640000    1.1499028   -4.0758551    535.88658  0.069776898  0.072057315            3 
  641000    1.1299866   -4.0514588    539.60245  0.070151124  0.072035981            1 
  642000     1.112145   -4.0650665     539.4432  0.070021184  0.072015284            1 
  643000    1.1419604   -4.0234699    540.45945  0.070043993  0.071994409            1 
  644000    1.1304241   -4.0553333    539.30018  0.069785219   0.07197321            2 
  645000    1.1231911   -4.0639392    540.28993    0.0698049  0.071950213            2 
  646000    1.1517045   -4.0815493    540.25615  0.069692485  0.071927232            5 
  647000    1.1574127   -4.0514957    541.77189  0.069779996  0.071903739            7 
  648000     1.138265   -4.0739146    539.98166  0.069442086  0.071880406            4 
  649000    1.1406461   -4.0647307    541.30089   0.06950448  0.071856299            4 
  650000    1.1623106   -4.0392387     543.3644  0.069662103  0.071832932            2 
  651000    1.1583244    -4.105636    539.54542  0.069066234   0.07180952            8 
  652000    1.1418965   -4.0536015    543.59841  0.069478325  0.071784384            3 
  653000    1.1337486    -4.048991    544.16266  0.069443933   0.07175906            5 
  654000    1.1398025   -4.0841947     543.1546  0.069209301  0.071734023            3 
  655000    1.1363427   -4.0903894    542.35732  0.069002203  0.071707133            1 
  656000    1.1514556   -4.0905163    542.68461  0.068938594  0.071682336            2 
  657000    1.1140468   -4.0428737    548.81184  0.069610837  0.071657562            1 
  658000    1.1483004    -4.017677    549.80997  0.069631455  0.071632945            2 
  659000    1.1602677   -4.0735554    546.11799  0.069058927  0.071607762            4 
  660000    1.1375609   -4.0859828     545.3596  0.068858536  0.071582454            2 
  661000    1.1350648   -4.0776899    546.79573  0.068935417  0.071557056            2 
  662000    1.1571816   -4.0778781    546.45631  0.068788559  0.071530916            3 
  663000    1.1736531   -4.0774185    547.78443  0.068851739  0.071504316            2 
  664000    1.1448498   -4.0582487    551.48153  0.069212039  0.071478944            2 
  665000    1.1407994   -4.0596205    549.40543  0.068847798  0.071453963            2 
  666000    1.1553379   -4.0662095     552.3378  0.069111337  0.071428187            2 
  667000    1.1214381   -4.0932666    552.11675  0.068980104  0.071402569            5 
  668000    1.1548031   -4.0635852    554.64793  0.069192605  0.071377639            4 
  669000    1.1492021   -4.0610568     554.7862  0.069106403   0.07135213            4 
  670000    1.1289208   -4.0690892    554.12148  0.068920583  0.071326386            6 
  671000    1.1666331   -4.0824555    554.45132  0.068858833  0.071300806            2 
  672000    1.1366888   -4.0791087    554.02958  0.068704064  0.071275571            2 
  673000    1.1573789   -4.0767464    556.15349  0.068864969  0.071250485            3 
  674000    1.1495117   -4.0327068    557.40437  0.068917454  0.071225111            3 
  675000    1.1515741   -4.0736096    558.12748  0.068904627  0.071200372            1 
  676000    1.1214789   -4.0366912    561.09446  0.069168449  0.071175421            4 
  677000    1.1706508    -4.061956    559.12713  0.068824118  0.071152018            2 
  678000    1.1547972   -4.0792695    559.13085  0.068723064  0.071127796            1 
  679000    1.1439774   -4.0814366    561.24507  0.068881329  0.071103726            3 
  680000    1.1234418   -4.0574259    563.70783  0.069081842  0.071079141            2 
  681000    1.1540988   -4.1171935    562.24838  0.068801809  0.071053555            3 
  682000    1.1352817   -4.1140521    561.95426  0.068664987   0.07102894            1 
  683000    1.1445589   -4.0743002    564.34876  0.068856608  0.071004535            3 
  684000    1.1414109   -4.0645782     562.6878  0.068553582  0.070978727            1 
  685000    1.1185541   -4.1001962    564.40622  0.068662558  0.070953322            2 
  686000     1.157207   -4.0911328    564.47689   0.06857105  0.070928786            3 
  687000    1.1279888    -4.093931    566.60209  0.068729026  0.070904151            4 
  688000    1.1276145   -4.1141472    565.96335  0.068551763  0.070879264            2 
  689000    1.1308234    -4.069366    565.93287  0.068448581  0.070854814            5 
  690000    1.1440391   -4.0921465    566.90977  0.068467363   0.07083069            2 
  691000    1.1388967   -4.0646518    568.00554  0.068500427  0.070805969            1 
  692000    1.1477509   -4.0595858    570.23398  0.068669795   0.07078263            9 
  693000    1.1729269    -4.077694    569.27568  0.068455469  0.070757927            2 
  694000    1.1463272   -4.0493852    571.46654  0.068619901   0.07073494            3 
  695000     1.143871    -4.111846     571.7869   0.06855958  0.070711342            4 
  696000    1.1397867   -4.1010359    574.46941  0.068782257  0.070688769            3 
  697000      1.17232   -4.0722151    574.50998  0.068688424  0.070665853            1 
  698000    1.1503146   -4.0888202    574.39766  0.068576607  0.070642528            6 
  699000    1.1268503   -4.0822685    574.85913  0.068533516  0.070619986            5 
  700000    1.1258925   -4.0808921    575.33227  0.068491937  0.070597417            3 
  701000    1.1242392    -4.061443    575.26778  0.068386565  0.070574211            2 
  702000    1.1686838   -4.1242871    577.47469  0.068551127   0.07055244            3 
  703000    1.1549225    -4.063976    577.61977  0.068470812  0.070529623            1 
  704000    1.1243425   -4.0780836    580.15522  0.068673676  0.070507937            2 
  705000    1.1225634   -4.0619101    577.98888  0.068320199  0.070485303            2 
  706000    1.1768583   -4.1020052    581.34164  0.068619173  0.070462509            2 
  707000    1.1566127   -4.0834098    580.37877  0.068408624  0.070439162            3 
  708000    1.1529897   -4.0780495    582.65665  0.068580114  0.070416363            1 
  709000    1.1414468   -4.0657356    582.31227  0.068442909  0.070393691            2 
  710000    1.1487939   -4.1055656    581.33467  0.068231768  0.070370863            3 
  711000    1.1462514   -4.1078697    582.00657  0.068214554  0.070347898            4 
  712000    1.1462403   -4.0846623    583.46775  0.068289764  0.070325048            2 
  713000    1.1698213   -4.0549782    584.72915  0.068341415  0.070301724            3 
  714000    1.1540509   -4.1130667    582.23071  0.067954098  0.070277865            2 
  715000    1.1446387   -4.0736159    588.33264  0.068570238  0.070254919            2 
  716000    1.1155225    -4.094823    588.08364  0.068445489  0.070232258            2 
  717000    1.1299194   -4.0673243     588.4898  0.068397234   0.07021041            2 
  718000     1.143504   -4.0500923    589.52139  0.068421703  0.070187933            2 
  719000    1.1367865   -4.0903627    590.13046  0.068397133  0.070165861            2 
  720000    1.1582763   -4.0641143    589.43988  0.068222208  0.070143673            5 
  721000    1.1404852   -4.1120913    592.06419  0.068430904  0.070122306            4 
  722000    1.1528799   -4.1104678    590.72983  0.068182113  0.070101019            3 
  723000    1.1468583   -4.1306005    590.06183  0.068010815  0.070079137            4 
  724000    1.1479797   -4.0936707    595.44357  0.068536323  0.070058722            5 
  725000    1.1281828   -4.0654269    597.26289  0.068650907  0.070038308            5 
  726000    1.1356632    -4.070027    595.46114  0.068349534  0.070019884            2 
  727000    1.1615727   -4.1082364    597.19844  0.068454658  0.070000464            1 
  728000    1.1327596    -4.087337    597.71686   0.06841997  0.069981151            2 
  729000    1.1553803   -4.1183971    597.29759  0.068278188  0.069961819            8 
  730000    1.1352484   -4.0810866    602.44437  0.068772188   0.06994301            7 
  731000      1.14785   -4.0598113    603.29821  0.068775446  0.069924265            2 
  732000    1.1473292   -4.0748625    601.14914  0.068436833   0.06990522            4 
  733000    1.1143107   -4.0707632    601.93214  0.068432485   0.06988574            2 
  734000     1.125924   -4.0856722    600.91127  0.068223351  0.069866085            3 
  735000    1.1400862   -4.1267845    600.23859  0.068054262  0.069847293            4 
  736000    1.1386524   -4.1042891    605.38273   0.06854424  0.069829239            2 
  737000    1.1251908   -4.0965637    605.32454  0.068444656  0.069810943            2 
  738000    1.1298406   -4.1121535    606.85098  0.068524275  0.069793966            2 
  739000     1.106517   -4.1057539    606.68936  0.068413324  0.069776661            9 
  740000    1.1105872   -4.1282854    606.47375  0.068296593  0.069759215            2 
  741000    1.1526971   -4.0712578    609.18237  0.068509039  0.069742538            2 
  742000    1.1533268   -4.0764312    609.81277  0.068487508  0.069726614            2 
  743000    1.1207646   -4.0992049    608.56248  0.068255101  0.069709868            1 
  744000    1.1474237   -4.1028434    610.41191  0.068370509  0.069693249            2 
  745000      1.15033   -4.0728998    614.59884  0.068747074   0.06967608            3 
  746000     1.120092   -4.1109749    611.53526  0.068312696  0.069659454            3 
  747000    1.1402211   -4.0687415    614.67262  0.068571243  0.069642503            4 
  748000    1.1423698   -4.0904027    612.98822  0.068291914  0.069625036            2 
  749000    1.1396372   -4.0584481    615.40521  0.068469649  0.069608703            2 
  750000     1.114556   -4.0739192    616.74677  0.068527419  0.069591834            3 
  751000     1.133259   -4.0359177    614.66566  0.068205244  0.069574996            4 
  752000    1.0972384    -4.099543    617.69094  0.068449794  0.069558643            4 
  753000    1.1420349   -4.0708273    621.12604  0.068739048  0.069543189            1 
  754000    1.1420634   -4.1057154    619.98847  0.068522157  0.069527716            3 
  755000    1.1289805   -4.0997767    622.01534  0.068655114  0.069512113       -1e+20 
  756000    1.1172954   -4.1211823     619.8419  0.068324724  0.069495797            1 
  757000    1.1604585   -4.0604897    623.14703  0.068598308  0.069480148            2 
  758000    1.1446743   -4.1036177    621.58843  0.068336459  0.069464052            3 
  759000    1.1165111   -4.0992516    625.23205   0.06864647  0.069447882            3 
  760000    1.1060536   -4.0899036     627.2781  0.068780493  0.069432561            3 
  761000    1.1167067   -4.1438083    627.76034   0.06874292  0.069417867            2 
  762000     1.110189   -4.1189113    625.58384  0.068414681  0.069402951            2 
  763000    1.1322666   -4.0801263    628.78346  0.068674471  0.069388435            3 
  764000    1.1479165   -4.0992518    629.13817  0.068623274  0.069375193            3 
  765000    1.1315031   -4.1047455    630.34828  0.068665389  0.069360526            2 
  766000    1.1227881   -4.1005201    630.12498  0.068551456  0.069345595            3 
  767000    1.1133775   -4.0890622    632.52715  0.068723071  0.069330995            1 
  768000    1.1532208   -4.1258018    629.56738  0.068312433   0.06931662            3 
  769000    1.0908285   -4.0948308    630.81987  0.068359327  0.069303081            3 
  770000    1.1182848   -4.1179131    630.72955  0.068260774  0.069288189            2 
  771000    1.1153223   -4.0943914    632.12429  0.068322988  0.069274262            4 
  772000     1.121373   -4.1017761     633.8755  0.068423521   0.06926096            2 
  773000    1.1207674   -4.0895098    634.65871  0.068419438  0.069247332            6 
  774000     1.137482   -4.1029462    633.36866  0.068192146  0.069233173            2 
  775000    1.1307643   -4.0883445     637.9461  0.068596355  0.069219196            1 
  776000    1.0986935   -4.0993548     635.3718  0.068231508  0.069205185            1 
  777000    1.1395581   -4.1177921     634.3523  0.068034352  0.069191099            4 
  778000    1.1325594   -4.0841956    639.50571  0.068498898  0.069177562            2 
  779000    1.1364054   -4.0797332    641.21828  0.068594168  0.069164665            2 
  780000     1.105156   -4.1141704    640.65354  0.068445891  0.069151305            2 
  781000    1.1351098    -4.099678    640.72956  0.068366363  0.069137967            2 
  782000    1.1171829   -4.1201865    640.48458  0.068252833  0.069123697            4 
  783000     1.104414   -4.1289469    640.61144  0.068179166  0.069109851            2 
  784000    1.1373183   -4.0842736    643.82669  0.068433959  0.069096156            7 
  785000      1.12535   -4.0975481    646.56666  0.068637649  0.069082325            8 
  786000    1.1503239   -4.1088156    644.65778  0.068347941  0.069067778            2 
  787000    1.1371643   -4.1028193    642.37155  0.068019012  0.069054028            2 
  788000    1.1111868   -4.0632341    647.39359  0.068463789  0.069040458            1 
  789000    1.1399566    -4.072283    646.88629  0.068323436  0.069025435            2 
  790000     1.113953    -4.100964    648.19675  0.068375185  0.069011132            1 
  791000    1.1172824   -4.1234395     645.9381   0.06805079  0.068996843            2 
  792000    1.1195829   -4.0918991    649.54462  0.068344341   0.06898344            5 
  793000    1.1197299   -4.0987706     649.6911   0.06827355  0.068969512            2 
  794000    1.1399603   -4.0759153    652.70256  0.068503627  0.068956104            2 
  795000    1.1160042   -4.1245592    650.63098  0.068200312  0.068943213            2 
  796000    1.1193431   -4.1126278    652.43104  0.068303082   0.06892989            3 
  797000    1.1180521   -4.1170533     653.8821  0.068369103  0.068917053            1 
  798000    1.1507838   -4.1311714    651.48633  0.068033243  0.068904427            2 
  799000    1.1344923    -4.102863     657.4188  0.068566833  0.068892401            3 
  800000    1.1258137   -4.1025282    658.83587  0.068628736  0.068880806            2 
  801000    1.1448567   -4.1102999    658.81181  0.068540554  0.068869195            3 
  802000    1.1320247   -4.0798673    655.38251  0.068098765  0.068857141            1 
  803000    1.1144231   -4.1429988    657.44248  0.068227737  0.068845005            1 
  804000    1.1153775   -4.1471887    658.91977  0.068295996  0.068833217            3 
  805000    1.1194372    -4.072889    660.17073  0.068340655  0.068821409            3 
  806000    1.1434925   -4.1139694    660.61422  0.068301718  0.068810211            3 
  807000    1.1158853   -4.1160426    659.86176  0.068139381  0.068797979            1 
  808000    1.0904406   -4.1139094      661.259  0.068199155  0.068785824            6 
  809000     1.115878   -4.1350534    660.35106  0.068021329  0.068772606            7 
  810000    1.1372951   -4.1251878    660.99414  0.068003512  0.068759796            3 
  811000    1.1369466   -4.1078908    664.65583  0.068295913   0.06874744            2 
  812000    1.0882998   -4.1458251     661.0495  0.067841697  0.068734565            3 
  813000    1.1279902   -4.1114404    664.00508  0.068061201  0.068721252            2 
  814000    1.1176958   -4.1268982    666.26674  0.068209125  0.068708353            8 
  815000    1.1700715   -4.1059098    664.11042  0.067904951  0.068695805            2 
  816000    1.0999119   -4.1010021    664.10689  0.067821374  0.068683157            5 
  817000    1.1429631   -4.1015465    666.45648  0.067978017  0.068670819            2 
  818000      1.10796   -4.1046585    669.35386  0.068190084  0.068658082            2 
  819000    1.1047502   -4.1089793    671.81192  0.068356931  0.068644719            1 
  820000    1.1385692   -4.1225251    671.41058  0.068232782  0.068632105            1 
  821000    1.1377797   -4.0938536    671.88788   0.06819812  0.068619373            2 
  822000    1.1105439   -4.0966621    671.83095  0.068109382  0.068607273            2 
  823000     1.110463   -4.1344597    671.47825  0.067990912  0.068594781            2 
  824000    1.1022338   -4.1609123    674.18991  0.068182636  0.068582407            2 
  825000     1.132276   -4.0952558    674.25388  0.068106452  0.068570542            2 
  826000    1.1307667   -4.0960696    674.19461  0.068018019  0.068557664            1 
  827000    1.1242887   -4.0870968    674.99521  0.068016446  0.068544474            5 
  828000    1.1252729   -4.1017166    676.06445  0.068041913  0.068532475            8 
  829000    1.1485148    -4.112779    679.16302  0.068271313  0.068519263            2 
  830000    1.1016082   -4.1072992    674.22997  0.067693772  0.068506043            4 
  831000     1.086244   -4.1443651     675.2923  0.067718843  0.068492889            2 
  832000    1.1118111   -4.1249288    673.67204  0.067475165  0.068479234            4 
  833000    1.1215424   -4.1126738    676.12097  0.067639153  0.068465257            3 
  834000    1.1093002   -4.1227445    676.47661  0.067593586  0.068451751            2 
  835000    1.1040844   -4.1156855    679.93392  0.067857676  0.068437404            3 
  836000    1.1310768   -4.1288162    679.54462  0.067737701  0.068423988            3 
  837000    1.1270726   -4.1477705    679.33036   0.06763544  0.068410517            2 
  838000    1.1032415   -4.1069986    681.75793  0.067796134  0.068397672            2 
  839000    1.1250427   -4.1335353    681.80737  0.067720239  0.068383905            4 
  840000    1.1105386   -4.0903392    683.23215  0.067780968  0.068369954            3 
  841000    1.1062757   -4.1133477    681.50185  0.067528919  0.068356738            2 
  842000    1.1356352   -4.0867954    683.25221  0.067621953  0.068343183            2 
  843000    1.1217543   -4.1546023    683.18897  0.067535486  0.068328974            2 
  844000    1.1140582   -4.0887531    690.18402  0.068146132  0.068315623            2 
  845000    1.1265571   -4.0749448    687.56284  0.067806986  0.068301881            1 
  846000    1.1399037   -4.1147094    687.04543   0.06767587  0.068288508            1 
  847000    1.1295866   -4.1391913    687.23432  0.067614554  0.068275038            2 
  848000    1.1075898   -4.1212023    687.04141  0.067515861  0.068261816            2 
  849000    1.1151765   -4.1489773    691.26971  0.067851366  0.068248521            4 
  850000    1.1270982   -4.1686476    689.12085  0.067560867  0.068234999            1 
  851000    1.1198431    -4.139142    688.62015  0.067432447  0.068221941            4 
  852000    1.1203502    -4.122215    692.76531  0.067758735  0.068208652            1 
  853000    1.1086502   -4.1068375     692.6491  0.067667947  0.068195896            6 
  854000    1.0998296   -4.0993857    690.71629  0.067400107  0.068182422            2 
  855000    1.1072815   -4.1226016    694.50931  0.067690966  0.068169506            3 
  856000    1.1109758   -4.1383951    697.71716  0.067924179  0.068157137            1 
  857000    1.1275797   -4.1089536    694.77578  0.067558905  0.068144023            2 
  858000    1.0949776   -4.1360048    693.93761  0.067398757  0.068131105            5 
  859000    1.1104964   -4.1154581    697.88101  0.067702853  0.068119026            3 
  860000    1.1096387   -4.1446604    696.24276  0.067465384     0.068107            3 
  861000    1.1167073   -4.1280078     698.5489  0.067610231  0.068094956            2 
  862000    1.1169324   -4.1175387    699.20482  0.067595207  0.068082233            5 
  863000    1.1005907   -4.1581878    698.16694  0.067416661  0.068068972            3 
  864000    1.1008416    -4.118181     701.2562  0.067636593  0.068056313            2 
  865000    1.0988062   -4.1556179     698.1652  0.067260616  0.068043333            3 
  866000    1.1078473   -4.1299301    701.68245  0.067521406  0.068030624            4 
  867000    1.1108662   -4.0997936    702.69591  0.067540937  0.068018848            6 
  868000    1.1014323   -4.1506173    702.48741  0.067443108  0.068006608            5 
  869000    1.1073942   -4.1107708    704.26312   0.06753578  0.067993902            1 
  870000    1.1157279    -4.131138     702.5746  0.067296418  0.067981078            3 
  871000    1.0956453   -4.1676836     703.5497  0.067312447  0.067968209            2 
  872000    1.1095909   -4.1311893    706.09697  0.067478686   0.06795552            3 
  873000    1.1402942   -4.0967651    707.09114  0.067496291  0.067943091            4 
  874000    1.1108773   -4.1182018    706.62397   0.06737452  0.067931115            2 
  875000    1.0963391   -4.1363107     708.4838  0.067474647  0.067918979            1 
  876000    1.1008773   -4.0785203    714.23738  0.067944956   0.06790633            2 
  877000    1.0971505   -4.1153651    708.81605  0.067352343  0.067894949            2 
  878000    1.1149365   -4.0923776    714.00333   0.06776797  0.067882617            2 
  879000    1.1014848   -4.1400272    711.23354  0.067428284  0.067870377            3 
  880000    1.1135533   -4.1045901    712.93153  0.067512456   0.06785736            2 
  881000     1.103979   -4.1203052    711.69074  0.067318458  0.067845128            1 
  882000    1.0944207    -4.125659     711.6947  0.067242508   0.06783205            3 
  883000    1.1146339   -4.1294671    714.29838  0.067412078  0.067819165            3 
  884000    1.0969777   -4.1344142    714.42132  0.067347409  0.067806092            3 
  885000    1.1083885   -4.1161005    714.28095  0.067258093  0.067792959            2 
  886000    1.1152936   -4.1162617     715.4877  0.067295683  0.067779787            1 
  887000    1.1083677   -4.1113039    717.24739  0.067385136  0.067765968            2 
  888000    1.1135223   -4.0929217    719.26326  0.067498429  0.067753551            4 
  889000    1.1123939   -4.1631896    715.07136  0.067029562  0.067740078            1 
  890000    1.1240185   -4.1187805    719.19317  0.067340184  0.067727255            1 
  891000    1.0984789   -4.1150546    720.07527  0.067347107  0.067715095            2 
  892000    1.1013448   -4.0855516      716.403  0.066928531  0.067702666            3 
  893000    1.1029412    -4.150963    718.17349  0.067018803  0.067689942            1 
  894000    1.1104986   -4.1559522    719.91202  0.067105893  0.067676774            4 
  895000    1.1339306   -4.1338806    722.11959  0.067236461  0.067663754            2 
  896000    1.1501484   -4.1187938    718.96461  0.066867989  0.067650505            2 
  897000    1.1136553   -4.1414304    720.96389   0.06697918  0.067636573            3 
  898000    1.1187245   -4.1311923    719.79539  0.066796157  0.067623459            7 
  899000    1.1046854   -4.1223892    722.06625  0.066932355  0.067610631            2 
  900000    1.1319922   -4.1727706    722.75007  0.066921303  0.067596884            2 
  901000    1.1090514   -4.1481161    721.33736  0.066716367  0.067582937            2 
  902000    1.1278885   -4.1512147    725.47127  0.067024323  0.067569135            3 
  903000    1.1085582   -4.1265356    723.48618  0.066766905  0.067555083            3 
  904000    1.0807211   -4.1364725    725.82503   0.06690865  0.067540859            2 
  905000    1.1036199    -4.131634    725.42435  0.066797822  0.067526613            2 
  906000    1.1331857     -4.11722    723.73247  0.066568476  0.067513018            1 
  907000    1.1229688   -4.1386898    728.39349  0.066923327  0.067498395            2 
  908000    1.1104284   -4.1477598    725.80855  0.066612385  0.067484293            1 
  909000    1.1187985    -4.168634    726.98593  0.066647042  0.067469699            2 
  910000    1.1032359   -4.1307691     729.2457  0.066780741  0.067455587            4 
  911000    1.1078504   -4.1384558    727.32051   0.06653133  0.067441119            2 
  912000    1.1061728   -4.1613552     729.0036  0.066612171  0.067427053            1 
  913000    1.1108661   -4.1516119    727.06835  0.066362573  0.067412562            2 
  914000    1.1033547   -4.1602713    730.07691   0.06656427  0.067397981            3 
  915000    1.1155442   -4.1485515    730.53968  0.066533668  0.067383999            1 
  916000    1.1038109   -4.1082834    735.10346  0.066876225  0.067370475            2 
  917000    1.1211029   -4.1260125    735.90191  0.066875855  0.067357155            2 
  918000    1.1329862   -4.1350478    735.35554  0.066753408  0.067344029            3 
  919000    1.1207875   -4.2032284    731.09499  0.066294432   0.06733013            2 
  920000    1.1125801   -4.1766578    734.94409  0.066571022  0.067316642            6 
  921000    1.0963236   -4.1383442    739.00919  0.066866557   0.06730352            4 
  922000    1.1011193   -4.1416445    741.70832   0.06703799  0.067290743            1 
  923000    1.1045926   -4.1581559    740.26277  0.066834847  0.067277762            2 
  924000    1.1058004   -4.1279495    740.23555   0.06676006  0.067264721            3 
  925000    1.1386988   -4.1289004    743.80535  0.067009491  0.067252825            2 
  926000    1.1091133   -4.1117353    741.13679  0.066696976  0.067240915            2 
  927000    1.1059198   -4.1620452    742.16549  0.066717502  0.067227952            7 
  928000    1.0794088   -4.1353983    746.69562  0.067052409  0.067215103            2 
  929000    1.0884244    -4.171719    743.82263  0.066722518  0.067202905            1 
  930000    1.0651194   -4.1592124     740.5532  0.066357813   0.06719032            1 
  931000    1.1219267   -4.1456722    744.41728   0.06663241  0.067177691            3 
  932000    1.1045781   -4.1146625    749.81971  0.067043965    0.0671659            2 
  933000    1.1069879   -4.1498764    746.70074  0.066693528  0.067153609            3 
  934000    1.1053322   -4.1544049    746.39102  0.066594487  0.067141829            4 
  935000    1.0844311   -4.1732295     748.5299  0.066713895  0.067129224            6 
  936000    1.0798229   -4.1292556    749.24985  0.066706717  0.067116847            1 
  937000    1.0851807   -4.1270854    748.63257  0.066580627  0.067104827            2 
  938000    1.1078789   -4.1607135    748.87139  0.066530863   0.06709226            3 
  939000    1.0875856   -4.1274478    753.18434  0.066842771  0.067080505            1 
  940000    1.1034224   -4.1468811     753.2362  0.066776258  0.067068202            3 
  941000    1.1168086   -4.1414314    751.07648  0.066514035  0.067056354            2 
  942000    1.1026028   -4.1206296    751.54181   0.06648459  0.067044061            3 
  943000    1.1075309   -4.1390211     750.3093  0.066305169  0.067031396            3 
  944000    1.1000489   -4.1234795    753.81484  0.066544389  0.067019188            2 
  945000    1.0958221   -4.1388357    752.59685  0.066366565  0.067006241            2 
  946000    1.0938073   -4.1478598    758.61627  0.066826662  0.066993465            3 
  947000    1.0990713   -4.1288075    757.96731  0.066698989  0.066981139            2 
  948000    1.1014456   -4.1704643    754.35284  0.066310904  0.066968381            3 
  949000    1.1059332   -4.1656078    756.08902  0.066393486  0.066955472            4 
  950000    1.1003371   -4.1206147    756.31719  0.066343614  0.066942087            3 
  951000    1.1295548   -4.1514417    756.18773  0.066262507  0.066929352            2 
  952000    1.1174105   -4.1529699    756.88168  0.066253649  0.066916119            2 
  953000    1.1005005   -4.1197739    760.79047  0.066525924  0.066903199            2 
  954000    1.1245933   -4.1332502    759.25278  0.066321871  0.066890044            2 
  955000    1.0840902   -4.1335538    761.83984  0.066478171  0.066877316            4 
  956000    1.0920517   -4.1265207    761.59353  0.066387163  0.066864292            2 
  957000    1.0648311   -4.1239305    760.00467  0.066179438  0.066851015            2 
  958000    1.0947989   -4.1654352    762.23672  0.066304516   0.06683774            3 
  959000    1.1017408    -4.152702    762.12712  0.066225853   0.06682407            2 
  960000    1.1060592   -4.1685297     761.7128  0.066120903  0.066810179            3 
  961000    1.0932532   -4.1539093    762.51406   0.06612158  0.066796014            4 
  962000    1.1008511   -4.1279209    763.78809   0.06616321  0.066782304            4 
  963000     1.097234   -4.1502756     765.7867  0.066267454  0.066767695            2 
  964000    1.1021405   -4.1413072    762.04964   0.06587566  0.066753389            2 
  965000    1.0887421   -4.1527897    764.93755  0.066056783  0.066738727            3 
  966000    1.0857297   -4.1445998    767.93381  0.066246878  0.066723781            5 
  967000    1.0885548   -4.1748431    765.14009  0.065937615  0.066709203            3 
  968000    1.0912458   -4.1643076     764.1121     0.065781  0.066694296            3 
  969000    1.1179625   -4.1519998    768.25577  0.066069468  0.066679863            2 
  970000    1.0769359   -4.1453431    770.27068  0.066174457   0.06666575            1 
  971000    1.0836654   -4.1284438    768.34584  0.065941112  0.066651824            4 
  972000    1.0582185   -4.1114533    769.07724  0.065935977  0.066637828            3 
  973000     1.063155   -4.1466524     771.4617   0.06607243  0.066623621            4 
  974000    1.0933804   -4.1513782    770.68868  0.065938457   0.06660997            3 
  975000    1.0985977   -4.1560148     771.4272  0.065933949  0.066595117            3 
  976000    1.0997557   -4.1586658    773.50256  0.066043593  0.066580973            3 
  977000    1.0704597   -4.1744701    770.83371  0.065748355  0.066566704            2 
  978000    1.0902164   -4.1580506    770.60427  0.065661577  0.066552304            1 
  979000    1.0702462   -4.1599384    772.55645  0.065760678  0.066538151            4 
  980000    1.0853799   -4.1428919    772.86583  0.065719884  0.066523518            1 
  981000    1.1000073   -4.1341078    773.83318  0.065735064  0.066509406            5 
  982000    1.1024748   -4.1527576    774.13243  0.065693519  0.066494515            3 
  983000    1.0942479   -4.1347702    774.69123  0.065674061  0.066479772            3 
  984000    1.1168457   -4.1632909    774.50885  0.065591875  0.066465484            1 
  985000    1.1073069    -4.134396    781.25323  0.066095874  0.066451582            2 
  986000    1.0974073   -4.1698774    778.68916  0.065812133  0.066437525            2 
  987000    1.0966136   -4.1523354     777.8601  0.065675456  0.066422988            3 
  988000    1.1058878   -4.1516614    777.99456  0.065620324  0.066408793            4 
  989000    1.0991592   -4.1537576    779.96157  0.065719714  0.066394774            3 
  990000    1.0917107   -4.1238887    784.66748  0.066049451  0.066380903            2 
  991000    1.0728102   -4.1636461    782.76756  0.065823037  0.066367104            2 
  992000    1.0801852   -4.1614316    781.96707  0.065689438  0.066352998            4 
  993000    1.0914334   -4.1972504    779.19291  0.065390476  0.066339358            4 
  994000    1.0854749   -4.1713756    781.66722  0.065532128  0.066324716            4 
  995000    1.0994331   -4.1424352    786.55899  0.065875962  0.066310982            8 
  996000    1.0749905   -4.1403374    785.99145  0.065762337  0.066297586            3 
  997000     1.062777   -4.1366915    788.34429  0.065893036  0.066283935            5 
  998000    1.0749288   -4.1597563    785.32049  0.065574523  0.066269786            3 
  999000    1.0979173   -4.1595458    785.57016   0.06552971  0.066255168            2 
 1000000    1.0858987   -4.1448435    787.71758  0.065643132  0.066241444            2 
 1001000    1.0628077   -4.1218416    787.75237   0.06558045   0.06622732            3 
 1002000     1.076165   -4.1590151    788.83374  0.065604935  0.066213207            4 
 1003000    1.0950193   -4.1721821    785.29407  0.065245436  0.066198868            2 
 1004000    1.0943475   -4.1582386    787.58914  0.065370944  0.066183935            3 
 1005000    1.1209551   -4.1685554    788.44624  0.065376968  0.066169043            3 
 1006000    1.0906358   -4.1519484    788.84135  0.065344711  0.066154196            2 
 1007000    1.0719323   -4.1665775    788.14601  0.065222278  0.066139374            1 
 1008000    1.0939795   -4.1574039    791.79446  0.065459198   0.06612456            1 
 1009000    1.1223052   -4.1729318    791.33622  0.065356476  0.066110322            2 
 1010000    1.0740151   -4.1631758    792.52509  0.065389859  0.066095398            5 
 1011000    1.0980339   -4.1336268    793.61794  0.065415261  0.066080993            3 
 1012000    1.0849692   -4.1246218    795.77797  0.065528489  0.066067142            2 
 1013000    1.0959796   -4.1597736    794.61018  0.065367734  0.066053215            3 
 1014000    1.0717877   -4.1326028    794.76955  0.065316367  0.066039058            5 
 1015000    1.0779575   -4.1823203    795.49145  0.065311285  0.066024856            3 
 1016000    1.0799818   -4.1558157    798.11978   0.06546258  0.066010581            2 
 1017000    1.0917862   -4.1811927    794.96385  0.065139614  0.065996337            6 
 1018000    1.0916156   -4.1841249    794.97919  0.065076882  0.065981915            3 
 1019000    1.0941244   -4.1455257    800.25149  0.065444185  0.065967535            1 
 1020000    1.0833232   -4.1669453    794.98064  0.064949399  0.065952984            1 
 1021000    1.0821031   -4.1424954    800.18383  0.065310466  0.065938216            2 
 1022000    1.0904286   -4.1535556     800.9768   0.06531122  0.065923198            4 
 1023000    1.0878597   -4.1705631      800.999  0.065249185  0.065908054            1 
 1024000    1.1016532   -4.1969128    799.37666  0.065053439  0.065892886            5 
 1025000     1.079244     -4.20248    799.43238  0.064994502  0.065877195            3 
 1026000    1.0749662   -4.1764383    799.78325  0.064959653  0.065861733            2 
 1027000    1.0875165   -4.2058749    798.78391  0.064815312  0.065846098            1 
 1028000    1.0714014   -4.1824772    797.78592  0.064671362  0.065830093            2 
 1029000    1.0978183   -4.1877519    803.60982  0.065080161  0.065814845            2 
 1030000    1.0848645   -4.1540346    801.14695  0.064817714  0.065799024            2 
 1031000    1.0750067   -4.1695492    802.61486  0.064873493  0.065783575            2 
 1032000    1.0786231   -4.1518162    806.34573  0.065111896  0.065768149            4 
 1033000    1.0694166   -4.1868227    804.93604  0.064935144  0.065752856            4 
 1034000    1.0760689   -4.1667629    804.15576  0.064809459  0.065737154            2 
 1035000    1.0795748   -4.1672685    803.66717  0.064707501  0.065720899            2 
 1036000    1.0998003   -4.1886241    805.83596  0.064819494  0.065705108            6 
 1037000    1.0925819   -4.1830761    807.18348  0.064865275  0.065688915            7 
 1038000    1.0972758    -4.169327    808.68489  0.064923321  0.065673385            1 
 1039000    1.0875479   -4.1672237    809.59292  0.064933664  0.065658154            3 
 1040000     1.095065   -4.1720439    807.00468  0.064663836  0.065642692            4 
 1041000    1.0814536   -4.1705322    810.20022  0.064857527  0.065627547            2 
 1042000    1.0728802   -4.1676245    814.05588  0.065103638  0.065612739            3 
 1043000     1.069256   -4.1564141    809.31847  0.064662709  0.065597556            4 
 1044000     1.077262    -4.156935    815.48577  0.065093053  0.065583359            2 
 1045000    1.1152654   -4.1947406    812.78948  0.064815748   0.06556864            1 
 1046000     1.070796   -4.1845527    812.30273  0.064715004  0.065553573            3 
 1047000    1.0678818   -4.2061905    811.11471  0.064558637  0.065538743            3 
 1048000    1.0886635    -4.181724    814.11135  0.064735317  0.065523821            5 
 1049000     1.097979   -4.1685491    819.31802  0.065087227  0.065509924            2 
 1050000      1.08102     -4.19473    815.62551  0.064732183  0.065496273            6 
 1051000    1.1032698    -4.193386    818.46444   0.06489569  0.065482826            3 
 1052000    1.0900353   -4.1911017    821.40102  0.065066621  0.065469349            4 
 1053000    1.0894455   -4.1754918     819.7386  0.064873267  0.065455678            3 
 1054000    1.0818821   -4.1734519    822.23637    0.0650092  0.065442483            2 
 1055000    1.0810341   -4.2062571    819.20821  0.064708389  0.065429265            4 
 1056000    1.0842335   -4.1674458    824.53581  0.065067535  0.065416007            3 
 1057000    1.0841258   -4.1474478    825.51804  0.065083415  0.065403086            3 
 1058000     1.089663   -4.1983622    822.03447  0.064747517  0.065390459            4 
 1059000    1.0733305   -4.1495905    828.39569  0.065186944  0.065377158            3 
 1060000    1.1156538   -4.1621093    826.45297  0.064972717    0.0653638            2 
 1061000    1.0516263   -4.1868289    823.56706  0.064684815  0.065350792            3 
 1062000    1.0827192   -4.1925753    825.48694  0.064774556  0.065337564            3 
 1063000    1.0621799   -4.1745032    825.42468   0.06470874  0.065324342            1 
 1064000    1.0919683   -4.1643656    827.73971  0.064829238  0.065311384            3 
 1065000    1.0885723    -4.173521    830.42141  0.064978201  0.065298642            2 
 1066000    1.0581851   -4.1628868    830.13128  0.064894565  0.065285722            2 
 1067000    1.0774346   -4.1915744     832.5794  0.065024945  0.065273292            3 
 1068000    1.0680031   -4.1552236     834.0933  0.065082186  0.065260381            1 
 1069000     1.066569   -4.1593657    833.92913  0.065008507  0.065248152            1 
 1070000    1.1001198   -4.1791465    835.73457  0.065088362  0.065235854            1 
 1071000    1.0725241   -4.1714927    832.41401   0.06476922  0.065223796            3 
 1072000    1.0745563   -4.1699807     834.6033  0.064878988  0.065210708            3 
 1073000    1.0599715   -4.2160876    834.45831  0.064807263   0.06519831            3 
 1074000     1.117259   -4.1790154    834.37269  0.064740277  0.065185641            4 
 1075000    1.0600383   -4.1672332    837.04505  0.064887213  0.065172774            1 
 1076000    1.0862569   -4.2027564    839.68268  0.065031186  0.065160529            2 
 1077000    1.0817559   -4.1804814     837.5305  0.064804279   0.06514789            3 
 1078000    1.0741311    -4.206965    834.99462  0.064548131  0.065134967            2 
 1079000    1.0889022   -4.1613134     841.3514  0.064979255  0.065122365            2 
 1080000    1.0901798   -4.1855933    838.09938  0.064668162  0.065109529            2 
 1081000    1.0816159   -4.1980158    837.26553  0.064544059  0.065096589            1 
 1082000    1.0934269   -4.1659236    842.44723   0.06488349  0.065083702            2 
 1083000    1.1047635   -4.2036463    840.64241  0.064684704  0.065071449            2 
 1084000    1.0626685   -4.1554731    844.30702  0.064906751  0.065058985            2 
 1085000    1.0817522   -4.1923277    843.63698  0.064795467  0.065047012            3 
 1086000     1.094102   -4.1971942    844.31207  0.064787605  0.065035478            3 
 1087000    1.0803504   -4.1409553    845.61501  0.064827891   0.06502371            4 
 1088000    1.0724367   -4.1766857    847.75255  0.064932027  0.065012752            2 
 1089000    1.0862202   -4.1713252    849.63144   0.06501618  0.065001772            2 
 1090000    1.0622413   -4.2148619    848.85203  0.064896944  0.064990623            2 
 1091000     1.096002   -4.1394733    853.64035  0.065203205   0.06497966            1 
 1092000    1.1085467   -4.1956908    846.75673  0.064618187  0.064968399            3 
 1093000     1.075102   -4.1902011    852.93758  0.065030312  0.064957133            4 
 1094000    1.0673092   -4.1905475    849.60106  0.064716717  0.064945536            3 
 1095000    1.0598629   -4.1739613    853.07166  0.064921739  0.064934473            2 
 1096000    1.0735046   -4.1431658     855.6755  0.065060485  0.064922846            1 
 1097000     1.097847   -4.1840513    850.90702  0.064638941   0.06491174            1 
 1098000    1.0730864   -4.1821253    854.55816  0.064857177  0.064900581            2 
 1099000    1.0667109   -4.2218884    851.54284  0.064569521  0.064889549            3 
 1100000    1.1054751   -4.1843109    858.04814  0.065003647  0.064878277            2 
 1101000    1.0842099   -4.1782716    854.52698  0.064678094  0.064866839            2 
 1102000    1.0974221    -4.183025    860.27418  0.065054006  0.064855366            4 
 1103000     1.071487   -4.2015475    859.63798  0.064946961  0.064844447            2 
 1104000    1.0849123   -4.1936191    857.80405  0.064749702  0.064833069            2 
 1105000    1.0470226     -4.18916    858.50424  0.064743909  0.064822015            3 
 1106000    1.0899202    -4.191874    859.34051  0.064748381  0.064811102            2 
 1107000    1.1038711   -4.2071125    858.34779   0.06461516  0.064800454            4 
 1108000    1.0793425   -4.1632713    862.55324  0.064873138  0.064789693            1 
 1109000    1.0755043   -4.1754707    861.38251  0.064726669  0.064778637            3 
 1110000    1.0665366   -4.1978525    863.75951   0.06484681   0.06476789            1 
 1111000    1.0662936   -4.2078996    862.87766  0.064722297  0.064756789            2 
 1112000    1.0700173   -4.1829967    863.91052  0.064741496  0.064744765            4 
 1113000    1.0425712   -4.2058708    863.75161   0.06467143  0.064733241            3 
 1114000     1.089748   -4.1975731    864.89089    0.0646986  0.064722186            5 
 1115000     1.087284   -4.1496722    865.65116  0.064697396  0.064710886            2 
 1116000    1.0607914   -4.2163346     865.0057  0.064591226  0.064698977            4 
 1117000      1.06904   -4.2053034    864.05701  0.064462624  0.064687902            2 
 1118000    1.0682864   -4.1769578    865.90356  0.064542603   0.06467673            3 
 1119000     1.101403   -4.2161328     870.9607  0.064861536  0.064665462            3 
 1120000    1.0955872    -4.184335    867.88158  0.064574522  0.064654635            3 
 1121000    1.0921338   -4.1686679     868.8208  0.064586738  0.064643385            2 
 1122000    1.0776875   -4.1862761    868.12109  0.064477205  0.064632631            2 
 1123000    1.0698298   -4.1918647    867.87502   0.06440153  0.064621386            2 
 1124000    1.0909223   -4.2113877    871.56711  0.064617965  0.064610082            6 
 1125000    1.0558193   -4.2144748    870.50533  0.064481876  0.064599155            4 
 1126000    1.0604813   -4.1949026    873.65095  0.064657412  0.064588044            4 
 1127000    1.0716175   -4.2103461    872.22172   0.06449436  0.064576632            4 
 1128000    1.0677542   -4.1980042    875.90436  0.064709247  0.064565515            2 
 1129000    1.0730765   -4.2096334    871.36369  0.064316777  0.064554766            4 
 1130000    1.0781122   -4.2235004    875.06752  0.064533003  0.064543408            2 
 1131000    1.0849809   -4.1850573    875.89606  0.064536992   0.06453267            3 
 1132000    1.0926114   -4.1993051    875.14574  0.064424745  0.064521858            2 
 1133000    1.0651512   -4.1973891    875.86293  0.064420633  0.064511095            3 
 1134000    1.0834039   -4.2076608    876.09105  0.064380589  0.064499804            7 
 1135000    1.0737186   -4.2198062     875.6945   0.06429475  0.064488888            4 
 1136000    1.0952475   -4.2371031    872.88442  0.064032014  0.064477606            4 
 1137000    1.0694467   -4.2325801    878.94484   0.06441988  0.064466282            2 
 1138000    1.0824513   -4.1923891    879.91053  0.064433987  0.064455488            3 
 1139000    1.0700399   -4.1939558    878.48243  0.064272932  0.064444595            3 
 1140000      1.05872   -4.2047358    881.98313  0.064472451  0.064433683            4 
 1141000     1.060126   -4.2046805    881.57167  0.064385895  0.064422334            5 
 1142000    1.0854904   -4.1609308    884.42564  0.064537773  0.064411667            1 
 1143000    1.0880893   -4.1895546    884.33283  0.064474543  0.064400907            2 
 1144000    1.1026545   -4.2157334    879.56227  0.064070678  0.064389894            5 
 1145000    1.0601553    -4.182611    886.47999  0.064518194  0.064378869            3 
 1146000     1.095786    -4.198261    886.49661  0.064463104  0.064367972            5 
 1147000    1.0536597   -4.1820353    886.42093  0.064401405  0.064356897            3 
 1148000    1.0552826   -4.2054883    888.34801  0.064485193  0.064345902            2 
 1149000     1.081406   -4.1697633     890.8481  0.064610393  0.064335307            2 
 1150000    1.0344739   -4.1957995    888.99377  0.064419838  0.064324801            3 
 1151000    1.0586284   -4.2203473     889.0056  0.064364726  0.064313882            3 
 1152000    1.0599881    -4.202889    891.14186  0.064463387  0.064302997            2 
 1153000    1.0687705   -4.2214201    891.86048  0.064459416  0.064292346            5 
 1154000    1.0563677   -4.1971816    892.43922  0.064445351  0.064281662            2 
 1155000    1.0414843    -4.193689    891.22336   0.06430183  0.064270696            3 
 1156000    1.0960659    -4.206595     890.3473  0.064183052   0.06425969            2 
 1157000    1.0589616   -4.2286266     890.2132   0.06411792   0.06424842            2 
 1158000    1.0645279   -4.1888497    892.47718  0.064225474  0.064237053            3 
 1159000    1.0645838   -4.2158975     892.3105  0.064158075  0.064226232            1 
 1160000    1.0471694   -4.1817772    893.27945  0.064172374  0.064215588            3 
 1161000    1.0877828   -4.2028501    896.85627  0.064373835   0.06420517            2 
 1162000    1.0971057   -4.1846301    897.87447  0.064391457  0.064194766            2 
 1163000    1.0560621   -4.2309383    896.08567  0.064207916  0.064184562            2 
 1164000    1.0485749   -4.1917168    899.85895  0.064422891  0.064174566            2 
 1165000    1.0801154   -4.1818307    900.32296  0.064400784  0.064164796            2 
 1166000     1.074212   -4.1858158    898.00454  0.064179856  0.064154907            2 
 1167000    1.0497478   -4.2175058    898.03503  0.064127037  0.064145064            3 
 1168000    1.0796089   -4.1945311    903.55759  0.064466153  0.064135308            4 
 1169000    1.0442963   -4.2224567     900.6008  0.064200228  0.064125555            2 
 1170000    1.0515685   -4.2011807    901.76118  0.064228004  0.064115535            2 
 1171000    1.0837324   -4.2009613    905.71291  0.064454378  0.064105643            1 
 1172000     1.063017   -4.2205246    902.21357  0.064150567  0.064095956            3 
 1173000    1.0696727   -4.1982582    903.08723  0.064157945  0.064086068            3 
 1174000    1.0583274   -4.1767398    907.97548  0.064450276  0.064076302            2 
 1175000    1.0601203   -4.1593796    908.83629  0.064456474  0.064066273            3 
 1176000    1.0588659   -4.1794061    905.03789  0.064132504  0.064056695            3 
 1177000    1.0986331   -4.2121335    905.52863  0.064112761  0.064046422            2 
 1178000    1.0442882   -4.1820956     908.6435  0.064278686   0.06403595            2 
 1179000    1.0581468   -4.1957373    906.86733  0.064098623  0.064025444            3 
 1180000    1.0619638   -4.2092086    905.88585  0.063974989   0.06401509            2 
 1181000    1.0440002   -4.2130914    909.15242  0.064151314  0.064004686            1 
 1182000    1.0756494   -4.2046205    912.49705  0.064332843  0.063994366            2 
 1183000    1.0395673   -4.1973822    906.48418  0.063854902  0.063984059            2 
 1184000    1.0553526   -4.2257729    909.22728  0.063994037   0.06397373            2 
 1185000     1.061901   -4.2179469    911.46008  0.064097052  0.063962989            3 
 1186000     1.091273   -4.2195522    910.51634  0.063976696  0.063952555            3 
 1187000    1.0573789   -4.2229505    911.22314  0.063972419  0.063941658            4 
 1188000    1.0794937   -4.1896325    911.83408  0.063961425    0.0639315            2 
 1189000    1.0517311   -4.1995504    912.46593  0.063951915  0.063921296            4 
 1190000    1.0697568   -4.2283557    911.69523  0.063844204   0.06391097            3 
 1191000     1.049056    -4.212904    913.87001  0.063942766  0.063900651            1 
 1192000    1.0395277   -4.2141416    914.27266  0.063917272  0.063890338            3 
 1193000    1.0622346   -4.1891727    916.42422  0.064013985  0.063880096            2 
 1194000    1.0824706   -4.1992413    916.61491  0.063973681  0.063869704            4 
 1195000    1.0502316   -4.1900779    915.82126  0.063864802  0.063859466            1 
 1196000    1.0788897    -4.225475    916.47137  0.063856701  0.063848827            3 
 1197000    1.0648556    -4.250236    915.59198  0.063742131   0.06383857            3 
 1198000    1.0731576   -4.2165837    917.77594  0.063840842  0.063828089            4 
 1199000    1.0598815   -4.2432136    917.72577  0.063784109  0.063817098            5 
 1200000     1.045727   -4.2290125    925.74719  0.064287999  0.063807045            2 
 1201000    1.0673412   -4.1932703    922.48989  0.064008458  0.063797256            3 
 1202000    1.0478792   -4.1950264     921.6171  0.063894696  0.063787621            2 
 1203000       1.0748   -4.1913051    923.82093  0.063994246  0.063777514            7 
 1204000    1.0506312   -4.2342289    922.47056   0.06384763  0.063767442            4 
 1205000    1.0665162   -4.2229022    922.97851  0.063829772  0.063757149            4 
 1206000    1.0405853   -4.2500274    921.61255  0.063682459  0.063746859            2 
 1207000    1.0578296    -4.236582    920.90719  0.063580999    0.0637365            2 
 1208000    1.0614504    -4.189724    927.38408  0.063975171  0.063726107            2 
 1209000    1.0432755   -4.1854206    929.79257  0.064088266  0.063715864            1 
 1210000     1.094375   -4.1805377    927.93187  0.063907154  0.063705826            6 
 1211000    1.0645414   -4.2078661    928.34909  0.063883092  0.063695613            2 
 1212000    1.0871136    -4.203856    928.35026  0.063830463  0.063685285            2 
 1213000    1.0456917   -4.1752569    929.49013  0.063856151  0.063675035            4 
 1214000    1.0452955   -4.2199579    927.69774  0.063680515  0.063664666            4 
 1215000    1.0615508   -4.1828422      930.947   0.06385096  0.063654112            3 
 1216000    1.0568922   -4.2125999    928.26102  0.063614379  0.063643703            1 
 1217000    1.0636914   -4.1970942    931.20488  0.063763686  0.063632714            4 
 1218000    1.0535394   -4.1939499    931.79937   0.06375201  0.063621736            3 
 1219000    1.0458457   -4.2029518    930.94955  0.063641615  0.063610376            1 
 1220000    1.0743169   -4.2304487    928.23199  0.063403824  0.063598983            4 
 1221000    1.0437087   -4.2570799    927.95235  0.063332811   0.06358768            2 
 1222000    1.0640746   -4.1963165    929.39527  0.063379383  0.063576003            2 
 1223000    1.0697666   -4.2317708     929.3672  0.063325647  0.063564519            5 
 1224000    1.0530517   -4.2447313    927.43022  0.063142035  0.063552867            6 
 1225000    1.0277649   -4.2252468    931.76693  0.063385506  0.063541244            3 
 1226000    1.0592537   -4.2130184    936.80626  0.063676336  0.063530228            1 
 1227000    1.0567537   -4.2170785    935.73222  0.063551496  0.063519305            4 
 1228000    1.0415011   -4.2344684    934.49364  0.063415692  0.063507925            3 
 1229000     1.059143   -4.2460476    933.89821  0.063323719  0.063496712            2 
 1230000    1.0920503   -4.2239266    935.54848  0.063384043  0.063485067            2 
 1231000    1.0586571    -4.244065    935.07464  0.063300476   0.06347337            2 
 1232000    1.0481295   -4.2553663    934.89462   0.06323692  0.063461913            5 
 1233000    1.0503214   -4.2282408    937.11063  0.063335403  0.063450534            3 
 1234000    1.0610963   -4.2149238    942.60533  0.063655141  0.063439659            2 
 1235000    1.0291421   -4.2442842    938.83116  0.063348931  0.063428448            3 
 1236000    1.0287533   -4.2054993    941.36908  0.063468789  0.063417139            2 
 1237000    1.0513103   -4.2408993    937.86748  0.063181587  0.063405617            4 
 1238000    1.0402939   -4.2226851    941.19042  0.063354228  0.063394331            2 
 1239000    1.0670614   -4.2300679    938.06585  0.063092941  0.063383212            2 
 1240000    1.0457352   -4.2136142    942.90999  0.063367607  0.063372288            2 
 1241000    1.0268028    -4.245182    940.02588  0.063122877  0.063360743            3 
 1242000     1.082954   -4.2227348     942.2899   0.06322396  0.063349277            3 
 1243000    1.0537157   -4.2329514    941.36118  0.063110833    0.0633378            3 
 1244000    1.0439399   -4.2100203    940.99277  0.063035421  0.063326222            2 
 1245000    1.0442331   -4.2299493    944.39602  0.063212585  0.063314591            5 
 1246000    1.0440902   -4.1778648    945.34604   0.06322539   0.06330346            2 
 1247000    1.0361262    -4.219231    944.34848  0.063108024  0.063292489            2 
 1248000     1.066229   -4.2293292    946.52126  0.063202541  0.063281191            3 
 1249000    1.0881693   -4.2264292    943.12141  0.062925101  0.063269692            2 
 1250000    1.0231602   -4.2206872    950.40732  0.063360488  0.063258535            3 
 1251000    1.0603461   -4.2324611    945.32212  0.062971098  0.063247518            3 
 1252000    1.0468177    -4.245315    951.64154  0.063341423  0.063236197            9 
 1253000    1.0424746   -4.2033445    951.50422  0.063281739  0.063224561            4 
 1254000    1.0565046   -4.2534921    950.43078   0.06315994  0.063213769            2 
 1255000    1.0684972   -4.2467449    950.19772  0.063094138  0.063202486            4 
 1256000    1.0573671   -4.2226212    952.93427  0.063225469  0.063191159            6 
 1257000    1.0597885   -4.2474693    950.94126  0.063043043  0.063179852            2 
 1258000    1.0302435   -4.2289321    954.87703  0.063253645  0.063169026            4 
 1259000    1.0710626   -4.2392833    949.75575  0.062864426  0.063158307            4 
 1260000    1.0409475   -4.2435553    954.20447  0.063108761   0.06314773            3 
 1261000     1.057704     -4.21995    957.92326  0.063304471  0.063136834            2 
 1262000    1.0582074   -4.2308268    955.42419  0.063089289  0.063126178            2 
 1263000    1.0837663   -4.2354528    955.84716  0.063067245  0.063115233            4 
 1264000    1.0471653   -4.2254138    955.68164  0.063006437  0.063104464            2 
 1265000     1.060875   -4.2289201    956.11049  0.062984881  0.063093528            4 
 1266000    1.0686259   -4.2413714    958.98489  0.063124334  0.063082334            3 
 1267000    1.0494438   -4.2598778    956.51507  0.062912067  0.063071214            5 
 1268000    1.0560972   -4.2257714    961.79649  0.063209548  0.063059849            1 
 1269000    1.0448256   -4.2312148     963.4107  0.063265741   0.06304851            4 
 1270000    1.0194923   -4.2610328    956.78263  0.062781012  0.063037096            3 
 1271000    1.0577197     -4.21799    959.62349  0.062917879  0.063025653            3 
 1272000    1.0443581   -4.2299799    964.25449  0.063171809  0.063014278            2 
 1273000    1.0489886   -4.2560101    961.77202  0.062959677  0.063002998            3 
 1274000    1.0366854   -4.2541136    960.64159  0.062836315  0.062991499            3 
 1275000    1.0288337   -4.2342469    962.20489  0.062889208  0.062980387            5 
 1276000    1.0480729   -4.2372856    967.71387  0.063199704  0.062969369            3 
 1277000     1.043989   -4.2494172     968.3538  0.063191974   0.06295864            3 
 1278000    1.0237285   -4.2320871    963.14157  0.062802659  0.062947638            2 
 1279000    1.0569178   -4.2275958    964.16218  0.062820053  0.062936491            4 
 1280000    1.0557657   -4.2173317     966.0208  0.062891979  0.062925437            1 
 1281000    1.0582202   -4.2384821    966.79381   0.06289317  0.062914357            3 
 1282000     1.030935   -4.2465543    964.07112  0.062667129  0.062903332            5 
 1283000    1.0401262   -4.2203726    968.24016  0.062889073  0.062892289            3 
 1284000    1.0660751   -4.2381886    973.02184  0.063150431  0.062881524            2 
 1285000    1.0683854   -4.2342959    968.77605  0.062825944  0.062870728            2 
 1286000    1.0200087   -4.2650073    970.78048  0.062906978  0.062859812            3 
 1287000    1.0444164   -4.2813229    966.43266  0.062576577  0.062848553            3 
 1288000    1.0315861    -4.243567    971.75545  0.062872377  0.062837605            2 
 1289000    1.0695325   -4.2087224    974.01829  0.062969892  0.062826863            2 
 1290000    1.0577061   -4.2598156    971.68705  0.062770481  0.062815785            2 
 1291000    1.0632316   -4.2275341    974.45984  0.062900842  0.062805028            3 
 1292000    1.0527398     -4.24264    973.96956  0.062820534  0.062794313            2 
 1293000    1.0491443   -4.2291853    975.50502  0.062870909  0.062783379            7 
 1294000    1.0341397   -4.2293413    974.20181  0.062738396  0.062772924            1 
 1295000    1.0446064   -4.2456069    976.24923  0.062821701  0.062762429            4 
 1296000    1.0343803   -4.2296681    977.59024  0.062859455  0.062751449            1 
 1297000    1.0405226    -4.227163    974.65555  0.062622433  0.062740901            2 
 1298000    1.0152547   -4.2654857    975.25044  0.062612381  0.062730484            3 
 1299000    1.0612039    -4.251827    976.08654  0.062617818  0.062719832            3 
 1300000     1.042745   -4.2171807    978.53301  0.062726475  0.062709202            3 
 1301000    1.0525634   -4.2460063     979.6168  0.062747681  0.062698243            4 
 1302000    1.0411469   -4.2187295    981.04528  0.062790916   0.06268767            4 
 1303000    1.0583313   -4.2547846     981.2973  0.062758845  0.062676938            4 
 1304000    1.0281255    -4.232733     979.5592  0.062599642  0.062666448            2 
 1305000    1.0248796   -4.2563174    983.24735  0.062787187  0.062655655            2 
 1306000    1.0269882   -4.2489706    981.65175  0.062637299  0.062645121            2 
 1307000    1.0455006   -4.2431699    986.62195  0.062906271   0.06263408            2 
 1308000    1.0334693   -4.2497436    984.08091  0.062696286  0.062623329            1 
 1309000    1.0418898   -4.2299436     982.7826  0.062565737  0.062612285            2 
 1310000    1.0586833   -4.2718221    983.27388  0.062549229  0.062601048            8 
 1311000    1.0576499   -4.2308719     985.8952  0.062668141  0.062590208            2 
 1312000    1.0370704   -4.2301541    987.79202  0.062740855  0.062579595            5 
 1313000    1.0711696   -4.2091133    987.75123  0.062690481  0.062569263            3 
 1314000    1.0528883   -4.2321768    988.99452  0.062721621  0.062559054            5 
 1315000    1.0416168   -4.2377963    989.77029  0.062723086  0.062548495            3 
 1316000    1.0310236   -4.2741667    988.44284  0.062591365   0.06253799            3 
 1317000    1.0315216   -4.2637405    988.23394  0.062530621   0.06252772            3 
 1318000    1.0318048   -4.2303491    989.48848  0.062562499  0.062517506            3 
 1319000     1.020093   -4.2339838    989.57704  0.062520662  0.062506888            3 
 1320000     1.035637   -4.2129136    998.10278  0.063011539  0.062496957            4 
 1321000    1.0385732   -4.2806233    991.46322  0.062544992  0.062486682            3 
 1322000    1.0299196   -4.2500353    993.06011  0.062598343  0.062476483            2 
 1323000    1.0164038    -4.257433    992.67632  0.062526853   0.06246622            3 
 1324000     1.043691   -4.2527881    998.37485  0.062838296  0.062456056            3 
 1325000    1.0446491    -4.243319    997.37952  0.062728272  0.062446088            2 
 1326000    1.0420202   -4.2414576    996.53652  0.062627986  0.062436083            5 
 1327000    1.0383337   -4.2520352    998.61538   0.06271134  0.062425903            5 
 1328000    1.0493701   -4.2453488    995.08403  0.062442522  0.062416015            3 
 1329000    1.0237472   -4.2287169    999.19209  0.062653128  0.062406349            3 
 1330000    1.0493827   -4.2476157    999.29244  0.062612308  0.062396504            3 
 1331000     1.068973   -4.2702248    994.86013  0.062287762  0.062386792            2 
 1332000    1.0449603   -4.2729724    1000.1885  0.062574358  0.062377472            2 
 1333000    1.0204148   -4.2322164    1006.6831  0.062933425  0.062368045            5 
 1334000    1.0144024     -4.24077      1003.14  0.062664915  0.062358835            3 
 1335000    1.0139953   -4.2570073    1002.5073   0.06257848  0.062349365            2 
 1336000    1.0436037   -4.2773947     1003.819  0.062613463  0.062339679            2 
 1337000    1.0298981   -4.2585433    1002.9897  0.062514938  0.062329893            4 
 1338000    1.0435943   -4.2323188    1005.1969  0.062605689  0.062319912            4 
 1339000    1.0603771    -4.244736    1005.3801  0.062570334  0.062310062            4 
 1340000    1.0253558   -4.2219376    1008.4615  0.062715266  0.062300686            2 
 1341000    1.0468321   -4.2187978    1009.0566  0.062705479  0.062291012            4 
 1342000      1.05305   -4.2794266    1003.8573  0.062335897  0.062281572            3 
 1343000    1.0323941   -4.2811373    1006.8934  0.062477872  0.062271494            2 
 1344000    1.0336082   -4.2525515    1008.7271  0.062545085  0.062261231            7 
 1345000    1.0532349   -4.2247616    1010.1223  0.062585023  0.062251405            4 
 1346000     1.032056   -4.2463517    1008.2172  0.062420582  0.062241388            3 
 1347000    1.0340153   -4.2390111    1008.9614  0.062420279  0.062231377            6 
 1348000    1.0409184   -4.2642647     1006.461  0.062219399  0.062220901            4 
 1349000    1.0167689    -4.259196     1010.881  0.062446319  0.062210389            4 
 1350000    1.0433019    -4.238776    1009.5513  0.062317982  0.062199624            5 
 1351000    1.0421348   -4.2433662    1011.6503  0.062401329  0.062189248            2 
 1352000    1.0338412   -4.2458707    1010.7712  0.062300985  0.062178937            3 
 1353000    1.0352118   -4.2442575    1009.0665  0.062149944  0.062168652            5 
 1354000    1.0382724   -4.2418635    1010.8837  0.062215885  0.062157804            4 
 1355000    1.0360543   -4.2351924    1013.2898  0.062317944   0.06214704            3 
 1356000    1.0518224   -4.2554134    1008.3622   0.06196916  0.062136692            2 
 1357000    1.0434575   -4.2863603    1016.6862  0.062434669  0.062126126            4 
 1358000    1.0130056   -4.2642747    1013.4442  0.062189754  0.062116209            2 
 1359000    1.0372158   -4.2245831    1019.7247  0.062529109  0.062106481            2 
 1360000    1.0313286   -4.2251465    1020.7901  0.062548412  0.062097017            2 
 1361000     1.037195   -4.2398673    1016.4559  0.062237076  0.062087548            2 
 1362000     1.041564   -4.2401477    1019.0515   0.06235019  0.062077523            2 
 1363000    1.0501045   -4.2303263    1025.5113  0.062699397  0.062068376            2 
 1364000    1.0261272   -4.2723213    1018.6269  0.062232826   0.06205912            3 
 1365000     1.029946    -4.238912    1023.7065  0.062497344  0.062050228            5 
 1366000    1.0317024   -4.2713361    1022.4956  0.062377721  0.062040881            9 
 1367000    1.0209492   -4.2553408    1024.4187  0.062449326  0.062031534            3 
 1368000    1.0426356   -4.2594227    1023.1978  0.062329302  0.062022245            5 
 1369000    1.0335983   -4.2465233    1023.6385  0.062310601  0.062012976            4 
 1370000    1.0527867   -4.2559646    1021.3651   0.06212683   0.06200369            3 
 1371000    1.0384495   -4.2513565    1028.1428  0.062493485  0.061994414            3 
 1372000    1.0078808   -4.2640642    1023.5876  0.062171256  0.061984899            6 
 1373000    1.0121433   -4.2808336    1027.4353  0.062359511  0.061975113            5 
 1374000    1.0335148   -4.2559587    1027.3605  0.062309587  0.061965585            2 
 1375000     1.023845   -4.2831562    1024.7942  0.062108738   0.06195542            4 
 1376000    1.0354477   -4.2710231    1023.6219  0.061992606  0.061945317            7 
 1377000    1.0371846    -4.258161    1026.2572  0.062107066   0.06193524            3 
 1378000    1.0314497   -4.2861374    1025.4687  0.062014313  0.061925196            3 
 1379000    1.0292526   -4.2571876    1025.9075  0.061995861  0.061914884            4 
 1380000   0.99827374    -4.271147    1027.4801  0.062045897  0.061904873            5 
 1381000    1.0288523   -4.2449051    1031.4138   0.06223834  0.061894515            5 
 1382000    1.0404261   -4.2418848    1029.2988  0.062065776  0.061884157            2 
 1383000    1.0099175   -4.2544455     1025.125  0.061769403  0.061873751            3 
 1384000    1.0491721   -4.2664633    1030.8605  0.062070118  0.061863256            3 
 1385000    1.0349064   -4.2691671    1031.0175  0.062034747  0.061853042            5 
 1386000    1.0477909   -4.2618695     1032.212  0.062061806  0.061842734            3 
 1387000    1.0146501   -4.2439852    1032.2322  0.062018279  0.061832159            2 
 1388000    1.0183455   -4.2609984    1032.3474  0.061980511  0.061821641            2 
 1389000    1.0431693   -4.2876653    1030.8759  0.061847606  0.061811022            6 
 1390000    1.0299379   -4.2240946    1034.8671  0.062042395   0.06180094            1 
 1391000    1.0200938   -4.2419381     1038.312   0.06220417  0.061790921            3 
 1392000    1.0055712   -4.2463675    1034.5555  0.061934595  0.061780803            1 
 1393000    1.0365166   -4.2225811    1037.5285  0.062067991  0.061770912            2 
 1394000    1.0259568   -4.2898042     1036.012  0.061932809  0.061760654            6 
 1395000    1.0298824   -4.2692728    1036.7366  0.061931695  0.061750463            3 
 1396000    1.0197591   -4.2632146    1037.4521  0.061930047   0.06174054            2 
 1397000    1.0245887   -4.2722301    1035.0582  0.061742916  0.061729879            3 
 1398000    1.0339159   -4.2412114     1038.722  0.061917144  0.061719795            2 
 1399000    1.0398223   -4.2785345    1036.1852  0.061721776  0.061709596            4 
 1400000    1.0356374   -4.2713706    1037.3245  0.061745508  0.061699329            3 
 1401000    1.0239192   -4.2804509    1038.2259   0.06175505  0.061689083            2 
 1402000    1.0316748   -4.2669935    1042.6256  0.061972513  0.061678872            3 
 1403000    1.0066369   -4.3071992    1038.2176  0.061666523  0.061668675            6 
 1404000   0.99989093   -4.2825058    1036.1972  0.061502681  0.061658617            7 
 1405000     1.046865   -4.2674302    1044.5207  0.061952593   0.06164895            2 
 1406000     1.020878   -4.2374832    1044.6892  0.061918516  0.061639433            5 
 1407000    1.0227507   -4.2270554    1042.0193  0.061716377  0.061629624            1 
 1408000    1.0336446   -4.2978485    1043.6281  0.061767763  0.061619191            4 
 1409000     1.058571   -4.2537825    1046.8102  0.061912122  0.061609187            3 
 1410000    1.0304868   -4.2776804    1045.6502  0.061799658  0.061599231            3 
 1411000    1.0458186   -4.2877668    1045.9816  0.061775433  0.061589589            2 
 1412000    1.0486715   -4.2607037    1050.0204  0.061970041  0.061579682            6 
 1413000    1.0069727   -4.2605795    1050.4384  0.061950837  0.061569893            4 
 1414000    1.0026337   -4.2841371    1048.5891  0.061798037  0.061559844            2 
 1415000    1.0146519   -4.2859807    1047.0042  0.061661027   0.06155004            5 
 1416000    1.0115714   -4.2738459    1049.2855  0.061751735   0.06154037            6 
 1417000    1.0215904   -4.2517838    1050.7961  0.061796992  0.061530313            3 
 1418000    1.0282584   -4.2710047    1048.4153  0.061613499  0.061520776            4 
 1419000    1.0259309   -4.2445363    1049.1293  0.061612009  0.061511277            3 
 1420000    1.0336131   -4.2764647    1052.7795  0.061782834  0.061501767            2 
 1421000     1.004637   -4.2730064    1051.0513  0.061638009  0.061491786            1 
 1422000    1.0053368   -4.2924045    1056.8833  0.061936431  0.061482324            3 
 1423000     1.015218   -4.2538804    1056.4799  0.061869284   0.06147282            5 
 1424000   0.99862026   -4.2890257    1055.6163  0.061775299  0.061463302            4 
 1425000    1.0339023   -4.2618033    1057.4203  0.061837447  0.061453681            2 
 1426000    1.0300117   -4.2452566    1061.1623  0.062012755  0.061444287            5 
 1427000    1.0312038   -4.2724832    1056.8511  0.061717536  0.061434654            3 
 1428000    1.0261521   -4.2511425    1056.4579   0.06165137  0.061425293            3 
 1429000    1.0288138   -4.2575151    1059.8012  0.061803194  0.061415832            4 
 1430000    1.0136315   -4.2485224    1061.9778  0.061886817  0.061406158            2 
 1431000    1.0223081   -4.2809758    1059.8385  0.061718992  0.061396701            2 
 1432000     1.027791   -4.2814568    1058.9423  0.061623736  0.061387224            3 
 1433000     1.011462   -4.2507689    1062.6908  0.061798718  0.061377933            2 
 1434000    1.0221886   -4.2753913    1061.6246  0.061693668  0.061368849            3 
 1435000    1.0332075   -4.2835381    1067.3057  0.061980586  0.061360153            4 
 1436000    1.0296303   -4.2974762    1064.4181  0.061769854  0.061351186            8 
 1437000     1.036106   -4.2759575    1064.4405  0.061728165  0.061341877            4 
 1438000     1.034587   -4.2375955    1064.9741  0.061716162  0.061332898            3 
 1439000     1.023926   -4.2510173     1063.178  0.061569259   0.06132387            3 
 1440000     1.046613   -4.2946636    1065.5436  0.061663402  0.061314924            5 
 1441000    1.0196058   -4.2728664    1068.1995  0.061774199   0.06130572            5 
 1442000    1.0178416    -4.261876    1067.7057  0.061702828  0.061296653            4 
 1443000    1.0229052   -4.2573303    1071.5163  0.061880129  0.061287228            3 
 1444000    1.0186204   -4.2790132    1066.2081   0.06153094  0.061277622            2 
 1445000    1.0164203   -4.2562166    1069.4942  0.061677868  0.061268507            1 
 1446000    1.0114799   -4.2642079    1070.6942  0.061704368  0.061259296            4 
 1447000   0.99876705   -4.2788208    1071.2287  0.061692505  0.061250593            3 
 1448000     1.034176   -4.2860599    1073.7455  0.061794743   0.06124147            3 
 1449000    1.0352429   -4.2624334    1074.4474  0.061792464  0.061232457            2 
 1450000    1.0116993   -4.2848126     1072.221  0.061621897  0.061223271            4 
 1451000     1.048339    -4.307243    1072.1873  0.061577493  0.061213752            3 
 1452000   0.99793371   -4.2718476     1071.567  0.061499485  0.061203987            2 
 1453000    1.0472253   -4.2503497    1069.0237  0.061311295  0.061194749            4 
 1454000     1.001905   -4.2784726    1072.1273     0.061447  0.061185415            5 
 1455000     1.006166    -4.285826    1071.0687  0.061344141   0.06117578            3 
 1456000    1.0425674    -4.291455    1071.9265  0.061351107  0.061166179            3 
 1457000    1.0207214   -4.2718968    1078.5706  0.061689007  0.061156761            2 
 1458000    1.0491503   -4.2981193    1071.5198  0.061243701  0.061147105            2 
 1459000    1.0364724   -4.2691132    1074.1518  0.061352058  0.061137501            2 
 1460000    1.0010675   -4.2705309    1078.1809  0.061540004   0.06112804            4 
 1461000    1.0035227   -4.2765908    1075.9762  0.061372133   0.06111836            3 
 1462000     1.031177   -4.2985201    1076.9808  0.061387412  0.061108628            2 
 1463000     1.015163   -4.2969979    1071.5461  0.061035888  0.061098816            2 
 1464000     1.013496    -4.271325    1081.7169  0.061573137  0.061089079            3 
 1465000    1.0147893   -4.2494674      1077.75   0.06130546  0.061079049            2 
 1466000    1.0441619   -4.2908137     1079.148  0.061343109  0.061069157            3 
 1467000   0.98576269   -4.2857232    1077.5246  0.061209076  0.061059034            9 
 1468000    1.0192899    -4.300698    1076.1146  0.061087339   0.06104878            2 
 1469000    1.0141588    -4.309657    1076.6852  0.061078125   0.06103846            2 
 1470000   0.99436513   -4.3028884    1077.4073  0.061077513  0.061028363            4 
 1471000    1.0296921   -4.2802596       1077.4  0.061035578  0.061018199            4 
 1472000    1.0323429   -4.2755271    1080.8066  0.061186968  0.061008241            1 
 1473000    1.0191027   -4.3015546    1084.3813  0.061347663  0.060998036            2 
 1474000    1.0159495   -4.2923477    1081.6071  0.061149206  0.060987823            4 
 1475000    1.0337096   -4.2809818    1080.2059  0.061028584  0.060977877            2 
 1476000    1.0272577   -4.2665534    1084.7678  0.061244796  0.060967914            6 
 1477000    1.0146603    -4.314146    1082.6954  0.061086404  0.060957912            2 
 1478000    1.0122704   -4.2850505    1086.5993  0.061265183  0.060948092            2 
 1479000    1.0293083   -4.2834086     1084.548   0.06110818  0.060937988            3 
 1480000    1.0111464   -4.2851471    1083.0318  0.060981518  0.060927911            3 
 1481000    1.0193316   -4.2776568    1088.5824  0.061252666   0.06091796            2 
 1482000    1.0065183   -4.2840267    1087.1173  0.061128951   0.06090807            3 
 1483000    1.0224823   -4.2840239    1080.9027  0.060738522  0.060898345            3 
 1484000    1.0240587   -4.3020053    1087.9804  0.061095034   0.06088882            4 
 1485000    1.0373088   -4.2920098    1087.9392   0.06105158  0.060878947            6 
 1486000    1.0361247   -4.3021298    1086.2482   0.06091567  0.060869129            4 
 1487000    1.0037344   -4.2882425    1091.5345  0.061170955  0.060859186            4 
 1488000    1.0112965   -4.2859265    1087.4758  0.060902543  0.060849377            2 
 1489000    1.0424241   -4.2933997    1089.9877   0.06100222  0.060839531            3 
 1490000    1.0214477   -4.3015336    1087.6888  0.060832709  0.060829939            4 
 1491000   0.99590766   -4.3093005     1092.522  0.061062039  0.060820343            2 
 1492000    1.0013975   -4.2709554    1092.4489  0.061017027  0.060810612            2 
 1493000    1.0227903   -4.2550722    1095.9606  0.061172168  0.060801404            4 
 1494000    1.0191812   -4.2845881    1088.9591  0.060740689  0.060791905            3 
 1495000    1.0071324   -4.2962339    1096.1511  0.061100952  0.060782403            2 
 1496000    1.0272399   -4.2690004    1099.9238  0.061270265  0.060772678            2 
 1497000    1.0037338   -4.3170402    1092.2803  0.060803846   0.06076275            3 
 1498000    0.9949923   -4.2898067    1097.2984   0.06104241  0.060753172            2 
 1499000    1.0122362   -4.3238951    1097.4443    0.0610098  0.060743731            6 
 1500000    1.0196661   -4.2795363    1098.1398  0.061007766  0.060734252            3 
 1501000   0.97849603   -4.3269118    1095.2765  0.060808156  0.060724398            2 
 1502000   0.99854377   -4.3045181    1099.9228  0.061025456  0.060714613            2 
 1503000    1.0273288   -4.3272941    1099.2387  0.060946921  0.060705108            2 
 1504000     1.009785   -4.2895384    1102.6736  0.061096722  0.060695632            4 
 1505000   0.99087887   -4.2843862    1101.0063  0.060963805  0.060686348            4 
 1506000   0.98956477   -4.3181034    1102.3786  0.060999259  0.060677092            2 
 1507000   0.99991579   -4.3027188    1104.0181  0.061049444  0.060667899            4 
 1508000    1.0089525   -4.2759463    1109.6597  0.061320716  0.060658659            3 
 1509000    1.0199501   -4.2950483    1107.9102  0.061183468  0.060649872            2 
 1510000    1.0090207   -4.3304544    1105.7935  0.061026133  0.060640708            2 
 1511000   0.99958751   -4.3040178    1106.9543  0.061049764  0.060631848            3 
 1512000    1.0173028   -4.2948675    1110.9148  0.061227669  0.060622947            2 
 1513000    1.0084589   -4.3097989    1109.3711  0.061102178  0.060613896            4 
 1514000   0.99912479   -4.3142108    1110.5263  0.061125402  0.060604768            6 
 1515000    1.0073219   -4.3051019    1110.6813   0.06109358  0.060595817            5 
 1516000    1.0147457    -4.307798    1110.4754  0.061041963  0.060586716            3 
 1517000    1.0321129   -4.2854317    1109.9898  0.060975048  0.060577415            2 
 1518000    1.0043277   -4.2812047    1111.2732  0.061005337  0.060568336            2 
 1519000    1.0192539    -4.313391    1110.7333  0.060935554  0.060559302            4 
 1520000     1.032654     -4.28454    1112.8158  0.061009638  0.060550344            4 
 1521000    1.0127983   -4.3281537     1110.171  0.060824622  0.060541294            4 
 1522000    1.0098751    -4.313169     1114.057  0.060997428  0.060532148            3 
 1523000    1.0050327   -4.2913902    1116.5339  0.061092902  0.060523174            3 
 1524000   0.99538802   -4.2868343    1114.3026  0.060930809  0.060514745            3 
 1525000   0.97972602   -4.3031077    1114.0714  0.060878218  0.060505892            4 
 1526000   0.98954326   -4.3043715    1116.5736  0.060974968  0.060497198            2 
 1527000    1.0070182   -4.2993876    1117.2529  0.060972107  0.060488665            2 
 1528000    1.0060722   -4.2828807    1115.5162  0.060837488  0.060479893            2 
 1529000    1.0030895    -4.340408    1117.7831  0.060921249  0.060471198            3 
 1530000    1.0075185   -4.2947335    1118.2146  0.060904935  0.060462031            3 
 1531000    1.0171866   -4.3026777    1117.2949  0.060815093  0.060453136            2 
 1532000    1.0104514   -4.3128092    1120.4784  0.060948566  0.060444203            5 
 1533000    1.0087014   -4.2986958     1118.649  0.060809358  0.060435735            5 
 1534000   0.99234682    -4.295444    1124.3225  0.061077929  0.060427131            3 
 1535000    1.0307345   -4.2886984    1122.7013  0.060950126  0.060418855            2 
 1536000   0.99840185   -4.2837489     1124.771  0.061022732  0.060410203            2 
 1537000    1.0228334   -4.3055312    1121.0561  0.060781612  0.060401219            4 
 1538000    1.0059128    -4.296515    1122.8478  0.060839173  0.060392501            4 
 1539000    1.0195346   -4.3313354    1119.5153  0.060619195  0.060383522            3 
 1540000    1.0076137   -4.2924882    1126.1217  0.060937322  0.060374634            3 
 1541000   0.99049616   -4.2895673    1124.0937   0.06078811  0.060366161            2 
 1542000    1.0113183   -4.3333304    1121.7595  0.060622539  0.060357442            4 
 1543000   0.99229247   -4.2879558    1127.9745  0.060918909  0.060348813            4 
 1544000   0.98672661   -4.3067374    1126.2377  0.060785714  0.060340035            6 
 1545000    1.0185819    -4.262648    1133.4265  0.061134114  0.060331194            2 
 1546000    1.0142598   -4.3301152      1121.83   0.06046949  0.060322734            3 
 1547000    1.0143188   -4.3251154    1127.1044  0.060714521  0.060314128            3 
 1548000   0.99870409   -4.3184353    1126.4967  0.060642586  0.060305521            2 
 1549000   0.98585832    -4.282902    1126.6086   0.06060946  0.060296415            3 
 1550000    1.0010003   -4.3059217    1126.7491  0.060577908  0.060287588            3 
 1551000    1.0168467   -4.3075685    1131.5586  0.060797257  0.060278839            2 
 1552000   0.99735479    -4.297612    1130.5348  0.060703115  0.060269581            3 
 1553000   0.98335223   -4.2950374     1131.285  0.060704283  0.060260727            5 
 1554000   0.99053978    -4.327398    1133.1356  0.060764455  0.060251337            4 
 1555000    1.0276293   -4.3153713     1133.597  0.060750105   0.06024236            3 
 1556000   0.99520997   -4.3433709    1128.6657  0.060446963  0.060233215            4 
 1557000    1.0004031   -4.3040153    1133.2632  0.060654204  0.060224044            3 
 1558000    1.0090213   -4.2685972    1137.6427  0.060849524  0.060215049            3 
 1559000   0.98057206   -4.2852996    1132.5441  0.060537955  0.060206005            5 
 1560000   0.99861991   -4.2856952    1135.8137  0.060673811  0.060197174            1 
 1561000   0.99491479   -4.3053756    1137.5208  0.060726075  0.060188089            4 
 1562000    1.0017851     -4.29753    1134.9336  0.060549168  0.060178885            2 
 1563000    1.0061249   -4.3161269    1136.8322  0.060611654  0.060169882            4 
 1564000   0.99745864   -4.3210195     1140.388  0.060762364  0.060160981            3 
 1565000   0.99107879   -4.3057253    1137.8405  0.060587888  0.060151844            2 
 1566000    1.0016606    -4.332217    1137.2502  0.060517782   0.06014293            3 
 1567000   0.99922856   -4.3185406    1136.7932  0.060454862  0.060134089            3 
 1568000   0.99628716   -4.3274834    1137.3129  0.060443924  0.060125202            2 
 1569000   0.98706972   -4.3033648    1142.8609  0.060700069  0.060116337            2 
 1570000     1.011165   -4.3346245    1137.9707  0.060401844  0.060107297            2 
 1571000    1.0107867   -4.2955069    1138.2704   0.06037929   0.06009826            3 
 1572000     0.987709   -4.3333221    1139.0939  0.060384535  0.060089129            5 
 1573000   0.98722442   -4.3281532    1140.0794  0.060398357  0.060079867            4 
 1574000    1.0075505   -4.2996494    1142.4037   0.06048304  0.060070724            3 
 1575000   0.98938171   -4.2779327    1145.0947  0.060587022  0.060061528            4 
 1576000    1.0032909   -4.2903466    1140.9812  0.060331072  0.060052432            5 
 1577000   0.99970123   -4.2785811     1147.898  0.060658318  0.060043442            2 
 1578000    1.0039454   -4.3113586    1141.3305  0.060273053  0.060034395            2 
 1579000   0.99638336   -4.3023106    1142.4981  0.060296498  0.060024911            2 
 1580000   0.98904903   -4.2873236    1145.5862  0.060421215  0.060015602            5 
 1581000   0.99925431    -4.306206    1146.4592  0.060429012  0.060006531            3 
 1582000   0.99368059   -4.2736141    1151.1197  0.060636309  0.059997585            5 
 1583000    1.0118295   -4.3369899    1143.8746  0.060216602  0.059988442            6 
 1584000    1.0067318   -4.3446823    1145.7724  0.060278432  0.059979474            2 
 1585000    1.0260572   -4.3018911    1149.9839  0.060461822  0.059970704            5 
 1586000    0.9871363   -4.3112461    1150.9775  0.060475907  0.059961768            2 
 1587000    1.0022841   -4.3246128    1149.2701  0.060348149  0.059953145            5 
 1588000    1.0042142   -4.3252587    1150.2859  0.060363449   0.05994422            4 
 1589000    1.0004805   -4.2868404    1152.8754  0.060461266  0.059935756            2 
 1590000    1.0068615   -4.3008607     1147.728  0.060153462  0.059926805            2 
 1591000   0.99386092   -4.3524958    1151.5264  0.060314605  0.059917751            4 
 1592000    1.0185524   -4.3401206    1147.8509  0.060084322  0.059908831            2 
 1593000    1.0176526   -4.3167525    1158.1907  0.060587502  0.059900035            2 
 1594000   0.99787492   -4.3173309    1153.0904  0.060282853  0.059891256            4 
 1595000   0.99043153   -4.2988591    1154.7821  0.060333443    0.0598826            3 
 1596000   0.98784875   -4.3177637    1154.4934  0.060280565  0.059873623            3 
 1597000    1.0131788   -4.3002468    1163.1269  0.060693325  0.059864525            2 
 1598000    1.0112392   -4.3125373    1154.0228  0.060180579  0.059855574            5 
 1599000   0.99581082   -4.2925545    1155.3111  0.060210085  0.059846773            4 
 1600000    1.0093788   -4.3178258    1155.2484   0.06016919  0.059837747            4 
 1601000    1.0235017   -4.3333984    1155.1687  0.060127458  0.059828573            3 
 1602000   0.98695186   -4.3077441    1156.6909  0.060169107  0.059819571            3 
 1603000   0.99287117   -4.3239405    1163.0235  0.060460776  0.059810694            2 
 1604000   0.98741141   -4.3142995    1157.3066  0.060126069  0.059801568            4 
 1605000   0.99608035    -4.309624    1160.8024  0.060270114  0.059792682            4 
 1606000   0.99529941   -4.3072146    1159.1093  0.060144732  0.059783754            3 
 1607000    1.0100304   -4.3024413    1162.7671   0.06029699  0.059774752            3 
 1608000   0.98718251   -4.3282452    1161.2163  0.060179122   0.05976599            3 
 1609000    1.0007637   -4.3142174    1163.3265  0.060251012  0.059757242            2 
 1610000    1.0038638   -4.3214726    1161.6561  0.060127129  0.059748551            4 
 1611000   0.97674186   -4.3294347    1161.7084  0.060092508  0.059739493            2 
 1612000   0.99528824   -4.3524628    1167.1452  0.060336293  0.059730791            2 
 1613000   0.98214675   -4.3366692    1163.3122  0.060100858  0.059721913            4 
 1614000   0.97885227    -4.297248    1168.2734  0.060319776  0.059713128            6 
 1615000   0.98391716   -4.3432997     1160.925  0.059903249  0.059704355            4 
 1616000    1.0019829   -4.3098503    1165.2681  0.060090145  0.059695372            7 
 1617000    0.9924615   -4.3353198    1167.6317  0.060174792  0.059686103            5 
 1618000    1.0125982   -4.3267167     1168.399   0.06017712  0.059677274            4 
 1619000   0.99338635   -4.3564811    1161.0799  0.059763223  0.059668472            3 
 1620000    1.0070444    -4.304823    1169.6388  0.060166607  0.059659688            7 
 1621000    1.0083388   -4.3469857    1165.1297  0.059897684  0.059650963            3 
 1622000   0.99295655   -4.2956333    1170.1627  0.060119333  0.059642044            3 
 1623000    0.9977527    -4.333988    1169.9728  0.060072541   0.05963353            4 
 1624000    0.9724904   -4.3152123    1171.8652  0.060132658  0.059624546            3 
 1625000   0.99645784   -4.3337608    1170.9116  0.060046751  0.059615626            7 
 1626000    1.0040725   -4.3414598    1167.9805  0.059859601  0.059606691            3 
 1627000   0.96984664   -4.3045649    1173.0685  0.060083408  0.059597706            4 
 1628000    0.9662932   -4.3004638     1173.507  0.060068952  0.059588594            2 
 1629000   0.99873004   -4.3301517    1173.6293   0.06003833  0.059579227            2 
 1630000   0.96371788   -4.3342687    1168.7597  0.059752539  0.059569739            3 
 1631000    1.0015685   -4.3367763    1172.2541  0.059894445  0.059560317            4 
 1632000   0.98136657   -4.3055185    1169.7829  0.059731564  0.059551053            2 
 1633000    0.9942687   -4.3281175    1173.6737  0.059893534  0.059541542            2 
 1634000   0.99962437   -4.3181918    1178.8097  0.060118811  0.059532561            5 
 1635000   0.99784542   -4.3131595    1178.3349  0.060057843  0.059523708            1 
 1636000   0.97067005   -4.3076663    1173.8257   0.05979145  0.059514435            4 
 1637000   0.99444778   -4.3045969    1172.8665  0.059706093  0.059505307            2 
 1638000   0.99927489    -4.350222    1177.3787    0.0598992  0.059496253            4 
 1639000   0.98949651   -4.2960171    1179.7063  0.059980998  0.059487235            1 
 1640000   0.99599312   -4.3486633    1180.7267  0.059996278  0.059478267            2 
 1641000   0.98584936   -4.3234357    1180.1172  0.059928762  0.059468922            4 
 1642000    1.0066627   -4.3109865    1176.8467  0.059726282   0.05945988            3 
 1643000    0.9883188   -4.3329212    1179.3942  0.059819143  0.059450689            3 
 1644000   0.97996441    -4.328142    1177.2086  0.059671971  0.059441354            5 
 1645000     1.002619   -4.3471721    1177.3111  0.059640885  0.059431735            5 
 1646000    1.0012734   -4.3016873    1184.9213   0.05998994  0.059422118            4 
 1647000   0.98016943   -4.3565823    1177.5157  0.059578813  0.059412684            4 
 1648000   0.99706535   -4.3272822    1184.1946  0.059880392  0.059403045            2 
 1649000   0.98758016   -4.3403583    1173.9523  0.059326474  0.059393414            2 
 1650000    1.0121854   -4.3426495    1179.8652  0.059589149  0.059383565            6 
 1651000   0.98298228   -4.3499016    1176.9524  0.059406034  0.059373879            3 
 1652000   0.97180131   -4.3292248    1184.0888  0.059730063  0.059364451            4 
 1653000   0.99167113   -4.3211852    1185.9563  0.059788077  0.059354966            1 
 1654000    0.9783729   -4.3445974    1182.4215  0.059573836   0.05934546            6 
 1655000   0.99564442    -4.353144    1181.0762  0.059470099  0.059335827            7 
 1656000   0.99651506   -4.3248859    1186.0122  0.059682578  0.059325954            4 
 1657000   0.99634946    -4.348358    1184.5904  0.059575053  0.059316395            4 
 1658000   0.98245846   -4.3832279    1179.1555  0.059265958  0.059306799            1 
 1659000    0.9971125   -4.3212471    1183.8346  0.059465271  0.059297144            2 
 1660000   0.99382501   -4.3146012    1188.0734   0.05964224  0.059287775            3 
 1661000   0.99051114   -4.3346651    1185.5462  0.059479543  0.059278193            2 
 1662000    1.0041444   -4.3682027    1184.0515  0.059368806  0.059268197            5 
 1663000   0.98658911   -4.2997011    1186.3138  0.059446471  0.059258762            1 
 1664000   0.98996856   -4.3087524     1191.147  0.059652796  0.059249294            3 
 1665000   0.98495896   -4.3425839    1183.2388   0.05922116  0.059239967            3 
 1666000   0.97815103   -4.3254393    1189.3375  0.059490669  0.059230396            5 
 1667000    0.9768045   -4.3747695    1189.8153  0.059478871  0.059221363            3 
 1668000    1.0037368   -4.3309722    1186.4037  0.059272766  0.059212049            3 
 1669000   0.97293222   -4.3606332    1192.9582  0.059564517  0.059202323            2 
 1670000    0.9859672   -4.3334054    1190.2786  0.059395139   0.05919276            1 
 1671000     1.000213   -4.3326534    1191.3459  0.059412821  0.059183013            8 
 1672000   0.94360743   -4.2998362    1194.8655  0.059552709  0.059173456            3 
 1673000    0.9952326   -4.3510354    1191.3827  0.059343627  0.059164068            3 
 1674000    1.0047027    -4.318642    1196.4214  0.059559009  0.059154406            5 
 1675000   0.97576527    -4.341865    1192.7046  0.059338539  0.059144828            5 
 1676000   0.98161653   -4.3099235    1192.6196  0.059298908  0.059134915            5 
 1677000   0.98749752   -4.3486778    1190.9571  0.059180932  0.059125227            2 
 1678000    1.0010065   -4.3207816    1197.0805  0.059449768  0.059115387            3 
 1679000   0.97150843   -4.3560133    1189.7947  0.059052745  0.059105549            3 
 1680000      1.00911    -4.327903    1197.8842  0.059418857  0.059095599            2 
 1681000     1.003948   -4.3736808    1196.4388  0.059311856  0.059085875            2 
 1682000   0.97831614   -4.3237779    1201.2609  0.059515503  0.059076188            2 
 1683000   0.98606095    -4.362682    1195.3629  0.059188103  0.059066609            3 
 1684000   0.97451645   -4.3337698    1201.9576  0.059479293  0.059056821            5 
 1685000   0.97005829   -4.3187332    1201.3053  0.059411735  0.059047189            2 
 1686000   0.97393243   -4.4044392    1194.8475  0.059057308  0.059037357            8 
 1687000   0.96437846   -4.3742578    1192.6889  0.058915672  0.059027395            3 
 1688000    1.0040887   -4.3414714    1197.1496  0.059100989  0.059017453            4 
 1689000   0.96528523   -4.3694048    1197.0514  0.059061153  0.059007428            3 
 1690000   0.99553194   -4.3658769    1198.0199  0.059073962  0.058997589            3 
 1691000     1.000618   -4.3471786    1201.8614  0.059228336  0.058987864            2 
 1692000   0.97045843   -4.3347912    1204.4254  0.059319612  0.058978584            4 
 1693000   0.96951406   -4.3623425    1202.4954  0.059189577  0.058968902            2 
 1694000     0.979522   -4.3729877     1197.494  0.058908601  0.058958934            4 
 1695000   0.98034349   -4.3559639     1206.837  0.059333187  0.058948982            3 
 1696000   0.97302549   -4.3330902      1201.74  0.059047758  0.058939234            3 
 1697000    0.9896962   -4.3714673    1203.3687  0.059092943  0.058929441            3 
 1698000   0.96572491   -4.3865057    1205.5794  0.059166638  0.058919441            3 
 1699000   0.99864856   -4.3336768     1209.021  0.059300618  0.058909711            4 
 1700000   0.97768909   -4.3432563    1207.5886  0.059195519  0.058899957            5 
 1701000   0.99404688   -4.3244511    1204.3193  0.059000553  0.058890197            4 
 1702000   0.98406139   -4.3355897    1210.0761  0.059247754  0.058880387            4 
 1703000   0.98433038   -4.3468005    1208.2642  0.059124298  0.058870855            2 
 1704000   0.99223046   -4.3470923    1205.5876  0.058958705  0.058861253            3 
 1705000   0.98802851   -4.3610733    1211.4164  0.059209011  0.058851442            3 
 1706000   0.95844173   -4.3640977    1205.9173  0.058905689  0.058841875            4 
 1707000    0.9654017   -4.3004319    1207.9767  0.058971717   0.05883207            3 
 1708000   0.98015025    -4.340919    1205.8253  0.058832226  0.058822573            3 
 1709000   0.96734667   -4.3568142     1208.213  0.058914229  0.058812688            2 
 1710000   0.98338851   -4.3392127    1208.0373  0.058871213  0.058802973            2 
 1711000   0.97065117   -4.3470304    1211.6486  0.059012693  0.058793145            2 
 1712000   0.97731647   -4.3508371    1207.5531  0.058778872  0.058783459            3 
 1713000   0.98471889   -4.3409271    1210.5425  0.058889984   0.05877372            3 
 1714000   0.96748681   -4.3361604    1213.1182  0.058980852  0.058764024            2 
 1715000   0.98441789   -4.3688866    1214.3661  0.059007097  0.058754297            5 
 1716000   0.95401652   -4.3192778    1216.7847  0.059090164  0.058744796            3 
 1717000   0.99145053   -4.3565706    1213.8296  0.058912326  0.058735211            3 
 1718000   0.98471994   -4.3834518    1211.7225  0.058775828  0.058725864            2 
 1719000   0.98798502   -4.3718258    1216.3744  0.058967151  0.058716415            5 
 1720000   0.98339815   -4.3469693    1216.8329  0.058955081  0.058707019            5 
 1721000   0.96188317   -4.3515422     1224.111  0.059273242   0.05869751            8 
 1722000   0.98172632   -4.3814392    1219.3591  0.059008859  0.058688155            3 
 1723000    0.9878286   -4.3688561    1219.4061  0.058976885  0.058678807            2 
 1724000   0.98172656   -4.3505513    1220.1326  0.058977793  0.058669437            4 
 1725000    0.9813107   -4.3622615     1216.573  0.058771645  0.058660192            4 
 1726000   0.97124379   -4.3630636    1219.5465  0.058881157  0.058651043            4 
 1727000   0.97410839   -4.3619796    1217.5974  0.058753011  0.058641295            8 
 1728000   0.96040492   -4.3407103    1221.7687  0.058920174   0.05863233            4 
 1729000   0.95084982   -4.3550715    1224.8097  0.059032665  0.058623026            2 
 1730000   0.98335681   -4.3449232    1224.9208  0.059003892  0.058613606            3 
 1731000   0.95882424   -4.3597097    1223.6956  0.058910822  0.058604229            2 
 1732000    0.9618595   -4.3345577    1222.7692  0.058832237  0.058594702            3 
 1733000   0.98809686   -4.3397369    1222.0701   0.05876467  0.058585072            2 
 1734000   0.97843379   -4.3565097    1221.3073  0.058694122  0.058575294            7 
 1735000   0.98566168   -4.3360409    1221.7191  0.058680072  0.058565361            3 
 1736000   0.94962527   -4.3606497      1224.09  0.058760078  0.058555574            3 
 1737000   0.97813105   -4.3796493    1222.2865  0.058639729    0.0585456            3 
 1738000   0.94593854   -4.3603835    1228.3884  0.058898561  0.058535656            3 
 1739000   0.97477081   -4.3498575    1223.1514  0.058613736  0.058525746            2 
 1740000   0.97419046   -4.3470412    1227.2006  0.058773975  0.058516274            4 
 1741000   0.96155069   -4.3401665    1225.2574  0.058647202  0.058506608            3 
 1742000   0.94560892   -4.3432566     1229.614  0.058821949  0.058496736            3 
 1743000   0.95545747   -4.3733249    1225.0763   0.05857125  0.058486756            4 
 1744000   0.96235505   -4.3776915    1222.6854  0.058423424  0.058477006            3 
 1745000   0.98699425   -4.3431986    1228.1431  0.058650579  0.058466992            4 
 1746000   0.95003376   -4.3667918    1226.4041  0.058533985  0.058456931            2 
 1747000   0.98873432   -4.3898449    1226.1287  0.058487344    0.0584471            2 
 1748000   0.96295582   -4.3703571    1227.6269  0.058525311  0.058437039            3 
 1749000   0.98839995   -4.3793431    1226.1214  0.058420117  0.058426926            5 
 1750000   0.96157605   -4.3585599    1228.4246   0.05849641  0.058416926            9 
 1751000   0.97682091   -4.3524236    1229.5511  0.058516615  0.058406985            2 
 1752000   0.97487854   -4.3465093    1230.5384  0.058530176  0.058397052            4 
 1753000   0.96484169   -4.3547885    1229.1583  0.058431178  0.058386906            2 
 1754000   0.99145682   -4.3485698    1232.8625  0.058573854  0.058376743            6 
 1755000   0.95960637   -4.3431168    1235.3951  0.058660738  0.058366481            2 
 1756000   0.94478816   -4.3407287    1232.2375  0.058477481  0.058356265            2 
 1757000   0.98737505   -4.3867664    1232.3277   0.05844848  0.058346128            2 
 1758000   0.95315485     -4.33998    1233.3149  0.058462024   0.05833592            5 
 1759000   0.98495009   -4.3580948     1233.264  0.058426377  0.058325803            3 
 1760000   0.97598481   -4.3337747    1239.5892  0.058692671  0.058315869            3 
 1761000    0.9571706   -4.3795981    1231.7958  0.058290544  0.058305971            5 
 1762000   0.99209528    -4.345683    1237.4808  0.058526333  0.058296212            2 
 1763000   0.97331875   -4.3804181    1235.9773   0.05842207  0.058286561            2 
 1764000   0.96033318   -4.3785057    1234.4303  0.058315869  0.058276573            5 
 1765000   0.96358383    -4.331361     1237.874   0.05844542  0.058266385            3 
 1766000   0.96019612   -4.3480403    1239.2668  0.058478047  0.058256343            7 
 1767000   0.98131969   -4.3837942    1235.5301  0.058268728  0.058246088            3 
 1768000   0.95755366   -4.3573739    1238.5019  0.058375842  0.058236122            3 
 1769000    0.9541905    -4.360645    1242.7136  0.058541246  0.058226494            3 
 1770000   0.94553407   -4.3915619    1240.4914  0.058403549  0.058216775            2 
 1771000   0.97590504   -4.3612305    1240.0625  0.058350389  0.058206823            2 
 1772000   0.99607628   -4.3924752    1239.4002  0.058286313  0.058197183            3 
 1773000   0.95985897    -4.331588    1244.1359  0.058476023    0.0581871            5 
 1774000   0.95499152   -4.3730928    1243.2801  0.058402859  0.058177202            2 
 1775000   0.94340621   -4.3733754    1244.8219  0.058442341   0.05816706            3 
 1776000   0.96368844   -4.3437542    1239.1958   0.05814545  0.058156915            4 
 1777000   0.96614128   -4.3410121    1243.2478  0.058302747  0.058146761            3 
 1778000   0.94625401   -4.3375879    1246.0474  0.058401171  0.058136888            2 
 1779000   0.96639178   -4.3539198    1243.1574  0.058232966  0.058127039            4 
 1780000   0.95965028   -4.4035149    1241.0957   0.05810373  0.058117194            3 
 1781000   0.97226279   -4.3558267     1245.123  0.058259547  0.058107211            3 
 1782000   0.95998872   -4.3658296    1240.7921  0.058024322  0.058097034            3 
 1783000   0.97232248     -4.37672    1242.9639  0.058093283   0.05808718            2 
 1784000    0.9637213   -4.4005208    1241.8881  0.058010466  0.058076916            5 
 1785000   0.97116341   -4.3387485    1248.2513  0.058275037  0.058067003            3 
 1786000   0.96493656   -4.3615423    1244.9178   0.05808687  0.058057044            2 
 1787000   0.95863928   -4.3845595    1245.1678  0.058066024  0.058046999            3 
 1788000   0.97280989   -4.3696046    1247.4879  0.058141682   0.05803689            1 
 1789000    0.9779171   -4.3704211    1246.5795  0.058066868  0.058026863            4 
 1790000   0.95675504   -4.3768722    1245.0483  0.057963141   0.05801676            3 
 1791000   0.95327587     -4.34801    1249.1565  0.058121931  0.058006728            3 
 1792000   0.96437098    -4.369331    1253.1402  0.058274747  0.057996731            3 
 1793000   0.95238491   -4.3644074    1252.1606  0.058196718  0.057986312            3 
 1794000   0.95885262   -4.3651073    1247.2522  0.057936277    0.0579764            2 
 1795000   0.95860774    -4.363033    1255.6946  0.058295944  0.057966474            5 
 1796000   0.96363063   -4.3752877    1252.7775  0.058128132  0.057956229            3 
 1797000   0.96350203   -4.4009083    1249.7417  0.057955002  0.057946143            1 
 1798000   0.93707766   -4.3632584    1258.1502  0.058312486   0.05793636            3 
 1799000   0.95623802   -4.3745217    1252.2418  0.058006385  0.057926422            5 
 1800000   0.95152248   -4.3908868    1254.4252  0.058075243  0.057916342            3 
 1801000   0.95500622   -4.4033322    1252.6923  0.057962812  0.057906093            2 
 1802000   0.97831464    -4.366868    1253.4769  0.057966929  0.057896007            7 
 1803000   0.93603094   -4.3749451    1255.6989   0.05803748  0.057885768            5 
 1804000   0.96096137    -4.399063    1253.5341  0.057905306   0.05787558            3 
 1805000   0.96878991   -4.4061206    1254.5601  0.057920597  0.057865255            2 
 1806000   0.96617947   -4.4062534    1248.4733  0.057607663  0.057854721            4 
 1807000    0.9812567   -4.4086837    1251.3683  0.057709292  0.057844283            2 
 1808000   0.96789048   -4.3866657    1252.8357  0.057745006  0.057833983            3 
 1809000   0.98025412   -4.3577254    1251.3046  0.057642557  0.057823687            7 
 1810000   0.96669159   -4.3608483    1256.8642  0.057866674   0.05781333            2 
 1811000   0.97526802   -4.4098549    1255.4256  0.057768528  0.057802567            9 
 1812000   0.97940104   -4.3544575    1256.5215  0.057787046  0.057792068            3 
 1813000   0.97071479   -4.3628738    1256.0695  0.057734393  0.057781501            3 
 1814000   0.96042363    -4.352281    1260.6754  0.057914158  0.057771007            2 
 1815000   0.96198566   -4.3676614    1263.0023  0.057989085  0.057760733            5 
 1816000    0.9682292   -4.3521284    1260.2593  0.057831284  0.057750605            4 
 1817000   0.95125557   -4.3986144    1259.7292  0.057775144   0.05774039            2 
 1818000   0.97117854   -4.4115256    1258.5442  0.057689046  0.057730054            4 
 1819000   0.96682524   -4.3657059    1262.9717  0.057860165   0.05771979            4 
 1820000   0.97803133   -4.3916877    1260.5737  0.057718576  0.057709432            3 
 1821000   0.96669068   -4.3803463    1260.0711  0.057663881  0.057699076            2 
 1822000   0.97077734   -4.3879432    1260.5057  0.057652107  0.057688653            3 
 1823000   0.96938156    -4.392622    1256.4205   0.05743374  0.057678143            5 
 1824000   0.96911263   -4.3787418    1262.0532  0.057659593  0.057667907            6 
 1825000   0.96251714   -4.3925226    1263.0565  0.057673814  0.057657682            3 
 1826000   0.94822179   -4.3589269    1266.5477  0.057801555  0.057647844            4 
 1827000   0.95656446   -4.3868234    1266.0702  0.057748138  0.057637881            2 
 1828000   0.95089129   -4.3947852    1267.2055  0.057768304  0.057628082            3 
 1829000    0.9638511   -4.4085705    1260.9789  0.057453021  0.057618171            5 
 1830000   0.95686919   -4.3607959    1272.6961  0.057955196  0.057608402            4 
 1831000   0.95124328   -4.3872052    1269.9284  0.057797577  0.057598881            1 
 1832000   0.96855201   -4.3531048    1270.0066  0.057769587  0.057589188            2 
 1833000   0.95413635   -4.3719241    1272.0029  0.057828827  0.057579492            2 
 1834000   0.96389896   -4.3946074    1271.5786  0.057778017  0.057569775            2 
 1835000   0.95834091   -4.3694436    1269.6913  0.057660822  0.057560023            2 
 1836000   0.96713214   -4.3843348    1272.7424    0.0577679  0.057550297            7 
 1837000   0.95076196   -4.3604925    1271.4301  0.057676922  0.057540521            2 
 1838000   0.95802399   -4.3950586    1270.1222  0.057586246  0.057530833           12 
 1839000   0.94431091    -4.363705     1278.827  0.057949385   0.05752138            3 
 1840000   0.95229862   -4.3786883    1276.2408  0.057800761  0.057511626            6 
 1841000   0.96588637   -4.3894194    1271.2158  0.057541906   0.05750177            5 
 1842000   0.94183785   -4.3816068    1272.1671  0.057553707   0.05749181            5 
 1843000   0.95978481   -4.4098709    1274.8653  0.057644479  0.057481995            2 
 1844000   0.95712207   -4.3692738    1277.5739  0.057735624  0.057472043            5 
 1845000   0.95040187   -4.3773195    1279.1381  0.057774982  0.057462005            3 
 1846000   0.98394711    -4.365508    1280.3845  0.057799948   0.05745201            5 
 1847000    0.9586372   -4.3757123    1270.7525  0.057334078  0.057442127            2 
 1848000   0.95615747   -4.3884593    1276.1817  0.057547876  0.057432063            3 
 1849000   0.96053437   -4.3845586    1276.6672  0.057538635  0.057422063            4 
 1850000   0.96211362   -4.3869294     1273.748  0.057376036   0.05741178            1 
 1851000   0.94491161   -4.3775046    1275.4912  0.057423517   0.05740161            2 
 1852000   0.93462044    -4.381745    1271.6088  0.057217819  0.057391336            4 
 1853000   0.96606374   -4.4094586    1278.7443  0.057507838  0.057380858            2 
 1854000   0.94448015    -4.405506    1276.4396  0.057373229  0.057370438            5 
 1855000   0.94861009   -4.3924714    1274.4967  0.057255016   0.05736005            8 
 1856000   0.96674057   -4.3806305    1273.2948  0.057170203  0.057349494            3 
 1857000   0.95967343   -4.3972747    1276.0799  0.057264401  0.057339166            3 
 1858000   0.95821415   -4.3899925     1271.141  0.057012066  0.057328676            4 
 1859000   0.94361875   -4.3689368    1281.9229  0.057464716   0.05731833            5 
 1860000   0.95713062    -4.394178     1278.215  0.057267697  0.057307789            2 
 1861000   0.96338803   -4.4010943     1284.425     0.057515  0.057297305            3 
 1862000   0.93515896   -4.3901652    1280.2615  0.057297776  0.057286806            4 
 1863000    0.9514144   -4.3882338    1282.5945  0.057371379  0.057276524            3 
 1864000    0.9698382   -4.3343476    1279.6829  0.057210431  0.057266084            3 
 1865000   0.96652136   -4.3931758    1286.7173  0.057494072  0.057255893            5 
 1866000   0.93789909   -4.4049954    1283.5215   0.05732054  0.057245571            7 
 1867000   0.94566773   -4.4470845      1282.37  0.057238442  0.057235276            4 
 1868000   0.94114339   -4.3977773    1283.1816  0.057244005  0.057224945            3 
 1869000   0.93390612   -4.3883463    1285.8784  0.057333619  0.057214889            3 
 1870000    0.9210923   -4.4045855    1281.9417  0.057127528  0.057204602            2 
 1871000   0.93947071   -4.4087034     1287.874  0.057361216  0.057194399            5 
 1872000   0.94950006    -4.366946     1288.887  0.057375668  0.057184188            4 
 1873000   0.95570458   -4.3962634    1289.1047  0.057354719  0.057174041            5 
 1874000   0.95665737    -4.389629    1286.8075  0.057221964  0.057164073            3 
 1875000    0.9576106   -4.4002589    1285.6653   0.05714068  0.057153956            3 
 1876000   0.95219268   -4.4269522     1284.337  0.057051216   0.05714344            3 
 1877000   0.95418969   -4.4006441    1287.1274  0.057144709  0.057133267            2 
 1878000   0.95511705   -4.4135005     1285.427  0.057038826  0.057123043            5 
 1879000   0.94840437   -4.4109724    1286.9366  0.057075421  0.057112485            2 
 1880000   0.95621693   -4.4250012     1282.972  0.056869328  0.057102145            2 
 1881000   0.94411115   -4.3812152     1290.498  0.057172517  0.057091742            3 
 1882000    0.9527562   -4.4331038     1286.979  0.056986319  0.057081377            4 
 1883000   0.95904937   -4.4136937    1289.1931  0.057054042  0.057070788            2 
 1884000   0.94250959   -4.4121935    1288.2923  0.056983913  0.057060181            3 
 1885000   0.96431968   -4.4159051    1288.8797  0.056979652  0.057049712            2 
 1886000   0.96527058   -4.4013813    1290.4769  0.057020012  0.057039452            2 
 1887000   0.94400481   -4.3971902    1289.1247  0.056930079  0.057029245            3 
 1888000   0.96232113   -4.3840599    1298.3937  0.057309043  0.057019084            4 
 1889000    0.9231781   -4.3809923    1293.7086  0.057072024  0.057008921            3 
 1890000   0.93131742   -4.3951236    1297.8158  0.057222918  0.056998862            5 
 1891000   0.94413867   -4.3913907    1294.0601  0.057027152  0.056988483            4 
 1892000   0.94817485   -4.3826392     1295.817  0.057074394  0.056978158            4 
 1893000   0.95691069   -4.3898028    1298.2011  0.057149195  0.056967705            2 
 1894000   0.94247013    -4.414158    1290.5581   0.05678274  0.056957094            7 
 1895000   0.93110736   -4.3916585    1295.6165  0.056975221  0.056946492            6 
 1896000     0.935016   -4.4125698    1291.0134  0.056742851  0.056935745            3 
 1897000   0.93012305    -4.393693    1294.0435  0.056846052  0.056925175            3 
 1898000   0.95292567   -4.4074185    1294.4573  0.056834268  0.056914747            4 
 1899000   0.94419918   -4.4167432    1297.2851  0.056928431  0.056904243            4 
 1900000   0.93683616   -4.4093939    1297.9006  0.056925463  0.056893804            1 
 1901000   0.94848256   -4.4208657    1296.1333  0.056818047  0.056883073            4 
 1902000   0.93754538   -4.4176761    1294.9993  0.056738492  0.056872406           11 
 1903000   0.93813571   -4.4153346    1297.7274  0.056828141    0.0568619            4 
 1904000   0.95943462   -4.4052519    1291.4948  0.056525509  0.056851187            3 
 1905000   0.95512882   -4.3645825    1302.0128  0.056955942  0.056840553            4 
 1906000   0.95068938   -4.4010508    1294.2702  0.056587539   0.05682972            5 
 1907000   0.94820736   -4.3887259    1300.3139  0.056821967  0.056819092            3 
 1908000    0.9579203   -4.3846973    1297.1654  0.056654675   0.05680836            7 
 1909000   0.95799166   -4.4048106    1296.3773  0.056590591  0.056797584            6 
 1910000   0.92442867   -4.4137593     1296.234  0.056554714  0.056786834            3 
 1911000   0.94282231   -4.4108793    1302.5426   0.05680022  0.056776085            3 
 1912000   0.94892569   -4.3780483    1301.3304  0.056717677  0.056765275            5 
 1913000   0.95972269   -4.3935656    1298.9759  0.056585462  0.056754306            6 
 1914000   0.92377912   -4.4068182    1303.4974  0.056752761  0.056743498            6 
 1915000   0.91758491   -4.3682224    1300.6906  0.056600984  0.056732689            6 
 1916000   0.93137943   -4.3948792    1299.1882    0.0565061  0.056722076            4 
 1917000   0.94043117   -4.4171731    1299.4144  0.056486453  0.056711304            7 
 1918000   0.95718388   -4.4057385    1304.3294  0.056670552   0.05670063            3 
 1919000    0.9556906    -4.406335    1300.5564  0.056477175   0.05668987            3 
 1920000   0.97123351    -4.405923    1305.7427  0.056672861  0.056679219            3 
 1921000   0.95797766   -4.4044393    1301.7596  0.056470569  0.056668651            4 
 1922000   0.96268809   -4.4021905    1304.3326  0.056552749  0.056657872            3 
 1923000   0.95389185    -4.395252    1306.8301  0.056631571  0.056647352            3 
 1924000   0.95690746   -4.4140206    1307.0403  0.056611237  0.056636557            5 
 1925000   0.93952415   -4.4259596    1306.3936  0.056553836  0.056625763            6 
 1926000   0.95870114   -4.3869338    1309.5691  0.056661869  0.056614867            5 
 1927000   0.93104079   -4.4011331    1304.2543  0.056402623  0.056604176            4 
 1928000   0.95997327   -4.4228071    1304.0313  0.056363732  0.056593637            5 
 1929000   0.94851656   -4.4143741    1308.5175  0.056528319  0.056582966            4 
 1930000   0.93009463   -4.4204997    1309.7075   0.05655041  0.056572594            3 
 1931000   0.93469515   -4.3702907    1310.9137  0.056573178  0.056562064            4 
 1932000    0.9370454   -4.4114178    1313.8111  0.056668871  0.056551547            4 
 1933000   0.93975466   -4.4215819    1311.7764  0.056551837  0.056541055            5 
 1934000   0.94601357   -4.4269194    1309.9865  0.056445473   0.05653036            5 
 1935000   0.92411795   -4.4045072    1310.5811  0.056441906  0.056519699            4 
 1936000    0.9157065   -4.4137096     1307.917  0.056298081   0.05650905            2 
 1937000   0.95151967    -4.390363    1311.7254  0.056432861  0.056498116            5 
 1938000   0.96694085   -4.3864974    1314.0149  0.056502189   0.05648751            5 
 1939000   0.92508207   -4.4175571    1314.8294  0.056508055  0.056476984            5 
 1940000   0.93859051   -4.4201943    1311.1787  0.056322109  0.056466299            3 
 1941000    0.9520645    -4.417472     1313.036   0.05637283  0.056455677            4 
 1942000   0.94135439   -4.4068002    1310.3608  0.056229007  0.056444742            2 
 1943000   0.95464257   -4.4234937    1309.9453  0.056182246  0.056433919            4 
 1944000   0.95803846   -4.4061076    1318.3679  0.056514397  0.056423168            3 
 1945000   0.96755515    -4.380112     1319.346  0.056527248  0.056412943            7 
 1946000   0.93221661   -4.4532184    1313.5784  0.056251217   0.05640257            5 
 1947000   0.94076493   -4.4266431     1316.324  0.056339837  0.056391864            2 
 1948000   0.96270442   -4.4112842     1320.364  0.056483745  0.056381484            8 
 1949000   0.93077433   -4.4031652    1320.6838  0.056468437  0.056370982            6 
 1950000   0.93882376   -4.4097826    1320.2294  0.056420059  0.056360525            2 
 1951000   0.92099003   -4.4369173    1320.2002  0.056389892  0.056349799            2 
 1952000   0.93674779   -4.4015609    1319.2473  0.056320325  0.056339275            3 
 1953000   0.94964973   -4.4399443    1315.8923   0.05614833  0.056328549            3 
 1954000   0.95504118   -4.4097118     1318.939   0.05624953  0.056317896            3 
 1955000   0.95767496   -4.3736936     1321.932  0.056348338  0.056307084            2 
 1956000   0.95460251   -4.4298197    1315.7457   0.05605597  0.056296386            5 
 1957000   0.93343948   -4.4541619    1313.3004  0.055923201  0.056285606            5 
 1958000   0.94380633   -4.4345382    1319.0887  0.056140989  0.056274546            2 
 1959000   0.93601364   -4.4263426    1319.5406  0.056131555  0.056263476            3 
 1960000   0.92787193   -4.4549706    1317.2692  0.056006343  0.056252639            3 
 1961000   0.94680558   -4.3822937     1319.078  0.056054649  0.056241513            3 
 1962000   0.94908747   -4.4060153    1319.7544  0.056054806  0.056230721            3 
 1963000     0.949828   -4.3931612    1322.5796  0.056146186  0.056219991            3 
 1964000   0.95122249   -4.4244593    1324.9982  0.056220222  0.056209078            2 
 1965000    0.9226635   -4.4200509    1321.7835  0.056055279  0.056198222            2 
 1966000   0.96131913   -4.4166753    1319.9779  0.055950232  0.056187319            2 
 1967000   0.91266312    -4.434311     1322.831  0.056042662  0.056176491            6 
 1968000   0.92979553   -4.4238273    1320.6039  0.055919881  0.056165527            5 
 1969000   0.95486623   -4.4572752    1324.9753  0.056076489  0.056154629            5 
 1970000    0.9194213   -4.4141172    1324.6658  0.056034932  0.056143683            3 
 1971000   0.95580593   -4.4231627    1324.0041  0.055978527  0.056133078            2 
 1972000   0.93624538    -4.399895    1328.2029  0.056127574  0.056122342            4 
 1973000   0.91366538   -4.4122703    1327.0309  0.056049623   0.05611187            3 
 1974000   0.94213158   -4.4227595    1324.6929  0.055922532  0.056101129            4 
 1975000    0.9422008   -4.4376878    1328.5499   0.05605696  0.056090281            2 
 1976000   0.93491176   -4.4188187    1323.2053  0.055803193  0.056079321            5 
 1977000   0.90566182   -4.4096245    1331.8493  0.056139325    0.0560687            4 
 1978000   0.94843305   -4.4092626    1331.1138  0.056079954   0.05605792            6 
 1979000   0.92604961   -4.4331958    1329.0365  0.055964146  0.056047195            2 
 1980000   0.91581752   -4.4547914    1325.5424   0.05578882  0.056036427            4 
 1981000   0.92313812   -4.4004586    1337.5813  0.056267093  0.056025674            3 
 1982000   0.95283369   -4.3957922    1330.1669  0.055926965  0.056015098            4 
 1983000   0.91963687   -4.4491688    1331.2199  0.055943013  0.056004305            6 
 1984000   0.94191426   -4.4339598    1329.6058  0.055847018  0.055993484            2 
 1985000   0.92612025   -4.4432254    1330.0719  0.055838449  0.055982767            2 
 1986000    0.9223611    -4.444503    1332.1003  0.055895448  0.055971893            5 
 1987000   0.95104234   -4.4670623    1330.7723  0.055811623   0.05596106            2 
 1988000    0.9272115   -4.4371662     1333.215  0.055885941  0.055950389            4 
 1989000   0.94645628   -4.4155499    1332.0751  0.055810083  0.055939412            3 
 1990000   0.95867516   -4.4149889    1332.2279  0.055788438  0.055928542           10 
 1991000    0.9432362   -4.3916775    1341.6756  0.056155852  0.055917652            3 
 1992000   0.92394844   -4.4292978    1335.3304  0.055862216  0.055906845            7 
 1993000   0.92757723   -4.4275822    1331.4025  0.055669949  0.055895882            4 
 1994000   0.91542614   -4.4209457    1331.8721  0.055661654  0.055885098            7 
 1995000    0.9357906   -4.4600733    1333.4042  0.055697755  0.055874129            6 
 1996000   0.91284387   -4.4216225    1335.0388  0.055738092  0.055863324            3 
 1997000   0.95113643   -4.4635067    1335.3185  0.055721855  0.055852404            3 
 1998000   0.92755209   -4.4283441    1339.5514  0.055870513  0.055841574            4 
 1999000   0.89737267   -4.4154126    1342.4075  0.055961627  0.055831012            4 
 2000000   0.93131373   -4.3992992    1342.9843  0.055957679  0.055820411            4 
 2001000   0.91714323   -4.4329393    1338.1696  0.055729202   0.05580986            2 
 2002000   0.92598444   -4.4455422    1339.8422  0.055770989  0.055799099            4 
 2003000   0.92747255   -4.4328948    1339.8586  0.055743826  0.055788532            5 
 2004000   0.94035738   -4.4410488    1336.7336  0.055586062  0.055777821            8 
 2005000   0.94695291   -4.4477103     1342.551  0.055800123  0.055767335            3 
 2006000   0.95320175   -4.4553878    1340.5508  0.055689216  0.055756941            4 
 2007000    0.9449176   -4.4412571    1339.3965  0.055613542  0.055746394            9 
 2008000   0.92387201    -4.460491    1344.3538  0.055791575  0.055736008            6 
 2009000   0.92512334   -4.4206591    1346.0151  0.055832716  0.055725451            3 
 2010000   0.91350875   -4.4308389    1340.0897  0.055559276  0.055714821            6 
 2011000   0.91784322   -4.4403868    1338.7067  0.055474336  0.055704189            6 
 2012000   0.91965244   -4.4122348    1344.5113  0.055687179  0.055693675            8 
 2013000   0.93439899   -4.4079884    1345.2988  0.055692119  0.055683235            3 
 2014000   0.95411785   -4.4136066    1348.3501  0.055790718  0.055672908            6 
 2015000   0.93162409   -4.4031242    1345.9806  0.055665036  0.055662379            2 
 2016000   0.93745361   -4.4419431    1347.6268  0.055705471   0.05565172            5 
 2017000   0.89908096    -4.426548    1348.8997  0.055730445  0.055641249            2 
 2018000   0.94037321    -4.430425    1347.0494   0.05562642  0.055630616            3 
 2019000   0.94493681   -4.4183687    1347.0716  0.055599785  0.055620007            4 
 2020000    0.9218508   -4.4537767     1347.274  0.055580609  0.055609566            8 
 2021000   0.95090656   -4.4614218    1350.4568  0.055684346  0.055599043            4 
 2022000   0.95017767   -4.4569651    1350.1785  0.055645337  0.055588681            5 
 2023000   0.92613577   -4.4487944    1349.1103   0.05557383  0.055578182            2 
 2024000   0.92166093   -4.4351122    1344.2347  0.055345633  0.055567587            4 
 2025000   0.93521089   -4.4309367    1349.6652   0.05554178   0.05555692            4 
 2026000   0.94021084   -4.4419507    1347.1188  0.055409624   0.05554619            3 
 2027000   0.92296856   -4.4432928    1350.8182  0.055534379   0.05553554            7 
 2028000   0.91881831   -4.4357054    1346.3919  0.055325112  0.055525022            4 
 2029000   0.92183573    -4.436635    1348.4149   0.05538093  0.055514075            4 
 2030000   0.94194018   -4.4426741    1346.5812  0.055278373  0.055503261            5 
 2031000   0.91329466   -4.4551438    1348.7842  0.055341547  0.055492539            6 
 2032000   0.93647292   -4.4069905    1356.5583  0.055633131  0.055481892            3 
 2033000   0.94036864   -4.4438833    1351.9656  0.055417512   0.05547087            7 
 2034000   0.92311088   -4.4521042    1351.3148  0.055363602  0.055459881            3 
 2035000   0.93049842    -4.418595    1351.6481  0.055350043   0.05544909            4 
 2036000   0.94087298   -4.4159839    1353.1983  0.055386307  0.055438175            5 
 2037000   0.91308172   -4.4547612    1344.9557  0.055021917  0.055427088            2 
 2038000   0.92097916   -4.4417312    1350.3971  0.055217416  0.055415987            4 
 2039000   0.92005859   -4.4478862    1348.5327  0.055114135  0.055405041            9 
 2040000   0.93587667   -4.4177478    1347.6936  0.055052844  0.055394031            9 
 2041000    0.9362939   -4.4242862    1352.7524  0.055232418  0.055382976            6 
 2042000   0.94999613   -4.4088791    1354.4467  0.055274513    0.0553718           10 
 2043000   0.91641221   -4.4332453    1356.5124  0.055331719  0.055360654            3 
 2044000   0.91325358   -4.4477864    1353.5488  0.055183823  0.055349522            4 
 2045000   0.94154564   -4.4507869    1349.7131  0.055000535  0.055338482            3 
 2046000   0.90225962    -4.449201    1348.0623  0.054906414  0.055327319            4 
 2047000   0.92046408   -4.4596108    1346.9112   0.05483273    0.0553162            5 
 2048000   0.93748603   -4.4398907    1354.4009  0.055110714  0.055305172            2 
 2049000   0.92741828   -4.4653918    1358.5048  0.055250725  0.055294313            5 
 2050000   0.90885261   -4.4407921    1358.5527  0.055225721  0.055283454            3 
 2051000   0.92700565   -4.4008071    1354.5196  0.055034926  0.055272439            4 
 2052000   0.90958522   -4.4490226    1354.0706  0.054989872   0.05526143            4 
 2053000   0.92021143   -4.4393237    1356.6532  0.055067918  0.055250374            5 
 2054000   0.91210732   -4.4493492    1357.6519  0.055081625  0.055239296            4 
 2055000   0.93067091   -4.4586369    1355.7738  0.054978662  0.055228218            3 
 2056000   0.91662178   -4.4541187    1359.9464  0.055121045  0.055217144            4 
 2057000   0.91528829    -4.413157    1360.9401  0.055134506   0.05520617            3 
 2058000   0.92238549   -4.4478623    1355.8008  0.054899609  0.055195016            2 
 2059000   0.92878752   -4.4535452    1357.9218   0.05495879  0.055183884            5 
 2060000   0.91110751   -4.4591038    1352.1532  0.054698753  0.055172707            2 
 2061000   0.93494086   -4.4404373    1360.4926  0.055009406  0.055161486            3 
 2062000   0.91911043   -4.4711821     1357.505  0.054861985  0.055150327            3 
 2063000   0.93466807   -4.4418977     1359.957  0.054934439   0.05513909            5 
 2064000   0.94197461   -4.4621979    1361.9264  0.054987339  0.055128204            2 
 2065000   0.92412768    -4.457319    1358.2083  0.054810667  0.055117049            7 
 2066000   0.91404835   -4.4370089    1359.2238  0.054825096  0.055106053            3 
 2067000   0.89858293    -4.449647    1368.4842  0.055171918  0.055095006            2 
 2068000   0.90493982   -4.4376462     1366.571  0.055068141  0.055084216            6 
 2069000   0.92383592   -4.4544278    1365.1444  0.054984066   0.05507339            5 
 2070000   0.93343152   -4.4168605    1365.8913  0.054987574  0.055062872            2 
 2071000   0.94778609    -4.417272    1362.5829  0.054827895  0.055052336            2 
 2072000   0.92621318   -4.4663423    1365.0215  0.054899512  0.055041575            2 
 2073000   0.93812755   -4.4208607    1367.1651  0.054959201  0.055030904            2 
 2074000   0.92799654   -4.4565997    1369.0035  0.055006568  0.055020133            5 
 2075000   0.91612798   -4.4678994    1366.1248  0.054864449   0.05500924            5 
 2076000   0.91637802   -4.4728213    1364.6394  0.054778394  0.054998381            5 
 2077000    0.9240348   -4.4803641    1364.9955   0.05476631  0.054987493            2 
 2078000   0.92683614    -4.478607    1363.7559  0.054690244  0.054976637            3 
 2079000   0.92197856   -4.4240569     1368.183  0.054841392  0.054965555            1 
 2080000   0.91223131   -4.4463318    1365.8638  0.054722109  0.054954529            3 
 2081000    0.9102797   -4.4738292    1366.2622  0.054711767  0.054943456            3 
 2082000   0.95212678    -4.456849    1366.9039   0.05471117   0.05493253            2 
 2083000   0.92863958   -4.4535961    1364.1204  0.054573547  0.054921574            2 
 2084000   0.91251235    -4.453876    1363.0713  0.054505411   0.05491055            4 
 2085000   0.93339588    -4.447049     1367.353    0.0546504  0.054899565            5 
 2086000   0.91173476   -4.4607559    1366.7967  0.054601976  0.054888532            3 
 2087000   0.89508788   -4.4970734     1359.639  0.054290011  0.054877293            5 
 2088000   0.90125036   -4.4623282    1372.5445  0.054779077  0.054866225            4 
 2089000   0.93290773   -4.4836044    1364.3189  0.054424721  0.054854922            2 
 2090000   0.92359125   -4.4609978    1365.6369  0.054451233  0.054843802            8 
 2091000   0.90426525    -4.476125     1365.448  0.054417663   0.05483256            3 
 2092000   0.91982584   -4.4699904    1368.0872   0.05449678  0.054821484            6 
 2093000   0.92614282   -4.4758523    1371.1448  0.054592482  0.054810529            3 
 2094000   0.89906181   -4.4964798    1370.0974  0.054524728  0.054799307            3 
 2095000    0.9251471    -4.455895    1373.7445  0.054643773  0.054788139            3 
 2096000   0.89956144   -4.4439708     1373.711  0.054616373  0.054776973            2 
 2097000    0.9092902   -4.4484635    1372.5932  0.054545908  0.054765836            3 
 2098000   0.94389125   -4.4685531    1374.1987   0.05458368  0.054754768            2 
 2099000   0.91324403    -4.461831    1377.0222   0.05466977  0.054743722            4 
 2100000   0.89251317   -4.4628823    1380.3004  0.054773826  0.054732884            5 
 2101000   0.90649937   -4.4277879    1377.0429  0.054618552  0.054721964            3 
 2102000   0.93140176   -4.4578495    1376.4835  0.054570389  0.054711104            3 
 2103000   0.92241326   -4.4746326    1377.3701  0.054579571  0.054700099            6 
 2104000   0.92025452   -4.4590303    1374.6055  0.054444134  0.054689137            3 
 2105000   0.91378224    -4.452987    1383.6375  0.054775832  0.054677988            5 
 2106000   0.92648612   -4.4849738    1375.0514  0.054410074  0.054667018            4 
 2107000   0.90147959    -4.443641    1377.3442  0.054474933  0.054656016            4 
 2108000   0.92349563   -4.4716014    1372.5402  0.054259181  0.054644798            6 
 2109000   0.91743428   -4.4752662    1377.4557  0.054427678  0.054633702            4 
 2110000   0.91240714   -4.4684819    1375.3391   0.05431829  0.054622408            3 
 2111000   0.92918029   -4.4536294     1375.777  0.054309846   0.05461131            4 
 2112000   0.91646596   -4.4529815    1379.2158  0.054419813  0.054600317            4 
 2113000   0.90669838   -4.4598299    1377.8379   0.05433972  0.054589086            4 
 2114000   0.91642598   -4.4747636    1383.4756  0.054536249  0.054578029            4 
 2115000   0.93437464   -4.4521479    1377.6182  0.054279677  0.054567037            5 
 2116000   0.91820404   -4.4795853    1382.3234  0.054439328   0.05455612            5 
 2117000   0.91018086   -4.4708821    1377.0698   0.05420681  0.054545219            3 
 2118000   0.90150835   -4.4657162     1383.038  0.054416038  0.054534035            4 
 2119000   0.89706637   -4.4466119    1382.5483  0.054371098  0.054523014            4 
 2120000   0.90393556   -4.5023955    1379.5306  0.054226831  0.054511843            4 
 2121000   0.90923838   -4.4774792    1378.3295  0.054154074   0.05450066            5 
 2122000   0.92457265   -4.4435425    1388.0546  0.054510472  0.054489503            2 
 2123000   0.91525458   -4.4581215    1376.4854  0.054030673  0.054478216            6 
 2124000   0.90993558   -4.4600685    1382.4094  0.054237657  0.054466892            3 
 2125000   0.90356487   -4.4625255    1388.9782  0.054469733  0.054455741            3 
 2126000    0.9068595   -4.4599837    1380.8656  0.054126123   0.05444468            6 
 2127000   0.91822146   -4.4678043    1384.3293  0.054236378  0.054433487            3 
 2128000   0.91611183   -4.4673472    1386.3692  0.054290775  0.054422377            4 
 2129000   0.90441854   -4.4912513    1388.9079  0.054364643   0.05441133            7 
 2130000   0.94328495    -4.445737    1387.1465  0.054270208  0.054400352            7 
 2131000   0.88187154   -4.4809099    1381.4915  0.054023599  0.054389202            9 
 2132000   0.89952336   -4.4776532    1383.5671  0.054079391  0.054378022            6 
 2133000   0.90122127   -4.4733354    1385.1384  0.054115426  0.054366844            3 
 2134000   0.90860026   -4.4576789    1385.7751  0.054114928  0.054355702            5 
 2135000   0.91762006   -4.4658549    1387.0381  0.054138879  0.054344726            3 
 2136000   0.89721023   -4.4604223    1386.3034   0.05408487  0.054333585            3 
 2137000   0.90291085   -4.4718129    1386.0565  0.054049935  0.054322633            3 
 2138000   0.93153856   -4.4589676    1389.4579  0.054157229  0.054311747            7 
 2139000   0.93326233    -4.468824    1385.0338  0.053959551  0.054300676            5 
 2140000   0.90227748   -4.4698607    1380.6398  0.053763232  0.054289312            3 
 2141000   0.88367745   -4.4777856    1385.9667  0.053945457  0.054278098            3 
 2142000   0.91391171   -4.4664793    1384.5622  0.053865631  0.054266826            2 
 2143000   0.92939803     -4.48463    1387.6271  0.053959679  0.054255621            4 
 2144000   0.89367216   -4.4897508    1389.4562  0.054005603  0.054244236            2 
 2145000   0.90552535   -4.4569092    1386.8544  0.053879347  0.054232771            6 
 2146000   0.91416305   -4.4608455    1391.0246  0.054016179  0.054221381            3 
 2147000   0.90305302   -4.4751611    1390.2598  0.053961333   0.05421006            4 
 2148000   0.90195202   -4.4972447    1383.1786  0.053661492  0.054198583            3 
 2149000   0.92538475   -4.4810146     1389.795  0.053893089  0.054187163            3 
 2150000   0.93683073   -4.4942594    1386.7101  0.053748452   0.05417571            3 
 2151000   0.89798992   -4.4836452    1389.4484  0.053829552  0.054164503            3 
 2152000   0.91051657   -4.4723627    1394.6203  0.054004815  0.054153172           15 
 2153000    0.9073794   -4.4544782    1387.0769  0.053687758  0.054141802            4 
 2154000   0.89178101   -4.4874928    1389.7076  0.053764608  0.054130516            4 
 2155000   0.91805089    -4.470644    1393.8905  0.053901411  0.054119125            2 
 2156000   0.91902074   -4.4681694    1386.7428  0.053600137  0.054107655            6 
 2157000   0.92782346   -4.4729622    1394.7146  0.053883271  0.054096147            2 
 2158000     0.879802   -4.4755293    1390.5454  0.053697304   0.05408478            5 
 2159000   0.89906693   -4.4990206    1393.0411  0.053768764  0.054073403            2 
 2160000   0.91174366   -4.4858872    1391.8205  0.053696778  0.054061832            6 
 2161000   0.91751008   -4.4726851    1395.1345  0.053799728  0.054050324            6 
 2162000   0.90499133   -4.4466921    1400.9459   0.05399884  0.054039131            2 
 2163000   0.91267742   -4.4552143    1396.1486   0.05378905  0.054027913            2 
 2164000    0.9077879   -4.4779587    1391.4373  0.053582769  0.054016559            3 
 2165000   0.88191677    -4.473401    1397.4669  0.053790106  0.054005279            4 
 2166000   0.91811798   -4.4570196    1396.1365  0.053714084  0.053994113            5 
 2167000   0.90433159   -4.4799507    1396.0501  0.053685977  0.053982789            7 
 2168000    0.9187365   -4.4671285    1395.6445  0.053645622  0.053971463            4 
 2169000   0.88239619   -4.4844826    1397.0059  0.053673194  0.053960198            4 
 2170000   0.87786116   -4.4796507    1398.2044  0.053694486  0.053948945            2 
 2171000   0.91759571   -4.4993912    1396.8722  0.053618618  0.053937549            3 
 2172000   0.90588928   -4.4842848    1395.7268  0.053549985  0.053926325            5 
 2173000   0.89745376   -4.4745091     1403.469   0.05382225  0.053915093            7 
 2174000   0.91760157   -4.4730536    1396.0825  0.053514354  0.053903768            4 
 2175000   0.91145839   -4.5013426    1398.3149  0.053575283  0.053892392            5 
 2176000   0.91734297   -4.4946868    1398.9687  0.053575701   0.05388125            5 
 2177000   0.90241386   -4.4956006    1404.8792   0.05377734  0.053870089            3 
 2178000   0.90334076   -4.4826124    1405.4117  0.053773022   0.05385927            5 
 2179000   0.92203048   -4.5025393    1399.2753  0.053513663   0.05384818            2 
 2180000   0.91655671   -4.4816882    1403.9937  0.053669486  0.053837132            6 
 2181000   0.91870262   -4.4866024     1403.053  0.053608932   0.05382595            4 
 2182000   0.91526467   -4.4764051    1403.6948  0.053608876  0.053814815            2 
 2183000   0.90312636   -4.4671204    1406.7502  0.053700953   0.05380383            5 
 2184000   0.92206089   -4.4767092    1403.5522  0.053554342  0.053792543            4 
 2185000   0.88064766   -4.5064118    1405.4418    0.0536019  0.053781395            2 
 2186000   0.90186624   -4.4656844    1406.3244  0.053611026  0.053770316            5 
 2187000   0.88956288    -4.501799      1405.47  0.053553954  0.053759137            2 
 2188000   0.90361341   -4.4804188    1409.3343  0.053676655  0.053748057            3 
 2189000   0.89050551   -4.4771524    1407.7711  0.053592624   0.05373694            2 
 2190000   0.90021945   -4.4821014    1410.2077  0.053660873  0.053726072            5 
 2191000   0.89731098   -4.4789417    1411.1956  0.053673955  0.053714962            4 
 2192000   0.90794515    -4.470752     1409.629  0.053589909  0.053703915            6 
 2193000   0.90933073   -4.4971484    1407.1502  0.053471282  0.053692824            7 
 2194000   0.89520406    -4.499116     1405.006  0.053365466  0.053681777            4 
 2195000   0.91655392   -4.4617335    1411.3708  0.053582795   0.05367056            3 
 2196000   0.88446619   -4.4710456    1409.9229  0.053503448   0.05365948            3 
 2197000   0.90754209   -4.5054745    1405.5225  0.053312189  0.053648441            4 
 2198000    0.8824328   -4.4538604    1416.1536  0.053690994  0.053637427            3 
 2199000   0.88136977   -4.4978341    1407.7737   0.05334901  0.053626463            4 
 2200000   0.92564476   -4.4898706    1413.6011  0.053545497  0.053615405            4 
 2201000   0.91063427    -4.532888    1411.5734  0.053444397   0.05360432            3 
 2202000   0.90553331   -4.4927002    1409.1436   0.05332817  0.053593325            5 
 2203000   0.90192746   -4.4990995    1411.6764  0.053399773  0.053582419            3 
 2204000   0.89705579   -4.4745007    1412.2266  0.053396346  0.053571527            6 
 2205000   0.91274754   -4.4679427    1413.6607  0.053426331  0.053560643            3 
 2206000   0.90834734    -4.491635     1410.231   0.05327255  0.053549594            3 
 2207000   0.90261981   -4.5038694    1413.8209  0.053383965  0.053538484            3 
 2208000   0.92421517   -4.4805239    1417.2925  0.053490811  0.053527406            4 
 2209000   0.88173976   -4.5003464    1412.2209  0.053275272  0.053516392            4 
 2210000   0.89266372   -4.4707351    1416.9008  0.053427633  0.053505492            6 
 2211000   0.90495211   -4.4466878    1417.9291  0.053442224  0.053494581            5 
 2212000   0.89644529   -4.4955926    1411.1866  0.053164053  0.053483587            3 
 2213000   0.88809226   -4.5030284    1413.5109  0.053227552  0.053472401            6 
 2214000   0.90313379   -4.4914653    1413.7766  0.053213511  0.053461525            5 
 2215000   0.90174477   -4.4925516    1419.8264  0.053417096  0.053450565           10 
 2216000   0.90358914   -4.4804342    1415.6864  0.053237303  0.053439631            5 
 2217000   0.90042166   -4.4946402    1419.6037  0.053360534   0.05342868            3 
 2218000   0.89541153   -4.4813277    1414.0097  0.053126304  0.053417897            3 
 2219000   0.92392503   -4.5118554    1415.5641  0.053160738   0.05340701            5 
 2220000   0.88785788   -4.4816249    1418.6246  0.053251673  0.053396089            3 
 2221000     0.881742   -4.4990699    1420.2808  0.053289838  0.053385239            5 
 2222000      0.89724   -4.4738628    1416.8247   0.05313624  0.053374342            4 
 2223000   0.88576613   -4.4915757    1419.4599  0.053211123  0.053363346            6 
 2224000   0.91661426    -4.489246    1420.6307  0.053231065  0.053352406            3 
 2225000   0.89633903   -4.4686876    1420.6588  0.053208195  0.053341475            3 
 2226000   0.89741257   -4.5060777    1419.6414  0.053146202  0.053330711            4 
 2227000   0.87939884   -4.5188979    1417.8344  0.053054722  0.053319722            3 
 2228000   0.86803347   -4.4861872    1425.1055   0.05330287  0.053308949            7 
 2229000    0.8938861   -4.5017173    1427.2931  0.053360739  0.053298326            2 
 2230000   0.88957241   -4.5159195    1425.8839  0.053284151  0.053287751            4 
 2231000   0.89697307   -4.4641056    1430.7824  0.053443238  0.053277105            2 
 2232000   0.87826616   -4.4823663    1427.2862  0.053288762  0.053266549            3 
 2233000   0.91994567   -4.4899738    1429.5123  0.053347972   0.05325585            6 
 2234000   0.89007459   -4.5002104     1424.071  0.053121121  0.053245362            7 
 2235000   0.90156661   -4.5021183     1434.002  0.053467637   0.05323476            4 
 2236000   0.88046587   -4.4963004    1430.3474  0.053307519  0.053224344            3 
 2237000   0.88649607   -4.5189589     1431.897  0.053341416  0.053213797            3 
 2238000   0.87756559   -4.4958028    1433.5561  0.053379359  0.053203249            9 
 2239000   0.88989215   -4.4938937    1428.7005  0.053174798  0.053192694            8 
 2240000   0.88006202   -4.5234336      1427.24  0.053096727   0.05318204            3 
 2241000   0.87638875   -4.5147102    1428.1014  0.053105065  0.053171217            5 
 2242000   0.91027355   -4.5035212     1429.648  0.053138866  0.053160435            4 
 2243000   0.90491815   -4.5090623    1429.0179  0.053091763  0.053149641            3 
 2244000   0.90391889   -4.4936348    1428.6163   0.05305319  0.053138774            6 
 2245000   0.87257273   -4.5038931    1433.1478  0.053197764  0.053128242            6 
 2246000   0.89682134   -4.4893605     1431.256  0.053103888   0.05311765            7 
 2247000   0.91002236   -4.5194189    1435.6779  0.053244246  0.053106891            2 
 2248000   0.90155259   -4.4851419    1434.8571  0.053190134   0.05309634            4 
 2249000   0.88037752   -4.5060822    1433.8115  0.053127743   0.05308586            5 
 2250000   0.90384071   -4.4994109    1432.4481  0.053053634  0.053075375            5 
 2251000   0.88469541   -4.4611078     1436.321  0.053173441  0.053064848            5 
 2252000   0.90331916   -4.4924562    1431.9757  0.052989037  0.053054315            4 
 2253000   0.88684216   -4.4986283    1432.4617  0.052983493   0.05304368            3 
 2254000   0.88093922   -4.4968207    1432.8514  0.052974393  0.053032952            3 
 2255000   0.90155226   -4.5230564    1433.6586  0.052980733  0.053022132            3 
 2256000   0.89729445   -4.4690987    1435.9115  0.053040468  0.053011384            4 
 2257000   0.90901938   -4.5081002    1434.5496  0.052966683  0.053000863            4 
 2258000   0.87566461   -4.4987256    1435.2657  0.052969651  0.052990237            4 
 2259000   0.87800718    -4.501037     1433.665  0.052887156  0.052979664            2 
 2260000   0.91466103   -4.5093483    1438.4752   0.05304112  0.052968822            3 
 2261000   0.89565891   -4.4985379    1437.6935  0.052988852  0.052958279            2 
 2262000   0.90125548    -4.488042     1437.739  0.052967102  0.052947466            5 
 2263000   0.87915265   -4.5176121    1433.6086  0.052791597  0.052936643            2 
 2264000   0.88732618   -4.5219018    1429.8431  0.052629677  0.052925875            3 
 2265000   0.89574951   -4.5144074    1435.6007  0.052818276  0.052914967            3 
 2266000   0.87810717   -4.5020562    1436.3135  0.052821178  0.052904082            7 
 2267000   0.88255092   -4.4889742    1442.5339  0.053026537  0.052893511            3 
 2268000   0.87722151   -4.4994903    1440.8438  0.052941057  0.052882849            4 
 2269000   0.88526172   -4.5202391    1439.1131  0.052854162  0.052872211            4 
 2270000    0.8961039   -4.4896129    1443.4771  0.052991081  0.052861557            3 
 2271000   0.89623078   -4.4967385    1432.6639  0.052570964  0.052850973            4 
 2272000   0.89127314   -4.5012214    1436.9671  0.052705661   0.05284041            2 
 2273000   0.87658293   -4.5400551    1444.0072  0.052940576  0.052829838            6 
 2274000   0.89359718   -4.4998654    1443.0798  0.052883311  0.052819364            4 
 2275000   0.87586053   -4.4822381     1447.613  0.053026118  0.052808862            4 
 2276000   0.88349545   -4.5041548    1439.9162   0.05272101  0.052798523            7 
 2277000   0.88964357   -4.5132847    1441.2625  0.052747127  0.052788126            4 
 2278000   0.89945757   -4.4913434    1443.7409  0.052814637  0.052777546            3 
 2279000   0.88947718   -4.5058203    1443.2032    0.0527718  0.052767108           10 
 2280000   0.88446966   -4.5105746    1443.9655  0.052776518  0.052756447            4 
 2281000   0.87991102   -4.4806472    1444.4464   0.05277095  0.052745842            2 
 2282000   0.90330955   -4.5091069    1438.3551  0.052525383  0.052735132            4 
 2283000   0.87467514   -4.5190301    1440.1853  0.052569182   0.05272441            5 
 2284000   0.87409767   -4.4994984    1439.2217  0.052511008  0.052713631            2 
 2285000    0.8643244   -4.5108353    1446.6427   0.05275867  0.052703004            5 
 2286000   0.88080077    -4.508383    1449.7687  0.052849546  0.052692334            4 
 2287000   0.89822358   -4.5208683    1442.7927  0.052572246   0.05268169            3 
 2288000    0.9081089    -4.493116     1447.314  0.052713941  0.052670886            5 
 2289000   0.87937148   -4.4942633    1446.2092  0.052650693  0.052660051            7 
 2290000   0.88927255   -4.5137423    1440.0696   0.05240428  0.052649358            2 
 2291000   0.89218691   -4.5029862    1446.2947   0.05260784  0.052638563            2 
 2292000   0.89781066   -4.5363663     1443.963  0.052500109  0.052627944            5 
 2293000   0.89805811   -4.5104029    1445.3101  0.052526169  0.052617205            5 
 2294000   0.88094967   -4.5459447    1444.8779  0.052487574  0.052606495           12 
 2295000   0.88283112   -4.4961835    1450.8431  0.052681305  0.052595954            5 
 2296000   0.88536482   -4.5196954    1443.0551  0.052375694  0.052585444            4 
 2297000   0.91157527   -4.5000523    1453.5216  0.052732609  0.052574947            2 
 2298000   0.89235586   -4.5209327    1451.2133  0.052625952  0.052564521           12 
 2299000   0.88424016    -4.511004    1452.8694  0.052663091  0.052553913            4 
 2300000   0.89177802    -4.538513    1446.1382  0.052396312  0.052543307            4 
 2301000   0.86667941   -4.4931517    1454.9285  0.052691893  0.052532829            4 
 2302000   0.87156422   -4.5296463    1450.3029  0.052501554  0.052522359            4 
 2303000   0.89375487   -4.5159204    1448.2119  0.052403092  0.052511691           17 
 2304000   0.90377379   -4.4837251    1451.2627  0.052490693   0.05250118            4 
 2305000   0.88278612   -4.5508346    1452.6453  0.052517905  0.052490558            2 
 2306000   0.88197926   -4.5094562    1449.6693  0.052387586  0.052480029            6 
 2307000   0.87715907   -4.4734108    1456.4238  0.052608863  0.052469348            4 
 2308000    0.8951017   -4.5178969    1450.6146  0.052376323  0.052458708            5 
 2309000    0.8610776   -4.5124105    1453.9012  0.052472253  0.052448178            5 
 2310000    0.8973852   -4.5100215     1454.286   0.05246342  0.052437804            3 
 2311000   0.89316298   -4.4960889    1458.9434  0.052608661  0.052427356            4 
 2312000   0.90929971    -4.505056    1457.7041  0.052541238  0.052417112            3 
 2313000   0.86806106   -4.5322763    1452.7193  0.052338929  0.052406645            4 
 2314000   0.89612935   -4.5056852    1460.3205  0.052590049  0.052396166            3 
 2315000   0.90877852   -4.5020215    1456.7584  0.052439107  0.052385721            6 
 2316000   0.88078455   -4.5132921    1461.3442  0.052581468  0.052375406            2 
 2317000   0.87654824   -4.5354105    1457.2502  0.052411529  0.052364921            3 
 2318000   0.87765332    -4.548913    1454.5525  0.052291936  0.052354321            7 
 2319000   0.87391196   -4.5043738    1459.7618  0.052456583  0.052343903            3 
 2320000   0.88937687   -4.5582117    1456.7018   0.05232406  0.052333615            5 
 2321000    0.9036159   -4.5620983     1457.625  0.052334661  0.052323426            8 
 2322000   0.87941246   -4.5136762    1460.6496  0.052420671  0.052313146            3 
 2323000   0.89080369   -4.5386304    1458.2186  0.052310899  0.052302755            7 
 2324000   0.86313003   -4.5333265    1455.4957  0.052190754  0.052292354            4 
 2325000   0.89102935    -4.523451    1454.9286  0.052147977  0.052281871            8 
 2326000   0.87146381   -4.5398431    1459.9245  0.052304547  0.052271407            3 
 2327000   0.88311135   -4.5228465    1465.6048  0.052485489  0.052260903            4 
 2328000   0.88192184   -4.5416327    1456.9919  0.052154635  0.052250543            4 
 2329000   0.88827426    -4.539562    1458.8039  0.052197076  0.052240065            5 
 2330000   0.88426758   -4.5400628    1463.0798  0.052327603  0.052229661            3 
 2331000   0.89461467   -4.5325319    1460.6306  0.052217595    0.0522194            2 
 2332000   0.88056276   -4.5300078    1466.9672   0.05242164  0.052209095            5 
 2333000   0.87777933   -4.5365626    1464.2897  0.052303534  0.052198485            6 
 2334000   0.86900233   -4.5483004    1465.3292  0.052318238  0.052188001            3 
 2335000   0.86572321   -4.5702245     1459.291  0.052080334  0.052177442            8 
 2336000    0.8805895   -4.5263664    1468.1092  0.052372617  0.052166941            5 
 2337000   0.88182059   -4.5098515    1466.7005  0.052299973  0.052156468           11 
 2338000   0.89406554    -4.523865    1462.8551  0.052140544  0.052146032            5 
 2339000   0.86662148   -4.5427917    1464.2679  0.052168587  0.052135399            5 
 2340000   0.89429139   -4.5263558    1466.1865   0.05221462  0.052125035            4 
 2341000   0.89459272   -4.5498015    1460.4836  0.051989305  0.052114318            7 
 2342000   0.87718341    -4.542641    1462.3682  0.052034167  0.052103655            5 
 2343000   0.87913251   -4.5170319      1461.14  0.051968274  0.052093152            7 
 2344000   0.88173417   -4.5252236    1466.3712  0.052132081  0.052082651            4 
 2345000   0.89357652   -4.5196078    1465.3785  0.052074575  0.052072012            3 
 2346000    0.8580081   -4.5493877    1466.6895  0.052098943  0.052061447            4 
 2347000   0.88148727   -4.5286609    1466.0298  0.052053325  0.052050825            5 
 2348000   0.87226115   -4.5302734    1461.8098  0.051881383  0.052040195            4 
 2349000   0.87127767   -4.5193453    1469.6331  0.052136834  0.052029831            5 
 2350000   0.87342292   -4.5438245    1466.9532  0.052019617  0.052019432            6 
 2351000   0.88442699   -4.5489188    1462.1797  0.051828288  0.052008806            5 
 2352000   0.87068363    -4.529579    1467.5595  0.051996865  0.051998218            2 
 2353000   0.87900629   -4.5347416    1464.6673  0.051872336  0.051987624            4 
 2354000   0.87186027   -4.5552902    1466.0596  0.051899588  0.051976984            5 
 2355000   0.87427742   -4.5573191    1459.3048  0.051638526  0.051966219            4 
 2356000   0.86855527   -4.5207758    1471.5504  0.052049746  0.051955488            6 
 2357000   0.89645216   -4.5184407    1471.4224  0.052023135  0.051944964            5 
 2358000   0.88696712   -4.5633753    1468.2359  0.051888463  0.051934242            7 
 2359000   0.87212576   -4.5326951    1468.7326  0.051884013  0.051923644           10 
 2360000   0.84640183    -4.528562    1468.0487  0.051837878  0.051913082            3 
 2361000    0.8706244   -4.5447825     1474.597   0.05204705  0.051902401           11 
 2362000   0.88494095   -4.5592869    1461.6039  0.051566608  0.051891943            6 
 2363000   0.85984692   -4.5473344    1472.9538  0.051945048  0.051881209            6 
 2364000   0.88819645   -4.5322357    1471.1007  0.051857753  0.051870479            2 
 2365000   0.86218255   -4.5313931    1466.5978   0.05167716  0.051859819            4 
 2366000   0.86771207   -4.5400578    1469.7893  0.051767728  0.051849179            3 
 2367000   0.86782652   -4.5153206    1477.2061  0.052006974  0.051838599            4 
 2368000    0.8941997   -4.5387015    1470.7356  0.051757304  0.051827986            7 
 2369000    0.8423422   -4.5417908    1473.3404  0.051827085  0.051817335            4 
 2370000   0.88911956   -4.5224489    1473.6845  0.051817316  0.051806775            6 
 2371000   0.87041886   -4.5446911    1471.0017  0.051701171  0.051796177            4 
 2372000   0.88074273   -4.5551063    1475.9956  0.051854821  0.051785592            4 
 2373000   0.86436852    -4.518476    1472.9624   0.05172645  0.051775072            4 
 2374000   0.88177083   -4.5544345    1475.2737  0.051785793  0.051764635            4 
 2375000   0.86966869   -4.5606009    1470.3237  0.051590304  0.051754009           10 
 2376000   0.87337977   -4.5518877    1473.0413  0.051663907  0.051743433            5 
 2377000   0.88257461   -4.5223847    1475.9738  0.051744979  0.051732882            4 
 2378000   0.89884058    -4.545916    1481.6805  0.051923203  0.051722456            3 
 2379000    0.8769623   -4.5264476    1478.8321    0.0518016  0.051711972            5 
 2380000   0.87028832   -4.5348364    1479.0086  0.051786016  0.051701509            7 
 2381000   0.89204214   -4.5347175    1475.8551  0.051653895  0.051691158            4 
 2382000   0.86921232   -4.5458507    1479.5692  0.051762148  0.051680743            3 
 2383000   0.86178245   -4.5613862    1483.5528   0.05187973  0.051670354            7 
 2384000   0.88157003    -4.553446    1477.3808  0.051642224   0.05165982            3 
 2385000   0.87765961   -4.5212423    1480.4931  0.051729317  0.051649422            4 
 2386000   0.86599716   -4.5411601    1476.0804  0.051553521   0.05163906            4 
 2387000   0.88596516    -4.532322     1484.051  0.051810187  0.051628677            3 
 2388000    0.8724617    -4.523524    1483.2968  0.051762172  0.051618349            3 
 2389000   0.84205606   -4.5507379    1484.6704  0.051788419  0.051607998            5 
 2390000   0.86167125   -4.5360229     1481.854  0.051668548  0.051597637            3 
 2391000   0.87695732   -4.5547077     1489.733  0.051921546  0.051587386            3 
 2392000   0.86985867   -4.5803181    1479.6091  0.051547138  0.051576971            5 
 2393000   0.87227101   -4.5416087    1485.1441  0.051718349  0.051566593            2 
 2394000   0.87805288   -4.5583697    1477.0471  0.051414896  0.051556307            5 
 2395000   0.86437491   -4.5353284     1482.121  0.051569973  0.051545972            4 
 2396000   0.87454196   -4.5252744    1483.0924  0.051582233  0.051535493            6 
 2397000   0.86415348   -4.5627636    1485.7808  0.051654178  0.051525119            4 
 2398000   0.85338577   -4.5531167    1482.2246  0.051509057  0.051514731            6 
 2399000    0.8842602   -4.5615959    1493.3984  0.051875727  0.051504465            5 
 2400000   0.86196836   -4.5613397    1486.5627   0.05161676  0.051494218            3 
 2401000   0.86502238   -4.5258218     1492.024  0.051784813  0.051484104            3 
 2402000   0.85696135   -4.5631118    1480.9985  0.051380741  0.051473779            4 
 2403000    0.8964679   -4.5471385    1482.7298  0.051419398  0.051463449            4 
 2404000   0.86393097   -4.5415184    1489.3174  0.051626367  0.051453187            2 
 2405000   0.87863014   -4.5738433    1486.2108  0.051497256  0.051442959            2 
 2406000    0.8651308   -4.5392472    1491.3983  0.051655523  0.051432787            3 
 2407000   0.87188326   -4.5654621    1489.3599  0.051563491  0.051422416            4 
 2408000   0.85442826   -4.5863397    1486.9837  0.051459846  0.051412027            5 
 2409000   0.85122601   -4.5549698    1490.0027  0.051542919  0.051401618            7 
 2410000   0.88008826   -4.5480081    1491.1992  0.051562904  0.051391082            5 
 2411000   0.87507559   -4.5436686    1487.0101  0.051396726  0.051380724            6 
 2412000   0.85490558   -4.5505459    1492.3184  0.051558817  0.051370453            4 
 2413000   0.86214606   -4.5467533    1493.5167  0.051578835  0.051360178            6 
 2414000   0.87167998    -4.538481    1490.4473  0.051451509  0.051349731            2 
 2415000   0.87441492   -4.5601278    1491.1955   0.05145602  0.051339319           10 
 2416000   0.84273566    -4.551658    1490.9253  0.051425402  0.051328903            3 
 2417000   0.87223493   -4.5724022    1494.0424  0.051511599  0.051318468            5 
 2418000   0.84168282   -4.5677387    1491.2127  0.051392772  0.051308128            4 
 2419000   0.86552988    -4.535945    1492.3762  0.051411608  0.051297867            5 
 2420000   0.85580018   -4.5493556    1489.8567  0.051303605  0.051287568            7 
 2421000   0.84697352   -4.5411376    1494.2699  0.051434322  0.051277169            4 
 2422000   0.85376155   -4.5561713    1496.8896  0.051503221  0.051266903            6 
 2423000   0.84995602   -4.5449892    1489.6964  0.051234572  0.051256614            4 
 2424000   0.86634131   -4.5352098    1496.5237  0.051448145  0.051246254            3 
 2425000   0.85653124   -4.5575222    1490.4293  0.051217502    0.0512358           13 
 2426000   0.85040762   -4.5627054    1490.2753  0.051191101  0.051225314            4 
 2427000   0.85190292   -4.5619313     1492.677  0.051252474  0.051214962           13 
 2428000   0.86904223   -4.5791069    1499.1877  0.051454824  0.051204649            9 
 2429000   0.87661581   -4.5322017    1500.3111   0.05147218  0.051194399            5 
 2430000   0.86531905   -4.5806018    1495.7373  0.051294147  0.051184202            5 
 2431000   0.85340064   -4.5670767    1496.4402  0.051297143  0.051173948            4 
 2432000   0.87485979   -4.5804666    1492.8095  0.051151642  0.051163623            4 
 2433000   0.83774083   -4.5628508    1499.7483  0.051368278  0.051153385            3 
 2434000   0.86410747   -4.5494309    1500.8414  0.051384601  0.051143203            3 
 2435000    0.8512901     -4.56564    1498.7564  0.051292141  0.051132983            4 
 2436000   0.86881129   -4.5537134    1502.7137  0.051406463  0.051122758            3 
 2437000   0.86331882   -4.5970806    1494.3971  0.051100981  0.051112465            7 
 2438000   0.87160181   -4.5660632     1500.807  0.051299118  0.051102141            2 
 2439000   0.83668018   -4.5338545    1500.4472  0.051265793  0.051091841            4 
 2440000    0.8679894   -4.5657853    1496.8006  0.051120239  0.051081482            8 
 2441000   0.87464603   -4.5619095    1501.5766  0.051262344  0.051071218            6 
 2442000   0.86792138   -4.5510647    1497.2618  0.051094109  0.051061012            1 
 2443000   0.87509809   -4.5454047    1500.8639  0.051196066  0.051050641            8 
 2444000    0.8549303   -4.5784754    1496.1779  0.051015339  0.051040255            5 
 2445000   0.86489292   -4.5483769    1502.2668  0.051202003   0.05102997            3 
 2446000   0.86010036   -4.5726538    1499.0492  0.051071449  0.051019622            5 
 2447000   0.86739125   -4.5605913    1504.7891  0.051246052  0.051009343            6 
 2448000   0.86497821   -4.5704408    1506.0869  0.051269298  0.050999061            4 
 2449000   0.85152953   -4.5643079    1504.1422   0.05118219  0.050988774            5 
 2450000   0.85746333   -4.5563624    1498.8462  0.050981164  0.050978571            5 
 2451000   0.85887392   -4.5706422    1501.5661   0.05105284  0.050968194            3 
 2452000   0.85033756   -4.5852701    1501.6843  0.051036036  0.050957776            5 
 2453000   0.85130215   -4.5722473    1498.9267   0.05092155  0.050947368            4 
 2454000   0.86060961    -4.546716    1501.2937  0.050981178  0.050937056            5 
 2455000   0.86315587   -4.5974809    1499.1332  0.050887074   0.05092664            3 
 2456000   0.86905103   -4.5597221    1500.1453  0.050900696  0.050916203            3 
 2457000   0.85757237   -4.5976838    1498.8648  0.050836549   0.05090582            5 
 2458000   0.88189159   -4.5615695    1504.7985  0.051017036  0.050895372            4 
 2459000   0.85771203   -4.5566137    1505.5807  0.051022796  0.050885113            3 
 2460000   0.83581355   -4.5535703    1498.5174  0.050762786  0.050874661            4 
 2461000   0.85533397   -4.5712124    1507.2206  0.051036862  0.050864393            7 
 2462000   0.87888368   -4.5679043    1510.5909   0.05113021  0.050854112            7 
 2463000   0.83954521   -4.5946659     1502.497  0.050835601  0.050843829            5 
 2464000   0.86439317   -4.5663025    1505.0839  0.050902459  0.050833464            3 
 2465000   0.85163179   -4.5937087    1506.9856    0.0509461  0.050823089            2 
 2466000   0.87849268   -4.5771929    1505.4995  0.050875218  0.050812671            3 
 2467000   0.86428218   -4.5721682    1510.0931  0.051009766  0.050802387            6 
 2468000   0.84532328   -4.5536867    1506.8447  0.050879412  0.050792233            6 
 2469000   0.86281833   -4.5116669       1510.1  0.050968677  0.050782079            5 
 2470000   0.87050669   -4.5670068    1508.7975  0.050904098  0.050771907            4 
 2471000   0.85315559   -4.5939267    1507.4808  0.050839094  0.050761625            5 
 2472000   0.83041502   -4.5954402    1509.0292  0.050870725  0.050751365            6 
 2473000    0.8560208   -4.5890594     1505.835  0.050742519  0.050740962            6 
 2474000    0.8636286   -4.5589222    1511.6883   0.05091917   0.05073065            4 
 2475000   0.84561406   -4.5791951     1508.421  0.050788585  0.050720381            4 
 2476000    0.8493618   -4.5732386     1511.692  0.050878164  0.050710208           14 
 2477000    0.8648282   -4.5820082    1509.0634  0.050769191  0.050699888            5 
 2478000   0.87092606    -4.571399    1513.1436  0.050885917  0.050689533            2 
 2479000   0.85451215   -4.5652988    1514.8158    0.0509216  0.050679243            4 
 2480000   0.84063179    -4.546553    1515.2525  0.050915742  0.050669067            5 
 2481000   0.85885453   -4.5677956    1513.1661  0.050825142   0.05065897            3 
 2482000   0.84677733   -4.5774915    1505.9897  0.050563715  0.050648609            4 
 2483000   0.82549205    -4.593124    1510.6817  0.050700821  0.050638097            4 
 2484000   0.86400459   -4.5613947    1516.5622  0.050877692  0.050627636            5 
 2485000   0.85962388   -4.5633564    1510.8888  0.050666963  0.050617258            3 
 2486000   0.84840354   -4.5883265     1512.259  0.050692513  0.050606801            8 
 2487000   0.85087289   -4.5667018    1515.0558  0.050765844  0.050596189            5 
 2488000   0.83985103   -4.5760841    1509.9116  0.050573139  0.050585758            4 
 2489000   0.83902361    -4.565852    1509.3863  0.050535231  0.050575322            5 
 2490000   0.85401482   -4.6012369    1508.2718  0.050477639  0.050564809            6 
 2491000   0.86687455   -4.5909771    1506.8365  0.050409357  0.050554209            3 
 2492000   0.85344805   -4.5845902    1511.0333   0.05052947  0.050543591            9 
 2493000    0.8452408   -4.6120592    1509.9062  0.050471527   0.05053293            5 
 2494000   0.86220999   -4.5729318    1512.7731  0.050547084  0.050522399            8 
 2495000   0.84244978   -4.5665715    1519.3138  0.050745284  0.050511784            3 
 2496000   0.83479471   -4.5736703    1513.6274  0.050535104   0.05050137            2 
 2497000    0.8657742   -4.5934138    1515.4077  0.050574279   0.05049087           14 
 2498000   0.86339396   -4.5825737    1510.7742  0.050399461  0.050480473            3 
 2499000    0.8436505    -4.574213    1517.8929  0.050616676  0.050470005            4 
 2500000   0.85052795   -4.5689514    1515.2415  0.050508051  0.050459744            2 
 2501000    0.8688161   -4.5398739    1518.0978  0.050583028  0.050449436            7 
 2502000   0.84730952   -4.5769592    1515.6166   0.05048017  0.050439178            6 
 2503000   0.83065054   -4.5833089    1518.3651   0.05055151  0.050428891            3 
 2504000   0.86082719   -4.5775921    1515.3272  0.050430218  0.050418665            6 
 2505000   0.87326929   -4.5750718    1519.1093  0.050535906  0.050408468            4 
 2506000   0.86609528   -4.5873667    1517.4255  0.050459745  0.050398348            8 
 2507000   0.83869119   -4.6156897     1516.732  0.050416566  0.050387976            4 
 2508000   0.83842318   -4.5638356     1517.447  0.050420223  0.050377629            7 
 2509000   0.85224816   -4.5716205    1518.2046  0.050425289  0.050367196            2 
 2510000   0.84870295    -4.559429    1521.1773  0.050503893  0.050356729            7 
 2511000   0.84312785   -4.5869666    1520.1831  0.050450787  0.050346415            5 
 2512000   0.83207258   -4.5615457    1515.3714   0.05027108  0.050336125            2 
 2513000   0.85598314   -4.5992959    1519.8663   0.05040013  0.050325836            3 
 2514000   0.86806795   -4.5617711    1520.1451  0.050389323  0.050315573            3 
 2515000   0.85539671   -4.5735618    1519.3592  0.050343247  0.050305272            5 
 2516000   0.83989599    -4.575154    1522.2664   0.05041953   0.05029502            5 
 2517000   0.84314453    -4.588038    1524.2982  0.050466766   0.05028479            4 
 2518000   0.83531955   -4.5750072    1525.9025  0.050499819  0.050274592            2 
 2519000   0.82676732   -4.5958663    1520.7972  0.050310878  0.050264258            4 
 2520000   0.87162782   -4.5855842    1526.2454  0.050471077  0.050254036            4 
 2521000   0.85273441   -4.5862452    1520.4108  0.050258193  0.050243821            3 
 2522000   0.83355589   -4.5700351    1525.4291   0.05040408  0.050233565           10 
 2523000   0.85818555   -4.5624888    1527.6387  0.050457084   0.05022342            3 
 2524000   0.85176937   -4.5804243    1527.5959  0.050435681   0.05021348            4 
 2525000   0.86364176   -4.5901702    1523.9995  0.050297013  0.050203331            4 
 2526000   0.84158322   -4.5749348    1534.9154   0.05063722  0.050193205            7 
 2527000    0.8445735   -4.6083522    1521.6477  0.050179649  0.050183015            4 
 2528000   0.85521367   -4.5915504    1523.6169  0.050224713  0.050172727            9 
 2529000   0.81232875    -4.586291     1528.449  0.050364077  0.050162524           11 
 2530000   0.86073922   -4.6111524    1522.0688  0.050134019  0.050152338            2 
 2531000   0.82456621   -4.5986961     1527.956  0.050308048  0.050142038           15 
 2532000   0.84521787   -4.5866716    1533.6919   0.05047696  0.050131741            9 
 2533000   0.84836931   -4.5858385    1532.4984  0.050417766  0.050121596            5 
 2534000   0.85706159   -4.5767919    1524.9177  0.050148569  0.050111497           11 
 2535000   0.83569103   -4.5786223    1529.6066  0.050282927  0.050101424            5 
 2536000   0.83551122   -4.5648223     1529.715   0.05026666  0.050091316            4 
 2537000   0.84447738   -4.5949617    1523.2909  0.050035833  0.050081159           10 
 2538000   0.85347437   -4.6022581    1528.7987  0.050196962   0.05007091           22 
 2539000   0.82324806   -4.5685163    1536.0245  0.050414354  0.050060765            6 
 2540000   0.85245692   -4.6000666    1530.0675  0.050199067  0.050050496            6 
 2541000    0.8441789   -4.5788619    1531.1337  0.050214276  0.050040352            2 
 2542000   0.85674045     -4.60528    1529.0843  0.050127338  0.050030237            4 
 2543000   0.84779345    -4.606408    1535.2535  0.050309787  0.050019966            5 
 2544000   0.82571734   -4.5988356    1534.4561  0.050263893   0.05000989            5 
 2545000   0.84143597   -4.6041437    1538.1468   0.05036499  0.049999847           10 
 2546000   0.83845824    -4.591553    1532.1155  0.050147797   0.04998979            8 
 2547000   0.85153032   -4.5858542    1540.4818   0.05040184  0.049979723            4 
 2548000   0.85756716   -4.6177332    1538.7887  0.050326684  0.049969598            9 
 2549000   0.83529543   -4.5751627    1536.4545  0.050230629  0.049959437            4 
 2550000   0.85224482   -4.5878921    1534.9062  0.050160333   0.04994948            9 
 2551000   0.84020758   -4.6157241    1537.5687  0.050227646  0.049939347            4 
 2552000   0.83389983   -4.5717121    1544.2545  0.050426284  0.049929383            2 
 2553000   0.82429281    -4.600734    1533.8529   0.05006701  0.049919286            3 
 2554000   0.83478985     -4.59708    1534.1544  0.050057245  0.049909264            4 
 2555000    0.8215105   -4.5910041    1537.2168  0.050137535   0.04989918            6 
 2556000   0.85012059   -4.6029339     1534.211  0.050019921  0.049888966            7 
 2557000   0.83590557   -4.6142355    1540.7633  0.050213901  0.049878793            4 
 2558000     0.848392   -4.5875545    1538.3646  0.050116127  0.049868706            2 
 2559000   0.84896835    -4.591379    1539.5087  0.050133799   0.04985858            4 
 2560000    0.8339425   -4.5813574    1536.4699  0.050015295  0.049848397            5 
 2561000   0.83360148   -4.5839587    1538.4303  0.050059557  0.049838167            5 
 2562000   0.82339729   -4.6219046    1538.7192  0.050049414  0.049828248            8 
 2563000   0.85198152   -4.5836618    1539.3042  0.050048907  0.049818078            2 
 2564000   0.83663186   -4.5943584    1537.6256  0.049974832  0.049807941            6 
 2565000   0.84164933   -4.5975022    1536.7117  0.049925657  0.049797774            5 
 2566000   0.82984881   -4.6044044    1536.0157  0.049883597  0.049787621            7 
 2567000   0.83411031   -4.5949321    1541.7914  0.050051662  0.049777435            4 
 2568000   0.85104818   -4.5850955    1540.9658  0.050005379  0.049767305            3 
 2569000   0.84435013   -4.6177674    1539.9707  0.049953635  0.049757193            5 
 2570000   0.85354198   -4.6340922    1540.1978  0.049941563  0.049746878            5 
 2571000   0.84418689   -4.6062417    1538.3563  0.049862449  0.049736715            6 
 2572000   0.82840051   -4.5640017    1542.1787  0.049966908  0.049726572            8 
 2573000   0.85804976   -4.6412203     1541.616  0.049929265  0.049716389            8 
 2574000    0.8489211   -4.5771282    1544.6986  0.050009666  0.049706256            5 
 2575000    0.8288524    -4.614771    1541.2007  0.049877046    0.0496961            3 
 2576000   0.83858751   -4.5827598    1541.2238   0.04985843  0.049685891            3 
 2577000   0.84432618   -4.6060552    1540.7113   0.04982251  0.049675762            4 
 2578000   0.80616698   -4.5775059    1545.5502  0.049959601  0.049665665            2 
 2579000    0.8499678   -4.5964928    1544.8072   0.04991622  0.049655643            2 
 2580000   0.83261974   -4.6004499    1539.4298  0.049723185  0.049645624            4 
 2581000   0.85130184    -4.600452     1546.422   0.04992968  0.049635677            3 
 2582000   0.84408577   -4.5822476    1549.2322  0.050001041  0.049625812            4 
 2583000   0.84469924   -4.5908316     1549.005  0.049974352  0.049615952            6 
 2584000   0.84085553   -4.6109238    1548.2034  0.049929162  0.049606005            4 
 2585000    0.8245202   -4.6223072     1543.687  0.049764249  0.049595921            7 
 2586000   0.84301548   -4.6119527    1544.8811  0.049783483  0.049586019            4 
 2587000   0.83854656   -4.6191863    1543.9974  0.049735776  0.049576017            3 
 2588000   0.84099127   -4.5914667    1550.1316  0.049914079  0.049566122            3 
 2589000   0.83520986   -4.5906142    1546.7488  0.049785914  0.049556122            7 
 2590000   0.83649713   -4.5962031     1551.674  0.049925161  0.049546174            6 
 2591000   0.82121557   -4.6041623    1546.6995  0.049745899  0.049536236           17 
 2592000   0.83242801    -4.616243    1546.9141  0.049733607  0.049526312            5 
 2593000   0.85385331   -4.5754725    1549.0955  0.049784533  0.049516122            4 
 2594000   0.83931324   -4.6022767    1546.8248  0.049692391  0.049506201            5 
 2595000   0.83661118    -4.586438    1545.5297  0.049631652  0.049496182           10 
 2596000   0.83110363   -4.6206769    1548.3263  0.049702309  0.049486292            6 
 2597000   0.84719627   -4.6301712    1546.2534  0.049616654  0.049476219            3 
 2598000    0.8438142    -4.635068    1546.6685   0.04961087  0.049466095            6 
 2599000   0.82755968   -4.5860749    1554.0778  0.049829352  0.049456064            4 
 2600000   0.82582891    -4.604239     1547.037  0.049584521  0.049446115            8 
 2601000   0.83142173   -4.6033735    1552.2968  0.049733974  0.049436088            4 
 2602000   0.83870853     -4.61113    1553.9344  0.049767309  0.049426169            4 
 2603000   0.82499551   -4.5945344    1551.9246  0.049683847  0.049416145            4 
 2604000   0.82950919   -4.6215786    1550.4187  0.049616573  0.049405998            4 
 2605000   0.83952978   -4.6110044    1550.5812  0.049602724  0.049395827            5 
 2606000   0.83922408   -4.6383737    1545.3778  0.049417301  0.049385757            3 
 2607000   0.84352449   -4.6301566    1548.5402  0.049499431  0.049375808            5 
 2608000   0.83198543   -4.6075957    1551.4448  0.049573263  0.049365932            4 
 2609000   0.84214181   -4.6076875    1553.5676  0.049622065  0.049355907            5 
 2610000    0.8646122   -4.6035802     1556.028  0.049681608  0.049346071            5 
 2611000   0.83402459    -4.621922    1559.2463  0.049765299  0.049336265            4 
 2612000    0.8417178   -4.5747029     1558.756  0.049730601  0.049326458            3 
 2613000   0.83131685   -4.6267428    1559.4136  0.049732541  0.049316685            5 
 2614000   0.85596735   -4.6227363    1556.8091  0.049630485   0.04930692            6 
 2615000   0.82444771   -4.5992007     1553.275  0.049498885  0.049297056            4 
 2616000   0.83144257   -4.5871275    1558.0226  0.049631199  0.049287305            8 
 2617000   0.84459418   -4.6086776     1557.723  0.049602695   0.04927753            3 
 2618000    0.8406019   -4.6504242    1551.8236  0.049395964  0.049267722            8 
 2619000   0.83825591   -4.6178357    1560.5213  0.049653852  0.049257749            5 
 2620000   0.81528176   -4.6378979    1561.2127  0.049656891  0.049247749            7 
 2621000   0.82594479   -4.5898367    1562.0345  0.049664075   0.04923772            5 
 2622000   0.83827855   -4.6131415    1555.9529  0.049451846  0.049227905            6 
 2623000   0.83987113   -4.6289954    1556.7945   0.04945973  0.049217896            4 
 2624000   0.82881628    -4.612181    1553.9557  0.049350726  0.049208031            3 
 2625000   0.84880444   -4.6445195    1554.3626  0.049344843  0.049198179            7 
 2626000   0.83036917    -4.587429    1559.1924  0.049479323  0.049188296            4 
 2627000   0.82845352   -4.6237924    1557.7703  0.049415376  0.049178438            3 
 2628000   0.83170022   -4.6219333    1561.0769  0.049501425  0.049168582            4 
 2629000    0.8146495   -4.6342214    1560.9874  0.049479759   0.04915874           11 
 2630000   0.82468942   -4.6250656    1557.8983  0.049363066  0.049148865            3 
 2631000   0.82133602   -4.6099323    1566.1493  0.049605642  0.049139081            7 
 2632000   0.84014353   -4.6311211    1559.7297  0.049383538  0.049129293           11 
 2633000   0.82007106   -4.6177563    1565.4765  0.049546667  0.049119341            7 
 2634000   0.81806492   -4.6337774    1560.6317  0.049374581  0.049109601            7 
 2635000   0.84071077   -4.6154177    1564.1991  0.049468661  0.049099812            4 
 2636000   0.83563609   -4.6181232     1561.838  0.049375252  0.049089874            4 
 2637000   0.84596909   -4.6302298    1562.6616  0.049382556  0.049080012            9 
 2638000   0.82879991   -4.6167151    1563.6822  0.049396078  0.049070344            4 
 2639000   0.81701147   -4.6217264    1566.8865  0.049478542  0.049060619            5 
 2640000   0.82155274   -4.6297647    1562.6692  0.049326679  0.049050827            6 
 2641000   0.82282912   -4.5886281    1566.8863  0.049441067  0.049040972            3 
 2642000   0.84257401   -4.5936653    1563.9138  0.049328596  0.049031122            3 
 2643000   0.82534808   -4.6225602    1562.1943  0.049255715  0.049021271            8 
 2644000   0.83057883   -4.6353986    1562.1087  0.049234388  0.049011435            3 
 2645000   0.81659298   -4.6195996    1564.9712  0.049305961  0.049001552            5 
 2646000    0.8401785   -4.6051178    1564.6827  0.049278241  0.048991631            3 
 2647000    0.8270599   -4.6313964     1565.141  0.049274052  0.048981755            4 
 2648000   0.82191255   -4.6406687     1565.304  0.049260574  0.048971906            4 
 2649000   0.83071449   -4.6327375    1567.5502  0.049312639  0.048962048            2 
 2650000   0.82199788   -4.6325102     1567.476  0.049291699  0.048952189            5 
 2651000    0.8187997   -4.6202143    1566.9152  0.049255475  0.048942311            4 
 2652000   0.84658378   -4.6401875    1563.7892  0.049138674  0.048932317            5 
 2653000   0.83447548   -4.6035385    1566.1588  0.049194584  0.048922388            6 
 2654000   0.82820998   -4.5969329    1566.4469  0.049185094  0.048912431            5 
 2655000   0.82800823   -4.6151155    1565.4516  0.049135331  0.048902686            3 
 2656000   0.85018863   -4.6229623    1565.5229  0.049119067  0.048892765            5 
 2657000   0.84171443   -4.6001705    1562.9565  0.049020089  0.048882776            5 
 2658000    0.8277596   -4.6074768      1565.27  0.049074179  0.048872745            4 
 2659000   0.83938584   -4.5983549     1570.668  0.049224897  0.048862861            4 
 2660000   0.82186971    -4.625895    1565.9034  0.049057123  0.048852961            3 
 2661000   0.82253506   -4.6256784    1566.2347  0.049049065  0.048842864            6 
 2662000   0.84783165   -4.6540053    1564.3309  0.048971041  0.048832849            3 
 2663000   0.81614747   -4.6297509    1573.6481  0.049244214  0.048822837            4 
 2664000   0.81919928   -4.6556794    1566.0905  0.048989317  0.048812745            5 
 2665000   0.81374778   -4.6233575    1566.1853  0.048973899  0.048802655            4 
 2666000   0.81406487    -4.661236    1569.3133  0.049053302  0.048792622            2 
 2667000   0.83200618   -4.6449559    1568.9599   0.04902387  0.048782715            4 
 2668000   0.84283061   -4.6154001    1572.2481  0.049108199  0.048772869            4 
 2669000   0.82820216   -4.6124681    1569.8718  0.049015604  0.048763159            4 
 2670000   0.82374662   -4.6340604    1570.0218   0.04900193  0.048753348            4 
 2671000   0.83253103   -4.6582155     1569.168  0.048956946  0.048743529            5 
 2672000   0.82440291   -4.6243749     1579.153  0.049250033  0.048733693            4 
 2673000   0.83137639   -4.6067106    1574.8943  0.049098838  0.048723896            3 
 2674000   0.81976567   -4.6191428    1580.5981  0.049258229  0.048714059            4 
 2675000    0.8191698   -4.6330364    1572.1056  0.048975253  0.048704078            2 
 2676000    0.8303513   -4.6290369    1567.6813  0.048819174  0.048694229            4 
 2677000   0.80917479   -4.6158531    1572.3152  0.048945187  0.048684338            5 
 2678000   0.82868859   -4.6180258    1572.1589  0.048922048   0.04867448            3 
 2679000   0.81431127   -4.6712279    1571.6481  0.048887896  0.048664617            4 
 2680000   0.82304274   -4.6353377    1572.5103  0.048896465  0.048654721            5 
 2681000     0.832199   -4.6522192     1570.434  0.048813688  0.048644869            5 
 2682000   0.82415478   -4.6258469    1578.2195  0.049037395  0.048635049            5 
 2683000   0.83481907   -4.6393409    1573.5097  0.048872833  0.048625188            4 
 2684000   0.80403325   -4.6235395    1576.0265  0.048932764  0.048615368            3 
 2685000   0.81780778   -4.6351006    1576.9224  0.048942347  0.048605488            5 
 2686000   0.82692375   -4.6264525    1576.4695  0.048910074  0.048595617            3 
 2687000   0.83144649   -4.6324358    1574.1101  0.048818697  0.048585778            5 
 2688000   0.83293665   -4.6667139    1575.2639  0.048836307  0.048575866            5 
 2689000   0.82478839   -4.6216146    1576.5435    0.0488578   0.04856601            4 
 2690000   0.85162049   -4.6645115     1576.959   0.04885251  0.048556295            4 
 2691000   0.82118362   -4.6346146    1577.7807    0.0488598  0.048546543            3 
 2692000   0.80281766    -4.631106    1580.1546  0.048915137  0.048536848            3 
 2693000   0.82034916   -4.6577094    1576.7795  0.048792532  0.048527065            4 
 2694000   0.81054606   -4.6105781    1580.7139  0.048896123  0.048517205            3 
 2695000   0.81011829   -4.6608945    1576.0106  0.048732549  0.048507434            9 
 2696000   0.82987031    -4.623006    1585.5572  0.049009557  0.048497699            8 
 2697000    0.8134688   -4.6240844    1580.9153  0.048847958   0.04848785            3 
 2698000   0.80731056   -4.6538836    1579.3798  0.048782426  0.048477933            5 
 2699000   0.81940245   -4.6257525    1575.7995  0.048653808  0.048468129            6 
 2700000   0.82877733   -4.6600509    1580.1273  0.048769361  0.048458247            6 
 2701000   0.82369693   -4.6452916    1577.3437  0.048665424  0.048448402            8 
 2702000   0.81147895   -4.6478095    1574.2352  0.048551542  0.048438405            4 
 2703000    0.8216929   -4.6347768    1581.2574  0.048750074  0.048428507            5 
 2704000   0.82315937   -4.6498893    1577.6528  0.048620955  0.048418648            8 
 2705000   0.83384684   -4.6346573    1578.3778  0.048625318  0.048408726            4 
 2706000   0.82938889    -4.638309    1582.3197  0.048728742  0.048398762            6 
 2707000   0.81144602   -4.6082504    1582.5559  0.048718012  0.048388675            3 
 2708000   0.82261176   -4.6422629    1580.0096  0.048621664  0.048378689            4 
 2709000   0.82270484   -4.6405028    1582.8503  0.048691099  0.048368726            7 
 2710000   0.82978498    -4.645158    1584.5281  0.048724727  0.048358817            2 
 2711000   0.82894693   -4.6406382    1582.5959   0.04864736  0.048348897            4 
 2712000   0.81147377    -4.623937    1584.6205  0.048691633  0.048339008            3 
 2713000   0.83415746   -4.6461796    1580.8296  0.048557243  0.048329156            4 
 2714000   0.80210454   -4.6386035    1580.4057  0.048526336  0.048319174            8 
 2715000   0.82040947   -4.6402658    1584.6989  0.048640237  0.048309262            4 
 2716000   0.83947147   -4.6341407    1582.3276  0.048549571  0.048299452            4 
 2717000   0.81497928   -4.6142434    1589.4567  0.048750359  0.048289698            4 
 2718000    0.8267361   -4.6017922    1586.5166  0.048642279    0.0482798            7 
 2719000   0.80636434   -4.6404465    1581.3195  0.048465106  0.048269976            5 
 2720000   0.81851101   -4.6562657    1580.0402  0.048408095  0.048260086            5 
 2721000   0.82775087   -4.6334782    1583.2707   0.04848924  0.048250201            3 
 2722000   0.84186018   -4.6093665    1587.8775  0.048612462  0.048240457            5 
 2723000   0.82929775   -4.6373821    1586.1197  0.048540815  0.048230678            5 
 2724000   0.81244593   -4.6245325    1590.6409  0.048661311  0.048220858            7 
 2725000   0.81023921   -4.6637382    1586.8453  0.048527378  0.048211091            6 
 2726000   0.80010738   -4.6658876    1583.1822  0.048397597    0.0482012            4 
 2727000   0.82351606   -4.6643517    1588.4409   0.04854055  0.048191385            2 
 2728000   0.81622068   -4.6216659    1590.0395  0.048571588  0.048181695            5 
 2729000   0.81074681   -4.6611477    1584.9481  0.048398317  0.048171858            4 
 2730000   0.82606844    -4.674734    1589.1217  0.048507988  0.048161989            4 
 2731000   0.82280899   -4.6310631    1592.5538  0.048594952  0.048152112            6 
 2732000   0.79952672   -4.6162438    1589.9386  0.048497395  0.048142386            5 
 2733000   0.80256215   -4.6608198    1591.8022  0.048536473  0.048132521            5 
 2734000   0.82259557    -4.647218    1588.7788  0.048426565  0.048122746           15 
 2735000   0.79566614    -4.655062    1583.9127  0.048260593  0.048112857            5 
 2736000   0.82851587   -4.6609334     1590.594  0.048446454  0.048102978            3 
 2737000   0.81873001    -4.668168     1586.205  0.048295122   0.04809303            4 
 2738000   0.82294777   -4.6338919    1590.5424  0.048409496  0.048083042            3 
 2739000   0.82931932   -4.6517333    1589.9414  0.048373537  0.048073017            7 
 2740000   0.81059821   -4.6535496     1590.599  0.048375883  0.048063068            9 
 2741000    0.8034587   -4.6189085    1596.8686  0.048548845  0.048053274            4 
 2742000   0.81304604   -4.6603194    1592.7621  0.048406337  0.048043357            2 
 2743000   0.80108272   -4.6473436    1597.2296  0.048524414  0.048033498            5 
 2744000    0.8294693   -4.6630546     1592.289  0.048356689  0.048023697            4 
 2745000   0.80932894   -4.6679732    1586.7028  0.048169483  0.048013857            5 
 2746000   0.81002672   -4.6700573    1594.4404  0.048386758  0.048003998            5 
 2747000   0.80056832   -4.6328139     1592.532   0.04831125  0.047994166            5 
 2748000    0.8170203   -4.6194228    1594.8285  0.048363309  0.047984329            5 
 2749000   0.80027473    -4.663231    1592.7288  0.048282067  0.047974407            5 
 2750000   0.79040311   -4.6524516    1596.4795  0.048378167  0.047964515            8 
 2751000   0.82435481   -4.6678599    1589.6104  0.048152503  0.047954577            9 
 2752000   0.81907896    -4.655785    1593.0026  0.048237723  0.047944648            3 
 2753000      0.81054   -4.6393219    1593.4496  0.048233733  0.047934841            3 
 2754000   0.81104212   -4.6402241    1597.5738  0.048341014  0.047925044            5 
 2755000   0.81351907   -4.6861695    1587.6629  0.048023682  0.047915086            4 
 2756000   0.80682135   -4.6529156    1592.5563  0.048154217  0.047904988            6 
 2757000   0.81838331   -4.6483995    1594.3353  0.048190524  0.047895006            4 
 2758000   0.80876296   -4.6726318    1593.6739  0.048153066  0.047885149            6 
 2759000   0.80884864   -4.6646926    1589.4835  0.048009045  0.047875224            6 
 2760000   0.83475279   -4.6399928    1594.7566  0.048150862  0.047865296            8 
 2761000   0.81337736   -4.6787883    1595.0733  0.048142982  0.047855435            8 
 2762000   0.83746537   -4.6794761    1594.2791  0.048101589  0.047845476            6 
 2763000    0.8037221   -4.6313307      1598.09  0.048199118  0.047835581            3 
 2764000   0.80937962   -4.6353886    1594.6531  0.048078061  0.047825537            3 
 2765000   0.82111984   -4.6652739    1592.3201  0.047990359  0.047815454            6 
 2766000   0.82115211   -4.6220687    1593.9161  0.048021093  0.047805384            4 
 2767000   0.81339342   -4.7015938    1593.8629  0.048002135   0.04779524            3 
 2768000   0.80883477   -4.6434073    1594.4847  0.048003514  0.047785084            6 
 2769000   0.81589377   -4.6651288    1592.6549   0.04793111  0.047774962            8 
 2770000   0.79524476    -4.651583    1599.2048  0.048110855   0.04776502            5 
 2771000   0.80873211   -4.6800867    1589.3929  0.047798414  0.047755037            7 
 2772000   0.80808252   -4.6651707    1595.7194  0.047971361  0.047744944            4 
 2773000   0.80136021   -4.6188282    1601.3817  0.048124225  0.047735021            4 
 2774000   0.80124367    -4.647986    1595.6712  0.047935329  0.047724935            4 
 2775000   0.78871737   -4.6580647     1595.148  0.047902343  0.047714799            4 
 2776000   0.80468811   -4.6727054    1596.0123  0.047911032  0.047704751            7 
 2777000   0.82102087   -4.6353655    1599.1276  0.047987263  0.047694772            3 
 2778000   0.81520896   -4.6807601    1602.6384  0.048075306   0.04768481            3 
 2779000   0.81490531   -4.6705775     1598.581  0.047936339  0.047674762            7 
 2780000   0.79180905   -4.7015722    1595.8489  0.047837198  0.047664818            9 
 2781000   0.80307122   -4.6666228    1597.1567  0.047859185  0.047654727            6 
 2782000   0.83161473   -4.6813417    1600.9397  0.047955298  0.047644626            6 
 2783000   0.79871637   -4.6960245    1593.4202  0.047712905  0.047634455            9 
 2784000   0.80745831   -4.6648558    1600.6486  0.047912135  0.047624384            4 
 2785000   0.79208032   -4.6616383    1599.1108  0.047848917  0.047614346            7 
 2786000    0.8153229   -4.6844648    1593.7402  0.047671099  0.047604181            3 
 2787000   0.81970711   -4.6795168    1599.4049  0.047823373  0.047594136            4 
 2788000   0.80423393   -4.6478193    1601.4711  0.047867979  0.047583964            6 
 2789000   0.80295901   -4.7001451     1596.091  0.047690061   0.04757374            6 
 2790000   0.80244791   -4.6304915    1599.0098  0.047760149  0.047563635            5 
 2791000   0.80839102    -4.672248    1599.4916  0.047757424  0.047553563            6 
 2792000   0.80806809   -4.6730044    1596.3614   0.04764689  0.047543527            4 
 2793000   0.80682185   -4.6619923    1602.5394   0.04781416  0.047533419            5 
 2794000   0.80383628   -4.6644304    1605.1096  0.047873704  0.047523438            3 
 2795000   0.78951689   -4.6530625    1600.4807  0.047718566  0.047513393            3 
 2796000     0.801469   -4.6743707    1600.5094  0.047702356  0.047503489            4 
 2797000   0.81503142   -4.6763709    1603.1313  0.047763417  0.047493451            3 
 2798000   0.80697613   -4.6537064    1603.2359  0.047749462  0.047483405            3 
 2799000   0.81902319   -4.6573568    1597.7618  0.047569422  0.047473362           11 
 2800000   0.81115736   -4.6536993    1604.4888  0.047752644  0.047463304            4 
 2801000   0.80215489   -4.6663195    1604.1778  0.047726343  0.047453439            3 
 2802000    0.8022143   -4.6748496    1603.5923  0.047691897  0.047443448            6 
 2803000   0.81737464   -4.6515202    1606.6386  0.047765447   0.04743356           11 
 2804000   0.79665707   -4.6698049    1602.2331  0.047617484  0.047423599            5 
 2805000   0.80229785   -4.6369632    1602.9118   0.04762067  0.047413643            4 
 2806000   0.81224301   -4.6666251    1605.5973  0.047683456  0.047403622            7 
 2807000   0.80922751   -4.7014846    1603.2301  0.047596191  0.047393525            6 
 2808000   0.78888726   -4.6558601    1607.3946   0.04770283  0.047383337            5 
 2809000   0.81377329   -4.6820642    1609.0947  0.047736286  0.047373355           11 
 2810000    0.8069652   -4.6460233    1608.3939  0.047698513  0.047363221            6 
 2811000   0.79270864   -4.6744304    1609.0825  0.047701959  0.047353235            5 
 2812000    0.7838881   -4.6780268    1607.2627  0.047631066  0.047343201            5 
 2813000    0.8164138   -4.6821481    1610.3137  0.047704518  0.047333272            9 
 2814000    0.7877465   -4.6551719    1607.0947  0.047592237  0.047323273           13 
 2815000   0.80132367   -4.6784407    1607.2209  0.047579069  0.047313335            3 
 2816000   0.80742028   -4.6608851    1605.6735   0.04751638  0.047303323            4 
 2817000   0.78869956   -4.6777997    1607.9542   0.04756698  0.047293385           10 
 2818000   0.80760502   -4.6562238    1611.1928  0.047645873  0.047283404            7 
 2819000   0.81670624   -4.6822315    1607.5786  0.047522131  0.047273525            7 
 2820000   0.80024779   -4.6546051    1609.0958  0.047550113   0.04726365            6 
 2821000   0.78628419     -4.63418    1610.5512  0.047576249  0.047253741            4 
 2822000   0.77745698   -4.6753614    1607.1184  0.047458022  0.047243794            7 
 2823000   0.81071248   -4.6678243    1612.4621  0.047598951  0.047233849            5 
 2824000   0.79481197   -4.6840228     1606.842  0.047416254  0.047223926            3 
 2825000    0.8075428   -4.6777023    1605.4923  0.047359655  0.047213904            5 
 2826000   0.81036524    -4.667312    1610.2403  0.047482907   0.04720398            5 
 2827000    0.7846128   -4.7025411    1602.1145  0.047226579  0.047194011            8 
 2828000   0.80655063   -4.6617321    1616.0934  0.047621799  0.047184096            4 
 2829000   0.80131925   -4.6782689     1612.642    0.0475033  0.047174337            8 
 2830000   0.79760235   -4.7021313    1607.8225  0.047344596  0.047164478            7 
 2831000   0.80840802   -4.6875064     1611.594  0.047438892   0.04715452            4 
 2832000   0.80278031   -4.6763676    1614.1664  0.047497835  0.047144667            5 
 2833000   0.79686192   -4.6729806    1612.0271   0.04741814  0.047134772            5 
 2834000   0.79008825   -4.6783683    1611.4647  0.047384872  0.047124834            6 
 2835000   0.78223721   -4.6818193     1606.227  0.047214196  0.047114847            8 
 2836000   0.81265548   -4.6903839     1614.834  0.047450457  0.047104804            4 
 2837000   0.79359473   -4.6821682    1613.1057  0.047382967  0.047094828            4 
 2838000   0.80145933   -4.6842596    1612.2719  0.047341788  0.047084831            5 
 2839000   0.79134063   -4.6833698    1610.2521  0.047265825  0.047074857            7 
 2840000   0.79537833   -4.7001279    1611.7657  0.047293593  0.047064704            7 
 2841000   0.80616266   -4.6818355    1611.9052  0.047281041  0.047054656            7 
 2842000   0.79235689   -4.7048162    1613.8473  0.047321349  0.047044635           12 
 2843000   0.79171988   -4.6909976    1612.3245   0.04726007  0.047034676            5 
 2844000   0.80988426   -4.6458762    1614.7259  0.047313816  0.047024737            9 
 2845000   0.80573119   -4.6917072    1615.3165  0.047314484  0.047014691            4 
 2846000    0.7976226   -4.6609123    1611.6519  0.047190558    0.0470047            5 
 2847000   0.79875548   -4.6676858    1612.6889  0.047204335  0.046994798            6 
 2848000   0.78617348   -4.6797124    1616.5671  0.047301239  0.046984879            3 
 2849000   0.78557292   -4.6860808     1616.017  0.047268543  0.046974835            5 
 2850000   0.80237944   -4.6751367    1620.5819  0.047385435  0.046964919            7 
 2851000   0.80354014   -4.6905371    1614.4733  0.047190263  0.046954962            7 
 2852000   0.79492799   -4.7250413    1611.9176  0.047099043  0.046945052            3 
 2853000   0.80724648   -4.6772789    1615.1159  0.047175951  0.046935171            4 
 2854000   0.79242858   -4.6772306    1614.6792  0.047146671  0.046925241            7 
 2855000   0.78389411   -4.7109097    1613.2473  0.047088363   0.04691517            5 
 2856000    0.7871197   -4.6842597    1618.1396  0.047214625  0.046905114            5 
 2857000   0.77692993   -4.6719399    1617.8272  0.047188986  0.046895148            4 
 2858000   0.79570261   -4.6832212    1616.0844  0.047121659  0.046885125            4 
 2859000   0.79079016   -4.6740724     1610.332  0.046937508  0.046875091           10 
 2860000   0.80398436   -4.7013879    1614.6477  0.047046844  0.046865124            6 
 2861000   0.79419405   -4.6777919     1615.741  0.047062244  0.046855184            4 
 2862000   0.79080247   -4.6778187    1615.9366  0.047051497  0.046845163            8 
 2863000   0.77489596   -4.6912212    1617.1018  0.047068977  0.046835127            7 
 2864000   0.80534195   -4.6759103    1621.1629  0.047170709  0.046825175            7 
 2865000   0.77085759   -4.6806537    1619.2932  0.047099861  0.046815303            6 
 2866000   0.79770125   -4.6978191    1623.5829  0.047208156  0.046805458           13 
 2867000   0.79152224   -4.6727576    1617.3766  0.047011294  0.046795536            5 
 2868000   0.78216022   -4.6692244    1626.4029  0.047257174  0.046785688           10 
 2869000   0.78582628   -4.6642308    1623.1305  0.047145653  0.046775974            6 
 2870000   0.79572764   -4.6870083    1622.0927  0.047099092  0.046766122            5 
 2871000   0.78773521   -4.6585356    1621.2229   0.04705744  0.046756247            5 
 2872000   0.79429979   -4.7090284    1623.0792  0.047094915   0.04674647            8 
 2873000   0.78509598   -4.7195248    1617.6554  0.046921203  0.046736548            8 
 2874000    0.7950486   -4.6795203    1624.9062  0.047115118  0.046726802            5 
 2875000   0.78936052   -4.6529611     1626.998  0.047159364  0.046717026            7 
 2876000   0.77725628   -4.7255028    1618.6426  0.046900862  0.046707283            6 
 2877000   0.77490011   -4.6698202    1622.4718  0.046995477  0.046697359            6 
 2878000   0.78328296   -4.7036041    1623.3254  0.047003862  0.046687415            6 
 2879000   0.78848886    -4.675108    1624.3773  0.047017982  0.046677591            9 
 2880000   0.76994719   -4.7007773     1621.913  0.046930354  0.046667739            7 
 2881000   0.77581885   -4.6899126    1625.0435  0.047004614  0.046657883            5 
 2882000   0.79136106   -4.6864107    1622.2549  0.046907671  0.046648033           12 
 2883000   0.80496843   -4.7262207     1622.204  0.046889929  0.046638231            6 
 2884000   0.78668801   -4.6898008     1624.688  0.046945447  0.046628383            3 
 2885000   0.79516901   -4.6776537    1624.5591   0.04692545  0.046618455            3 
 2886000   0.78436935   -4.6771869    1625.2245  0.046928403  0.046608548           11 
 2887000   0.80195637   -4.6852439    1623.9917  0.046876564  0.046598565            3 
 2888000   0.78531922   -4.7012058    1620.8811  0.046770576  0.046588651           11 
 2889000   0.79118648   -4.6880921    1623.9535  0.046843009  0.046578747            6 
 2890000   0.79255325   -4.6970558    1625.2165   0.04686322  0.046568925            5 
 2891000   0.79174955   -4.7202376    1625.7284  0.046861767  0.046559021            6 
 2892000   0.79109406   -4.7134312    1621.7569  0.046731123   0.04654904            7 
 2893000   0.78660023    -4.689195    1633.9871  0.047067263  0.046539133            4 
 2894000   0.79754362   -4.6899284    1626.0065  0.046821195  0.046529164            5 
 2895000   0.78412832   -4.6715489    1627.0697  0.046835626  0.046519224            5 
 2896000   0.78383655   -4.7034079    1622.4954  0.046687828  0.046509296            7 
 2897000   0.78388627   -4.6746905    1626.1756  0.046777575  0.046499348            3 
 2898000   0.78978806    -4.663717    1623.0462  0.046671446  0.046489399            5 
 2899000   0.80011653    -4.703536    1626.7607  0.046762121  0.046479496            5 
 2900000   0.78835527   -4.6969495    1630.1263  0.046842709  0.046469582           10 
 2901000   0.80111031   -4.6829775    1627.5058  0.046751287  0.046459594            2 
 2902000   0.79326788   -4.6762514    1624.1854  0.046639829  0.046449684            6 
 2903000   0.79135568   -4.7009877      1624.72  0.046639108  0.046439699           10 
 2904000   0.77563375   -4.7235505    1619.7218  0.046479621  0.046429642            7 
 2905000   0.78034917    -4.708693    1621.5222  0.046515266  0.046419629            4 
 2906000   0.77477904   -4.6794826    1625.0761  0.046601173   0.04640955            5 
 2907000   0.79403416   -4.7114884    1622.9887  0.046525305  0.046399425            8 
 2908000   0.77791511   -4.7341679    1620.5994  0.046440835  0.046389273            6 
 2909000   0.79919896   -4.7213478     1622.968  0.046492725   0.04637906            6 
 2910000   0.79931837   -4.7274524    1622.7157   0.04646952  0.046368866            4 
 2911000   0.77787094    -4.718698    1621.3786  0.046415281  0.046358652            8 
 2912000   0.79085711   -4.7386768    1618.7281  0.046323493  0.046348488            6 
 2913000   0.79094909   -4.6908017    1625.9337  0.046513722  0.046338279            4 
 2914000   0.77372578   -4.7077109    1620.8981  0.046353755  0.046328066            4 
 2915000    0.7733787   -4.7233486    1623.3697   0.04640851  0.046317834            6 
 2916000   0.78526821   -4.7306016     1622.239  0.046360281  0.046307582            3 
 2917000   0.80280012   -4.7082363     1624.486  0.046408582  0.046297356            7 
 2918000   0.77764617   -4.7140899    1626.6728  0.046455129    0.0462871            7 
 2919000   0.77419397   -4.6861735     1629.746   0.04652695  0.046276878            8 
 2920000   0.79222975   -4.7125799    1630.8346  0.046542083  0.046266727            7 
 2921000   0.77393596   -4.7325268    1624.1495  0.046335429  0.046256518            6 
 2922000   0.78232645   -4.7048433    1627.6663   0.04641987  0.046246312            6 
 2923000   0.79684406   -4.6941235    1628.8942  0.046438994  0.046236185            4 
 2924000   0.78487264   -4.7133393    1625.9423  0.046338985   0.04622606            4 
 2925000   0.81978059   -4.7071424    1628.4472  0.046394507  0.046215978           10 
 2926000   0.78126397   -4.7189389    1621.0995  0.046169387  0.046205913            5 
 2927000   0.78647694   -4.7227761    1626.4206  0.046305109  0.046195687            4 
 2928000   0.77662937   -4.7138435     1626.823  0.046300746  0.046185451           11 
 2929000   0.78064563    -4.694069    1625.2254  0.046239485  0.046175322            5 
 2930000   0.77878698   -4.7021168    1623.3704  0.046170944  0.046165061            6 
 2931000   0.76637677    -4.712114    1631.8984  0.046397656    0.0461548            5 
 2932000   0.78577511   -4.7047261    1629.4185  0.046311348   0.04614457            5 
 2933000   0.80877544   -4.7405075    1625.5028  0.046184306  0.046134243            6 
 2934000   0.79224841   -4.6703594    1631.8102   0.04634771  0.046124086            6 
 2935000   0.78122972   -4.7234549    1627.9559  0.046222485  0.046113935            4 
 2936000   0.79325636   -4.7183155    1631.8408  0.046317007    0.0461037           11 
 2937000   0.77455438    -4.726703    1631.2424  0.046284259  0.046093516            4 
 2938000   0.79339122   -4.7296492    1634.6692  0.046365701  0.046083463            4 
 2939000   0.77854667   -4.7168555    1632.8147  0.046297343  0.046073406            7 
 2940000   0.77718813   -4.7306948     1629.481  0.046187102  0.046063326            4 
 2941000   0.78009291   -4.7136829    1634.1485  0.046303653  0.046053196            6 
 2942000   0.78163153   -4.7027678     1630.919  0.046196438  0.046043052            6 
 2943000   0.77136097   -4.6997535    1633.4815  0.046253299  0.046032842            5 
 2944000   0.77525013   -4.7220223    1630.3441   0.04614878  0.046022657            4 
 2945000   0.76639897   -4.7208231    1631.1161  0.046154955  0.046012424            3 
 2946000   0.80309899   -4.7348493    1633.2365  0.046199267  0.046002169           11 
 2947000     0.786322   -4.7322999    1633.7269  0.046197457   0.04599202            5 
 2948000   0.78203663   -4.7038776    1631.9626  0.046131913  0.045981893            6 
 2949000   0.77570892   -4.6963641    1633.4712  0.046158903   0.04597183            4 
 2950000   0.77541665   -4.7040312    1635.2033  0.046192184   0.04596181            3 
 2951000   0.78425555     -4.68266    1636.1061  0.046202025  0.045951839            7 
 2952000   0.79025557   -4.6976245    1634.8411  0.046150663  0.045941829            6 
 2953000   0.78438359   -4.7082213    1633.4584  0.046096015  0.045931705            2 
 2954000   0.77595619   -4.7138722     1634.691  0.046115184  0.045921627            7 
 2955000   0.77105955   -4.7281424    1632.4404  0.046036109  0.045911494            5 
 2956000   0.77269674    -4.704784    1637.8618  0.046173371  0.045901452           10 
 2957000   0.77834568   -4.7042087    1640.8428  0.046241766  0.045891354            5 
 2958000   0.78015131   -4.7248076     1635.807  0.046084263   0.04588136            4 
 2959000    0.7778055   -4.7294405    1641.0889   0.04621744  0.045871227            6 
 2960000    0.7908892   -4.7114436    1640.2892  0.046179312  0.045861196            6 
 2961000   0.79210228   -4.7155508    1636.6108  0.046060194  0.045851161            8 
 2962000   0.76949172   -4.7531071    1636.9953  0.046055461  0.045841117           13 
 2963000   0.76375091   -4.7481071    1628.2699   0.04579452  0.045831053            4 
 2964000   0.78836467    -4.712682    1638.3518  0.046062523  0.045820959            5 
 2965000   0.76955938   -4.7268637    1635.6265   0.04597039  0.045810921            4 
 2966000   0.76801239   -4.7248709    1636.9958  0.045993364  0.045800901            8 
 2967000   0.78155442   -4.7294634    1642.0888  0.046120907  0.045790809            9 
 2968000   0.78690018   -4.7415348    1640.0373  0.046047768   0.04578084            6 
 2969000   0.77983576   -4.7349671    1633.5111  0.045849081  0.045770839            4 
 2970000   0.77897751   -4.7429763    1634.5545  0.045862922  0.045760716            5 
 2971000   0.77306846   -4.7033343    1638.4565   0.04595693  0.045750678            9 
 2972000   0.76825947   -4.7238229    1634.6258  0.045834057  0.045740545            5 
 2973000   0.76979133   -4.7220376    1643.0382  0.046054439  0.045730473            4 
 2974000   0.76813754   -4.7289613    1638.9195  0.045923546  0.045720445            8 
 2975000   0.75421435   -4.6965084    1640.2485  0.045945335  0.045710404            6 
 2976000   0.78770874   -4.7439282    1638.5756  0.045883053  0.045700229            5 
 2977000   0.77399568   -4.7191758    1634.7669  0.045761026  0.045690097           10 
 2978000   0.79007785   -4.7306263    1638.7418  0.045856888  0.045679958            5 
 2979000   0.78439978    -4.723506    1636.8777   0.04578935  0.045669788           11 
 2980000   0.78490218   -4.7453031    1639.9316  0.045859384  0.045659683            6 
 2981000   0.78665771   -4.7486313    1640.4509  0.045858518  0.045649542           10 
 2982000   0.75550533   -4.7420284    1637.4957  0.045760554  0.045639428            8 
 2983000   0.77024283   -4.7106132    1644.5776  0.045943055  0.045629405            3 
 2984000   0.76716509   -4.7206558    1638.9909  0.045771639  0.045619272            5 
 2985000   0.77614128   -4.7436291    1634.6591  0.045635374  0.045609072            4 
 2986000   0.79131988   -4.7592936    1638.5836  0.045729615  0.045598725            2 
 2987000   0.77214311   -4.7174391    1641.2733  0.045789346  0.045588547            9 
 2988000   0.75712515   -4.6950795    1641.7568  0.045787505  0.045578461            4 
 2989000   0.78315498   -4.7382846    1639.5169  0.045709737  0.045568297            8 
 2990000   0.77905979   -4.7331607    1638.3188  0.045661058  0.045558222            5 
 2991000   0.76842967   -4.7467332    1645.7457  0.045852716  0.045548107            4 
 2992000    0.7699476   -4.7351479    1641.8093  0.045727754  0.045538021            6 
 2993000   0.77257922   -4.7425397    1638.2364  0.045612997  0.045527906            8 
 2994000   0.78386678   -4.7355282    1640.8758  0.045671225  0.045517705            4 
 2995000   0.77942505   -4.7175959    1645.4467  0.045783158    0.0455076            7 
 2996000   0.79339078    -4.750697    1640.5063  0.045630461  0.045497417            6 
 2997000    0.7656947   -4.7075609    1637.0863  0.045520139  0.045487191            8 
 2998000   0.76337488   -4.7455119    1640.0814   0.04558821  0.045477017            7 
 2999000   0.77662858   -4.7311632    1643.2526  0.045661125  0.045466864            5 
 3000000   0.79246539   -4.7549951     1637.475  0.045485416  0.045456702            9 
 3001000   0.77615529   -4.7256846     1642.961  0.045622599  0.045446598            8 
 3002000   0.76480078   -4.7091613     1643.125  0.045611952  0.045436505            3 
 3003000    0.7706687   -4.7384269    1641.6787  0.045556629  0.045426354            6 
 3004000   0.75374798   -4.7629492    1643.0146  0.045578523  0.045416111            8 
 3005000   0.78546295   -4.7202881    1647.2682  0.045681314  0.045406026            3 
 3006000   0.77533881   -4.7363703    1646.2005  0.045636518  0.045395911           17 
 3007000   0.77723005   -4.6994349    1645.1095  0.045591106  0.045385737            2 
 3008000   0.79053367   -4.7603816    1646.6633  0.045618997  0.045375603            6 
 3009000   0.75938143   -4.7150792    1646.3287   0.04559457  0.045365502            3 
 3010000   0.74115394   -4.7382028    1640.1226  0.045407602  0.045355334           10 
 3011000   0.77754745   -4.7257481    1645.7431  0.045548077  0.045345092            3 
 3012000   0.77652341   -4.7191331    1647.2609  0.045574947  0.045335062            7 
 3013000   0.76784024   -4.7275942    1647.6768  0.045571323  0.045325013            5 
 3014000    0.7693768   -4.7332884    1644.6937  0.045473726  0.045314831            4 
 3015000   0.77025455   -4.7193355    1642.7191  0.045404066  0.045304698            3 
 3016000    0.7596942   -4.7377259    1647.7628  0.045528371  0.045294571            5 
 3017000   0.77491637   -4.7282654    1641.9923  0.045353891  0.045284363            3 
 3018000   0.76662342   -4.7345317    1645.5155  0.045436148  0.045274191           10 
 3019000   0.77754902    -4.727291    1648.9529   0.04551598  0.045264052            4 
 3020000   0.76514677   -4.7361141    1646.2036  0.045425044  0.045253887            6 
 3021000   0.75945113   -4.7360315    1645.1506   0.04538096  0.045243705           15 
 3022000   0.76551585   -4.7701114     1647.256     0.045424  0.045233517            9 
 3023000   0.77607541   -4.7361929    1645.5777  0.045362712  0.045223293            5 
 3024000   0.79157459   -4.7776667    1647.9613  0.045413396  0.045213164            8 
 3025000   0.77733338   -4.7411658    1645.7959  0.045338731  0.045203036            5 
 3026000   0.77608092   -4.7371799    1649.4616  0.045424697  0.045192892            7 
 3027000   0.77601398   -4.7471698    1648.4749  0.045382526  0.045182744            4 
 3028000   0.75932835   -4.7272585    1647.1692  0.045331605  0.045172696            5 
 3029000   0.76474033   -4.7256843    1642.5422  0.045189341  0.045162599            4 
 3030000   0.76685197   -4.7342651     1650.716   0.04539923   0.04515245            4 
 3031000   0.75744392   -4.7541832     1648.252  0.045316507  0.045142449           12 
 3032000    0.7780151   -4.7548754    1650.2961  0.045357744  0.045132397            6 
 3033000   0.77192206   -4.7199348    1652.1827  0.045394622  0.045122332            6 
 3034000    0.7697149   -4.7625845    1652.4192  0.045386156  0.045112381            5 
 3035000   0.77984709   -4.7216068    1655.8782  0.045466179  0.045102493            5 
 3036000   0.77619902   -4.7534657    1647.8374  0.045230494  0.045092564            6 
 3037000   0.75936643   -4.7457607    1652.4358   0.04534178  0.045082549            4 
 3038000   0.76197649   -4.7440842    1655.7121  0.045416725  0.045072579            6 
 3039000   0.75616708   -4.7392003    1654.3207  0.045363626   0.04506255            5 
 3040000   0.77972623   -4.7315419    1654.0072  0.045340111  0.045052519            3 
 3041000   0.76888372   -4.7678666     1655.604  0.045368957  0.045042599            3 
 3042000   0.76411501   -4.7573454    1648.8132  0.045168013  0.045032601            6 
 3043000   0.76183252   -4.7398231    1652.7698  0.045261523  0.045022648            6 
 3044000   0.76661166   -4.7696934    1651.8804  0.045222306  0.045012707           11 
 3045000   0.77487768   -4.7369158    1655.5919  0.045309028  0.045002675            7 
 3046000   0.77486891   -4.7520523    1656.0517  0.045306734   0.04499266            4 
 3047000   0.78114224   -4.7356258    1654.4445  0.045247909  0.044982725            3 
 3048000   0.74637775   -4.7575122    1647.6225  0.045046548  0.044972748            5 
 3049000    0.7654409   -4.7326852    1657.7551  0.045308711  0.044962711           10 
 3050000   0.76788768   -4.7748225    1650.8895   0.04510627  0.044952661            8 
 3051000   0.75865296   -4.7382257    1650.7729  0.045088302  0.044942525            7 
 3052000   0.74457436   -4.7430851    1653.0607  0.045135995  0.044932445           11 
 3053000   0.77539439   -4.7584836    1651.0964  0.045067596  0.044922502            9 
 3054000   0.76932722   -4.7760144    1650.3715  0.045033058  0.044912391            6 
 3055000   0.76143989   -4.7593066    1654.1067  0.045120204  0.044902283            4 
 3056000   0.76236539   -4.7561004    1656.9455  0.045182852   0.04489222            6 
 3057000   0.76433259    -4.748587    1654.5005  0.045101421  0.044882116            4 
 3058000    0.7526516   -4.7454917    1659.0041  0.045209399  0.044872056           12 
 3059000   0.75444992   -4.7469675    1653.9479  0.045056879  0.044862004            6 
 3060000   0.74917407   -4.7481548     1648.368  0.044890197  0.044851921            4 
 3061000   0.74772403   -4.7481319    1651.9042  0.044971802  0.044841752            5 
 3062000   0.75479985   -4.7448032    1654.7535  0.045034659  0.044831653           18 
 3063000   0.75453701   -4.7475489     1650.469  0.044903389  0.044821517            8 
 3064000   0.75202745   -4.7355127    1652.2316  0.044936673  0.044811408            5 
 3065000   0.75521653   -4.7340824    1651.8713  0.044912216  0.044801236            5 
 3066000   0.76842611   -4.7493424     1652.837  0.044923815  0.044790967            6 
 3067000   0.75727684   -4.7650931    1652.9259  0.044911582  0.044780786            7 
 3068000    0.7509604   -4.7758575    1648.0073  0.044763345  0.044770571            6 
 3069000   0.75786884   -4.7404146    1647.2511  0.044728225   0.04476032           17 
 3070000   0.75946076   -4.7469419    1650.2409  0.044794812  0.044750075            5 
 3071000   0.77881062   -4.7577462    1650.1373  0.044777415   0.04473991            5 
 3072000   0.76060219   -4.7451064    1654.4536  0.044879926  0.044729681            5 
 3073000   0.76524181   -4.7591666    1653.7334  0.044845792  0.044719465            4 
 3074000   0.76911955   -4.7589449    1652.8348  0.044806843  0.044709166            5 
 3075000   0.76491777   -4.7459362    1651.4619  0.044755066  0.044698813            5 
 3076000   0.77967726   -4.7367503    1659.4383  0.044956606   0.04468849            4 
 3077000   0.75125281   -4.7425686    1652.9214  0.044765503  0.044678231           14 
 3078000   0.75866063   -4.7597128    1652.1855  0.044731035   0.04466789            6 
 3079000    0.7675856   -4.7496423    1658.6519  0.044891521  0.044657661            5 
 3080000   0.75595563   -4.7378175    1657.3039  0.044840475  0.044647454            4 
 3081000   0.75175964   -4.7641159    1652.8503   0.04470546  0.044637294            4 
 3082000   0.76914448   -4.7672551    1654.2365  0.044728436  0.044627111            9 
 3083000   0.77183989   -4.7596655    1653.5342  0.044694946   0.04461687            6 
 3084000   0.75297965   -4.7820159     1658.744  0.044821228  0.044606661            7 
 3085000   0.77009503   -4.7619865    1654.3928  0.044689164  0.044596439            4 
 3086000   0.75990166    -4.754133    1655.3746  0.044701194  0.044586283           11 
 3087000   0.75845455   -4.7685037    1654.8872  0.044673556  0.044576116            6 
 3088000   0.74999146   -4.7470823    1655.8489  0.044685042  0.044565872            6 
 3089000   0.75177553   -4.7628179    1657.1887  0.044706719  0.044555614            3 
 3090000   0.76743678   -4.7591851    1658.5911  0.044730073  0.044545486            3 
 3091000   0.77026412   -4.7550432    1662.2172   0.04481336  0.044535452            5 
 3092000   0.76360303   -4.7512116    1659.0176  0.044712635  0.044525326            6 
 3093000   0.76487954   -4.7807481    1653.1669  0.044540546  0.044515194           10 
 3094000   0.76153559   -4.7465333    1658.6466  0.044673739  0.044505008            6 
 3095000    0.7375133   -4.7499576    1658.3011  0.044650003  0.044494904            6 
 3096000   0.75744855   -4.7810315    1659.1595  0.044658686  0.044484814            4 
 3097000   0.73923305   -4.7702253    1659.1084   0.04464289  0.044474676            5 
 3098000   0.76573477   -4.7818145    1660.1473  0.044656427   0.04446445           10 
 3099000   0.76288495   -4.7466304    1659.7558  0.044631488  0.044454314            5 
 3100000   0.77799886   -4.7844684    1656.6359  0.044533224  0.044444179           11 
 3101000   0.75978013    -4.782847    1657.0151  0.044529053   0.04443398            8 
 3102000    0.7695797   -4.7559676    1658.2258  0.044547222  0.044423871           11 
 3103000   0.74118341   -4.7552626     1662.904  0.044658503  0.044413732           16 
 3104000   0.74730208   -4.7400095    1660.2833  0.044573756  0.044403521            7 
 3105000   0.74885108   -4.7657358    1661.2974  0.044586619  0.044393387            5 
 3106000   0.76166773   -4.7473088    1662.5747  0.044606534   0.04438333            5 
 3107000   0.76539024   -4.7610673    1662.3812  0.044586987  0.044373154            6 
 3108000   0.74456389   -4.7583233    1665.1586  0.044647109  0.044363043            9 
 3109000   0.72927934   -4.7503349    1655.6821  0.044378742  0.044352869            4 
 3110000   0.75449457   -4.7708381    1658.2602  0.044433554  0.044342732           10 
 3111000   0.76040893   -4.7678988    1661.9525  0.044518174  0.044332518            3 
 3112000   0.74059979   -4.7755971    1654.1754  0.044295614  0.044322347            9 
 3113000   0.75409478   -4.7599989    1661.4875  0.044477125  0.044312173            6 
 3114000   0.74754396   -4.7512453    1660.0006  0.044423051  0.044301967            3 
 3115000   0.75792205   -4.7369491      1662.94  0.044487425  0.044291869            4 
 3116000   0.74775837   -4.7637035    1661.7211   0.04444055  0.044281883            5 
 3117000   0.75104938   -4.7625874    1658.9789  0.044352981  0.044271744            8 
 3118000   0.74470701   -4.7598362    1667.0012  0.044553165  0.044261592            7 
 3119000    0.7476533   -4.7629218    1664.5956  0.044474606  0.044251561            7 
 3120000   0.74050389   -4.7573587    1665.1356  0.044474775  0.044241545            6 
 3121000   0.76150393   -4.7760328    1662.1436  0.044380637  0.044231538            5 
 3122000   0.74863083    -4.755006    1668.1108    0.0445257  0.044221477            5 
 3123000   0.75990253    -4.768812    1666.6625  0.044472795  0.044211546            7 
 3124000   0.75483421   -4.7778374    1667.1269  0.044470947  0.044201575            7 
 3125000   0.76169464   -4.7697297    1665.6225  0.044416599  0.044191521            3 
 3126000   0.76008512   -4.7945817    1666.1242  0.044415765   0.04418155            4 
 3127000   0.75381232   -4.7834489    1670.0021  0.044504906  0.044171469            2 
 3128000   0.73302446   -4.7700774    1670.6721  0.044508528  0.044161542            4 
 3129000   0.75321958    -4.815432    1665.6668  0.044360999  0.044151549            5 
 3130000   0.74867734   -4.7778561    1667.0996  0.044384974  0.044141519            5 
 3131000   0.76196442   -4.7811018    1662.8994  0.044259006  0.044131515            5 
 3132000   0.76245076   -4.7748141    1669.9161  0.044431569  0.044121537            6 
 3133000   0.76610599   -4.7775333    1663.9344  0.044258282  0.044111499            5 
 3134000   0.76287008    -4.774819    1665.8598  0.044295357  0.044101467            6 
 3135000    0.7451886   -4.7618016    1669.5198  0.044378518  0.044091444            7 
 3136000   0.75068536   -4.7521173    1671.9082  0.044427833  0.044081477            3 
 3137000    0.7606429    -4.761484    1669.3143  0.044344764  0.044071496            4 
 3138000   0.77425672   -4.7972546     1672.442  0.044413692  0.044061509            6 
 3139000   0.75857202   -4.7821711    1665.5499  0.044216573   0.04405158            9 
 3140000   0.74828697   -4.7602925    1672.0219  0.044374255  0.044041671            3 
 3141000   0.74197817   -4.7662374    1673.0911  0.044388493  0.044031708            6 
 3142000   0.76564854   -4.7706787    1669.9322  0.044290584    0.0440218            9 
 3143000   0.73867823   -4.7594159    1667.3849  0.044208955  0.044011876            7 
 3144000    0.7448167   -4.7721064    1669.7674  0.044258042  0.044001968            4 
 3145000   0.74537387   -4.7896546    1669.8047  0.044244956  0.043992042           19 
 3146000   0.75152629   -4.7643058    1671.5661   0.04427755  0.043982214           29 
 3147000   0.76204088   -4.8031955    1668.6807  0.044187074  0.043972287            5 
 3148000   0.72993136   -4.7555354    1671.9571  0.044259771  0.043962442            4 
 3149000   0.73406112   -4.7735913    1673.6468   0.04429043   0.04395259            9 
 3150000   0.74205661   -4.8077032    1671.1891  0.044211352  0.043942723            4 
 3151000   0.74583203   -4.7758206     1673.055  0.044246669  0.043932826            6 
 3152000   0.75679452   -4.7834313    1671.7046  0.044196928  0.043923004            5 
 3153000   0.75527657   -4.7840852    1673.6479  0.044234271  0.043913238            6 
 3154000   0.73672764   -4.7690984    1675.5662   0.04427093  0.043903454            6 
 3155000   0.74983028   -4.7812664    1674.2961  0.044223351  0.043893599            3 
 3156000   0.73726656   -4.7958595    1673.1374  0.044178745  0.043883631            7 
 3157000   0.77305862   -4.7908197     1675.702  0.044232448  0.043873687            9 
 3158000   0.75500148   -4.7986761    1670.6924  0.044086247  0.043863747           10 
 3159000   0.74638088   -4.7827876    1676.9361  0.044236996  0.043853816            7 
 3160000   0.75136819   -4.7948058    1668.9513  0.044012429  0.043843897            5 
 3161000   0.74225082   -4.7910525     1672.494    0.0440919  0.043833923            6 
 3162000   0.75711746    -4.779593    1673.3421  0.044100309  0.043823946            5 
 3163000   0.76074403    -4.784085    1671.6855  0.044042721  0.043814011            9 
 3164000    0.7244119    -4.802852    1676.4979  0.044155549  0.043804111           17 
 3165000   0.74835722   -4.8201729    1673.3753  0.044059382  0.043794178            6 
 3166000   0.75126651   -4.7748321    1676.0245  0.044115196  0.043784312            8 
 3167000   0.74114407   -4.7890124    1672.1099  0.043998261   0.04377439            5 
 3168000   0.74392796   -4.7903882    1672.5965  0.043997171  0.043764522            8 
 3169000   0.73708673   -4.7586935      1679.37  0.044161407  0.043754658            5 
 3170000   0.72953232   -4.7965726    1670.0308  0.043901966  0.043744875            4 
 3171000   0.75011069   -4.7797985      1675.54  0.044032903  0.043735069            5 
 3172000   0.74845521   -4.7571423    1679.5919   0.04412547  0.043725246            9 
 3173000   0.74794335   -4.8003243    1674.0779  0.043966749  0.043715375            7 
 3174000   0.73833386   -4.7824219    1672.4194  0.043909352  0.043705501            9 
 3175000   0.73890557   -4.7896829    1677.5499  0.044030182  0.043695579            5 
 3176000    0.7539824      -4.8029    1671.5759   0.04385957  0.043685601            9 
 3177000   0.75726881   -4.8214134    1671.9188  0.043854759  0.043675587            8 
 3178000   0.73129816   -4.7932476    1675.7404  0.043941169  0.043665682            3 
 3179000    0.7481375    -4.788991    1676.8111  0.043955413  0.043655797            4 
 3180000   0.73931151    -4.763769    1675.9264  0.043918406  0.043645835            7 
 3181000   0.73545295   -4.8111338    1669.7153  0.043741887  0.043635892            4 
 3182000   0.75658879   -4.7919982    1680.8668  0.044020186  0.043625916            8 
 3183000   0.74802604   -4.7847664    1675.8206  0.043874244  0.043615984            8 
 3184000    0.7426774   -4.8246377    1669.3367  0.043690764  0.043605961            8 
 3185000   0.74870941   -4.8067572    1678.9811  0.043929386  0.043595967            8 
 3186000   0.73402715   -4.7860004     1676.917  0.043861607  0.043586011            6 
 3187000   0.72034685    -4.810578    1680.0424  0.043929567   0.04357616            4 
 3188000   0.72326981   -4.7777331    1675.9186  0.043807993  0.043566268            4 
 3189000   0.74157694   -4.7911142    1676.0873  0.043798664  0.043556418           12 
 3190000   0.76022305   -4.7721806     1682.979  0.043964968   0.04354661            6 
 3191000   0.75194971     -4.77773    1675.4828  0.043755427  0.043536733            4 
 3192000   0.74645042   -4.7782534    1680.2089  0.043865103  0.043526939            7 
 3193000   0.74307109    -4.806625    1676.8047  0.043762518  0.043517108           10 
 3194000   0.76334301   -4.8126238    1677.4345  0.043765251  0.043507233            7 
 3195000   0.73481273   -4.7834604    1682.6397  0.043887317  0.043497518           14 
 3196000   0.72827248   -4.7807502    1680.7115  0.043823308    0.0434877            3 
 3197000   0.74038961   -4.8070121    1681.9605  0.043842157  0.043477906            5 
 3198000   0.73760807   -4.7634301    1682.5064  0.043842673  0.043468072            6 
 3199000   0.75060394   -4.8143119    1676.1512  0.043663417  0.043458247            4 
 3200000   0.74694989   -4.8160157    1676.0183   0.04364631  0.043448467            6 
 3201000   0.75326901   -4.8109335    1679.7057  0.043728671  0.043438585            3 
 3202000   0.75607657    -4.792351    1684.5336  0.043840661  0.043428823            4 
 3203000   0.73502333   -4.7980955    1685.1429  0.043842828  0.043419098            5 
 3204000   0.75427461   -4.7836906    1683.8878  0.043796499  0.043409353            7 
 3205000   0.72859001    -4.782853    1680.7892  0.043702266  0.043399573            7 
 3206000   0.73553675   -4.7955981     1681.057  0.043695596  0.043389789            9 
 3207000   0.73104989    -4.825376    1678.4155  0.043613332  0.043380021            4 
 3208000   0.72310934   -4.8130413    1683.6161  0.043734833  0.043370125            9 
 3209000   0.74796335   -4.8162182    1681.8333  0.043674907   0.04336025            4 
 3210000     0.730577   -4.7971434    1686.0305  0.043770263  0.043350439           14 
 3211000   0.72277867   -4.8165351     1678.359  0.043557536    0.0433406            7 
 3212000   0.73794168   -4.8129826    1684.8268  0.043711778  0.043330722           17 
 3213000   0.76472985   -4.7997868    1679.8599  0.043569352  0.043320855            6 
 3214000   0.74561982   -4.8096156     1683.261  0.043643979  0.043310926           10 
 3215000   0.73746624   -4.8217124    1681.5464  0.043585963  0.043301105            3 
 3216000   0.72933319   -4.7814719    1683.7126   0.04362854  0.043291237            6 
 3217000   0.74138656   -4.7810783    1680.1732  0.043523292  0.043281338            7 
 3218000   0.73720843   -4.7891316    1686.1526  0.043664612  0.043271549            6 
 3219000   0.72367687   -4.7909822    1685.5156  0.043634556  0.043261765           13 
 3220000   0.73686566   -4.8121596    1682.3226  0.043538369  0.043252039            5 
 3221000   0.73589287   -4.7871292    1687.7103  0.043664242  0.043242274            4 
 3222000   0.73863853   -4.7865429    1681.2728  0.043484192  0.043232514            6 
 3223000   0.73000894   -4.8047775    1684.4204  0.043552083  0.043222712           18 
 3224000    0.7287218   -4.8122667    1683.0151  0.043502251  0.043213007            7 
 3225000   0.74793649   -4.8177038    1685.5986  0.043555518  0.043203243            9 
 3226000   0.73143106   -4.7997073    1686.2139  0.043557913  0.043193571            4 
 3227000   0.71875099   -4.7981274    1686.7164   0.04355739  0.043183788            7 
 3228000   0.76127368   -4.7770565    1690.0103  0.043628932  0.043174074            5 
 3229000    0.7471286   -4.7874554    1687.0866  0.043539967  0.043164443            5 
 3230000   0.73808923   -4.7818492    1686.2928  0.043506005  0.043154679            4 
 3231000   0.72442418   -4.8086198    1686.5262   0.04349856   0.04314486           10 
 3232000   0.75931712   -4.8174691    1685.7456  0.043464975  0.043135066            6 
 3233000    0.7397209   -4.8177263    1686.1866  0.043462899  0.043125173            5 
 3234000   0.74283853   -4.8223021    1686.3324  0.043453216  0.043115355            5 
 3235000   0.72853505   -4.8207671    1681.5568  0.043316765  0.043105575            8 
 3236000   0.72658479   -4.8081247    1686.3013  0.043425558   0.04309579           10 
 3237000   0.74740577   -4.7977866    1685.0879  0.043380905  0.043086123            4 
 3238000   0.74144516   -4.8139795    1688.0507  0.043443759  0.043076382            4 
 3239000   0.73434059   -4.7842166    1686.0311  0.043378386  0.043066661            6 
 3240000   0.73492249    -4.790742    1685.1926   0.04334343  0.043056973            9 
 3241000   0.74378546   -4.7942666    1690.8871  0.043476476  0.043047229            7 
 3242000   0.71340317   -4.7986812     1691.927  0.043489796  0.043037502           10 
 3243000   0.72106088   -4.8199648    1686.5038  0.043337029   0.04302774            6 
 3244000   0.72617468   -4.8243794    1690.7651  0.043433136  0.043018074            6 
 3245000   0.74599449   -4.8065287       1689.8  0.043394967  0.043008378            4 
 3246000   0.73156637   -4.8019849    1688.3083  0.043343303  0.042998715            6 
 3247000   0.73816751   -4.8133708     1686.368  0.043280155  0.042988987            6 
 3248000   0.75242694   -4.7976415    1689.8669  0.043356601  0.042979194            5 
 3249000   0.73369269   -4.8098606    1693.2174  0.043429195  0.042969442            8 
 3250000   0.73584844   -4.8075042    1686.0985  0.043233294  0.042959651            7 
 3251000   0.72121299   -4.8036737    1688.3305  0.043277209  0.042949828            5 
 3252000    0.7338722   -4.7998471    1692.1687  0.043362257  0.042940025            9 
 3253000    0.7171007   -4.7921988    1686.6695  0.043208051  0.042930273            4 
 3254000   0.73582203   -4.7832566    1694.2008  0.043387645  0.042920511            4 
 3255000    0.7418637   -4.8245857    1689.5627  0.043255574   0.04291076           12 
 3256000   0.71971031   -4.8043182     1687.192  0.043181614  0.042900962            9 
 3257000   0.71270266    -4.840345    1689.4871  0.043227078  0.042891133            5 
 3258000   0.71222882   -4.8074245    1684.6608  0.043090362  0.042881316           10 
 3259000   0.73412994   -4.8322731    1686.8127  0.043132164  0.042871363            7 
 3260000   0.73785786   -4.8215915    1693.3527  0.043286111  0.042861535            8 
 3261000    0.7352839   -4.8139516    1690.6057  0.043202639  0.042851754            8 
 3262000   0.72023215   -4.7750789    1688.3937  0.043132886  0.042842026            4 
 3263000   0.74037993   -4.8103327    1690.8461    0.0431823  0.042832225            7 
 3264000   0.72746923   -4.7976451    1686.9722  0.043070164  0.042822353            9 
 3265000   0.73282002   -4.8541945    1686.4816  0.043044452  0.042812532            7 
 3266000   0.72263586   -4.8210912    1688.4095  0.043080462  0.042802609            6 
 3267000   0.73303973   -4.8120983    1698.1995  0.043316996  0.042792803            8 
 3268000   0.71838378   -4.8139944    1689.7209  0.043087538  0.042782993            4 
 3269000   0.74912099   -4.8399484    1688.7911  0.043050656  0.042773127            4 
 3270000   0.73066538    -4.829634    1687.6186   0.04300761  0.042763302            8 
 3271000   0.72678687   -4.8215158    1687.5375  0.042992395  0.042753413           17 
 3272000    0.7184568   -4.8073624    1691.4935  0.043080009  0.042743534           16 
 3273000   0.71894982   -4.8524642    1683.5614  0.042864889  0.042733669            4 
 3274000   0.72324402   -4.8237025    1696.8806  0.043190812  0.042723841            4 
 3275000   0.71859397    -4.816841    1695.5056  0.043142636  0.042714004           11 
 3276000   0.72567918   -4.8193466    1692.1346  0.043043717  0.042704218            4 
 3277000   0.72884718   -4.8075482    1691.3593  0.043010867  0.042694494            5 
 3278000   0.74438101   -4.8266149    1691.9425  0.043012572   0.04268473            5 
 3279000   0.72417149   -4.8015377    1692.9753  0.043025701  0.042674978            9 
 3280000   0.73997961   -4.8239398    1692.4222  0.042998531  0.042665204           14 
 3281000   0.72415356   -4.8073145    1698.6707   0.04314413   0.04265542            4 
 3282000   0.71477361   -4.8172429    1698.9482   0.04313803  0.042645681            5 
 3283000    0.7092456   -4.8195373     1694.478  0.043011423  0.042635908            6 
 3284000   0.72399828   -4.8470979    1695.8091  0.043032101  0.042626148            4 
 3285000   0.71779843   -4.8342844    1690.0475  0.042872845  0.042616379           12 
 3286000   0.72190931      -4.8178    1700.2123  0.043117577  0.042606646           12 
 3287000   0.71058009   -4.8120149    1696.0895  0.042999935  0.042596935            6 
 3288000   0.73063459   -4.7957294    1699.1972  0.043065621  0.042587215            6 
 3289000   0.73357541   -4.8060471    1698.5526  0.043036198  0.042577597            4 
 3290000   0.73720186   -4.7943947    1698.0804  0.043011154  0.042567977            4 
 3291000   0.73678246   -4.7955043    1701.5549  0.043086067  0.042558347           11 
 3292000   0.71584459   -4.8123755    1703.9607  0.043133877  0.042548654            9 
 3293000   0.71895394   -4.8066398    1696.9881  0.042944329   0.04253894            5 
 3294000   0.72987511   -4.8523506     1692.691   0.04282258  0.042529166            8 
 3295000   0.71897962   -4.8345716    1696.1301  0.042896564  0.042519439            5 
 3296000   0.73828658   -4.8339682    1695.7752  0.042874576  0.042509779            8 
 3297000   0.71779231   -4.8178962    1695.7893  0.042861928  0.042500059            4 
 3298000   0.72149741   -4.8153116    1698.4239  0.042915501    0.0424905           10 
 3299000   0.72237371   -4.8338007    1697.0444  0.042867648  0.042480884            5 
 3300000   0.70681826   -4.8206511    1696.6815  0.042845494  0.042471205            8 
 3301000   0.73645364   -4.8103982    1695.7626  0.042809317  0.042461494            4 
 3302000   0.71669255   -4.8150728    1699.1528   0.04288191    0.0424519            7 
 3303000   0.72302472   -4.8160845    1696.7348  0.042807922   0.04244224            6 
 3304000   0.74015534   -4.8250363    1697.9377  0.042825306  0.042432577            5 
 3305000   0.73016623   -4.8136218    1701.6136  0.042905034  0.042422944            6 
 3306000   0.72537162   -4.8384425     1697.046  0.042776922  0.042413327            6 
 3307000   0.72990684   -4.8450441    1700.3035  0.042846071  0.042403607           13 
 3308000   0.72806003   -4.8487886    1696.4228   0.04273536  0.042393894           11 
 3309000   0.72858963   -4.8013578    1699.2334  0.042793226   0.04238419            8 
 3310000   0.72950956   -4.8261071    1704.6835  0.042917509  0.042374566            9 
 3311000   0.72531718   -4.8197899      1699.34  0.042770058   0.04236494            7 
 3312000   0.69946955   -4.8262171     1702.676  0.042841084  0.042355367            7 
 3313000   0.73982884   -4.8377925    1698.0889  0.042712771  0.042345767           12 
 3314000   0.71792603   -4.8257622    1699.7277  0.042741091   0.04233616           13 
 3315000   0.71949378   -4.8362752    1704.3854  0.042845284  0.042326448           10 
 3316000   0.73201069   -4.8311346    1704.6609  0.042839287  0.042316812           13 
 3317000   0.69736494   -4.8445292    1696.4884  0.042621054  0.042307216            5 
 3318000   0.72708846   -4.8364332    1703.3552  0.042780672  0.042297623            5 
 3319000   0.72875878   -4.8165278    1704.8162  0.042804465  0.042288046            6 
 3320000   0.70688073   -4.8317198    1704.3413  0.042779651  0.042278462           13 
 3321000   0.73043348   -4.8376734    1700.7985  0.042677871  0.042268879            4 
 3322000   0.72671066   -4.8232475    1703.1247  0.042723377  0.042259326           11 
 3323000   0.71850496   -4.8295943    1703.9784  0.042731929  0.042249673            7 
 3324000   0.72732574   -4.8353766    1699.8563  0.042615732  0.042239989            8 
 3325000   0.71288966   -4.8388851    1696.3307  0.042514553  0.042230435           12 
 3326000   0.73023769   -4.8470484    1696.8306  0.042514297  0.042220752            6 
 3327000   0.71572667   -4.8345923    1699.8154  0.042576281  0.042211049            8 
 3328000   0.71397308   -4.8266539    1700.5569  0.042582053    0.0422014            5 
 3329000   0.72203182     -4.84018    1697.5962  0.042495147  0.042191679            9 
 3330000   0.71999071   -4.8341045    1702.2349  0.042598472  0.042181939            8 
 3331000   0.71077615   -4.8528953    1699.0677  0.042506446  0.042172212            8 
 3332000    0.7383858   -4.8330294    1695.7888  0.042411685  0.042162478            4 
 3333000    0.7250976   -4.8350652    1698.2026  0.042459311  0.042152724           12 
 3334000   0.70885311   -4.8483524    1702.0836  0.042543582  0.042142989            7 
 3335000   0.72096692   -4.8496897     1700.475  0.042490629  0.042133411            4 
 3336000   0.72636759   -4.8425171    1700.4162  0.042476423  0.042123888            6 
 3337000   0.72236962   -4.8381475    1702.1724  0.042507553  0.042114285            5 
 3338000   0.71412392   -4.8378787    1703.6722  0.042532259  0.042104671            7 
 3339000   0.70743477   -4.8160585    1705.4633  0.042564223  0.042095052            8 
 3340000   0.71740514   -4.8431666    1698.1695  0.042369499  0.042085416            8 
 3341000   0.72071037   -4.8439042    1700.8104  0.042422688  0.042075745            7 
 3342000   0.71651696   -4.8063568    1705.9139   0.04253725  0.042066166            4 
 3343000   0.72889513   -4.8394762     1704.441   0.04248781  0.042056509            7 
 3344000   0.68778239   -4.8194187    1707.1636  0.042542953   0.04204694            5 
 3345000   0.71327414   -4.8431216     1704.318  0.042459343   0.04203738            5 
 3346000   0.72598398   -4.8606653    1696.9325  0.042262715  0.042027696           12 
 3347000    0.7250723   -4.8544122    1702.2991  0.042383705  0.042017979            9 
 3348000   0.72119014   -4.8136099    1701.4064  0.042348824  0.042008246            9 
 3349000   0.71241843   -4.8667904    1701.0552   0.04232744  0.041998493            3 
 3350000   0.71457697    -4.876999    1699.3461  0.042272291  0.041988722            7 
 3351000   0.71628974   -4.8505027    1701.5005  0.042313252  0.041978899            6 
 3352000   0.72293578   -4.8329205    1705.3019  0.042395135  0.041969147           10 
 3353000   0.70763793   -4.8546901    1703.5004  0.042337717  0.041959382           10 
 3354000   0.72297478   -4.8224996    1705.4977   0.04237472  0.041949652            4 
 3355000   0.72043025    -4.825059    1705.6588  0.042366091  0.041939885            7 
 3356000   0.72245908   -4.8546588    1699.4771  0.042199968  0.041930113            6 
 3357000   0.70677391    -4.842357    1706.7063  0.042366853  0.041920383            6 
 3358000   0.70256313   -4.8351725    1701.3836  0.042222145  0.041910648            5 
 3359000   0.72249307   -4.8405513    1705.1435  0.042302856  0.041900966            8 
 3360000   0.72086595   -4.8613177    1702.4805   0.04222422  0.041891223            7 
 3361000   0.69828929    -4.859618      1703.12  0.042227512  0.041881522           12 
 3362000    0.7042065   -4.8410358    1703.0163   0.04221238   0.04187173            5 
 3363000   0.69563556   -4.8493871     1703.183  0.042203959  0.041861975           11 
 3364000    0.6960919   -4.8506061    1703.5336  0.042200099  0.041852199            6 
 3365000   0.68829955   -4.8489901    1703.4699  0.042185982  0.041842516            5 
 3366000   0.71958953   -4.8423048    1701.1979  0.042117199  0.041832786            5 
 3367000   0.71391274   -4.8369684    1708.0702  0.042274779  0.041823038            8 
 3368000   0.70515889   -4.8655082    1700.8417  0.042083375  0.041813294            4 
 3369000   0.71261358   -4.8544089    1704.4973  0.042161306  0.041803546            8 
 3370000   0.69572837   -4.8497481    1702.3543  0.042095804  0.041793856           11 
 3371000   0.70501962   -4.8309664    1703.9592  0.042122991  0.041784136            4 
 3372000   0.71923391   -4.8535717    1701.5544  0.042051067  0.041774488            9 
 3373000   0.71287685   -4.8616482    1703.6549  0.042090497  0.041764839            6 
 3374000   0.71817551   -4.8380947    1706.9365  0.042159072  0.041755227            7 
 3375000   0.72074617   -4.8500715    1706.4068  0.042133502  0.041745596            7 
 3376000   0.71694829   -4.8798833    1704.2209  0.042067064  0.041735902            7 
 3377000   0.71932561    -4.858507    1704.8696  0.042070615  0.041726195           11 
 3378000    0.7140376    -4.872506    1704.2154  0.042042022  0.041716497            9 
 3379000    0.7102993   -4.8573765     1711.769  0.042215867  0.041706837            6 
 3380000   0.69287843   -4.8659535    1704.7305  0.042029846   0.04169717            6 
 3381000   0.71058478    -4.876346    1705.5885  0.042038561  0.041687447            5 
 3382000    0.7141373   -4.8720899    1704.7843  0.042006316  0.041677722            9 
 3383000   0.71583355   -4.8760057    1701.3418  0.041909099  0.041667938            8 
 3384000    0.7316904   -4.8568494    1704.3663  0.041971195  0.041658204            6 
 3385000   0.69847219   -4.8369893    1707.6418  0.042039433  0.041648446            5 
 3386000   0.71672626   -4.8407745    1707.9763   0.04203525  0.041638626           10 
 3387000   0.71280876   -4.8620282    1701.6328  0.041866764  0.041628784            4 
 3388000   0.69771697   -4.8767421     1707.308  0.041993997  0.041618917            7 
 3389000   0.71516976   -4.8701802    1707.1678  0.041978159  0.041609096            6 
 3390000   0.70724021   -4.8314091    1708.7559  0.042004817  0.041599302            6 
 3391000   0.70947347   -4.8681446    1704.4198  0.041885869  0.041589475           10 
 3392000   0.70297891   -4.8768227    1704.6354  0.041878818  0.041579642            8 
 3393000   0.72863137   -4.8419909    1703.5437  0.041839664  0.041569832            9 
 3394000   0.70300057   -4.8677309    1704.9408  0.041861639  0.041560076           12 
 3395000   0.70766128   -4.8857905    1698.8658  0.041700191  0.041550206           14 
 3396000   0.72069191   -4.8842746    1700.6701  0.041732187  0.041540329           12 
 3397000   0.71825117   -4.8789603     1706.057  0.041852052  0.041530436            8 
 3398000   0.72288307   -4.8631861    1709.0612  0.041913411  0.041520635            7 
 3399000    0.7189227   -4.8709626    1702.2827  0.041734891  0.041510777            6 
 3400000   0.69978213   -4.8428116    1705.5289   0.04180218  0.041500996           12 
 3401000   0.70019634   -4.8649826    1707.1329   0.04182919  0.041491236           10 
 3402000   0.71648864   -4.8608669     1706.314  0.041796834  0.041481402            6 
 3403000   0.70530455   -4.8818884     1706.977  0.041800788   0.04147149            4 
 3404000   0.70725446   -4.8941683     1704.591  0.041730097  0.041461592           16 
 3405000    0.7135693   -4.8593367    1706.8121  0.041772201  0.041451774            9 
 3406000   0.70272804   -4.8269831    1710.5535  0.041851476  0.041441994            4 
 3407000   0.71654143   -4.8645177    1706.8303  0.041748123  0.041432165           11 
 3408000   0.70951245   -4.8540141    1702.4517  0.041628807  0.041422321           10 
 3409000   0.70762007   -4.8250405    1714.1634  0.041902889  0.041412499            7 
 3410000   0.70096716   -4.8560932    1706.6194  0.041706242  0.041402601           15 
 3411000   0.69461761   -4.8636871    1700.8442  0.041552922  0.041392716            8 
 3412000   0.70989489   -4.8534741    1705.8158  0.041662169  0.041382768            5 
 3413000   0.71007841   -4.8565774    1705.6166  0.041645097  0.041372914            6 
 3414000   0.70657387   -4.8772912    1708.3037  0.041698488  0.041363073           10 
 3415000   0.69887592   -4.8419229    1706.1649  0.041634087  0.041353246           12 
 3416000   0.70224412   -4.8820142    1705.9008  0.041615457  0.041343379           11 
 3417000   0.69575807   -4.8649222    1704.9933  0.041581146  0.041333475            7 
 3418000   0.69335507   -4.8479854    1706.8788   0.04161495  0.041323567            6 
 3419000   0.69129265   -4.8642578    1707.4825  0.041617494    0.0413137           11 
 3420000   0.69875768   -4.8856052    1706.4976  0.041581325   0.04130379            7 
 3421000   0.70201843   -4.8875557    1706.0228  0.041557604  0.041293866            4 
 3422000   0.69959974   -4.8724165    1702.8411   0.04146798  0.041283949            6 
 3423000   0.69682402   -4.8518498    1710.4925  0.041642138  0.041274047            9 
 3424000   0.70265847   -4.8811413    1712.5405   0.04167982   0.04126414            9 
 3425000   0.68359002   -4.8870916    1704.5156  0.041472399  0.041254212           12 
 3426000   0.69382405   -4.8921794    1706.1604  0.041500302  0.041244242            5 
 3427000   0.69474738   -4.8522191    1706.2187  0.041489609  0.041234349            7 
 3428000   0.69945168   -4.8531099    1706.0004  0.041472199  0.041224488           16 
 3429000   0.70716926   -4.8691448     1705.536   0.04144882  0.041214634           18 
 3430000   0.70018221   -4.8641843    1709.4589  0.041532043  0.041204733           10 
 3431000   0.70546511   -4.8744475    1705.0047  0.041411753  0.041194901            7 
 3432000    0.7181292   -4.8744272    1709.8898  0.041518303   0.04118502           14 
 3433000   0.71065193   -4.8528033    1707.1619  0.041439991  0.041175171           14 
 3434000   0.71170588   -4.8637559    1709.8831  0.041493961  0.041165341           13 
 3435000   0.70695675   -4.8652772    1706.4327  0.041398173  0.041155479            6 
 3436000   0.70547681   -4.8754968    1707.4058  0.041409726  0.041145596           15 
 3437000   0.70243838   -4.8775081    1710.6497  0.041476328   0.04113569            5 
 3438000   0.71409983   -4.8670727    1707.1506   0.04137945  0.041125806            9 
 3439000   0.70572612   -4.8740827    1711.2048  0.041465659  0.041115917           11 
 3440000   0.69204886   -4.8949519    1704.9975  0.041303234   0.04110599            7 
 3441000   0.71265611   -4.8722251    1710.5026  0.041424551  0.041096081            5 
 3442000   0.70229876   -4.8759653    1705.9193  0.041301551  0.041086207            4 
 3443000    0.6971725    -4.864172    1708.8932  0.041361536  0.041076331            8 
 3444000   0.70719535   -4.8603809    1708.1336  0.041331145  0.041066513            6 
 3445000   0.70025285   -4.8710925    1711.8645  0.041409397  0.041056671            6 
 3446000   0.70083502   -4.8499071     1708.906  0.041325836  0.041046845            8 
 3447000   0.70906673   -4.8951759    1707.2039  0.041272698  0.041036971           11 
 3448000    0.7026034   -4.8829505    1708.7003  0.041296895  0.041027117            9 
 3449000   0.69299323   -4.8703794    1712.0287   0.04136534  0.041017313            6 
 3450000   0.68527667   -4.8850921    1712.3618  0.041361397  0.041007372            8 
 3451000   0.70430079   -4.8775241    1711.5594  0.041330034  0.040997478            3 
 3452000    0.6799744    -4.880358      1709.47  0.041267624  0.040987542            7 
 3453000    0.6965021   -4.8682946    1705.5591  0.041161287    0.0409776            9 
 3454000   0.68620765   -4.8980019    1709.1648  0.041236363  0.040967661           11 
 3455000   0.70317233   -4.9028747    1709.5263  0.041233148  0.040957693            8 
 3456000   0.70040786   -4.8954109    1709.5622  0.041222081  0.040947853           10 
 3457000   0.68536407    -4.876247     1709.413  0.041206561  0.040938021           14 
 3458000   0.70984426   -4.8735059    1710.7849  0.041227705  0.040928134           16 
 3459000   0.70109096    -4.893839    1710.8174   0.04121657  0.040918239           10 
 3460000   0.70803861   -4.8994071    1711.0265  0.041209694  0.040908355            7 
 3461000   0.69359602   -4.8937891    1707.0563  0.041102194  0.040898361            8 
 3462000   0.68718229   -4.8878897    1707.8654  0.041109796  0.040888483            6 
 3463000   0.69479401   -4.8518527    1711.8678   0.04119424  0.040878618            6 
 3464000   0.67853599   -4.8769086    1711.8502  0.041181925  0.040868828            7 
 3465000   0.70464373   -4.8870482    1710.9318  0.041147951  0.040859061            4 
 3466000   0.70125417   -4.8631865    1712.0556  0.041163098  0.040849253            9 
 3467000   0.71392828   -4.8767377    1712.8919  0.041171326  0.040839474            6 
 3468000   0.70152151   -4.8772147    1712.8358  0.041158107  0.040829685           20 
 3469000   0.69050479   -4.8640481    1710.2477  0.041084071  0.040819875            6 
 3470000   0.69867432    -4.907444    1714.6149  0.041177112  0.040810125            8 
 3471000   0.69193891   -4.8955563    1712.2505  0.041108482  0.040800294            8 
 3472000   0.69981967   -4.9172669    1712.2402  0.041096395  0.040790418            9 
 3473000   0.69379634   -4.8736784     1712.935  0.041101232  0.040780578           11 
 3474000   0.67570285   -4.8765434    1708.2186  0.040976267  0.040770744            6 
 3475000   0.70514855   -4.8898374    1710.3569  0.041015753  0.040760958            8 
 3476000   0.69359958    -4.895685    1713.3366  0.041075389  0.040751148            6 
 3477000   0.68214566   -4.8913981    1713.2532  0.041061576   0.04074127           14 
 3478000   0.69299007   -4.8794893    1715.3152  0.041099177  0.040731408            7 
 3479000   0.71178369   -4.8927368    1710.5161  0.040972409  0.040721546            7 
 3480000   0.68781922   -4.8839383    1710.7363  0.040965907  0.040711769            6 
 3481000   0.68631896   -4.8726549    1709.7168  0.040929732  0.040701939            8 
 3482000   0.68843884   -4.8853139    1709.6162  0.040915571  0.040692032            8 
 3483000   0.68008967   -4.8743629    1709.3235  0.040896821  0.040682131            8 
 3484000   0.68540747   -4.8947667    1714.6901  0.041013444  0.040672274            3 
 3485000    0.6962438   -4.8939324    1714.8607  0.041005755  0.040662429            8 
 3486000   0.68594853    -4.895429    1712.0096  0.040925837  0.040652585            6 
 3487000   0.69729165   -4.8740116    1709.6316  0.040857269  0.040642674           10 
 3488000   0.70379333   -4.8823356    1709.3307  0.040838368  0.040632831            5 
 3489000   0.72041181   -4.8748909    1712.1642  0.040894339  0.040623017            8 
 3490000   0.71093952   -4.8916692    1709.8814  0.040828113  0.040613251            7 
 3491000   0.70133088   -4.8713548    1719.5562  0.041047364  0.040603421            8 
 3492000   0.69756869   -4.8864891    1709.8513  0.040804011  0.040593642            7 
 3493000   0.68859658   -4.8709651    1716.3184  0.040946616  0.040583863            3 
 3494000   0.69460227     -4.88104    1714.0598  0.040881028  0.040574002            5 
 3495000    0.7069708   -4.8981735    1712.3108  0.040827629  0.040564132            6 
 3496000   0.69581504   -4.9005577    1710.4118  0.040770687  0.040554308            8 
 3497000   0.69540334   -4.8700223    1719.6661  0.040979555  0.040544498            6 
 3498000    0.7042917   -4.8858509    1713.8246  0.040828679  0.040534637            6 
 3499000   0.68783397   -4.8946707    1718.2516  0.040922446  0.040524829           10 
 3500000   0.69111281   -4.8700562    1716.6951  0.040873694  0.040515048           10 
 3501000   0.69768655   -4.8767228    1714.6541  0.040813437  0.040505269            5 
 3502000   0.70715253   -4.8751482    1716.2856  0.040840605  0.040495459            4 
 3503000   0.69380644   -4.8781445    1717.9065  0.040867506  0.040485684           11 
 3504000   0.69481507   -4.9086352    1708.3407  0.040628346  0.040475803            6 
 3505000   0.68718926    -4.904745    1711.1396  0.040683299  0.040465917            6 
 3506000   0.69508948   -4.8853766    1711.5824  0.040682221  0.040456021            8 
 3507000   0.67524532   -4.9032926    1712.3834  0.040689654  0.040446186           10 
 3508000   0.69453219   -4.9064338    1714.8386  0.040736378  0.040436335           10 
 3509000   0.70527715   -4.9140049    1715.8421  0.040748602  0.040426442            7 
 3510000   0.67995261   -4.8890183    1712.8299  0.040665478  0.040416548            9 
 3511000   0.69152368   -4.8998331     1709.886   0.04058402  0.040406595            6 
 3512000   0.69206305   -4.8985448    1715.2043  0.040698659  0.040396697            8 
 3513000   0.69536651   -4.9194749    1706.8365  0.040488578  0.040386782            9 
 3514000   0.70309346   -4.9279086    1706.6491  0.040472612  0.040376854           11 
 3515000   0.68331045   -4.9096761    1712.4247  0.040598025  0.040366901            7 
 3516000   0.68868589   -4.9159783    1715.0946  0.040649758   0.04035702           10 
 3517000   0.69298818   -4.8965644     1718.227  0.040712421  0.040347233            4 
 3518000   0.69428149   -4.8904299    1714.0126  0.040601018  0.040337351           11 
 3519000   0.69465845   -4.9146001    1711.7879  0.040536799  0.040327433            8 
 3520000   0.69129136   -4.9149324    1716.8085   0.04064414  0.040317467            7 
 3521000   0.67835543   -4.9001369    1719.1684   0.04068845  0.040307644            7 
 3522000   0.69268163    -4.896834    1712.5067  0.040519277  0.040297807           11 
 3523000   0.67040625   -4.8981214    1718.8039  0.040656728  0.040287917            5 
 3524000   0.69438344   -4.9069077    1706.4473  0.040352991  0.040278008           14 
 3525000   0.69562404   -4.8885823    1712.1949  0.040477421  0.040268072            6 
 3526000    0.6939486   -4.8982468    1717.1743  0.040583624  0.040258169           10 
 3527000      0.68921    -4.892512    1709.9179  0.040400669  0.040248294            7 
 3528000   0.66811791   -4.9419413    1708.9148  0.040365523  0.040238306           15 
 3529000   0.68499496   -4.8957907     1715.199  0.040502478  0.040228413           12 
 3530000   0.69358188    -4.907998    1716.9456  0.040532237  0.040218554            6 
 3531000   0.67972526   -4.9082767    1713.6345  0.040442616  0.040208731           17 
 3532000   0.68116516   -4.9089829    1718.9424  0.040556398  0.040198873           18 
 3533000   0.68123752   -4.9003323    1722.9047  0.040638379  0.040189087           10 
 3534000   0.68502754   -4.9051629    1716.1908  0.040468562  0.040179301            6 
 3535000   0.68100289   -4.9257516    1714.6808  0.040421517  0.040169458           11 
 3536000   0.67446836   -4.9298025    1715.9402  0.040439767   0.04015962           14 
 3537000    0.6727927    -4.915471    1717.3748  0.040462133  0.040149799           11 
 3538000   0.68289658   -4.9121046     1711.702  0.040317081  0.040140005            5 
 3539000   0.68759214   -4.9003889    1717.1504  0.040433984  0.040130137            9 
 3540000   0.67688015   -4.8951947    1717.9537  0.040441471  0.040120257           11 
 3541000   0.68971575   -4.8999572    1716.1573  0.040387773  0.040110449            7 
 3542000   0.70059529    -4.898513    1717.1459  0.040399631  0.040100632            8 
 3543000   0.66627611   -4.9107025    1716.0556  0.040362583  0.040090759           13 
 3544000   0.70414199   -4.9034435    1717.9212  0.040395062  0.040080888            7 
 3545000    0.6791293   -4.9006484    1716.2291   0.04034389  0.040070961            7 
 3546000   0.68575787   -4.8920762    1716.4599  0.040337937  0.040061105            7 
 3547000    0.6614366   -4.9014542    1717.5259  0.040351609  0.040051271           15 
 3548000    0.6776608   -4.9174006    1717.9051  0.040349143  0.040041396            9 
 3549000   0.67969653   -4.8959632    1715.4863  0.040280977  0.040031549            6 
 3550000   0.67779263   -4.8917551    1714.0296  0.040235437  0.040021714            6 
 3551000   0.67626323   -4.9449337    1707.3255  0.040066776  0.040011757           10 
 3552000   0.67962042   -4.8893631    1711.5571  0.040154774  0.040001778            5 
 3553000   0.69643233   -4.9193408    1715.6205  0.040238777  0.039991837           10 
 3554000   0.70204157   -4.9065134    1719.9338  0.040328592  0.039981973            9 
 3555000    0.6909968   -4.9227611    1713.7732  0.040172836  0.039972001            6 
 3556000   0.68634077    -4.894594      1715.36  0.040198726  0.039962048            6 
 3557000   0.68900087   -4.9043941    1710.7689  0.040079863  0.039952218           14 
 3558000    0.6870228   -4.9281868    1711.7319  0.040091153  0.039942275            7 
 3559000   0.69185259   -4.9057162    1718.0444  0.040227695  0.039932324           12 
 3560000   0.68041493   -4.9043697    1721.3619  0.040294052  0.039922466           13 
 3561000    0.6695262   -4.9232984    1712.5475  0.040076465  0.039912572           10 
 3562000   0.70400203   -4.9026415    1721.2626  0.040269104   0.03990271            5 
 3563000   0.70696338   -4.9146064    1713.9703  0.040087247  0.039892817            6 
 3564000   0.67674036   -4.9463745    1711.6858  0.040022583  0.039882884            8 
 3565000   0.69505453    -4.931939    1710.0463  0.039973031  0.039872848            8 
 3566000   0.67417143   -4.9333146    1714.5241  0.040066464  0.039862885            6 
 3567000   0.69386774   -4.9255622    1717.8377  0.040132645   0.03985292            5 
 3568000    0.6789918   -4.9204679    1714.4333  0.040041883  0.039843082           19 
 3569000   0.66462871   -4.8989077    1716.0441  0.040068275  0.039833257            5 
 3570000    0.6729901   -4.9298129    1717.0335  0.040080148  0.039823402           16 
 3571000   0.66661514   -4.9333003    1714.0328  0.039998899  0.039813465            9 
 3572000   0.69008966   -4.9254363    1717.1837  0.040061211  0.039803558            9 
 3573000   0.66991325   -4.9155968    1721.0683  0.040140598   0.03979366           10 
 3574000   0.67600697   -4.9041166    1723.3413  0.040182365  0.039783794            5 
 3575000   0.67113312   -4.8866057    1720.1889  0.040097643   0.03977395            5 
 3576000   0.66495517   -4.9189469    1719.2772  0.040065186  0.039764113            9 
 3577000   0.67467307   -4.8984865    1717.8267  0.040020191  0.039754283            9 
 3578000   0.67272454    -4.921575    1722.2355   0.04011169  0.039744429            8 
 3579000   0.68153611   -4.9344164    1713.7382   0.03990263  0.039734557            7 
 3580000   0.66784098   -4.9210582    1718.4242  0.040000564  0.039724663            6 
 3581000   0.68048072   -4.9061421    1715.4564   0.03992033  0.039714795           14 
 3582000   0.68052072   -4.9341585    1719.6067   0.04000574  0.039704932            7 
 3583000   0.69180049   -4.9218454    1719.3567  0.039988759  0.039695091            6 
 3584000    0.6673115   -4.9317261    1716.7431  0.039916833  0.039685227            5 
 3585000    0.6920127   -4.9520951    1720.2618  0.039987489  0.039675319           10 
 3586000   0.67739136    -4.925778    1717.4018  0.039909877  0.039665417            9 
 3587000   0.68242897   -4.9249709    1715.0936  0.039845127  0.039655575            5 
 3588000   0.67723532   -4.9369793         1717  0.039878298  0.039645726            4 
 3589000   0.68606457   -4.9478564    1717.2663   0.03987337  0.039635875            4 
 3590000   0.67704666   -4.9432936    1715.6329  0.039824349  0.039625975           15 
 3591000   0.68092045   -4.9241247    1717.4937  0.039856441  0.039616124            7 
 3592000   0.66324274   -4.9203945    1720.7058  0.039919863  0.039606248           10 
 3593000     0.681675   -4.9129329    1720.3054  0.039899467   0.03959643            5 
 3594000   0.66919339   -4.9429032    1720.5262  0.039893484  0.039586593           11 
 3595000   0.67545432   -4.9144467    1720.3363  0.039877985  0.039576762           10 
 3596000   0.67943163    -4.916066    1722.4587  0.039916081  0.039566952           19 
 3597000   0.67602966   -4.9184304    1721.2872  0.039877842  0.039557174           10 
 3598000    0.6886933   -4.9253725    1718.9308  0.039812183  0.039547307            8 
 3599000   0.67794169   -4.9174764    1717.2982  0.039763319  0.039537473           15 
 3600000   0.67146249   -4.9208215    1725.8952  0.039951277  0.039527617            6 
 3601000   0.68629783   -4.9151205    1721.5085  0.039838668  0.039517754            9 
 3602000   0.66225632   -4.9360419    1716.9661  0.039722518  0.039507932            7 
 3603000   0.67183835   -4.9275295     1718.362  0.039743779  0.039498127           10 
 3604000   0.66261285   -4.9152309    1720.6951  0.039786697  0.039488359            7 
 3605000   0.66882906   -4.9214159    1716.9296  0.039688618  0.039478585            8 
 3606000   0.65438139   -4.9083149    1725.2461  0.039869803  0.039468807            4 
 3607000   0.69856866   -4.9101626    1720.4002  0.039746793  0.039459036            5 
 3608000   0.68197332    -4.937337    1718.4687  0.039691166  0.039449258            8 
 3609000   0.68110167   -4.9250833    1723.2929  0.039791561  0.039439541            4 
 3610000   0.67266831   -4.9335409    1724.7701  0.039814639  0.039429766            5 
 3611000   0.70034488   -4.9287961     1722.614  0.039753855   0.03942003            9 
 3612000    0.6763533   -4.9209064    1720.4849  0.039693727  0.039410242            6 
 3613000   0.65511446   -4.9445442    1721.4174  0.039704249  0.039400495           10 
 3614000   0.68250335   -4.9228025    1721.9259  0.039704987  0.039390708           10 
 3615000   0.64453306   -4.9222593    1721.4321  0.039682621   0.03938094           10 
 3616000   0.66612507   -4.9372836    1723.9288  0.039729186  0.039371134            6 
 3617000   0.67491924   -4.9294277      1723.52  0.039708782  0.039361337           11 
 3618000   0.67566348   -4.9064797    1721.8438    0.0396592  0.039351626            8 
 3619000   0.66325206   -4.9385146    1719.2496  0.039588505  0.039341835            6 
 3620000   0.68821548   -4.9447969    1721.8063  0.039636424  0.039332016            7 
 3621000   0.66159693   -4.9366249    1721.4449  0.039617162  0.039322191           12 
 3622000   0.67603824   -4.9228993    1728.0985  0.039759306  0.039312395            7 
 3623000   0.66693665   -4.9158978    1720.5813  0.039575428  0.039302616            8 
 3624000   0.66672395   -4.9568318    1718.3755  0.039513785  0.039292765            8 
 3625000   0.67249807   -4.9407932    1718.7172  0.039510739   0.03928295            6 
 3626000   0.68068471   -4.9278576    1723.7784   0.03961616  0.039273102            6 
 3627000   0.66368955   -4.9316956    1718.3743  0.039481075  0.039263258            8 
 3628000   0.67434336   -4.9448901    1720.8945  0.039528081  0.039253415            5 
 3629000    0.6702044   -4.9474671    1723.4887   0.03957676  0.039243664            5 
 3630000   0.67777227   -4.9437797    1723.3696  0.039563122  0.039233948            8 
 3631000   0.67358108   -4.9215109     1729.845  0.039700839  0.039224193            7 
 3632000   0.67259385   -4.9432562     1715.702  0.039365409  0.039214377            8 
 3633000    0.6927171   -4.9214163    1726.9336  0.039612203  0.039204585           10 
 3634000    0.6555606   -4.9367392    1723.3099  0.039518205  0.039194852            9 
 3635000    0.6828083   -4.9617485    1722.9369  0.039498783  0.039185091           11 
 3636000   0.67422299   -4.9433153    1720.9542  0.039442478  0.039175308           13 
 3637000   0.66717219   -4.9415183    1726.4273  0.039557037  0.039165554           10 
 3638000   0.67142908   -4.9426615    1723.4259  0.039477411  0.039155801           11 
 3639000   0.66403796   -4.9180422    1723.5793  0.039470077  0.039146094           10 
 3640000   0.68900358   -4.9215736    1725.8843  0.039512002  0.039136438           16 
 3641000   0.66891753   -4.9420025    1728.6222  0.039563815  0.039126736            7 
 3642000    0.6581921   -4.9583767    1723.7133  0.039440631  0.039116963           12 
 3643000   0.67576863   -4.9402988    1721.8379  0.039386904  0.039107236           18 
 3644000   0.67641161   -4.9447709    1724.9391  0.039447015  0.039097471           12 
 3645000   0.65903766   -4.9399861    1723.9253  0.039413014  0.039087707            5 
 3646000   0.68188253   -4.9486952    1719.3408  0.039297422  0.039077917           12 
 3647000   0.65845009   -4.9032018    1728.2079  0.039489258  0.039068245           17 
 3648000   0.67905207   -4.9453558     1725.031  0.039405861  0.039058543            6 
 3649000   0.66462596   -4.9623742    1729.5761   0.03949886  0.039048839            5 
 3650000   0.64766964    -4.935255    1727.0835  0.039431129  0.039039131           17 
 3651000   0.66552719   -4.9506997    1726.9447  0.039417161  0.039029372            5 
 3652000   0.67390301    -4.947745    1724.6262  0.039353464  0.039019667            9 
 3653000   0.67934051   -4.9585149    1725.6759  0.039366637  0.039009958            8 
 3654000    0.6564724   -4.9415952    1730.5589  0.039467225  0.039000305            5 
 3655000   0.65976391   -4.9643944     1727.044  0.039376288  0.038990643           10 
 3656000   0.67697278   -4.9425112    1722.8162   0.03926915  0.038980958           12 
 3657000   0.65322158   -4.9434025    1726.7956  0.039349093  0.038971307            8 
 3658000   0.67588496   -4.9199052    1729.8404    0.0394077  0.038961711            7 
 3659000   0.67430722   -4.9351159    1732.7366   0.03946289  0.038952127            8 
 3660000   0.67204783   -4.9288697    1726.5031   0.03931018  0.038942528            7 
 3661000   0.66337544   -4.9430577    1730.5344  0.039391205  0.038932887           11 
 3662000   0.66890794   -4.9314857    1729.5455  0.039357945  0.038923255            7 
 3663000    0.6639984   -4.9348125    1729.0953  0.039336957  0.038913657           10 
 3664000   0.66460239   -4.9480078    1729.3064  0.039331023  0.038904034            7 
 3665000   0.66995541   -4.9512831    1728.1705  0.039294465  0.038894388           11 
 3666000   0.67070176   -4.9465495    1726.4868  0.039245472  0.038884775           11 
 3667000   0.68111926    -4.939918    1726.5918  0.039237155  0.038875177           20 
 3668000    0.6553008   -4.9539505    1727.4713  0.039246439  0.038865578           20 
 3669000   0.66219143   -4.9768146    1725.9377   0.03920091  0.038855897            7 
 3670000   0.65704486    -4.977366    1725.3571  0.039177046  0.038846237           13 
 3671000   0.65552527   -4.9582269    1723.5299  0.039124896  0.038836566            7 
 3672000    0.6707588   -4.9479446    1730.5971  0.039274626  0.038826929            6 
 3673000   0.65763347   -4.9751356    1728.5103  0.039216588  0.038817239            7 
 3674000   0.66705836   -4.9653456    1729.9348  0.039238223  0.038807598            9 
 3675000   0.68430298   -4.9462061    1729.2583  0.039212207  0.038798063            8 
 3676000   0.66471655   -4.9395038    1731.0023  0.039241076  0.038788492            8 
 3677000   0.64885707   -4.9263568    1731.9249  0.039251311  0.038778955            6 
 3678000   0.67191628   -4.9440834    1730.0516  0.039198196  0.038769435           12 
 3679000   0.67645329   -4.9649057    1727.4947  0.039129625  0.038759816           11 
 3680000   0.66120148    -4.965093    1733.1495  0.039247044  0.038750199            7 
 3681000   0.64544099   -4.9750494    1728.0592  0.039121143  0.038740629           11 
 3682000   0.66216901   -4.9660698    1731.4465  0.039187182  0.038731024            7 
 3683000   0.65438191    -4.957951    1731.4727  0.039177136  0.038721442           11 
 3684000   0.66293237   -4.9417063    1728.3794   0.03909653  0.038711913            6 
 3685000   0.65901563   -4.9487053    1738.9094  0.039324048  0.038702342            8 
 3686000   0.67243038   -4.9687327    1730.9387  0.039133178   0.03869278           11 
 3687000   0.66348948   -4.9552117    1733.1978  0.039173623  0.038683261            7 
 3688000    0.6540351   -4.9639869    1731.0527  0.039114532   0.03867372           12 
 3689000    0.6469702   -4.9696492    1730.0569  0.039081434  0.038664177            8 
 3690000   0.65551799   -4.9771205    1730.0158  0.039069914  0.038654621            7 
 3691000   0.67281968   -4.9370235    1733.8792  0.039146555  0.038645078           10 
 3692000   0.64564603    -4.950148    1734.1742  0.039142611  0.038635585            9 
 3693000    0.6556181   -4.9710524    1728.0857  0.038994622  0.038626082           10 
 3694000   0.67326547   -4.9603316    1731.4187  0.039059257  0.038616585            4 
 3695000     0.657563   -4.9754479    1734.7132  0.039122986  0.038607051            7 
 3696000   0.67015327   -4.9532683    1732.3782  0.039059754  0.038597487            9 
 3697000   0.65703895   -4.9751971    1729.5868  0.038986268  0.038587971            9 
 3698000   0.66583321   -4.9478992    1740.5216  0.039222139  0.038578467            8 
 3699000   0.66801308   -4.9639077    1733.3852  0.039050762  0.038569025           10 
 3700000   0.66299496   -4.9365951    1736.6931  0.039114709  0.038559592            5 
 3701000    0.6510093   -4.9646973    1736.0409  0.039089456  0.038550096            7 
 3702000   0.66926025   -4.9601417    1734.7211  0.039049187  0.038540661            9 
 3703000   0.63840123   -4.9766215    1732.5248  0.038989215  0.038531154           12 
 3704000   0.65793931   -4.9745924    1731.8477  0.038963455  0.038521692           10 
 3705000   0.66046378   -4.9758397    1737.7463  0.039085611  0.038512171            8 
 3706000   0.64970133   -4.9740913    1733.5085  0.038979773  0.038502685            7 
 3707000   0.66635734   -4.9734492    1732.7738  0.038952743  0.038493175           10 
 3708000   0.66165912   -4.9591009     1736.201   0.03901926    0.0384837            8 
 3709000   0.64633629   -4.9168697    1737.3095  0.039033647  0.038474259           19 
 3710000   0.66103857   -4.9621874    1737.4098  0.039025378  0.038464841            6 
 3711000   0.64962745   -4.9655318     1733.596  0.038929219  0.038455374           10 
 3712000   0.65577125   -4.9851352    1732.2174  0.038887782  0.038445881            8 
 3713000   0.65660443   -4.9714047    1732.0928  0.038874513  0.038436332            5 
 3714000    0.6577136   -4.9501625    1735.3613  0.038937384  0.038426848            8 
 3715000    0.6439366   -4.9627329    1731.7649   0.03884623  0.038417386           15 
 3716000   0.65132214   -4.9615114    1733.7266  0.038879769  0.038407895           13 
 3717000   0.65463621   -4.9660243    1732.9959  0.038852927  0.038398443           11 
 3718000   0.64860951   -4.9455558    1740.6235  0.039013437  0.038389024            6 
 3719000    0.6585294   -4.9652975    1736.7586  0.038916344  0.038379594            4 
 3720000   0.66381797   -4.9655217    1732.3516  0.038807159  0.038370107           15 
 3721000   0.64461203   -4.9733635     1736.412  0.038887664  0.038360593            5 
 3722000   0.65540655   -4.9738223    1733.5161  0.038812379  0.038351106            8 
 3723000   0.65804214   -4.9617458    1734.6028  0.038826279  0.038341586           12 
 3724000   0.66676327   -4.9886407    1734.0981  0.038804559  0.038332072           34 
 3725000    0.6503116    -4.967018    1731.2553  0.038730544   0.03832248           19 
 3726000   0.66181418   -4.9696326    1729.1937  0.038674041  0.038312936           12 
 3727000   0.65089483   -4.9840176    1730.1774  0.038685658  0.038303402            9 
 3728000   0.65642921   -4.9709489    1731.9325  0.038714513   0.03829389           12 
 3729000    0.6557447   -4.9827302    1732.6382  0.038719902  0.038284374            8 
 3730000   0.64330838   -4.9861224    1732.2838  0.038701604  0.038274827           18 
 3731000   0.64042701   -4.9678203    1735.9978  0.038774185  0.038265297           10 
 3732000    0.6521024    -4.970644    1733.5724  0.038709637  0.038255798           10 
 3733000   0.65820892   -4.9584926    1737.2356  0.038781042  0.038246295           18 
 3734000   0.65139965   -4.9823233    1733.3179  0.038683224  0.038236784            6 
 3735000   0.66074838   -4.9569443    1732.2744  0.038649584  0.038227299            9 
 3736000    0.6395653   -4.9778821    1731.4865  0.038621664   0.03821776            7 
 3737000   0.65875656   -4.9703839     1733.114  0.038647624  0.038208269            9 
 3738000   0.65084295   -4.9806656    1732.2433  0.038617873  0.038198777           11 
 3739000   0.66744383    -4.995851    1730.3293  0.038564886  0.038189287           12 
 3740000    0.6441984   -4.9749352    1730.1573  0.038550743  0.038179705           13 
 3741000   0.63881369   -4.9918474    1731.7713  0.038576391   0.03817018           14 
 3742000   0.65474886   -4.9616952    1735.5924  0.038651175  0.038160629           23 
 3743000   0.65383285   -4.9713132    1735.4758  0.038638253  0.038151117            7 
 3744000   0.66356083   -4.9829031    1734.1566   0.03859857  0.038141644           19 
 3745000   0.65163715   -4.9461062     1734.281  0.038591032  0.038132187           14 
 3746000    0.6470234   -4.9768962    1738.6847  0.038678696  0.038122771           11 
 3747000   0.67279616   -4.9722126    1733.1076  0.038544337  0.038113329           12 
 3748000   0.65038438   -4.9731786    1737.7543  0.038637369  0.038103896           19 
 3749000   0.65167709   -4.9693298    1737.5052  0.038621525  0.038094485            8 
 3750000   0.64339155   -4.9842821    1735.1253   0.03855834  0.038085046            9 
 3751000   0.64981123   -4.9714235    1739.2454  0.038639594  0.038075599            9 
 3752000   0.66808761   -4.9829918    1733.4279  0.038500087  0.038066105           21 
 3753000   0.65444564   -4.9620185     1735.627  0.038538658  0.038056633           12 
 3754000    0.6511861   -4.9872584    1737.4226  0.038568252  0.038047163           12 
 3755000   0.65192104   -4.9878132    1733.1905  0.038464059  0.038037663           10 
 3756000    0.6423794   -4.9729838    1732.9445  0.038448361  0.038028178           21 
 3757000    0.6405309    -4.988158    1736.2874  0.038512275  0.038018705            9 
 3758000    0.6584791   -4.9890407    1733.9465  0.038450117  0.038009266           10 
 3759000   0.63211566    -4.980179    1737.5904  0.038520671   0.03799976            8 
 3760000   0.64662078   -4.9912153    1732.3452  0.038394175  0.037990288            6 
 3761000   0.64881813   -4.9865822    1737.0849  0.038488987  0.037980819            9 
 3762000   0.64442744   -4.9810015    1733.2216  0.038393176  0.037971333           13 
 3763000   0.64502628    -4.975754    1739.4123  0.038520069  0.037961921            6 
 3764000   0.64920847   -4.9631269    1734.2394   0.03839531  0.037952478           12 
 3765000    0.6469801   -4.9999451    1733.5738  0.038370381  0.037943033           10 
 3766000   0.65520519   -4.9465849    1740.6244  0.038516206  0.037933599            6 
 3767000   0.67558928    -4.969241    1738.0951  0.038450029  0.037924218            7 
 3768000   0.65019662   -4.9645599    1740.4842  0.038492662   0.03791488            8 
 3769000   0.63901459   -4.9912576    1734.5587  0.038351435  0.037905481            9 
 3770000   0.65537747   -4.9966816    1737.4074  0.038404231  0.037896041            8 
 3771000   0.64653101   -4.9868528     1736.641   0.03837711  0.037886519            4 
 3772000   0.64228289   -4.9716381    1735.1935  0.038334957  0.037877077           10 
 3773000    0.6640291   -4.9904292    1736.0953  0.038344715  0.037867618           14 
 3774000   0.64132807   -4.9993556     1739.106  0.038401033  0.037858175            6 
 3775000   0.64596195   -4.9963048    1735.7305  0.038316346  0.037848708           17 
 3776000    0.6420165   -4.9779456     1734.592  0.038281073  0.037839197            9 
 3777000   0.63827609   -4.9741564    1741.7522  0.038428917  0.037829743           11 
 3778000   0.64892697   -4.9905939    1735.7316  0.038285945  0.037820281           11 
 3779000   0.63248372   -4.9713551    1741.4623  0.038402186  0.037810826           12 
 3780000   0.65750481   -4.9748323    1734.8525  0.038246308  0.037801318           15 
 3781000   0.65059587   -4.9833952     1738.907  0.038325552  0.037791923            6 
 3782000     0.643385    -4.981529    1738.3384  0.038302892   0.03778255           10 
 3783000    0.6585251   -4.9631304    1738.6141   0.03829884  0.037773142            6 
 3784000   0.64395214   -4.9819019    1743.1106  0.038387743  0.037763728           14 
 3785000   0.65161272   -4.9968217    1734.1275  0.038179823  0.037754252           16 
 3786000   0.64584312   -5.0028875       1738.8  0.038272583  0.037744827           13 
 3787000   0.63714608   -4.9946196    1737.2614   0.03822862  0.037735411           16 
 3788000    0.6448865   -4.9800032    1739.0867  0.038258683  0.037725989            7 
 3789000   0.64247838   -4.9844896    1741.3589  0.038298559   0.03771655           11 
 3790000    0.6531317     -4.98814    1738.5644  0.038227009  0.037707143           12 
 3791000   0.64694894   -4.9753592    1741.3598  0.038278374  0.037697747           10 
 3792000   0.64321666   -4.9946457     1739.873  0.038235606  0.037688294           14 
 3793000   0.64691777   -4.9689161    1739.5537   0.03821851  0.037678881           11 
 3794000   0.65245085   -4.9683381     1744.686  0.038321166  0.037669476            8 
 3795000   0.63431844   -5.0013653    1737.5059  0.038153401  0.037660066           13 
 3796000   0.64564219   -4.9844469     1736.389  0.038118831  0.037650602            7 
 3797000   0.63893182   -4.9826761    1740.6243  0.038201745  0.037641198           13 
 3798000   0.64564025   -4.9848689    1734.7414  0.038062607  0.037631782           18 
 3799000   0.63760034    -4.983479    1741.5216  0.038201315  0.037622335            6 
 3800000   0.64211991   -4.9755899    1736.9326  0.038090626  0.037612863            4 
 3801000   0.65449389   -4.9883677    1736.0295  0.038060807  0.037603389            8 
 3802000   0.64836211   -4.9953313    1733.0172  0.037984772  0.037593912           21 
 3803000   0.64552792   -5.0201561    1740.1588  0.038131273   0.03758445           16 
 3804000   0.65501537   -5.0004339    1739.3378  0.038103264   0.03757501           11 
 3805000    0.6467046   -5.0013586    1738.4089  0.038072905  0.037565618           10 
 3806000   0.65020596   -4.9764185    1743.5226  0.038174869  0.037556207            9 
 3807000   0.63368152   -4.9957685    1735.1111  0.037980719  0.037546833           11 
 3808000   0.63850249    -4.979741    1734.8916  0.037965941  0.037537439            9 
 3809000   0.64859226   -4.9920348    1740.4235  0.038076999  0.037528047            8 
 3810000    0.6415323   -4.9847451    1740.4104  0.038066718  0.037518647           12 
 3811000   0.65101392     -4.99966    1736.7557  0.037976815  0.037509196           12 
 3812000   0.64508876    -4.996986    1733.4176   0.03789388  0.037499733            6 
 3813000   0.64001409   -5.0201818    1738.9852  0.038005621  0.037490219            8 
 3814000   0.63486744   -4.9946502    1740.3543  0.038025571  0.037480775            8 
 3815000   0.64509397   -4.9905105    1741.0217  0.038030182  0.037471347            8 
 3816000   0.64820984   -4.9898526    1737.0673  0.037933859  0.037461898            8 
 3817000   0.63127982   -4.9930304    1742.3519  0.038039295  0.037452483            8 
 3818000   0.63618647   -5.0160492     1742.379  0.038029925  0.037443059           20 
 3819000   0.63574249   -4.9879146    1742.2596  0.038017361  0.037433682           20 
 3820000   0.64550713   -4.9942726    1739.4362  0.037945817  0.037424259           12 
 3821000   0.63365177   -4.9996451    1738.9246  0.037924728  0.037414866            5 
 3822000   0.64690598   -5.0052485    1736.4649  0.037861174  0.037405504           11 
 3823000   0.64780605   -5.0229568     1740.156   0.03793173   0.03739615           13 
 3824000   0.62508605   -5.0230657    1736.7803  0.037848246  0.037386782            8 
 3825000   0.64899408   -5.0002921    1741.4257  0.037939558  0.037377431            7 
 3826000   0.65033277   -5.0035623    1740.8408  0.037916901  0.037368009           22 
 3827000   0.64600846   -5.0007357    1744.1884  0.037979888   0.03735864           15 
 3828000   0.63763044    -5.001933    1740.3537  0.037886488   0.03734934           11 
 3829000   0.63384358   -5.0154422    1741.1473  0.037893864  0.037339983            8 
 3830000   0.64311723   -4.9807741     1739.143  0.037840362   0.03733064            9 
 3831000   0.64161266   -4.9764741    1743.7691  0.037931112  0.037321271           10 
 3832000   0.62570409   -4.9644208    1744.0937  0.037928272  0.037311921            9 
 3833000   0.64323188   -4.9829899    1741.6755  0.037865804  0.037302577            8 
 3834000   0.62531403   -4.9972846    1743.8323  0.037902807   0.03729322           10 
 3835000   0.65463127   -4.9862447     1741.803  0.037848828   0.03728384            5 
 3836000   0.63203372   -5.0155235    1738.5401  0.037768076  0.037274453            6 
 3837000   0.62947799   -5.0084938    1739.8365   0.03778639  0.037265035            5 
 3838000   0.63536196   -5.0040526    1744.5081  0.037877976  0.037255645           19 
 3839000   0.63782261   -4.9860313    1742.5734  0.037826113  0.037246255           23 
 3840000   0.64066096   -5.0304108    1737.6853  0.037710184  0.037236806           13 
 3841000   0.62870456   -5.0241208    1736.0094  0.037664007  0.037227365           11 
 3842000   0.63417008   -5.0307384    1736.9203  0.037673961  0.037217903           14 
 3843000   0.61844021   -5.0040127    1743.2887  0.037802254  0.037208441           32 
 3844000   0.63687371   -4.9911053    1739.9072  0.037719113   0.03719899           58 
 3845000   0.62418653   -5.0038613    1741.3338  0.037740222  0.037189506           11 
 3846000   0.64277302   -5.0096196    1739.7438  0.037695957  0.037180071           13 
 3847000   0.64014927   -5.0129236    1739.6701  0.037684561  0.037170593           17 
 3848000    0.6247625   -5.0038487    1739.4512  0.037670027  0.037161127           16 
 3849000   0.63781856   -4.9935667    1736.6019  0.037598551  0.037151695           11 
 3850000   0.64285291   -4.9970842     1738.583  0.037631666  0.037142214            8 
 3851000   0.63951702   -5.0184939     1743.777   0.03773429   0.03713278           11 
 3852000   0.62599352   -5.0344072    1734.8217  0.037530756  0.037123324           11 
 3853000   0.63127026   -4.9957551    1742.7334  0.037692132  0.037113821            8 
 3854000   0.63487004   -5.0244889    1737.7367   0.03757431  0.037104358            7 
 3855000   0.63248952   -5.0204783    1735.2916  0.037511707  0.037094881            8 
 3856000   0.62938947   -5.0223576    1736.6837  0.037532065  0.037085395            8 
 3857000   0.62947526   -5.0159789    1740.2457  0.037599293    0.0370759           15 
 3858000   0.64078854   -5.0108328    1735.5302  0.037487692  0.037066422           19 
 3859000   0.62661922    -5.037423    1740.3153   0.03758131  0.037056973           11 
 3860000   0.63417922   -5.0011654    1742.8879  0.037627114  0.037047543            7 
 3861000   0.64115383   -5.0012367    1731.8596   0.03737934  0.037038069           31 
 3862000   0.64107681   -5.0076314     1740.022  0.037545787  0.037028636            5 
 3863000   0.62888317   -5.0304414    1739.9607  0.037534746  0.037019224           11 
 3864000    0.6357595   -5.0169775    1736.8208  0.037457315  0.037009769           15 
 3865000   0.63178622   -5.0008127    1741.8512  0.037556085  0.037000314           13 
 3866000   0.63590473   -5.0196028    1736.2186  0.037424958  0.036990905            7 
 3867000   0.63659253   -5.0252506    1740.9765  0.037517811  0.036981447           10 
 3868000   0.62842322   -5.0087888    1740.7284  0.037502767  0.036971961           13 
 3869000   0.63438195   -5.0263727    1738.9592  0.037454966  0.036962519            7 
 3870000   0.63309669    -5.020148    1738.3428  0.037432015  0.036953063           13 
 3871000   0.64679855   -5.0024119    1740.4685  0.037468107   0.03694362            7 
 3872000   0.64263808   -5.0433495    1735.9818  0.037361868  0.036934171           19 
 3873000   0.62267763   -5.0061194    1743.6909  0.037518093  0.036924736           12 
 3874000   0.63679806   -4.9968283    1737.7002  0.037379543  0.036915353           12 
 3875000   0.63889648    -5.022318    1741.7673  0.037457361  0.036905892            9 
 3876000   0.63089403   -4.9970926    1741.3615  0.037438972  0.036896472           13 
 3877000   0.63577851   -5.0142434    1740.0546  0.037401226  0.036887066           13 
 3878000   0.63088534   -5.0279998    1738.2469  0.037352735  0.036877619            7 
 3879000   0.62567254   -5.0079274    1740.3751  0.037388826  0.036868208           20 
 3880000   0.65561335   -5.0356062     1741.016  0.037392956  0.036858811           22 
 3881000   0.64499173   -5.0173469    1741.1853  0.037386955  0.036849401            8 
 3882000   0.61719366   -5.0120585    1744.6238  0.037451138  0.036840016           14 
 3883000   0.62659359   -5.0218901     1741.168  0.037367327   0.03683065           19 
 3884000   0.64644137   -5.0231979    1739.8895  0.037330275  0.036821187           12 
 3885000   0.64203166   -5.0337257    1740.6686  0.037337379  0.036811764            6 
 3886000   0.62217946   -5.0048493    1739.4925   0.03730255  0.036802337           10 
 3887000   0.64043846   -5.0156604    1738.7805  0.037277688  0.036792898           11 
 3888000   0.61718661    -5.010383      1738.95  0.037271733  0.036783422           15 
 3889000   0.62747202   -5.0206965    1736.5862  0.037211499  0.036773966            3 
 3890000   0.64145044    -5.033119    1740.5233  0.037286275  0.036764489           12 
 3891000   0.62956445   -5.0263915    1735.4261  0.037167525   0.03675502           12 
 3892000   0.64479711   -5.0297067    1743.6503  0.037334069   0.03674561            8 
 3893000   0.63383767   -5.0164901    1741.7481   0.03728376   0.03673624            7 
 3894000   0.63861316   -5.0221102    1734.1154  0.037110842  0.036726849           11 
 3895000   0.63678773     -5.03295    1738.3786  0.037192525  0.036717435           11 
 3896000   0.61818912    -5.001568    1740.2571  0.037223159  0.036708068           30 
 3897000   0.63334135   -5.0370292    1741.2746  0.037235365  0.036698662           25 
 3898000   0.63572694   -5.0315655    1743.3113  0.037269353  0.036689321            6 
 3899000   0.63140221   -5.0222817    1741.7709  0.037226873  0.036679922           11 
 3900000   0.62978634   -5.0222368    1744.0152  0.037265282  0.036670552           35 
 3901000   0.63077263   -5.0242903    1744.1267  0.037258111  0.036661197           14 
 3902000   0.62606272   -5.0175006    1738.6064  0.037130668  0.036651838           20 
 3903000   0.62279304   -5.0323023    1742.1939  0.037197751  0.036642417           14 
 3904000   0.64017381   -5.0207745    1741.9813  0.037183685  0.036633066           12 
 3905000   0.60982984   -5.0282445    1746.1801  0.037263766  0.036623681           17 
 3906000     0.622978   -5.0540433     1741.196  0.037147893  0.036614333           10 
 3907000   0.63669799    -5.042566    1740.3359   0.03712004  0.036604941            6 
 3908000     0.618301    -5.020603    1740.1977  0.037107593  0.036595598           13 
 3909000   0.63740202   -5.0350174    1744.8234  0.037196712   0.03658628            7 
 3910000   0.61825546   -5.0312429    1746.7752  0.037228799  0.036576953            6 
 3911000   0.63037731   -5.0396426    1743.6462  0.037152609  0.036567675            6 
 3912000   0.62427989   -5.0376719    1740.9547  0.037085776  0.036558354           12 
 3913000   0.59939619   -5.0404753    1747.5225   0.03721617  0.036549011           10 
 3914000   0.61807531   -5.0252637    1746.4743  0.037184345  0.036539713           10 
 3915000   0.62335935   -5.0425426    1744.8943  0.037141215  0.036530446           11 
 3916000   0.61445796   -5.0281025     1742.449  0.037079694  0.036521118           15 
 3917000   0.61343055   -5.0249478    1744.7915  0.037120064  0.036511797           10 
 3918000   0.62640633    -5.028336    1743.9943  0.037093635    0.0365025           16 
 3919000   0.61505766   -5.0221834    1741.4383  0.037029819  0.036493201           11 
 3920000   0.63495097   -5.0392462     1745.493   0.03710657  0.036483863            7 
 3921000   0.63133448   -5.0325814    1742.4655  0.037032762  0.036474507           15 
 3922000   0.62029444   -5.0396787    1745.0903   0.03707909  0.036465127           14 
 3923000   0.63492699     -5.02891    1746.6169  0.037102067  0.036455793            9 
 3924000   0.63741059   -5.0358487    1741.3805  0.036981408  0.036446447           16 
 3925000   0.63612255    -5.063186    1740.5428    0.0369542   0.03643708           30 
 3926000   0.63623772   -5.0200038    1740.5487  0.036944912  0.036427714           20 
 3927000   0.62560129   -5.0434003    1739.5829   0.03691501   0.03641838            7 
 3928000   0.63676983     -5.01953    1744.2089  0.037003753  0.036409027           10 
 3929000   0.61524904     -5.04248    1737.5061   0.03685217  0.036399645            6 
 3930000   0.62625447   -5.0375039    1743.8651  0.036977631  0.036390235           10 
 3931000   0.63050952   -5.0354166    1746.7309  0.037028977  0.036380874           18 
 3932000   0.63860489   -5.0621761    1741.1629  0.036901554  0.036371503            9 
 3933000   0.61596824   -5.0461922    1742.9654  0.036930362  0.036362178           12 
 3934000   0.62743764   -5.0160358     1742.291  0.036906689  0.036352831           17 
 3935000   0.64198631   -5.0404972    1740.9188  0.036868251  0.036343466           17 
 3936000   0.61576419   -5.0310572     1742.886  0.036900533  0.036334125           13 
 3937000   0.61329495    -5.040032     1738.376  0.036795699  0.036324759           15 
 3938000   0.61300646   -5.0285211     1747.914  0.036988193  0.036315435           20 
 3939000   0.61649825   -5.0271415    1744.1405  0.036898971  0.036306126           14 
 3940000   0.60825018    -5.052231    1740.1704  0.036805635  0.036296804           12 
 3941000   0.63193014   -5.0425088    1744.4538  0.036886868  0.036287427           18 
 3942000   0.61572887    -5.034777    1743.2767  0.036852628  0.036278106           19 
 3943000   0.62496258   -5.0459708    1740.6569  0.036787912  0.036268766           10 
 3944000   0.63352166    -5.032317    1745.7454  0.036886102  0.036259498           10 
 3945000    0.6222904   -5.0429914     1740.273  0.036761153  0.036250181            9 
 3946000   0.62732121   -5.0561614    1744.0303  0.036831185  0.036240892            8 
 3947000   0.61916231   -5.0564406    1738.8771  0.036713055  0.036231563            9 
 3948000   0.62141637   -5.0430166    1746.0309  0.036854756  0.036222219            7 
 3949000   0.64041357    -5.043545    1740.3182  0.036724872  0.036212891            7 
 3950000   0.62345735   -5.0498155    1741.2699  0.036735652  0.036203554            5 
 3951000   0.62481697   -5.0556504     1742.407  0.036750338  0.036194211           14 
 3952000    0.6291418   -5.0418817    1745.0819  0.036797443  0.036184885            6 
 3953000   0.62613305    -5.057052    1739.8187  0.036677181   0.03617558           13 
 3954000   0.61471078   -5.0346778     1748.912  0.036859552  0.036166295           22 
 3955000   0.61208644   -5.0508364    1742.2746   0.03671038  0.036157052           19 
 3956000   0.61735315   -5.0512339    1745.1517  0.036761705  0.036147783           13 
 3957000   0.62397915   -5.0745415    1739.1179  0.036625344  0.036138458           12 
 3958000   0.60956302   -5.0612175    1743.3865  0.036705966  0.036129205            8 
 3959000   0.61658975   -5.0420037    1745.7297  0.036746016  0.036119922           14 
 3960000   0.62310279    -5.062336    1744.0426  0.036701232  0.036110624            9 
 3961000   0.60437118   -5.0437923    1745.2156  0.036716645  0.036101349           17 
 3962000   0.61607909   -5.0587731    1748.5295  0.036777081  0.036092096           15 
 3963000    0.6158427   -5.0856724    1741.8796  0.036627966  0.036082821            9 
 3964000   0.62469057   -5.0431751    1747.4022  0.036734825  0.036073576           11 
 3965000    0.6089672   -5.0357582    1748.4163  0.036746875  0.036064387            8 
 3966000   0.60991166   -5.0677368    1747.3486  0.036715175  0.036055162            8 
 3967000   0.62149412   -5.0731486    1741.7193  0.036587668  0.036045943           10 
 3968000   0.60655116   -5.0518985    1750.6686  0.036766394  0.036036676           33 
 3969000   0.60762322   -5.0881149    1745.5962  0.036650629   0.03602742            6 
 3970000   0.60687159    -5.046066    1744.8889  0.036626552  0.036018169           19 
 3971000   0.61852611   -5.0686494    1746.1138  0.036643032  0.036008931            6 
 3972000   0.60996425   -5.0408075    1745.2408  0.036615491  0.035999679            8 
 3973000     0.622083    -5.062661    1741.3041  0.036523704  0.035990443           11 
 3974000   0.62467083    -5.048561    1749.4167  0.036684631  0.035981176           12 
 3975000   0.61394716    -5.051665    1746.5809  0.036615952  0.035971969           17 
 3976000   0.61122197   -5.0359857    1748.7635  0.036652488  0.035962763            7 
 3977000   0.62026372   -5.0520764    1748.0091  0.036627463  0.035953576           16 
 3978000   0.61932007   -5.0329851    1745.9592  0.036575315  0.035944351            6 
 3979000   0.61287415   -5.0636194    1744.2874  0.036531109  0.035935156           10 
 3980000   0.61445848    -5.034752     1743.821  0.036512164  0.035925908           18 
 3981000   0.61789702   -5.0434392    1745.8285  0.036545017    0.0359167           10 
 3982000   0.59647191   -5.0309086    1746.3226  0.036546178  0.035907544           18 
 3983000   0.59815069   -5.0464423    1747.9536  0.036571127  0.035898407           13 
 3984000   0.61517706   -5.0721416    1747.4198  0.036550783  0.035889235           13 
 3985000   0.62089557    -5.066161    1745.1997  0.036495185  0.035880056            9 
 3986000   0.61349087   -5.0545348    1748.3932  0.036552794  0.035870847            8 
 3987000   0.62038734   -5.0487246    1746.9695  0.036513868  0.035861684           21 
 3988000   0.60903672   -5.0566841    1743.8586  0.036439707  0.035852467           21 
 3989000   0.62094046   -5.0462313     1747.251  0.036501441  0.035843258           11 
 3990000   0.60386521   -5.0477239    1744.4749  0.036434313   0.03583407           26 
 3991000   0.61947492   -5.0348428    1745.3411  0.036443271  0.035824907           21 
 3992000    0.6105513   -5.0478702    1751.3308  0.036559177  0.035815741           13 
 3993000   0.60673619   -5.0652949     1743.671  0.036390163   0.03580656            6 
 3994000   0.61629119   -5.0790888    1742.9171  0.036365322  0.035797333           18 
 3995000   0.62870841   -5.0519211    1748.2404   0.03646726  0.035788124           15 
 3996000   0.61858205   -5.0685007    1745.3658  0.036398185  0.035778921           16 
 3997000   0.61783185   -5.0582892    1748.5802  0.036456095    0.0357697            4 
 3998000   0.62248193   -5.0504447    1747.8532  0.036431824  0.035760495            9 
 3999000   0.61540869   -5.0606531    1748.9451  0.036445468  0.035751324           12 
 4000000   0.60491764   -5.0659531    1746.8379  0.036392456   0.03574219           45 
 4001000   0.60133704   -5.0669322    1747.2099  0.036391109  0.035733013            7 
 4002000   0.60882285   -5.0763234    1750.7967  0.036456704  0.035723897           11 
 4003000   0.60366276    -5.068842    1747.2038    0.0363728  0.035714772           14 
 4004000   0.60421369   -5.0669787    1743.7191  0.036291189  0.035705603           10 
 4005000   0.60722817   -5.0502201    1746.5446  0.036340919  0.035696484           17 
 4006000   0.61499477   -5.0642029    1747.8512  0.036359029  0.035687398           15 
 4007000   0.61355442   -5.0681669    1752.1261  0.036438858  0.035678304           10 
 4008000   0.60672607   -5.0865419    1749.0065  0.036364905  0.035669186           10 
 4009000   0.61119971   -5.0625273    1750.1371  0.036379336  0.035660042           12 
 4010000   0.61429187   -5.0354724    1749.5867  0.036358826  0.035650947           13 
 4011000   0.61783588   -5.0623854    1749.5316  0.036348617  0.035641834           13 
 4012000   0.60478455   -5.0785539    1748.9962  0.036328436  0.035632709           13 
 4013000   0.61545698   -5.0864601    1748.2647  0.036304192  0.035623575           13 
 4014000   0.61415712   -5.0784757    1747.8746   0.03628705  0.035614446           19 
 4015000   0.59271773   -5.0713394    1754.8026  0.036421807  0.035605323           16 
 4016000   0.61711606   -5.0512536     1751.994  0.036354456  0.035596236            7 
 4017000   0.60475598   -5.0591087    1749.5873   0.03629548  0.035587201            9 
 4018000   0.61066078   -5.0665088    1751.4886   0.03632588  0.035578115           10 
 4019000    0.6206981   -5.0708799    1750.5531  0.036297444  0.035569015           14 
 4020000   0.60230155   -5.0738532    1753.2524  0.036344369  0.035559921           13 
 4021000   0.60939499   -5.0682064    1749.6311  0.036260281  0.035550836           13 
 4022000   0.60199927    -5.074331    1749.7632  0.036254004  0.035541804           26 
 4023000   0.60905031   -5.0934735    1749.5636  0.036240856  0.035532728            8 
 4024000   0.61776029   -5.0646783    1751.8513  0.036279227  0.035523723           12 
 4025000   0.59630299    -5.083294    1747.0546  0.036170902  0.035514666           18 
 4026000   0.59642514   -5.0952325     1749.544  0.036213446  0.035505598           14 
 4027000   0.59950803   -5.0558699    1754.3207    0.0363033  0.035496575            8 
 4028000   0.60698975   -5.0779834    1751.4152  0.036234178  0.035487521            9 
 4029000   0.60812006   -5.0544624    1751.6319  0.036229667  0.035478481           11 
 4030000   0.60227875   -5.0832191    1750.5389  0.036198074  0.035469439           14 
 4031000   0.61560963   -5.0905478    1753.3924  0.036248086  0.035460363           12 
 4032000   0.59327675   -5.0802944    1753.6015  0.036243416  0.035451255           16 
 4033000   0.60641558   -5.0907399    1748.7065  0.036133287  0.035442193           17 
 4034000      0.60673   -5.0766272    1748.5591  0.036121284   0.03543312           12 
 4035000   0.60300082   -5.0664512     1750.493  0.036152272  0.035424083            9 
 4036000   0.61500603   -5.0751598    1752.1767  0.036178078  0.035415036           21 
 4037000   0.60323387   -5.0894235    1748.5273  0.036093785  0.035405989            8 
 4038000   0.61260517   -5.0760492    1751.6362  0.036149004  0.035396974           11 
 4039000   0.61888969   -5.0804103    1751.1743  0.036130525  0.035387894            7 
 4040000   0.60694274   -5.0850061    1749.5059  0.036087167  0.035378831           14 
 4041000   0.60392153   -5.0599403    1747.5963  0.036038859  0.035369758            9 
 4042000    0.6064405   -5.0817694    1751.9911  0.036120548  0.035360701           11 
 4043000   0.59461847   -5.0646628    1753.9302  0.036151582   0.03535163           21 
 4044000   0.60485156   -5.0739304    1754.8697  0.036162004  0.035342636           10 
 4045000   0.60968856   -5.0563385    1754.7184  0.036149946  0.035333648           16 
 4046000   0.58607509    -5.045969    1752.0845  0.036086764  0.035324664           16 
 4047000   0.59951456   -5.0660985    1754.1988  0.036121383  0.035315667            6 
 4048000   0.60936195   -5.0724165    1755.0578  0.036130143  0.035306654            8 
 4049000   0.59941486   -5.0992686    1749.1693  0.036000026  0.035297585            8 
 4050000   0.60661968   -5.0663594    1751.0067  0.036028944  0.035288529            6 
 4051000   0.59607581   -5.0809151    1754.2568  0.036086908  0.035279561            6 
 4052000    0.6181828   -5.0839456    1752.7902   0.03604784  0.035270583            8 
 4053000   0.59326856   -5.0599871    1753.1646  0.036046645  0.035261639            5 
 4054000   0.60014054   -5.0850257    1751.3987  0.036001454  0.035252693            8 
 4055000   0.60655033   -5.0759239    1752.6169  0.036017611  0.035243708            7 
 4056000   0.59378861   -5.0920739    1751.6966  0.035989821  0.035234673            6 
 4057000   0.59761556   -5.0864468    1753.2707  0.036013284  0.035225623           15 
 4058000   0.61329327   -5.0836083    1750.4626  0.035946743  0.035216607           22 
 4059000   0.59757991   -5.0984865     1747.886  0.035884987  0.035207582           10 
 4060000   0.61250402   -5.0914836    1751.8676  0.035957874  0.035198579           12 
 4061000   0.60640612   -5.0918286    1753.3071  0.035978558  0.035189535           26 
 4062000   0.59521712   -5.0982108    1751.4782  0.035932181   0.03518051            9 
 4063000   0.58818719   -5.0570563    1751.2462  0.035918578  0.035171519           10 
 4064000   0.60333039   -5.0790364    1749.2108  0.035868003  0.035162544           11 
 4065000   0.61693582   -5.0781805    1750.7531  0.035890797  0.035153554           24 
 4066000   0.59753042   -5.0600407    1755.8794  0.035987035  0.035144569            8 
 4067000   0.60278906   -5.1173994    1752.2193   0.03590319  0.035135613            8 
 4068000   0.60255038   -5.0960599    1750.1363  0.035851695  0.035126616           14 
 4069000   0.60669952   -5.0761202    1752.4299  0.035889856  0.035117624           11 
 4070000   0.61252644   -5.1079238    1750.3968  0.035839411  0.035108634           12 
 4071000   0.59889996    -5.111234     1753.799   0.03590025  0.035099625            9 
 4072000   0.59737699   -5.0856258    1749.5931   0.03580536  0.035090644           29 
 4073000   0.59478936   -5.0915561     1751.111  0.035827625  0.035081643            5 
 4074000   0.61486144   -5.0922467    1755.2113  0.035902703  0.035072634           10 
 4075000   0.59410122   -5.0890115    1753.2369  0.035853515  0.035063697           13 
 4076000   0.60103026   -5.0868655    1756.1784  0.035904857  0.035054743           11 
 4077000    0.5968852   -5.0836175    1756.5321   0.03590328  0.035045771            9 
 4078000   0.60096313   -5.0839963    1749.4976  0.035750727  0.035036855           17 
 4079000   0.60186529    -5.113114    1752.7639  0.035808693  0.035027831           22 
 4080000   0.60501328   -5.0840092    1752.3513  0.035791489   0.03501882           13 
 4081000   0.59272613   -5.0977625      1751.36  0.035762477  0.035009809           16 
 4082000    0.6008229    -5.080571    1753.6359  0.035800179  0.035000834            9 
 4083000   0.59945584   -5.0954965    1749.8579  0.035714301  0.034991851            8 
 4084000   0.61348675   -5.0934827    1751.4829  0.035738715  0.034982898           22 
 4085000   0.59583284   -5.0970508    1751.0382  0.035720894  0.034973964           23 
 4086000   0.60084781   -5.0984659    1756.7148  0.035827925  0.034965004           25 
 4087000    0.5880403   -5.0845801    1754.5416  0.035774848  0.034956026           48 
 4088000   0.58968668    -5.075655    1755.0582  0.035776626  0.034947102           13 
 4089000   0.60504232   -5.0992059    1754.5187  0.035756882  0.034938173           13 
 4090000   0.60094809   -5.0876551    1755.1466  0.035760933  0.034929207            9 
 4091000   0.60225197   -5.1144697    1753.2889   0.03571435  0.034920252           10 
 4092000   0.61460161   -5.1033775    1751.4098  0.035667355  0.034911268            8 
 4093000    0.6018042   -5.0847459    1757.6559  0.035785812  0.034902294           10 
 4094000   0.60621993   -5.0915853     1750.264  0.035626609  0.034893351           10 
 4095000   0.59701697   -5.0939893    1752.9969  0.035673523  0.034884404           14 
 4096000   0.60554716   -5.0926912    1752.7511  0.035659813  0.034875468           28 
 4097000    0.5885959   -5.0891512    1749.9952  0.035595053  0.034866513           22 
 4098000   0.59353199   -5.1002013    1756.9295  0.035727376  0.034857539           10 
 4099000   0.60522033   -5.1094912    1754.0547  0.035660215  0.034848589           10 
 4100000   0.61651746   -5.1038806    1753.2331   0.03563482  0.034839616           16 
 4101000    0.6010405   -5.0992261    1753.8176  0.035638006  0.034830656           11 
 4102000   0.58446888   -5.1238031    1753.2218  0.035617216  0.034821705           34 
 4103000   0.60466646    -5.125201    1752.4797  0.035593461   0.03481274           15 
 4104000   0.59353539   -5.1034116    1753.9394   0.03561443  0.034803749            8 
 4105000   0.60667914   -5.0826427    1751.2305  0.035550762  0.034794806            8 
 4106000   0.59042737   -5.1141133     1753.804  0.035594334  0.034785875           19 
 4107000   0.59080468   -5.1001729    1751.3321   0.03553551  0.034776931            9 
 4108000   0.59670222   -5.0892046    1756.6479  0.035634695  0.034768005           12 
 4109000   0.59660056    -5.099914    1755.2515  0.035597703  0.034759025           12 
 4110000   0.60861028   -5.1022654     1754.906  0.035582035  0.034750061            7 
 4111000    0.6069574   -5.1168901    1754.3654  0.035562422  0.034741113           20 
 4112000   0.59200489   -5.0802892    1751.7712    0.0355012   0.03473212           18 
 4113000   0.58772724   -5.1237297      1753.11  0.035519694  0.034723142            8 
 4114000   0.60277834   -5.1373247    1749.6659  0.035441296  0.034714148           20 
 4115000   0.58773132   -5.1303934    1754.7489  0.035535621  0.034705152           16 
 4116000   0.59375163    -5.078069    1756.5357  0.035563162   0.03469622           11 
 4117000   0.59848623   -5.1004123    1753.0876  0.035484729   0.03468729           12 
 4118000   0.59331882   -5.0868538    1755.0269  0.035515358   0.03467834            9 
 4119000   0.59604646   -5.1120514    1748.4871  0.035374426  0.034669412           29 
 4120000   0.59835262   -5.1052237    1750.9659  0.035415976  0.034660456           23 
 4121000   0.59838113   -5.1188179    1750.9756  0.035407579   0.03465154           13 
 4122000     0.583523   -5.1012655    1753.9178  0.035458472  0.034642623           26 
 4123000   0.58567082   -5.0876011    1752.4496  0.035420196  0.034633675           24 
 4124000   0.58489101   -5.0984473    1756.5064  0.035493582  0.034624741            9 
 4125000   0.58382482   -5.1057267    1753.2424  0.035419038  0.034615825           12 
 4126000   0.59811398   -5.1089415    1755.8026  0.035462162  0.034606923           18 
 4127000   0.57852339   -5.1262905    1752.6885   0.03539069  0.034598023           21 
 4128000   0.58625794    -5.114676    1750.3099  0.035334098  0.034589094            8 
 4129000   0.58941638   -5.1333632    1755.1463   0.03542315   0.03458017           39 
 4130000   0.58497668   -5.1051556    1753.3807  0.035378948  0.034571237            9 
 4131000   0.59832387   -5.0891381    1754.1731   0.03538637  0.034562337           13 
 4132000   0.58860927   -5.1129785    1751.8492  0.035330938  0.034553472            7 
 4133000   0.57890632   -5.1114171    1757.6866  0.035440087  0.034544566           20 
 4134000   0.56587582   -5.0982479    1752.5901   0.03532878  0.034535708            8 
 4135000   0.58809511    -5.093035    1753.9704  0.035348053  0.034526888           10 
 4136000    0.5901838   -5.0888708    1759.8861  0.035458698  0.034518062           21 
 4137000   0.59959141   -5.0948429    1754.5023  0.035341679   0.03450922            9 
 4138000   0.59408986   -5.1248094    1758.6764  0.035417198  0.034500382           20 
 4139000   0.59095559   -5.0934722    1758.4199  0.035403477  0.034491518           11 
 4140000   0.60255099   -5.1041489    1753.5772  0.035297448  0.034482645            8 
 4141000   0.59051894   -5.1100223    1757.9918  0.035377762  0.034473789            8 
 4142000   0.60097234   -5.1191379    1761.4292   0.03543838  0.034464954            7 
 4143000   0.59932465   -5.0790653    1759.0354  0.035381677  0.034456151            6 
 4144000   0.60344011   -5.1178603    1758.0884  0.035354094  0.034447345            7 
 4145000   0.58374127   -5.1164044    1755.0602  0.035284684  0.034438488            7 
 4146000   0.58254546   -5.0868745    1756.3135  0.035301365  0.034429666           24 
 4147000    0.5779993    -5.099058    1754.9992  0.035266442  0.034420913            9 
 4148000    0.5869505   -5.1100426    1760.3837  0.035366115  0.034412133            5 
 4149000   0.58859632   -5.0922323    1755.4454  0.035258403  0.034403356            5 
 4150000   0.58276068   -5.1073879    1756.6575  0.035274247  0.034394557           10 
 4151000   0.58113744   -5.1053999    1762.7122    0.0353873  0.034385789            8 
 4152000    0.5962394   -5.1083778    1753.7095  0.035198088  0.034376964           20 
 4153000   0.57673449   -5.1023576    1755.4731     0.035225  0.034368118           21 
 4154000   0.58952221   -5.1319938    1756.0855  0.035228805   0.03435926            6 
 4155000   0.58241211   -5.1298081    1753.1323  0.035161097  0.034350398            9 
 4156000   0.59557066   -5.1258591    1756.8885  0.035227953    0.0343416           19 
 4157000   0.59783232   -5.0993767    1757.3399  0.035228528  0.034332785           10 
 4158000   0.58077125   -5.1215301    1758.2114  0.035237521  0.034323969           11 
 4159000   0.58232048   -5.1233699    1757.7818  0.035220441  0.034315182           19 
 4160000    0.5895666    -5.093961    1757.1966  0.035200253  0.034306319           16 
 4161000   0.58638152   -5.1151655    1750.8833  0.035065354  0.034297472           18 
 4162000   0.58693185   -5.1227667    1754.2878  0.035125097  0.034288625           13 
 4163000   0.59353337    -5.111721    1754.6824  0.035124557  0.034279789           26 
 4164000   0.59266318   -5.1114172    1753.4512  0.035091482  0.034270972           13 
 4165000   0.59817349   -5.1226521    1756.6068  0.035146195  0.034262121           11 
 4166000   0.58825373   -5.1151162    1755.3009  0.035111636  0.034253311           18 
 4167000   0.58286811   -5.1378054    1755.5916  0.035109024  0.034244444           15 
 4168000    0.6007248   -5.1247539    1755.6467  0.035101701  0.034235563           23 
 4169000   0.57458322   -5.1342041    1753.3164  0.035046701  0.034226724           40 
 4170000   0.58607941   -5.1010993    1757.0897  0.035113703  0.034217873           17 
 4171000   0.59422815   -5.1124201    1755.7819  0.035079156  0.034209056           20 
 4172000   0.57910643   -5.1346198    1752.6327  0.035007843  0.034200219           13 
 4173000    0.5814655   -5.1193214    1752.5209  0.034997223  0.034191315           18 
 4174000    0.5741629   -5.1382977    1752.6795  0.034992004  0.034182417           14 
 4175000   0.57176089   -5.1113966    1755.9789  0.035049479  0.034173531            9 
 4176000   0.59106108   -5.1310407    1757.4665  0.035070771  0.034164759           13 
 4177000   0.57967133   -5.1050392    1757.1112  0.035055288  0.034155922            5 
 4178000   0.57450184   -5.1252734    1753.7815  0.034980483  0.034147106            7 
 4179000   0.60053813   -5.1275777    1759.4226  0.035084602  0.034138324           10 
 4180000   0.59528256   -5.1116774    1753.7904  0.034963924   0.03412953           38 
 4181000   0.58055222   -5.1280873    1751.5555  0.034911017  0.034120713           15 
 4182000   0.57828662   -5.1173763    1757.4531  0.035020188  0.034111866           18 
 4183000   0.58523774   -5.1382058    1751.8781  0.034900752  0.034103064           30 
 4184000   0.57952378   -5.1193638    1758.2759  0.035019835  0.034094235           10 
 4185000    0.5913229   -5.1443323    1756.4232  0.034974576  0.034085389           15 
 4186000   0.59419993   -5.1384389    1750.0956  0.034840253  0.034076514            9 
 4187000   0.58905525   -5.1247828    1759.2984  0.035015094  0.034067679            8 
 4188000    0.5821418   -5.1223457     1754.811  0.034917442   0.03405884           18 
 4189000   0.58207825   -5.1465908     1752.884  0.034870772  0.034050002           10 
 4190000   0.57186658   -5.1224703    1758.4038  0.034972231  0.034041206           31 
 4191000   0.57691934   -5.1057382    1758.9228  0.034974206  0.034032433           13 
 4192000   0.58284418   -5.1239851    1753.7434  0.034862902  0.034023637           10 
 4193000    0.5842344   -5.1400741    1753.2202  0.034844189  0.034014783            8 
 4194000   0.58314411   -5.1423853     1754.628  0.034863853  0.034005901           11 
 4195000   0.57871397   -5.1204477    1751.7309  0.034797991  0.033997039           14 
 4196000     0.578702   -5.1296408    1754.1007  0.034836764   0.03398823           17 
 4197000    0.5829982   -5.1308391    1757.2869  0.034891726  0.033979437           23 
 4198000   0.57038342   -5.1238149    1756.6471  0.034870715  0.033970624           18 
 4199000   0.58751121   -5.1445377     1753.679  0.034803504  0.033961805           24 
 4200000   0.59157342   -5.1513101    1748.8245  0.034698898  0.033952986           39 
 4201000   0.57517053   -5.1232103    1752.1048  0.034755709  0.033944169           10 
 4202000   0.58558455   -5.1519575    1754.9782  0.034804422  0.033935352           10 
 4203000   0.58269945   -5.1505774    1754.2141  0.034780992  0.033926521           11 
 4204000   0.57652481   -5.1444975    1759.5813  0.034879109  0.033917699            7 
 4205000   0.57285601    -5.138234    1752.6114  0.034732687  0.033908876           12 
 4206000   0.57563392   -5.1323935    1754.9578  0.034770919  0.033900085            7 
 4207000   0.57529017   -5.1191155    1758.0579  0.034824062  0.033891308           10 
 4208000   0.56779395   -5.1230634    1757.9627    0.0348139  0.033882583           15 
 4209000   0.58066023   -5.1465366    1752.5102  0.034697677   0.03387377           15 
 4210000   0.57622509     -5.15904    1752.0252  0.034679834  0.033864972            9 
 4211000   0.57802523   -5.1407949    1754.6324  0.034723193  0.033856176            9 
 4212000   0.57912947   -5.1410971    1756.5755  0.034753393    0.0338474           13 
 4213000   0.58034197   -5.1196728    1756.7568  0.034748731  0.033838663           22 
 4214000   0.57205536   -5.1297659    1758.7957  0.034780804  0.033829939           10 
 4215000   0.56898508   -5.1479442    1752.5114  0.034648308    0.0338212            9 
 4216000   0.56303705   -5.1410696    1749.3771  0.034578136  0.033812422            5 
 4217000   0.57004698   -5.1369628     1752.481  0.034631275  0.033803631           32 
 4218000   0.57430331   -5.1611689    1754.3133  0.034659263  0.033794847            8 
 4219000   0.59722949    -5.144307    1758.0182  0.034724227  0.033786073           28 
 4220000   0.58915055   -5.1266279    1758.7648  0.034730743  0.033777313           24 
 4221000   0.56745574   -5.1445272    1759.2871  0.034732826  0.033768566           16 
 4222000   0.55981483    -5.153745    1754.3729  0.034627603  0.033759802           36 
 4223000   0.59221598   -5.1520298    1756.1398   0.03465427  0.033751036           18 
 4224000   0.57665787   -5.1479653    1755.5805  0.034635031   0.03374228            8 
 4225000   0.57223553   -5.1430899    1758.4764  0.034683953  0.033733527           14 
 4226000   0.58195908   -5.1486751    1757.6099   0.03465866   0.03372475           19 
 4227000   0.58817936   -5.1280754    1753.0834  0.034561222  0.033715984           13 
 4228000    0.5719564   -5.1404717    1759.9482  0.034688351   0.03370727           11 
 4229000   0.57199946   -5.1365817    1757.9524  0.034640821  0.033698576           16 
 4230000   0.57103167   -5.1484496    1758.4398  0.034642234   0.03368985           16 
 4231000    0.5819606    -5.148154    1755.8128  0.034582305  0.033681105           10 
 4232000   0.56940093   -5.1572295    1755.2819  0.034563679  0.033672378            9 
 4233000   0.57272125   -5.1423122     1757.399  0.034597193  0.033663691           30 
 4234000   0.58121086   -5.1445351    1755.7838  0.034557231  0.033654972           17 
 4235000   0.57474653   -5.1488822    1755.5027  0.034543541  0.033646225            9 
 4236000   0.57609016   -5.1497458    1759.2188  0.034608492  0.033637502           22 
 4237000   0.57822886   -5.1450779    1759.7631  0.034611028  0.033628742           13 
 4238000   0.57379948   -5.1556765    1753.9462   0.03448848  0.033620043           36 
 4239000   0.56984244   -5.1634955    1758.3997  0.034567895  0.033611333           11 
 4240000   0.56565865   -5.1513187    1756.8615  0.034529511   0.03360266           18 
 4241000   0.57890778   -5.1467175    1753.3559  0.034452487  0.033594033           14 
 4242000   0.57687784   -5.1303055    1760.2761  0.034580309  0.033585386           30 
 4243000   0.58140096   -5.1583958    1757.0286  0.034508378  0.033576731            7 
 4244000   0.57631409   -5.1496475    1759.5444  0.034549647  0.033568079           19 
 4245000   0.58667074   -5.1500086    1757.3145  0.034497732  0.033559409           11 
 4246000   0.57439635   -5.1420809     1753.256  0.034409955  0.033550764           14 
 4247000   0.56930661   -5.1515583    1755.9575  0.034454861  0.033542085           12 
 4248000   0.58634096   -5.1494572    1756.0653  0.034448865  0.033533397            8 
 4249000   0.56184848   -5.1453916    1757.4293  0.034467509  0.033524737           16 
 4250000   0.57824125   -5.1376524    1756.4571  0.034440335  0.033516076           12 
 4251000   0.57961873     -5.16801    1751.7386  0.034339736  0.033507373           15 
 4252000   0.57599516   -5.1501609    1757.1748  0.034438202  0.033498625            9 
 4253000   0.56882183   -5.1397871    1756.9181  0.034425075  0.033489924           11 
 4254000   0.55808356   -5.1363168    1757.0828  0.034420208  0.033481245           13 
 4255000   0.57035443    -5.135737    1759.8769   0.03446684  0.033472557           14 
 4256000    0.5630134   -5.1621519    1755.4093  0.034371267  0.033463889           18 
 4257000   0.57260891   -5.1349448    1756.4734  0.034384023  0.033455184           19 
 4258000   0.58524378   -5.1462752    1755.8165  0.034363092  0.033446499            9 
 4259000   0.55634582   -5.1552283    1754.8694  0.034336491  0.033437802           22 
 4260000   0.57095794    -5.169626    1753.6461  0.034304501  0.033429106           19 
 4261000   0.58549694   -5.1735697     1756.018  0.034342837  0.033420366           11 
 4262000   0.56809021   -5.1676597    1751.4827  0.034246103  0.033411577           23 
 4263000   0.56019316   -5.1600906    1756.9025  0.034344016  0.033402797           19 
 4264000   0.57214359    -5.161566    1757.6479   0.03435053  0.033394104           29 
 4265000   0.57836297   -5.1250012    1755.9114  0.034308546    0.0333854           30 
 4266000   0.56196979   -5.1651572    1756.3682  0.034309427  0.033376685           17 
 4267000   0.58132192   -5.1537561    1756.0804  0.034295765  0.033367987           10 
 4268000   0.56847013   -5.1707651    1755.2087  0.034270711  0.033359262           33 
 4269000   0.57152471    -5.169864    1752.6025  0.034211809  0.033350554           16 
 4270000   0.56589715     -5.17297    1754.7205   0.03424513  0.033341825           11 
 4271000   0.55913079   -5.1483276    1757.6316  0.034293913  0.033333146           22 
 4272000   0.57541417   -5.1533738    1754.5311  0.034225404  0.033324512           12 
 4273000   0.56206497   -5.1443439    1756.2135  0.034250204  0.033315842           11 
 4274000   0.57436264   -5.1510588    1759.1384   0.03429922   0.03330717           11 
 4275000   0.57493162   -5.1620777    1757.2325  0.034254045  0.033298477           11 
 4276000   0.57227977   -5.1510065    1756.1305  0.034224558  0.033289801           29 
 4277000   0.56972863   -5.1596618    1757.0363  0.034234205  0.033281135           19 
 4278000    0.5642104   -5.1569027    1754.3061  0.034173019  0.033272472           16 
 4279000   0.56798945   -5.1580535    1755.8995  0.034196064  0.033263793           25 
 4280000   0.55171058   -5.1611049     1759.954  0.034267018  0.033255123            8 
 4281000   0.55839866   -5.1479062    1753.8446  0.034140088  0.033246457           10 
 4282000   0.57108879   -5.1587775    1757.3314  0.034199973  0.033237786           11 
 4283000   0.57307916   -5.1676081    1755.4747  0.034155863  0.033229119            8 
 4284000   0.56070206   -5.1603225    1758.6111  0.034208899  0.033220447           11 
 4285000   0.56613425   -5.1518824    1759.6368  0.034220863  0.033211791           15 
 4286000   0.56617285   -5.1704354    1760.8241  0.034235964  0.033203167           25 
 4287000   0.56861035   -5.1635565     1755.869  0.034131659   0.03319454           13 
 4288000   0.57706494   -5.1689675    1758.0983  0.034167023  0.033185892           14 
 4289000   0.55142378   -5.1722196    1754.6197  0.034091469   0.03317723           15 
 4290000   0.56869249   -5.1696488    1760.1548  0.034191042   0.03316857           12 
 4291000   0.57740323   -5.1707988    1758.5404  0.034151722  0.033159934           13 
 4292000   0.57686954   -5.1658147    1757.1296  0.034116372  0.033151309           21 
 4293000   0.56029283   -5.1711103    1756.9734  0.034105392  0.033142681           19 
 4294000   0.56914468   -5.1333266    1760.2762  0.034161547  0.033134068           17 
 4295000   0.56535548   -5.1599212    1761.6403   0.03418006  0.033125472           11 
 4296000   0.56861991    -5.156921    1760.1361  0.034142925  0.033116894           19 
 4297000   0.56291848   -5.1594659    1756.1774  0.034058207  0.033108233            7 
 4298000   0.55799833   -5.1597213    1760.0037  0.034124471    0.0330996           20 
 4299000   0.55536387   -5.1612335    1754.5194  0.034010223  0.033090956           15 
 4300000   0.56277505   -5.1781438    1755.6013  0.034023281  0.033082308           39 
 4301000   0.55929407    -5.178358    1757.9687  0.034061239  0.033073672           19 
 4302000   0.55558545   -5.1780871    1752.6536  0.033950364  0.033065028           19 
 4303000   0.55646696    -5.181778    1758.9636  0.034064675  0.033056389           24 
 4304000   0.56553454   -5.1778289    1756.4272  0.034007652  0.033047745           14 
 4305000   0.56135433   -5.1657274    1756.1223  0.033993849  0.033039077           20 
 4306000   0.55700128   -5.1799936      1757.53  0.034013199  0.033030417           19 
 4307000   0.55279092   -5.1814439    1757.3511  0.034001841  0.033021771           16 
 4308000   0.56018771   -5.1669743    1761.9594   0.03408309   0.03301314           17 
 4309000   0.55644061   -5.1494336    1761.4076  0.034064507  0.033004555           22 
 4310000   0.56906915   -5.1860646    1752.3018  0.033880545  0.032995951           36 
 4311000   0.55929536   -5.1797535    1760.8666  0.034038246   0.03298734           16 
 4312000   0.56136619   -5.1682591    1761.4253  0.034041151   0.03297874            9 
 4313000   0.56716048   -5.1706159    1759.7268  0.034000441   0.03297016           14 
 4314000   0.57025517   -5.1636683    1762.3308  0.034042861  0.032961591           24 
 4315000   0.55805125   -5.1496663    1758.1379  0.033953995  0.032953016           12 
 4316000   0.56476762   -5.1535367    1757.9781  0.033943043   0.03294444           12 
 4317000   0.57173529   -5.1640999    1757.7295  0.033930383  0.032935884           24 
 4318000   0.55931068   -5.1638451    1757.6878  0.033921719  0.032927313            9 
 4319000   0.55823226   -5.1705729    1760.8775  0.033975408  0.032918782           35 
 4320000    0.5621155   -5.1686536    1756.2209  0.033877718  0.032910247           18 
 4321000   0.57215047   -5.1744957    1758.9236  0.033922001  0.032901683            8 
 4322000   0.57258896   -5.1685958    1759.7308  0.033929716  0.032893075           24 
 4323000   0.56170763   -5.1829481    1759.0815  0.033909352  0.032884491           24 
 4324000    0.5534597   -5.1681433    1754.0926  0.033805361  0.032875879           22 
 4325000   0.55288197   -5.1737694    1758.0512  0.033873819  0.032867283           30 
 4326000   0.56135796   -5.1802932    1756.6041  0.033838113  0.032858705           12 
 4327000   0.56996354   -5.1957561    1758.0472  0.033858084  0.032850097           12 
 4328000   0.57256138   -5.1752069    1758.0374  0.033850073  0.032841495           16 
 4329000   0.55871813   -5.1642957    1758.3708  0.033848672  0.032832921           29 
 4330000   0.55680035    -5.174222    1755.1999  0.033779829  0.032824351           21 
 4331000   0.55957939   -5.2009817    1756.8375  0.033803539  0.032815757           23 
 4332000   0.55428741   -5.1815363    1754.1485  0.033744008  0.032807173            7 
 4333000   0.56897304   -5.1697277     1758.779  0.033825274   0.03279859           10 
 4334000   0.54740066   -5.1791054    1756.8992  0.033781326  0.032789999           12 
 4335000   0.57037462   -5.1682275    1763.0995  0.033892725  0.032781446           13 
 4336000   0.56280389   -5.1755301    1759.3381  0.033812616  0.032772871           14 
 4337000   0.54832563   -5.1835296    1756.4479  0.033749288  0.032764298           17 
 4338000   0.56365753   -5.1685026    1756.4349  0.033741257  0.032755723           13 
 4339000   0.56816049   -5.1911493    1756.9054  0.033742518  0.032747144           30 
 4340000   0.55148902    -5.189414    1758.0287  0.033756312  0.032738589           20 
 4341000   0.56291106   -5.1710821    1755.1048  0.033692406  0.032730041           27 
 4342000   0.55695101   -5.1756407    1759.2894  0.033764958  0.032721491           25 
 4343000   0.55612979   -5.1774996     1759.083  0.033753223   0.03271292           19 
 4344000   0.54985466   -5.1936017     1758.057  0.033725771  0.032704383           18 
 4345000   0.55126716   -5.1754229    1754.8901   0.03365727  0.032695806           25 
 4346000   0.55107894   -5.2013092    1753.9084  0.033630702  0.032687203           33 
 4347000    0.5503359   -5.2038483    1755.1356  0.033646492  0.032678618           15 
 4348000   0.56174822   -5.1899602    1761.3375  0.033757618  0.032670015           20 
 4349000   0.56168193   -5.1921877    1755.5489  0.033638938  0.032661429           13 
 4350000   0.54244126   -5.1949734    1758.2604  0.033683149  0.032652852           17 
 4351000   0.55161585   -5.1821766    1756.6889   0.03364531  0.032644291           17 
 4352000   0.55022452   -5.1924835    1760.0336  0.033701623  0.032635751           15 
 4353000   0.56039168   -5.1926739    1759.2179  0.033678265  0.032627219           20 
 4354000   0.55456279   -5.1927617     1757.483  0.033637326  0.032618648           13 
 4355000   0.55059113   -5.1995188    1758.6948  0.033652791    0.0326101           22 
 4356000    0.5503255   -5.1953089    1755.0391  0.033575128  0.032601551           18 
 4357000   0.55922986   -5.1728112    1759.1977   0.03364696  0.032593016            8 
 4358000   0.55735017   -5.1878819    1756.9787  0.033596808  0.032584482           18 
 4359000   0.56268586   -5.1949654    1755.9225   0.03356891  0.032575947            8 
 4360000   0.54720842    -5.198727    1757.3315  0.033588141  0.032567385            7 
 4361000   0.56909475   -5.1922895    1754.3081  0.033522664  0.032558847           11 
 4362000   0.55735544   -5.1792419    1758.5882  0.033596749  0.032550294           11 
 4363000   0.54957082   -5.1916802    1759.8617  0.033613372  0.032541747           22 
 4364000   0.56294481   -5.1871377    1756.3998  0.033539562  0.032533195           10 
 4365000   0.55886382    -5.199899    1750.9356   0.03342756  0.032524621           38 
 4366000   0.56259319   -5.2034476     1760.029  0.033593468  0.032516051           12 
 4367000   0.54956314   -5.1804577    1758.0643  0.033548284  0.032507525           28 
 4368000   0.54247982   -5.1874479    1760.5896  0.033588783  0.032499004           23 
 4369000   0.54629148   -5.2065356    1760.3646  0.033576803  0.032490509           32 
 4370000   0.55974372   -5.1731524    1759.0129  0.033543343  0.032481994           17 
 4371000    0.5609141   -5.1795889    1757.8501  0.033513499   0.03247348           17 
 4372000   0.54718597   -5.1975884    1759.2253  0.033532047  0.032464955           21 
 4373000   0.54790141   -5.1971207    1756.7323  0.033476872  0.032456451           43 
 4374000    0.5441993   -5.1847701    1759.2354  0.033516907  0.032447942           23 
 4375000   0.54933048    -5.179846    1758.7929  0.033500817   0.03243943           16 
 4376000   0.54917738   -5.2083586    1760.2957   0.03352178  0.032430923           14 
 4377000    0.5482605   -5.1861358      1759.29  0.033494974   0.03242239           29 
 4378000   0.55559047   -5.2020928    1757.0167  0.033444052  0.032413871           13 
 4379000   0.55588266   -5.1948462    1757.6004  0.033447523  0.032405383           11 
 4380000   0.55047916   -5.1995799    1759.0034  0.033466579  0.032396907           19 
 4381000   0.54691311   -5.2016033    1758.6068  0.033451395  0.032388419           21 
 4382000   0.54335931   -5.1963807    1756.4707  0.033403139  0.032379925           19 
 4383000   0.55396299   -5.1941888    1760.3055  0.033468429  0.032371465           19 
 4384000   0.55476804   -5.2089439    1757.2402  0.033402529   0.03236298            9 
 4385000   0.54530192   -5.2012986    1756.7312  0.033385238  0.032354478           23 
 4386000    0.5575689   -5.2017552    1758.6236  0.033413581  0.032345999           13 
 4387000   0.54667803   -5.1812082    1762.0801  0.033471622  0.032337524           12 
 4388000   0.55077747    -5.189643     1761.126  0.033445876  0.032329071           14 
 4389000   0.54432937   -5.2001768    1756.2818  0.033346279  0.032320589           11 
 4390000   0.56247137   -5.2143014    1757.3809  0.033359546  0.032312089           31 
 4391000   0.55399999   -5.2054037    1758.2798  0.033369009    0.0323036           13 
 4392000   0.55595549   -5.2122396    1752.8279  0.033257966  0.032295096           33 
 4393000   0.56455378   -5.1957728    1758.8938  0.033365463  0.032286632           32 
 4394000   0.54880025   -5.1871148    1759.2831  0.033365253  0.032278171           20 
 4395000   0.54862646   -5.1853576    1758.1833  0.033336808  0.032269727            8 
 4396000   0.54656757   -5.2038965    1762.3543  0.033408294   0.03226126            7 
 4397000    0.5431093    -5.200915    1759.2639  0.033342126  0.032252828           14 
 4398000   0.54365661   -5.1906621    1758.9956   0.03332946  0.032244395            8 
 4399000   0.55009978   -5.2164962    1754.0208  0.033227642  0.032235926           15 
 4400000   0.54903059   -5.2003668    1760.4836  0.033342493  0.032227439            9 
 4401000   0.55448046   -5.2176603    1756.7214  0.033263679  0.032218935           17 
 4402000   0.54301464    -5.196032    1759.5373  0.033309429  0.032210475            9 
 4403000   0.54850723   -5.1965347    1758.7198  0.033286392  0.032202041           20 
 4404000   0.53831918   -5.2202411    1758.0074  0.033265353  0.032193586            7 
 4405000   0.54521333   -5.2100717    1756.4994  0.033229273  0.032185128           40 
 4406000   0.54948131    -5.212647    1755.5407    0.0332036  0.032176643           15 
 4407000   0.55438642   -5.1961531    1762.9168  0.033335542  0.032168195           13 
 4408000   0.55173582   -5.2173267    1756.9269   0.03321474  0.032159725           24 
 4409000    0.5466852   -5.2328823    1757.4468  0.033217033  0.032151262           15 
 4410000   0.53197468   -5.2118938    1758.3208  0.033226017  0.032142805           14 
 4411000   0.55935704   -5.1993416    1756.8334  0.033190384  0.032134351           26 
 4412000   0.54578675   -5.2208259    1756.3768  0.033174237  0.032125887           19 
 4413000   0.55551006   -5.2144705     1752.994   0.03310284  0.032117413           14 
 4414000   0.55778638   -5.2098276    1757.2302  0.033175317  0.032108942            9 
 4415000   0.54925623   -5.2115954    1759.7039  0.033214494  0.032100498            9 
 4416000   0.54708353    -5.217503    1755.2183  0.033122325  0.032092072           17 
 4417000   0.54319502   -5.2188439    1757.1112  0.033150539  0.032083637           18 
 4418000   0.54688991   -5.1950648     1758.826  0.033175382  0.032075209            9 
 4419000   0.54569404   -5.1935244    1759.4108  0.033178901  0.032066803           24 
 4420000   0.54344863   -5.1984398     1763.754  0.033253281  0.032058424           11 
 4421000    0.5401528   -5.2086144    1763.9017  0.033248544  0.032050051           18 
 4422000   0.53886403   -5.1856634      1760.82   0.03318295  0.032041665           17 
 4423000   0.53439233   -5.2124949    1755.0082  0.033065948   0.03203328           19 
 4424000   0.53363546   -5.1926707    1758.9117  0.033132001  0.032024872           29 
 4425000   0.55303908   -5.2119117    1757.8394   0.03310432  0.032016499           34 
 4426000   0.52799562   -5.2240637    1758.3324  0.033106122  0.032008062           37 
 4427000   0.53494372    -5.195512    1759.6108   0.03312271  0.031999626           43 
 4428000   0.54569784   -5.2126038    1757.9533  0.033084035  0.031991187           32 
 4429000   0.54711428   -5.2151037    1760.0666  0.033116328  0.031982759           49 
 4430000   0.55328556    -5.199378    1756.0487  0.033033272  0.031974328           58 
 4431000   0.53282241   -5.2043473    1760.0333  0.033100754  0.031965895           14 
 4432000    0.5503796   -5.2152718    1759.4659  0.033082617  0.031957495           18 
 4433000   0.54311862   -5.2173279    1755.7302  0.033004929  0.031949078           25 
 4434000   0.55145542   -5.2130802    1760.4085  0.033085411  0.031940641           46 
 4435000   0.54334097   -5.2220663    1757.2832  0.033019226  0.031932229           43 
 4436000   0.52557415   -5.2373396     1756.297  0.032993256  0.031923806           25 
 4437000   0.53328959   -5.2500077     1754.919  0.032959938  0.031915365           24 
 4438000   0.54382987   -5.2310199    1755.7221  0.032967592  0.031906923           16 
 4439000   0.53933478   -5.2228776     1759.298  0.033027296  0.031898496           33 
 4440000   0.55541447   -5.2084378    1757.6391  0.032988723  0.031890083           27 
 4441000   0.54340571   -5.2284212    1760.0315  0.033026185  0.031881691           25 
 4442000   0.54052961   -5.2427433    1757.4478  0.032970281  0.031873291           31 
 4443000   0.53006735   -5.2286628     1756.347  0.032942213  0.031864879           44 
 4444000   0.54420263   -5.2227846    1755.7489  0.032923585  0.031856441           17 
 4445000     0.552362   -5.2225751    1749.6599  0.032802023  0.031848022           15 
 4446000   0.53203368   -5.2165598    1756.3834  0.032920666  0.031839607           56 
 4447000     0.540886   -5.2155403     1757.241  0.032929334  0.031831184           52 
 4448000   0.54836462   -5.2325894     1758.088  0.032937799  0.031822757           30 
 4449000   0.54339718   -5.2223775    1758.0953  0.032930534  0.031814354           12 
 4450000   0.53482166    -5.223253    1759.2252  0.032944292  0.031805983           43 
 4451000   0.54138999   -5.2461353    1757.1179  0.032897437  0.031797577           38 
 4452000    0.5466009   -5.2293902    1759.5981  0.032936472  0.031789166           19 
 4453000   0.54110702    -5.230138    1757.2555  0.032885236  0.031780786           40 
 4454000   0.53882112   -5.2245908    1756.4018  0.032861881  0.031772387           25 
 4455000   0.54575622   -5.2085021    1759.2187  0.032907197  0.031764004           19 
 4456000   0.52943164   -5.2400861    1758.8897  0.032893659   0.03175561          123 
 4457000   0.52861017   -5.2398721    1751.7126  0.032752086  0.031747219           53 
 4458000   0.53072006   -5.2343262    1755.5606  0.032816671  0.031738808           41 
 4459000   0.54162582   -5.2380462    1756.3223  0.032823546  0.031730373           34 
 4460000   0.54368842   -5.2436533    1754.1818  0.032776192  0.031721932           61 
 4461000   0.53038583   -5.2291099    1759.6376   0.03287076  0.031713573           37 
 4462000   0.53722408   -5.2208332    1758.5017  0.032842181  0.031705213           13 
 4463000   0.54412722   -5.2134814    1759.8131  0.032859308  0.031696852           18 
 4464000   0.53713212   -5.2133681    1761.7591  0.032888276  0.031688512            6 
 4465000   0.53937471   -5.2152933    1759.6363  0.032841289  0.031680166           10 
 4466000   0.53678732   -5.2056049    1759.1621  0.032825087  0.031671806           17 
 4467000   0.53169331    -5.222755    1755.8829  0.032756564  0.031663467            8 
 4468000   0.53361524   -5.2440976    1756.1641  0.032754478  0.031655102           47 
 4469000   0.52477394   -5.2549989    1755.0766  0.032726869  0.031646701           12 
 4470000   0.53091214   -5.2273561    1757.3761  0.032762418  0.031638333           26 
 4471000   0.54148964   -5.2340621    1756.9953  0.032747993  0.031629963           13 
 4472000   0.53509826   -5.2282771    1756.5384  0.032732155   0.03162158           22 
 4473000   0.54298454   -5.2248934    1756.6782  0.032727442  0.031613229           19 
 4474000   0.54594058   -5.2321849    1755.2407  0.032693353  0.031604883           14 
 4475000   0.53569466    -5.228296    1758.9359  0.032754858  0.031596541           22 
 4476000   0.54228093   -5.2329633    1757.9713  0.032729583  0.031588172           17 
 4477000    0.5321397    -5.240438    1755.6126  0.032678367  0.031579806           14 
 4478000   0.53699462   -5.2261601    1759.8459   0.03274985  0.031571433           12 
 4479000   0.52825248   -5.2254353    1757.7886  0.032704261  0.031563108            6 
 4480000   0.53127047   -5.2006084    1758.0876  0.032702522  0.031554791           19 
 4481000    0.5245981   -5.2142447    1763.2136  0.032790553  0.031546503           14 
 4482000   0.52521024   -5.2319093    1758.1793  0.032689634  0.031538214           30 
 4483000   0.53840018   -5.2149771    1764.8099  0.032805598  0.031529937           17 
 4484000   0.53259711   -5.2195125    1759.0676  0.032691563  0.031521645           19 
 4485000   0.53001884   -5.2211164    1760.8752   0.03271786  0.031513339           30 
 4486000   0.53227481   -5.2371123     1757.345  0.032644987     0.031505           28 
 4487000   0.53368891   -5.2307913    1757.4939  0.032640478  0.031496663           22 
 4488000   0.52758697   -5.2102615    1758.6491  0.032654656  0.031488355           12 
 4489000   0.53654274   -5.2485493    1754.1532  0.032563919  0.031480034           30 
 4490000   0.53476308    -5.248362    1758.8355   0.03264357  0.031471669           33 
 4491000   0.52835051   -5.2338289    1753.9153  0.032545002  0.031463315           21 
 4492000    0.5408119   -5.2240479    1757.8061  0.032609938  0.031454979           27 
 4493000   0.53428206   -5.2478741    1756.3265  0.032575237  0.031446621           26 
 4494000    0.5417764   -5.2312619    1761.1697  0.032657797  0.031438287           19 
 4495000   0.52857417   -5.2203657    1759.5981  0.032621395  0.031429978           15 
 4496000   0.52771604   -5.2458399    1753.2296  0.032496101  0.031421635           27 
 4497000   0.52726154   -5.2528623    1757.4043  0.032566234   0.03141329           34 
 4498000   0.52576813   -5.2194213    1759.5942  0.032599566  0.031404996           20 
 4499000   0.53970078   -5.2512668    1753.2559  0.032474918  0.031396704           30 
 4500000   0.53298813   -5.2287947    1759.2128  0.032578015  0.031388385           19 
 4501000   0.53535298   -5.2397366    1761.2929  0.032609288  0.031380069           19 
 4502000   0.54360721    -5.240227    1756.5041  0.032513403  0.031371761           15 
 4503000   0.52620406   -5.2392954    1758.3964  0.032541202   0.03136346           12 
 4504000    0.5377373   -5.2504394    1756.2166  0.032493646  0.031355147           14 
 4505000   0.53923592   -5.2350467    1757.6194  0.032512382  0.031346825            8 
 4506000    0.5231888   -5.2380286    1757.3828  0.032500792  0.031338516           13 
 4507000   0.52878629   -5.2489777    1758.7522    0.0325189  0.031330219            7 
 4508000   0.52096132    -5.244968    1757.1803  0.032482629  0.031321912           20 
 4509000   0.53962431   -5.2474002     1755.563  0.032445534  0.031313628           23 
 4510000   0.53453109   -5.2169825    1757.5446  0.032474956  0.031305339           31 
 4511000   0.52630058   -5.2301302    1757.8887  0.032474114  0.031297065           22 
 4512000   0.52982317   -5.2492676    1761.3953   0.03253168  0.031288776           19 
 4513000   0.52222861   -5.2549523    1758.3643  0.032468505  0.031280492            6 
 4514000   0.53828639   -5.2486849    1759.8475  0.032488693  0.031272223           17 
 4515000   0.53737213   -5.2373487    1760.6819  0.032496897  0.031263963           12 
 4516000   0.51446374    -5.245778    1761.6222  0.032507052  0.031255682           11 
 4517000   0.54362396   -5.2425282    1759.0637  0.032452655  0.031247421           14 
 4518000   0.53611054   -5.2229116    1756.3488  0.032395396  0.031239169           14 
 4519000    0.5362779   -5.2343082    1760.2977  0.032461047  0.031230921           20 
 4520000   0.53636917   -5.2444334    1757.9771  0.032411082   0.03122266           23 
 4521000   0.52600014   -5.2449373    1757.3553  0.032392452  0.031214414           29 
 4522000   0.53316004   -5.2478744    1754.4498  0.032331745  0.031206133           39 
 4523000    0.5203897   -5.2487066    1754.7525  0.032330174  0.031197873           25 
 4524000   0.53513769   -5.2433625    1756.7884  0.032360529  0.031189606           24 
 4525000   0.52412175   -5.2689256    1756.8511  0.032354532  0.031181327           35 
 4526000   0.52178811   -5.2502699    1755.2532  0.032317963  0.031173048           54 
 4527000   0.52704335   -5.2641692    1759.2926  0.032385182  0.031164766           35 
 4528000   0.53770119   -5.2436858    1759.7467  0.032386386  0.031156494           17 
 4529000   0.54741329   -5.2644173    1763.6625  0.032451287  0.031148224           30 
 4530000   0.52821784     -5.24118    1757.0413   0.03232232   0.03113999           21 
 4531000   0.52017073   -5.2234486    1761.4657  0.032396558  0.031131769           17 
 4532000   0.51945565   -5.2558442    1759.4269  0.032351922  0.031123512           34 
 4533000   0.52003859   -5.2469827    1758.0726  0.032319887  0.031115277           29 
 4534000   0.53356888   -5.2459297    1757.7841  0.032307457  0.031106992           21 
 4535000   0.52201156   -5.2543175     1758.573  0.032314829   0.03109874           41 
 4536000   0.52256695   -5.2458066    1759.2433   0.03232002  0.031090473           17 
 4537000   0.52237959   -5.2454883    1759.7841   0.03232283  0.031082213           16 
 4538000   0.52219698   -5.2600252    1758.9217  0.032299869  0.031073966           16 
 4539000   0.51977267   -5.2687587    1760.3314  0.032318635  0.031065727           33 
 4540000   0.52354008   -5.2514977     1754.959  0.032212904  0.031057476           19 
 4541000   0.52475283   -5.2539542    1757.8717  0.032259262  0.031049255           22 
 4542000   0.52199478   -5.2438318     1758.951  0.032271962  0.031041018           15 
 4543000   0.51641602   -5.2454082     1755.177   0.03219563  0.031032806           24 
 4544000   0.52318264   -5.2501659    1758.9307  0.032257385  0.031024587           17 
 4545000   0.52938038   -5.2552474    1755.3207  0.032184099   0.03101635           30 
 4546000   0.52191494   -5.2462049    1756.6705  0.032201762  0.031008084           15 
 4547000   0.52714688   -5.2585639    1755.7489   0.03217779  0.030999849           25 
 4548000   0.51885476   -5.2529775    1755.1577  0.032159881  0.030991628           18 
 4549000    0.5260208   -5.2402299    1758.8082  0.032219686  0.030983435           47 
 4550000   0.53058695   -5.2464525    1761.0975  0.032254533  0.030975273           27 
 4551000   0.51954142   -5.2410532    1761.5351  0.032255458  0.030967092           27 
 4552000   0.52659642   -5.2408331    1759.3874  0.032209055  0.030958932           30 
 4553000    0.5337585   -5.2295545    1759.2574  0.032199601  0.030950763           13 
 4554000   0.52901437   -5.2527504    1759.8174  0.032202778  0.030942603           11 
 4555000   0.51935387   -5.2473375    1760.1142  0.032201138  0.030934436            8 
 4556000   0.51604292   -5.2525472     1758.699  0.032168185  0.030926265           18 
 4557000   0.52350214   -5.2455639     1758.425  0.032156115  0.030918064            9 
 4558000   0.53057499   -5.2748526      1754.91  0.032084795  0.030909881           19 
 4559000   0.52801796   -5.2686374    1751.6185  0.032017594  0.030901642           17 
 4560000   0.51689758    -5.257115     1760.886  0.032179934  0.030893389           33 
 4561000   0.51593944   -5.2674483    1757.6845  0.032114385  0.030885148           41 
 4562000   0.53916185   -5.2628743    1761.9097  0.032184526  0.030876918           30 
 4563000   0.53272976   -5.2701738    1757.1184   0.03208997  0.030868682          186 
 4564000   0.52324253   -5.2733727    1759.0095  0.032117468  0.030860421          107 
 4565000   0.51102275   -5.2602675    1758.5938  0.032102845  0.030852184           40 
 4566000   0.51656861   -5.2659978    1752.8436  0.031990868  0.030843977           99 
 4567000   0.52534862   -5.2607956    1755.5346  0.032032964  0.030835771           39 
 4568000   0.52226487   -5.2729567    1757.8587  0.032068351  0.030827542           50 
 4569000   0.51123847   -5.2580021    1756.1922  0.032030937  0.030819337           39 
 4570000   0.52075543   -5.2683998     1758.283  0.032062053  0.030811144           35 
 4571000   0.53507688   -5.2731503    1756.3648  0.032020069   0.03080295           27 
 4572000   0.52130284   -5.2700535    1756.1496  0.032009142  0.030794757           40 
 4573000   0.53558269   -5.2813223    1761.5864  0.032101217  0.030786561           28 
 4574000   0.53024187   -5.2659575    1758.6059  0.032039897  0.030778359           48 
 4575000   0.50728241   -5.2769599    1754.7381  0.031962443  0.030770175           94 
 4576000   0.51638903   -5.2856737    1756.3855  0.031985459  0.030761973          104 
 4577000   0.52566602   -5.2870091    1756.9146  0.031988104  0.030753779           35 
 4578000   0.52355448   -5.2891198    1756.0739  0.031965814  0.030745587          109 
 4579000   0.50615324     -5.26249    1758.1502  0.031996618  0.030737386          104 
 4580000   0.52770037   -5.2792253    1751.6781  0.031871873   0.03072919          109 
 4581000    0.5162365   -5.2689402    1759.1267  0.032000412  0.030721012           98 
 4582000   0.52757729   -5.2701532    1756.5503  0.031946572  0.030712827           49 
 4583000   0.52509411   -5.2805867    1756.0098  0.031929774  0.030704618           79 
 4584000   0.51636059   -5.2974487    1758.8806  0.031974997  0.030696424           49 
 4585000   0.52099993     -5.28091    1758.0214  0.031952406  0.030688259           32 
 4586000   0.50801818   -5.3090509     1756.419  0.031916321  0.030680082           53 
 4587000   0.51116369   -5.2821604     1757.743  0.031933417  0.030671883           77 
 4588000   0.51431957   -5.2970796    1756.8273  0.031909824  0.030663698           88 
 4589000   0.50487899   -5.2813087     1756.883  0.031903882  0.030655491           70 
 4590000    0.5151281   -5.2929184     1757.185  0.031902414  0.030647318           24 
 4591000   0.51439046    -5.288482    1754.2311  0.031841848  0.030639135          143 
 4592000   0.52013253   -5.3020988    1755.6892  0.031861374  0.030630947          126 
 4593000   0.51507842    -5.279271    1755.0639  0.031843092  0.030622772          108 
 4594000   0.53095391   -5.2788481    1755.1692  0.031838071  0.030614598           94 
 4595000   0.51342831   -5.2681209    1760.2531  0.031923343  0.030606446           38 
 4596000    0.5026136   -5.2533262    1760.8264  0.031926792  0.030598304           64 
 4597000   0.51365526   -5.2675252    1761.4007  0.031930258  0.030590164           49 
 4598000   0.50639661   -5.2442234    1756.5033  0.031834554  0.030582047           47 
 4599000   0.51604778   -5.2719311    1758.3211   0.03186057   0.03057392           20 
 4600000   0.50653651   -5.2758246    1759.5823   0.03187649  0.030565806           24 
 4601000   0.52364673   -5.2646009    1762.3166  0.031919086  0.030557715           24 
 4602000   0.51912202   -5.3011592    1758.2582  0.031838661  0.030549601           28 
 4603000   0.52087598    -5.284271    1758.8251  0.031842007  0.030541464           25 
 4604000   0.51494658   -5.2830396    1757.5685  0.031812346   0.03053333           39 
 4605000   0.50861402   -5.2855348    1755.2356  0.031763221  0.030525224           20 
 4606000   0.50749932   -5.2882657    1758.1476  0.031809009   0.03051713           24 
 4607000   0.51185904   -5.2779807    1763.7796  0.031903979   0.03050904           49 
 4608000    0.5136087   -5.2701119    1758.7323  0.031805778  0.030500954           21 
 4609000   0.51473088    -5.289283    1758.3126  0.031791288  0.030492867           20 
 4610000   0.51124999   -5.2682063    1756.5505  0.031752541  0.030484772           25 
 4611000   0.51221875   -5.2807092    1758.4912  0.031780727  0.030476686           10 
 4612000   0.51579036   -5.2706544    1759.4247  0.031790704  0.030468593           30 
 4613000   0.50893679    -5.279065    1759.5473  0.031786027  0.030460513           10 
 4614000   0.51574076   -5.2648911    1759.7103  0.031782083  0.030452428           31 
 4615000   0.52863284   -5.2727281    1757.1629  0.031729197  0.030444364           77 
 4616000   0.50876547   -5.2865521    1760.2071   0.03177728   0.03043628           43 
 4617000   0.51647747   -5.2802847    1759.5544  0.031758617   0.03042818           52 
 4618000   0.50383248    -5.282361    1757.7867   0.03171984   0.03042009           37 
 4619000   0.52148921   -5.2848606    1757.8489  0.031714096  0.030412031           39 
 4620000   0.51461611   -5.2792874    1754.0314  0.031638374  0.030403935           68 
 4621000   0.50871606   -5.2821531    1756.5676  0.031677263  0.030395861           90 
 4622000   0.51857202   -5.2833896    1755.4717   0.03165065  0.030387776           78 
 4623000   0.51309294    -5.290255    1761.7383  0.031756765  0.030379683           92 
 4624000   0.51641659   -5.2736385    1758.5995   0.03169333  0.030371605           79 
 4625000   0.51343677   -5.2757569    1756.3275   0.03164554  0.030363526           85 
 4626000   0.50727982   -5.2829341    1759.0098  0.031687019   0.03035544           66 
 4627000    0.5034121    -5.285523    1757.7153  0.031656856  0.030347347           48 
 4628000   0.50321713   -5.2829441    1756.4517  0.031627264  0.030339265           16 
 4629000   0.51370215    -5.272082    1756.7098  0.031625077  0.030331186           15 
 4630000   0.51286702   -5.2832274    1758.2694  0.031646317  0.030323101           12 
 4631000   0.51187215   -5.2835811     1760.325  0.031676474  0.030315056           20 
 4632000   0.51690937   -5.2832847    1760.1841  0.031667101  0.030306952           55 
 4633000   0.50662803   -5.2867975    1753.6786  0.031543252  0.030298882           22 
 4634000   0.50934787   -5.2894603    1754.3934  0.031549298  0.030290776           20 
 4635000   0.51617765   -5.2942134    1755.7072  0.031566113  0.030282678           36 
 4636000   0.52837116   -5.2931071     1754.899  0.031544776   0.03027458           27 
 4637000   0.50260625   -5.2958595    1757.5098  0.031584894  0.030266491           24 
 4638000   0.51018393   -5.3037377    1757.2875  0.031574089  0.030258383           23 
 4639000   0.50274329   -5.2892839    1758.2749  0.031585019  0.030250306           29 
 4640000   0.50253614   -5.3041813    1756.9367  0.031554178  0.030242226           27 
 4641000   0.50317001   -5.3120226    1753.7691  0.031490503  0.030234144           50 
 4642000   0.51187576   -5.3065718    1756.5663  0.031533934  0.030226041           44 
 4643000   0.50127041   -5.2936534    1756.1352  0.031519406  0.030217949           34 
 4644000   0.50932058   -5.2944165    1751.8936  0.031436506  0.030209853           29 
 4645000   0.50886935   -5.2757368    1757.7773  0.031535294  0.030201746           30 
 4646000   0.50818287   -5.3033772     1758.359   0.03153894  0.030193635           28 
 4647000   0.51375002   -5.3006215    1757.1961    0.0315113   0.03018555           23 
 4648000   0.50328629   -5.2824628    1754.2524  0.031451743   0.03017745           68 
 4649000   0.50739494   -5.3077435    1756.0262  0.031476772  0.030169376           88 
 4650000   0.50274341   -5.3017511    1756.5454  0.031479309  0.030161292           30 
 4651000   0.50878541   -5.2958445    1753.7588  0.031422611  0.030153214           39 
 4652000   0.49748792   -5.2832778    1758.5714  0.031502067  0.030145161           30 
 4653000   0.50347607   -5.2963089    1753.6577  0.031407294  0.030137111           18 
 4654000   0.50393677   -5.2925018    1759.1448  0.031498797  0.030129054           15 
 4655000   0.50832936   -5.2978761    1755.8803  0.031433589  0.030121005           34 
 4656000   0.50858037   -5.2907166    1756.6758  0.031441076  0.030112953           25 
 4657000   0.51041638   -5.2971788    1757.9804  0.031457669  0.030104915           26 
 4658000   0.51485151    -5.307651    1761.7305  0.031518007  0.030096874           19 
 4659000   0.50417316   -5.3129057     1751.494  0.031328146  0.030088816           39 
 4660000   0.50941768   -5.3018808    1758.4267  0.031445399  0.030080771           52 
 4661000   0.50519238   -5.2939122    1756.6146  0.031406254  0.030072738           75 
 4662000   0.51272192   -5.2855095    1758.6304  0.031435549  0.030064715           21 
 4663000    0.5108518   -5.3025049    1760.1347  0.031455692  0.030056724           31 
 4664000   0.51057374   -5.2928877    1761.3756  0.031471119  0.030048719           15 
 4665000   0.50811756   -5.2966242     1755.231   0.03135461  0.030040705           23 
 4666000   0.50564243   -5.2986526     1760.677  0.031445152  0.030032697           21 
 4667000   0.49829717   -5.3070548    1758.0687  0.031391842  0.030024678           17 
 4668000   0.50071189   -5.3031008    1755.7499  0.031343722  0.030016647           39 
 4669000   0.50582994   -5.2977801    1756.3096  0.031346998  0.030008619           23 
 4670000   0.50334704   -5.3243258    1755.4855  0.031325581  0.030000589           35 
 4671000   0.51227593   -5.3129073    1756.6649  0.031339915  0.029992555          113 
 4672000   0.51107815   -5.3085585    1758.3222  0.031362767  0.029984541           52 
 4673000   0.50480073    -5.300774    1753.9651  0.031278356  0.029976528          113 
 4674000    0.5108433   -5.3041154    1756.7711  0.031321693  0.029968515           58 
 4675000    0.5150874   -5.2847747    1754.7286  0.031278584  0.029960514           48 
 4676000   0.49942615   -5.3087197    1753.2276  0.031245145    0.0299525           41 
 4677000   0.49275786   -5.2886486    1757.6646  0.031317522  0.029944497           26 
 4678000   0.49974064   -5.2905441    1754.6349  0.031256857  0.029936494           30 
 4679000   0.49100933   -5.2967454    1756.0681  0.031275702  0.029928485           51 
 4680000   0.50823415   -5.2990203    1757.0892  0.031287201  0.029920474           14 
 4681000   0.50326061      -5.2833     1760.048  0.031333192  0.029912488           31 
 4682000   0.50316701   -5.3075268    1755.3812  0.031243436  0.029904513           34 
 4683000   0.50422548   -5.2976522    1754.5414  0.031221821  0.029896521           30 
 4684000    0.5000877   -5.2956847     1757.601  0.031269589  0.029888536           12 
 4685000   0.49800222   -5.3117534    1756.7344  0.031247499  0.029880528           20 
 4686000   0.49249008   -5.3127751    1755.6494  0.031221535  0.029872549           21 
 4687000   0.50536174   -5.3107651    1756.4514  0.031229133  0.029864565           28 
 4688000   0.48952103   -5.2909503    1757.5056  0.031241212  0.029856585           39 
 4689000   0.50348738   -5.2968067     1758.439  0.031251138  0.029848596           33 
 4690000   0.50099722   -5.3040655    1753.0131  0.031148066   0.02984061           20 
 4691000   0.50373224   -5.3120117    1755.5536  0.031186556  0.029832644           54 
 4692000   0.49762868   -5.3027888    1757.9986  0.031223334  0.029824675           41 
 4693000   0.50586748    -5.302012     1758.794  0.031230805   0.02981671           72 
 4694000   0.50514391   -5.3250293    1756.2418  0.031178842  0.029808727           48 
 4695000   0.49890745   -5.3145324    1755.8187  0.031164691  0.029800738           54 
 4696000   0.50295868   -5.3219556    1751.4614  0.031080732  0.029792747          113 
 4697000   0.49326212   -5.3181418    1756.0075  0.031154772  0.029784757           58 
 4698000    0.4998256   -5.3066172    1754.7126  0.031125171  0.029776773           96 
 4699000   0.50178622   -5.3232335    1750.3586  0.031041331  0.029768767           53 
 4700000   0.50130923   -5.3248143    1754.5308  0.031108702  0.029760764           54 
 4701000   0.50598643    -5.326049     1756.397  0.031135166  0.029752771           81 
 4702000   0.51507078   -5.3237741    1756.3428  0.031127584  0.029744786          100 
 4703000   0.50040799   -5.3226436    1760.1574  0.031188557  0.029736801          103 
 4704000   0.48855857   -5.3341364    1755.0373  0.031091221  0.029728799           33 
 4705000   0.49989573   -5.3238844    1752.2072  0.031034488  0.029720835           72 
 4706000   0.49388235   -5.3069897    1759.1027  0.031149998  0.029712873           50 
 4707000   0.49438733   -5.3245519    1757.5939  0.031116668   0.02970492           64 
 4708000   0.49678926   -5.3162993    1756.4652  0.031090081  0.029696944           51 
 4709000    0.5008608   -5.3369589    1754.4879  0.031048486  0.029689004          134 
 4710000   0.49884339   -5.3010991    1755.4081  0.031058176  0.029681041          132 
 4711000   0.49176024   -5.3312168    1751.6475  0.030985062  0.029673081          142 
 4712000   0.50624044   -5.3300697    1754.2249  0.031024068  0.029665105          182 
 4713000   0.49847273   -5.3287188    1753.8495  0.031010848  0.029657119           94 
 4714000    0.4726078   -5.3224123    1752.9829  0.030988949  0.029649128          149 
 4715000   0.49250344   -5.3153929    1751.8527  0.030962402  0.029641145          119 
 4716000   0.49788851   -5.3215289    1757.9637   0.03106382  0.029633171           68 
 4717000    0.4975722   -5.3177971    1754.9084  0.031003257  0.029625216          110 
 4718000   0.49920242   -5.3289608    1754.4164  0.030987997  0.029617263           82 
 4719000   0.51022979   -5.3323088     1755.793  0.031005739  0.029609327          150 
 4720000   0.48956439   -5.3122848    1754.3952  0.030974492  0.029601361           36 
 4721000   0.49136422   -5.3189334    1756.2053  0.030999881  0.029593414           75 
 4722000   0.50004746   -5.3356907    1755.7634  0.030985518  0.029585473           96 
 4723000    0.4912768   -5.3308035    1756.3382  0.030989099  0.029577527          220 
 4724000   0.48122355    -5.314795    1754.8703  0.030956644  0.029569564          123 
 4725000   0.49222577   -5.3378834    1751.9802  0.030899121  0.029561597          330 
 4726000   0.49473361   -5.3204657    1754.6694  0.030940002  0.029553636          147 
 4727000   0.50022696   -5.3369178    1753.7807  0.030917791  0.029545668          188 
 4728000   0.49498482   -5.3287243    1752.0985    0.0308816   0.02953769          193 
 4729000   0.47896078   -5.3403698    1755.2941  0.030931383  0.029529722          218 
 4730000    0.4934849   -5.3329965    1753.9213  0.030900657  0.029521757          205 
 4731000   0.50234138    -5.337751    1753.3214  0.030883558  0.029513784          212 
 4732000    0.4801616   -5.3331859    1756.8795  0.030939693  0.029505839          234 
 4733000   0.48822882   -5.3262799     1752.308  0.030852666  0.029497892          207 
 4734000   0.49707925   -5.3269017    1756.2863   0.03091618  0.029489928          185 
 4735000   0.48825676   -5.3386516    1752.5063  0.030843123  0.029481964          231 
 4736000   0.49305738   -5.3279176    1756.8528  0.030913092  0.029474001          228 
 4737000   0.49211076   -5.3366695    1753.1529  0.030841476  0.029466034          180 
 4738000   0.49646429   -5.3380753    1752.1118  0.030816656  0.029458052          196 
 4739000   0.49396222   -5.3322275    1753.8446  0.030840624  0.029450094          212 
 4740000   0.49727135   -5.3153788    1757.3612  0.030895943   0.02944217          212 
 4741000   0.51191902   -5.3099991    1754.7084  0.030842796  0.029434272          199 
 4742000   0.48371081   -5.3411344    1750.7707  0.030767094  0.029426336          200 
 4743000   0.48523619   -5.3424183     1754.625  0.030828327  0.029418395          157 
 4744000   0.49521276   -5.3247469    1750.6789  0.030752509  0.029410443           56 
 4745000    0.4874598   -5.3472411     1752.582  0.030779451   0.02940247          181 
 4746000   0.48161739   -5.3512471    1748.4684  0.030700737  0.029394488          142 
 4747000   0.49477275   -5.3211421    1752.0065  0.030756381  0.029386519          148 
 4748000   0.49244869    -5.322473    1754.9944  0.030802345  0.029378584          179 
 4749000   0.50522023   -5.3328858    1754.9199  0.030794552  0.029370631          167 
 4750000   0.49359679   -5.3393079    1752.5902  0.030747197  0.029362652          191 
 4751000   0.49051466   -5.3418471     1747.749   0.03065581  0.029354669          253 
 4752000   0.48828683    -5.340615    1754.4652  0.030767136    0.0293467          150 
 4753000   0.50088202   -5.3511392    1750.8564  0.030697392  0.029338764          129 
 4754000   0.47960801   -5.3438886    1754.2914  0.030751146  0.029330836          154 
 4755000   0.48801281   -5.3341336    1755.4582  0.030765128  0.029322894          167 
 4756000    0.4870149   -5.3594549    1753.4964  0.030724285  0.029314962          224 
 4757000   0.48699786   -5.3427328    1752.8333   0.03070621  0.029307009          172 
 4758000   0.49048097   -5.3422067    1751.4548  0.030675613  0.029299048          168 
 4759000   0.47775673   -5.3231742    1752.0884  0.030680261  0.029291097          155 
 4760000   0.48537154   -5.3470208    1752.4942   0.03068092  0.029283153           63 
 4761000   0.51035136   -5.3408632    1754.3328  0.030706658  0.029275225          128 
 4762000   0.48681995   -5.3453122    1751.4135  0.030649123  0.029267284           81 
 4763000   0.48609553   -5.3533733    1751.6533  0.030646884  0.029259351           98 
 4764000   0.47992265   -5.3410282    1751.0576  0.030630031  0.029251411           83 
 4765000   0.48764984   -5.3509698    1749.7278  0.030600347  0.029243456          202 
 4766000   0.48499025   -5.3375539    1752.7866  0.030647408  0.029235499          183 
 4767000   0.49323192   -5.3509753    1751.5703  0.030619718  0.029227564          163 
 4768000   0.49129706   -5.3356333    1755.2793   0.03067812   0.02921966           85 
 4769000   0.49333337   -5.3232454    1753.0901  0.030633433  0.029211764          168 
 4770000   0.48595329   -5.3287025    1753.3244  0.030631104  0.029203865           96 
 4771000   0.49317891   -5.3383073    1754.2887  0.030641527  0.029195962          125 
 4772000   0.48864454   -5.3469263    1752.3765  0.030601714  0.029188046          239 
 4773000   0.48180851   -5.3318603    1747.5531  0.030511088  0.029180142          167 
 4774000   0.48865822   -5.3363695     1748.811  0.030526654  0.029172245          180 
 4775000   0.47490761   -5.3341358    1752.6522  0.030587298   0.02916433           96 
 4776000   0.47819401   -5.3397489    1748.3929  0.030506576  0.029156415           87 
 4777000    0.4945254   -5.3414902    1746.2829  0.030463382  0.029148494          349 
 4778000   0.47587722   -5.3456843    1750.3538  0.030528006  0.029140567          213 
 4779000   0.47945908   -5.3487417    1747.6469  0.030474418  0.029132634          427 
 4780000   0.48319215   -5.3485911     1752.389  0.030550714  0.029124714          297 
 4781000   0.48119182   -5.3458152    1749.1719   0.03048825  0.029116805          266 
 4782000   0.49191144    -5.335454      1753.42  0.030555904  0.029108896          315 
 4783000   0.48590213   -5.3517912     1748.876  0.030470346  0.029100991          247 
 4784000   0.49916449   -5.3542599     1750.809  0.030497648  0.029093087          334 
 4785000   0.48535049   -5.3521081     1750.717  0.030489673  0.029085167          361 
 4786000   0.49717195   -5.3357229    1750.8727  0.030486013  0.029077249          410 
 4787000   0.48723715   -5.3491994    1750.2173  0.030468234  0.029069334          356 
 4788000   0.49283595   -5.3624827    1747.2773  0.030410702  0.029061403          326 
 4789000   0.50163973   -5.3602658    1748.7011  0.030429127  0.029053464          394 
 4790000   0.47500236   -5.3832638    1747.3881  0.030399933  0.029045531          353 
 4791000   0.48048225   -5.3523138    1746.4185  0.030376722  0.029037589          281 
 4792000   0.48777584    -5.385897     1746.017  0.030363401  0.029029633          283 
 4793000   0.48120872   -5.3598437    1747.8671  0.030389233  0.029021686          304 
 4794000   0.48120548   -5.3613572    1748.7962  0.030399044  0.029013736          353 
 4795000   0.48676402   -5.3645747    1744.9076  0.030325123  0.029005802          347 
 4796000   0.48592954    -5.375027    1748.0402   0.03037323  0.028997876          454 
 4797000   0.48515654    -5.363027     1748.995  0.030383487  0.028989956          358 
 4798000   0.47287497   -5.3637231    1749.0959  0.030378906  0.028982058          379 
 4799000   0.48031047   -5.3673201    1748.0341  0.030354138  0.028974154          400 
 4800000   0.47984869      -5.3591    1748.3976  0.030354124  0.028966245          388 
 4801000   0.47889943   -5.3583218    1748.1271  0.030343108  0.028958363          346 
 4802000   0.48104444   -5.3724918    1748.1219  0.030336699  0.028950476          349 
 4803000    0.4833852   -5.3564616    1753.5109  0.030423883  0.028942591          346 
 4804000   0.47924349   -5.3698152    1746.5265  0.030296393  0.028934713          374 
 4805000   0.48041758   -5.3579446    1750.4197  0.030357608  0.028926837          345 
 4806000    0.4855997   -5.3748814    1751.1272   0.03036356  0.028918944          489 
 4807000   0.48260756   -5.3592528    1750.0491  0.030338554  0.028911044          405 
 4808000    0.4863506    -5.375981    1747.4253  0.030286767  0.028903154          473 
 4809000   0.47350078   -5.3690178    1748.0763   0.03029175  0.028895248          546 
 4810000   0.48764904   -5.3686752    1747.4274   0.03027421  0.028887334          382 
 4811000   0.47130295    -5.378699    1747.0262  0.030260968  0.028879406          580 
 4812000   0.48178435   -5.3419753    1750.3355  0.030311989  0.028871489          420 
 4813000   0.49137699   -5.3507157    1750.8576  0.030314731  0.028863611          494 
 4814000   0.48519999   -5.3748867    1748.5673  0.030268787  0.028855709          496 
 4815000   0.48696664   -5.3669999    1749.9812  0.030286972  0.028847792          475 
 4816000   0.48245046   -5.3690119    1746.7013  0.030223929  0.028839878          616 
 4817000   0.47590372   -5.3713508    1748.4779  0.030248389  0.028831971          486 
 4818000   0.47704213   -5.3670148    1747.2343  0.030220602  0.028824098          430 
 4819000   0.47299945    -5.375777    1745.5766  0.030185665  0.028816208          600 
 4820000   0.47544714   -5.3893959    1748.8423  0.030235864  0.028808304          462 
 4821000   0.48681736   -5.3812314    1745.7691   0.03017647  0.028800404          526 
 4822000   0.48493933   -5.3832332    1745.5349  0.030166163  0.028792539          504 
 4823000   0.47448588   -5.3761977    1748.7077  0.030214729  0.028784664          597 
 4824000   0.48205023   -5.3658817    1745.2428  0.030148612  0.028776796          495 
 4825000   0.47403743   -5.3649955    1749.8623  0.030222146  0.028768942          473 
 4826000   0.48430473   -5.3748841    1746.8527  0.030163915  0.028761079          461 
 4827000   0.49077928   -5.3797618    1749.2512  0.030199074  0.028753206          474 
 4828000   0.47397799   -5.3575488    1745.8899  0.030134803  0.028745374          403 
 4829000   0.48135127   -5.3716596     1746.912    0.0301462   0.02873752          541 
 4830000   0.47608697   -5.3766689    1750.1953  0.030196607  0.028729664          427 
 4831000   0.47633398   -5.3847503    1748.7458  0.030165352  0.028721811          480 
 4832000   0.47893124   -5.3811264    1747.2084  0.030132596  0.028713944          400 
 4833000   0.48237356   -5.3751937    1743.8991  0.030069299  0.028706062          464 
 4834000   0.47825519   -5.3701749    1747.7447  0.030129373  0.028698189          402 
 4835000      0.47143   -5.3790525    1747.2186  0.030114075   0.02869032          475 
 4836000   0.47741081   -5.3748396    1744.1407  0.030054809  0.028682431          571 
 4837000    0.4734188   -5.3631502    1747.4979  0.030106435  0.028674548          583 
 4838000   0.48923662   -5.3765088    1742.3134   0.03001091  0.028666675          531 
 4839000   0.48261455   -5.3819905     1747.196  0.030088793  0.028658794          521 
 4840000   0.46607084   -5.3740991     1742.288  0.029998071   0.02865093          556 
 4841000    0.4769264   -5.3717431    1749.3658  0.030113713  0.028643076          475 
 4842000   0.47285899   -5.3777314    1745.6084  0.030042826   0.02863521          576 
 4843000   0.47591765    -5.379739    1745.3669  0.030032467  0.028627329          576 
 4844000   0.46887552   -5.3886378    1745.8352  0.030034324  0.028619454          580 
 4845000   0.47766735   -5.3916413    1744.1948   0.02999991  0.028611581          540 
 4846000   0.48051222    -5.382823    1746.2671  0.030029356  0.028603723          518 
 4847000   0.46632101   -5.4047829    1746.4622  0.030026515  0.028595857          626 
 4848000   0.48100714   -5.3910346    1745.5298  0.030004293  0.028587982          554 
 4849000   0.48027493   -5.3911372    1745.7863  0.030002514  0.028580125          561 
 4850000   0.48206831   -5.3956252    1744.6981  0.029977631  0.028572263          621 
 4851000    0.4853072   -5.3966875    1744.2593  0.029963913  0.028564398          580 
 4852000   0.47693777   -5.4206611    1745.0002  0.029970462  0.028556529          605 
 4853000    0.4801506     -5.39495     1741.635  0.029906502   0.02854867          623 
 4854000   0.48569249   -5.3813233    1745.6759  0.029969713  0.028540816          561 
 4855000   0.47713269   -5.3929005    1743.3727  0.029924007  0.028532973          600 
 4856000   0.47922451   -5.3806586    1746.6133  0.029973458  0.028525131          556 
 4857000   0.47530106   -5.4021309    1744.1188  0.029924487  0.028517284          539 
 4858000   0.47122237   -5.3927393    1746.8349  0.029964918  0.028509436          638 
 4859000    0.4722908   -5.4057813    1742.3991  0.029882677  0.028501571          705 
 4860000   0.47740512   -5.3969977    1742.9782  0.029886458  0.028493716          582 
 4861000    0.4759794   -5.4089248    1745.5614  0.029924594   0.02848587          584 
 4862000   0.48395445   -5.3797988    1747.1559  0.029945769  0.028478016          667 
 4863000   0.47145972   -5.3968933    1742.4594   0.02985913  0.028470172          722 
 4864000   0.47089317   -5.3792514    1747.7439  0.029943529  0.028462322          725 
 4865000    0.4784471   -5.4010296    1744.8568  0.029887921  0.028454476          884 
 4866000    0.4768323   -5.3939997    1743.9924  0.029866975  0.028446621          741 
 4867000   0.47360316   -5.4013031    1741.7479  0.029822408  0.028438773          824 
 4868000   0.48056701   -5.3996139    1742.8092   0.02983445  0.028430904          853 
 4869000   0.46522676   -5.3982576    1742.8347  0.029828758  0.028423043          791 
 4870000   0.47185162   -5.3995436    1743.6396  0.029836406  0.028415159          968 
 4871000   0.47861848   -5.4014566    1741.8437  0.029799557  0.028407274          877 
 4872000   0.46452737    -5.408907    1743.2189  0.029816963  0.028399393          998 
 4873000   0.47245594   -5.4098778     1741.207  0.029776439  0.028391528          911 
 4874000   0.47245838   -5.4111314    1739.8454  0.029747049  0.028383636         1049 
 4875000   0.47478588    -5.411961    1744.4329  0.029819365  0.028375751          947 
 4876000   0.47543843   -5.4231909    1741.5822  0.029764531  0.028367861         1039 
 4877000   0.48004366   -5.4160851    1743.1715  0.029785584  0.028359987         1023 
 4878000   0.47010459   -5.4218558    1742.9143  0.029775084  0.028352108         1078 
 4879000   0.47153194    -5.431957    1739.2956  0.029707174  0.028344223         1051 
 4880000   0.47535276   -5.4239167    1743.3827  0.029770879   0.02833633         1182 
 4881000   0.47499638   -5.4141623    1744.5625  0.029784922  0.028328438         1135 
 4882000   0.47139337   -5.4379091    1743.5959  0.029762322  0.028320551         1183 
 4883000   0.46599205   -5.4376428    1739.1496  0.029680347   0.02831266         1183 
 4884000    0.4698188   -5.4124348    1746.6557  0.029802343  0.028304772         1117 
 4885000   0.47659984   -5.4365487    1740.9539  0.029698974  0.028296888         1375 
 4886000   0.47411879   -5.4264856    1739.2445  0.029663741  0.028289008         1341 
 4887000    0.4734709   -5.4345677    1739.8462  0.029667932  0.028281111         1320 
 4888000   0.47071675   -5.4495532    1741.1606  0.029684272   0.02827322         1410 
 4889000   0.46799682   -5.4390956     1737.074  0.029608543  0.028265314         1371 
 4890000   0.46903975   -5.4365881    1735.4402  0.029574645  0.028257418         1388 
 4891000   0.46730309   -5.4392199    1743.4448  0.029704982   0.02824953         1357 
 4892000    0.4651504   -5.4109602    1741.8648  0.029671994  0.028241638         1409 
 4893000   0.47771323   -5.4392172    1738.7436  0.029612773  0.028233736         1409 
 4894000   0.47311831   -5.4343843    1738.9516  0.029610264  0.028225823         1386 
 4895000   0.46641783   -5.4364669    1735.8106  0.029550742  0.028217909         1473 
 4896000   0.46523416   -5.4445125    1738.4007  0.029588792   0.02820998         1532 
 4897000    0.4654544    -5.439215    1736.0242  0.029542309  0.028202052         1543 
 4898000   0.47035678   -5.4492806    1737.7009  0.029564803  0.028194127         1601 
 4899000   0.46087252   -5.4313313    1738.1716  0.029566776  0.028186205         1594 
 4900000   0.46512125   -5.4417271    1736.7129  0.029535933  0.028178289         1595 
 4901000   0.46782871   -5.4446845    1733.9674  0.029483225  0.028170368         1529 
 4902000   0.46433005   -5.4502519    1735.8117  0.029508563  0.028162427         1497 
 4903000   0.46366258   -5.4404824    1734.8819  0.029486741  0.028154499         1580 
 4904000    0.4715671   -5.4392615    1733.4525  0.029456439  0.028146585         1566 
 4905000   0.47254082   -5.4364163    1738.8421     0.029542  0.028138657         1558 
 4906000   0.46689897   -5.4587102    1739.3102  0.029543929   0.02813075         1568 
 4907000    0.4715142   -5.4532441    1737.4986  0.029507142   0.02812284         1655 
 4908000   0.46197505   -5.4573616    1735.9955   0.02947561  0.028114933         1675 
 4909000   0.46271829   -5.4409888    1732.7914  0.029415214  0.028107027         1694 
 4910000   0.48242519   -5.4493018    1737.4761  0.029488732  0.028099123         1644 
 4911000   0.46847748   -5.4509081    1738.9188  0.029507208  0.028091205         1741 
 4912000   0.47462103   -5.4541366    1734.4016  0.029424566  0.028083284         1738 
 4913000   0.45547302   -5.4553456    1733.8774  0.029409685  0.028075348         1770 
 4914000   0.45983431   -5.4474557    1732.9848  0.029388563   0.02806741         1748 
 4915000    0.4639992   -5.4611579    1734.9394  0.029415725  0.028059491         1765 
 4916000   0.46577467   -5.4573967    1736.8556  0.029442223  0.028051581         1671 
 4917000   0.46308241   -5.4507898    1736.6526  0.029432794   0.02804367         1720 
 4918000   0.46695805    -5.466983    1733.3621  0.029371053  0.028035755         1698 
 4919000   0.46737126   -5.4766356    1730.4064   0.02931501  0.028027838         1783 
 4920000   0.46252324   -5.4688782     1731.703  0.029331012  0.028019913         1847 
 4921000   0.46117381   -5.4578279    1732.5878  0.029340036  0.028011995         1815 
 4922000   0.46229976   -5.4712526    1732.8165  0.029337947  0.028004076         1933 
 4923000   0.47054925   -5.4707155    1731.8288  0.029315269  0.027996161         1838 
 4924000   0.47331095   -5.4876687    1731.4125  0.029302269  0.027988253         1942 
 4925000   0.46559713      -5.4596    1733.4506  0.029330806  0.027980334         1890 
 4926000   0.45447847   -5.4752424    1734.0221  0.029334519  0.027972409         1977 
 4927000   0.46504628   -5.4664801    1733.8704     0.029326  0.027964491         1968 
 4928000    0.4676902   -5.4624527    1732.6166  0.029298847  0.027956579         1945 
 4929000   0.46971253    -5.485969    1733.8081  0.029313047  0.027948676         1924 
 4930000   0.46794161   -5.4666215    1738.1353  0.029380246  0.027940773         1969 
 4931000   0.47034742   -5.4762695    1729.5496  0.029229189   0.02793286         2074 
 4932000   0.46815086   -5.4640713     1732.426  0.029271865  0.027924948         2038 
 4933000   0.46320937   -5.4839739    1729.4638   0.02921589  0.027917039         2128 
 4934000   0.46900889   -5.4748379    1732.4061  0.029259663  0.027909124         2118 
 4935000   0.46833816   -5.4917007      1733.04  0.029264438    0.0279012         2112 
 4936000   0.46024228   -5.4781484    1731.3161  0.029229405  0.027893274         2111 
 4937000   0.45323905   -5.4753896    1733.8299  0.029265916   0.02788535         2143 
 4938000    0.4577053   -5.4924958    1732.4544  0.029236776  0.027877421         2199 
 4939000   0.45977117   -5.4932966    1730.9778  0.029205942  0.027869487         2144 
 4940000   0.46195694   -5.4854445    1730.1287  0.029185708  0.027861552         2242 
 4941000   0.45739403   -5.4662442    1732.4099  0.029218274  0.027853615         2129 
 4942000   0.45426809   -5.4845307    1729.3777  0.029161232  0.027845681         2180 
 4943000   0.45926965   -5.4919498    1728.2569  0.029136438  0.027837751         2327 
 4944000   0.44980566   -5.4887217    1729.7964  0.029156492  0.027829803         2182 
 4945000   0.45386834   -5.4823698    1732.5245   0.02919657   0.02782186         2224 
 4946000   0.46656662   -5.4992805    1728.2023  0.029117845  0.027813921         2296 
 4947000   0.46151182   -5.4922854    1727.0278  0.029092173  0.027805972         2335 
 4948000    0.4651746   -5.4995289    1727.0135  0.029086053  0.027798027         2307 
 4949000   0.47407874   -5.5000298    1727.3101  0.029085171  0.027790065         2362 
 4950000   0.46784358   -5.4909456    1729.9793   0.02912423  0.027782109         2465 
 4951000   0.46564833    -5.500868    1726.6368  0.029062089  0.027774142         2425 
 4952000   0.47252102   -5.5129773    1725.3874  0.029035195  0.027766169         2511 
 4953000   0.46738925   -5.5171774     1729.476  0.029098122  0.027758191         2597 
 4954000   0.46410034   -5.5056759     1726.806  0.029047335  0.027750218         2638 
 4955000   0.46884188   -5.4970465    1728.1859   0.02906468  0.027742247         2585 
 4956000   0.45903545   -5.5089562     1726.408  0.029028922  0.027734278         2679 
 4957000   0.45648663   -5.5044364    1726.8595  0.029030656  0.027726306         2688 
 4958000   0.46457426   -5.4947685    1725.6863  0.029005082  0.027718325         2684 
 4959000   0.44946132   -5.5011587     1725.478  0.028995732  0.027710344         2684 
 4960000   0.45778381   -5.5224794    1724.0611   0.02896608  0.027702373         2734 
 4961000    0.4603456   -5.5063711    1726.9522  0.029008805  0.027694395         2731 
 4962000   0.45456074   -5.5085618    1726.6589  0.028998033  0.027686415         2705 
 4963000   0.45537402   -5.5237485    1727.8386     0.029012  0.027678432         2780 
 4964000   0.45766819   -5.5163107     1725.998  0.028975256  0.027670457         2675 
 4965000   0.45279178   -5.5126908    1728.2698   0.02900755  0.027662491         2728 
 4966000   0.45490632   -5.5207807    1722.7561  0.028909185  0.027654522         2724 
 4967000   0.45671143   -5.5319821    1722.9292  0.028906268  0.027646553         2711 
 4968000   0.45567315   -5.5200478    1726.7274   0.02896416  0.027638574         2842 
 4969000   0.45267736   -5.5181652    1725.7713  0.028942298  0.027630584         2743 
 4970000   0.45451853   -5.5181969    1724.2242  0.028910534  0.027622594         2800 
 4971000    0.4542196   -5.5246658    1722.8633  0.028881903  0.027614612         2799 
 4972000   0.45213158     -5.51808    1724.2896  0.028900001  0.027606626         2765 
 4973000   0.45497002   -5.5315116    1725.0737  0.028907329  0.027598647         2768 
 4974000   0.45937069   -5.5135707    1727.0856  0.028935223  0.027590676         2855 
 4975000   0.45671373   -5.5322929    1723.1134  0.028862872  0.027582698         2926 
 4976000   0.45824636   -5.5162761    1720.6857  0.028816414  0.027574723         2890 
 4977000   0.46120285   -5.5217729    1724.1953  0.028869387  0.027566737         2928 
 4978000   0.45157192   -5.5330663    1724.5474  0.028869483  0.027558763         2888 
 4979000   0.46869412    -5.533573    1724.4961  0.028862825  0.027550776         2940 
 4980000   0.45392446   -5.5294793    1723.7727  0.028844925  0.027542805         2905 
 4981000   0.46116352   -5.5220005    1723.4425  0.028833609  0.027534816         2974 
 4982000   0.45713113   -5.5192855     1725.968  0.028870065  0.027526836         2953 
 4983000   0.45185921   -5.5280733    1720.0848  0.028765884  0.027518865         3014 
 4984000   0.45355759   -5.5253943    1723.2376  0.028812827  0.027510887         3018 
 4985000   0.45323662   -5.5184697    1721.8242   0.02878342  0.027502923         2986 
 4986000   0.46235229   -5.5280657    1723.3645  0.028803391  0.027494963         3001 
 4987000   0.45060736   -5.5242885    1720.8077  0.028754891  0.027486998         3074 
 4988000   0.45564037    -5.524971    1722.7932  0.028782297  0.027479031         3023 
 4989000   0.45607739   -5.5318356    1723.0162  0.028780253  0.027471058         3110 
 4990000   0.45420111   -5.5371014    1719.8936  0.028722338  0.027463075         3154 
 4991000   0.45736923   -5.5278465    1721.3858  0.028741498  0.027455095         3135 
 4992000    0.4596396    -5.527088     1720.305  0.028717698  0.027447117         3141 
 4993000   0.45528686   -5.5413809    1723.1655  0.028759689  0.027439149         3096 
 4994000   0.44979413   -5.5366176    1723.9921  0.028767722  0.027431182         3091 
 4995000   0.45496238   -5.5405198    1722.7076  0.028740533  0.027423221         3148 
 4996000   0.45265438   -5.5382272    1720.9455   0.02870539  0.027415268         3112 
 4997000    0.4408439   -5.5477561    1722.3924  0.028723774  0.027407305         3109 
 4998000   0.45914788   -5.5349843    1719.8446  0.028675546  0.027399343         3194 
 4999000   0.44454802   -5.5434257    1721.9238   0.02870447  0.027391375         3129 
 5000000   0.45145356    -5.556824    1718.9959  0.028649932  0.027383403         3150 
 5001000   0.45939386   -5.5545374    1723.7791  0.028723906  0.027375443         3121 
 5002000   0.43842802   -5.5418943    1719.7145  0.028650448  0.027367481         3155 
 5003000   0.45476309   -5.5525168    1719.2385  0.028636794  0.027359517         3146 
 5004000   0.45213548   -5.5397073    1719.5306  0.028635934  0.027351556         3113 
 5005000   0.45537994   -5.5477989    1722.3483  0.028677128  0.027343597         3149 
 5006000   0.45891382   -5.5514279    1721.0457  0.028649716  0.027335639         3228 
 5007000   0.44913479    -5.554507    1721.4388  0.028650536  0.027327677         3222 
 5008000   0.44864339   -5.5547038    1718.7031  0.028599292  0.027319715         3231 
 5009000   0.45179909   -5.5595524    1714.9218  0.028530674  0.027311754         3185 
 5010000   0.45077492   -5.5537709    1719.9136   0.02860801  0.027303797         3258 
 5011000   0.45810481   -5.5490158     1719.747  0.028599531  0.027295824         3309 
 5012000    0.4529264   -5.5494511    1721.1297  0.028616815  0.027287855         3296 
Loop time of 12639.4 on 48 procs for 5000000 steps with 4000 atoms

Performance: 68357.459 tau/day, 395.587 timesteps/s
99.4% CPU use with 48 MPI tasks x no OpenMP threads

MPI task timing breakdown:
Section |  min time  |  avg time  |  max time  |%varavg| %total
---------------------------------------------------------------
Pair    | 893.31     | 950.48     | 1018.4     | 100.0 |  7.52
Neigh   | 84.561     | 88.01      | 92.684     |  20.5 |  0.70
Comm    | 800.53     | 872.48     | 939.08     | 109.4 |  6.90
Output  | 14.504     | 14.508     | 14.597     |   0.3 |  0.11
Modify  | 10546      | 10597      | 10631      |  17.0 | 83.84
Other   |            | 116.6      |            |       |  0.92

Nlocal:        83.3333 ave          89 max          77 min
Histogram: 5 1 4 4 3 14 3 6 4 4
Nghost:        2342.15 ave        2356 max        2330 min
Histogram: 3 9 3 3 7 7 5 6 3 2
Neighs:        15938.2 ave       17710 max       14031 min
Histogram: 1 4 6 5 6 6 10 4 1 5
FullNghs:      31875.7 ave       34452 max       29012 min
Histogram: 4 2 4 5 7 6 6 6 5 3

Total # of neighbors = 1530033
Ave neighs/atom = 382.50825
Neighbor list builds = 269495
Dangerous builds = 0

#clear
#
#next RN
#
#jump SELF
Total wall time: 3:30:42
