
units lj                  # Use reduced LJ style units
atom_style atomic         # Uncharged point particles
atom_modify map hash      # Needed for indexing of clusters etc
                          # Used to be able to find where atoms are in relation to each other.

lattice fcc 1.0 spacing 1 1 1
Lattice spacing in x,y,z = 1.5874011 1.5874011 1.5874011
region box block 0 10 0 10 0 10 units lattice
create_box 2 box
Created orthogonal box = (0.0000000 0.0000000 0.0000000) to (15.874011 15.874011 15.874011)
  3 by 4 by 4 MPI processor grid
create_atoms 1 box
Created 4000 atoms
  using lattice units in orthogonal box = (0.0000000 0.0000000 0.0000000) to (15.874011 15.874011 15.874011)
  create_atoms CPU = 0.002 seconds
set type 1 type/fraction 2 0.36 78393
Setting atom values ...
  1453 settings made for type/fraction
mass 1 1.0
mass 2 1.0
pair_style lj/cut  3.5
pair_modify tail  yes
pair_coeff 1  1  1.0  1.0   # Intearaction between 1 and 1 set with epsilon = 1 and sigma = 1
pair_coeff 1  2  1.5  0.8
pair_coeff 2  2  0.5  0.88

write_data data.0
System init for write_data ...
Neighbor list info ...
  update every 1 steps, delay 10 steps, check yes
  max neighbors/atom: 2000, page size: 100000
  master list distance cutoff = 3.8
  ghost atom cutoff = 3.8
  binsize = 1.9, bins = 9 9 9
  1 neighbor lists, perpetual/occasional/extra = 1 0 0
  (1) pair lj/cut, perpetual
      attributes: half, newton on
      pair build: half/bin/atomonly/newton
      stencil: half/bin/3d
      bin: standard
WARNING: Not all mixed pair coeffs generated from mixing. Use write_data with 'pair ij' option to store all pair coeffs. (../write_data.cpp:312)


#############################
#   M E L T   S Y S T E M   #
#############################

velocity all create 2.4 6229865 mom yes dist gaussian # Assign velocities
                                                    # Temperature 2.4, random number seed, zero linear momentum
                                                                                # Gaussian distribution

timestep 0.002   # simulation timestep
thermo 1000       # output thermodynamic data every 1000 steps bf 100

# Define a fix  in this case with index 1 applied to all
# particles in the simulation. This fix is for simulations
# in the anisotropic NPT ensemble. Note that we use the MTK
# correction.
fix 1 all npt temp 2.4 2.4 0.1 iso 5.68 5.68 0.5 mtk yes tchain 5 pchain 5 # Use NPT ensemble
                                                                         # Set temperature and pressure and damping
                                                                         # Numbers of thermostats in chain and in barostat
run 10000          # run for 10000 steps
Per MPI rank memory allocation (min/avg/max) = 3.642 | 3.644 | 3.648 Mbytes
Step Temp E_pair E_mol TotEng Press Volume 
       0          2.4   -6.0964775            0   -2.4973775   -4.1129651         4000 
    1000    2.4019999   -4.9730347            0   -1.3709357    5.6744431    4003.8023 
    2000     2.396333   -5.0736453            0   -1.4800444    5.6194356    3975.7564 
    3000    2.4338525   -5.1136822            0   -1.4638161    5.7471366    3940.6786 
    4000    2.4496834   -5.0693486            0   -1.3957422    5.7080976    3975.3051 
    5000    2.4207018   -5.0289161            0   -1.3987711    5.8288412    3984.9107 
    6000    2.3930477   -5.0448476            0   -1.4561734    5.5973629    3995.1286 
    7000    2.3843794   -5.0478131            0   -1.4721382    5.5556656    3995.7826 
    8000    2.3735196    -5.060389            0   -1.5009997    5.9060488    3958.7308 
    9000    2.3742533   -5.0442399            0   -1.4837503     5.704307    3979.1834 
   10000    2.3926453   -5.1139174            0   -1.5258466    5.8182191    3948.4284 
Loop time of 3.02442 on 48 procs for 10000 steps with 4000 atoms

Performance: 571349.471 tau/day, 3306.421 timesteps/s
99.2% CPU use with 48 MPI tasks x no OpenMP threads

MPI task timing breakdown:
Section |  min time  |  avg time  |  max time  |%varavg| %total
---------------------------------------------------------------
Pair    | 1.0912     | 1.1494     | 1.2353     |   2.9 | 38.00
Neigh   | 0.20818    | 0.21446    | 0.22369    |   0.8 |  7.09
Comm    | 0.79649    | 0.92545    | 0.99675    |   4.1 | 30.60
Output  | 0.0002442  | 0.0002493  | 0.00038778 |   0.0 |  0.01
Modify  | 0.67555    | 0.72005    | 0.82964    |   3.3 | 23.81
Other   |            | 0.01483    |            |       |  0.49

Nlocal:        83.3333 ave          92 max          75 min
Histogram: 2 3 6 5 7 10 3 9 2 1
Nghost:        1664.48 ave        1691 max        1633 min
Histogram: 2 3 3 5 2 11 11 5 5 1
Neighs:        9676.44 ave       10960 max        8099 min
Histogram: 1 0 4 7 7 9 8 4 7 1

Total # of neighbors = 464469
Ave neighs/atom = 116.11725
Neighbor list builds = 911
Dangerous builds = 236

# Equilibrate just above the melting temperature to avoid step fn in T

fix 1 all npt temp 1.25 1.25 0.1 iso 5.68 5.68 0.5 mtk yes tchain 5 pchain 5
run 2000
Per MPI rank memory allocation (min/avg/max) = 3.643 | 3.645 | 3.649 Mbytes
Step Temp E_pair E_mol TotEng Press Volume 
   10000    2.3926453   -5.1139174            0   -1.5258466    5.8182191    3948.4284 
   11000    1.2423874   -6.9612212            0   -5.0981059    5.7707037    3186.2989 
   12000    1.2612036   -7.0046455            0   -5.1133131    5.7984074    3171.8564 
Loop time of 0.582474 on 48 procs for 2000 steps with 4000 atoms

Performance: 593330.718 tau/day, 3433.627 timesteps/s
99.7% CPU use with 48 MPI tasks x no OpenMP threads

MPI task timing breakdown:
Section |  min time  |  avg time  |  max time  |%varavg| %total
---------------------------------------------------------------
Pair    | 0.25766    | 0.28215    | 0.3026     |   1.9 | 48.44
Neigh   | 0.037505   | 0.039955   | 0.04248    |   0.5 |  6.86
Comm    | 0.19093    | 0.21166    | 0.2381     |   2.5 | 36.34
Output  | 4.8296e-05 | 4.9372e-05 | 6.1702e-05 |   0.0 |  0.01
Modify  | 0.041343   | 0.044027   | 0.047407   |   0.8 |  7.56
Other   |            | 0.004628   |            |       |  0.79

Nlocal:        83.3333 ave          91 max          76 min
Histogram: 1 1 12 3 8 2 12 3 4 2
Nghost:        1921.42 ave        1936 max        1894 min
Histogram: 1 1 1 3 4 7 8 10 8 5
Neighs:        12031.4 ave       13317 max       10912 min
Histogram: 6 3 4 5 9 7 3 7 2 2

Total # of neighbors = 577509
Ave neighs/atom = 144.37725
Neighbor list builds = 141
Dangerous builds = 11

#############################
# L I N E A R  Q U E N C H  #
#############################

# Define solid atoms. This closely follows ten Wolde  Ruiz-Montero and Frenkel  Faraday Discuss  1996  104  93-110
# Compute components of the per-atom q6 vector
compute q6 all orientorder/atom degrees 1 6 components 6 nnn NULL cutoff 1.3 # compute the Q6 parameter.
                                                                             # Use all neighbours within 1.3 unit cell.

# get number of connections
compute coord_number all coord/atom orientorder q6 0.5

# An atom is solid if it has 8 or more connections (of a possible 14)
variable is_solid atom c_coord_number>=8
group solid dynamic all var is_solid    # Must be dynamic to update
dynamic group solid defined

# do clustering
compute cluster solid cluster/atom 1.3 # Create a cluster where all atoms within are solid and max 1.3 units from another member

# define chunks one chunk per cluster
compute clus_chunks solid chunk/atom c_cluster nchunk every compress yes  # Says which atoms are in which chunk

# count the size of each chunk
compute size_chunks solid property/chunk clus_chunks count


# Find the maximum entry in the vector of chunk sizes
variable max_n equal max(c_size_chunks)


# Thermo style which includes this variable
# thermo_style custom step temp pe vol v_max_n

thermo ${N}  # Print the thermo information every 100 steps
thermo 1000  

# Reset the npt fix at a lower temperature (below freezing)
fix 1  all npt temp  ${temp} ${temp}  0.1  iso  5.68  5.68  0.5  mtk yes tchain  5  pchain  5
fix 1  all npt temp  0.45 ${temp}  0.1  iso  5.68  5.68  0.5  mtk yes tchain  5  pchain  5
fix 1  all npt temp  0.45 0.45  0.1  iso  5.68  5.68  0.5  mtk yes tchain  5  pchain  5

dump dmp2 all dcd ${N} traj.dcd
dump dmp2 all dcd 1000 traj.dcd


compute msd all msd com yes
variable twopoint equal c_msd[4]/6/(step*dt+1.0e-6)
fix 9 all vector 10 c_msd[4]
variable fit equal slope(f_9)/6/(10*dt)
thermo_style custom step temp pe c_msd[4] v_twopoint v_fit v_max_n

fix 1 all npt temp 1.25 ${temp} 0.1 iso 5.68 5.68 0.5 mtk yes tchain 5 pchain 5
fix 1 all npt temp 1.25 0.45 0.1 iso 5.68 5.68 0.5 mtk yes tchain 5 pchain 5
run 5000000 # 5000000  # Run for this many steps
Neighbor list info ...
  update every 1 steps, delay 10 steps, check yes
  max neighbors/atom: 2000, page size: 100000
  master list distance cutoff = 3.8
  ghost atom cutoff = 3.8
  binsize = 1.9, bins = 8 8 8
  4 neighbor lists, perpetual/occasional/extra = 1 3 0
  (1) pair lj/cut, perpetual
      attributes: half, newton on
      pair build: half/bin/atomonly/newton
      stencil: half/bin/3d
      bin: standard
  (2) compute orientorder/atom, occasional
      attributes: full, newton on
      pair build: full/bin/atomonly
      stencil: full/bin/3d
      bin: standard
  (3) compute coord/atom, occasional
      attributes: full, newton on
      pair build: full/bin/atomonly
      stencil: full/bin/3d
      bin: standard
  (4) compute cluster/atom, occasional
      attributes: full, newton on
      pair build: full/bin/atomonly
      stencil: full/bin/3d
      bin: standard
Per MPI rank memory allocation (min/avg/max) = 9.817 | 9.824 | 9.829 Mbytes
Step Temp PotEng c_msd[4] v_twopoint v_fit v_max_n 
   12000    1.2612036   -7.0046455 1.0714703e-30 7.4407658e-33 8.3333333e+20            1 
   13000    1.2814996   -7.0260377   0.48691621 0.0031212577  0.039576667            1 
   14000    1.2290033   -7.0359391    0.9534273 0.0056751623  0.038310681            2 
   15000    1.2495548   -7.0312771    1.4039789 0.0077998823  0.038460673            2 
   16000    1.2299387   -7.0158654    1.8620651 0.0096982553  0.038047859            1 
   17000    1.2543557   -7.0253356    2.3908554  0.011719879  0.038732564            1 
   18000    1.2505506    -7.004055    2.8411376  0.013153415  0.039261349            1 
   19000     1.263085   -7.0717069    3.2650386  0.014320345  0.039011452            1 
   20000    1.2283416   -6.9991862    3.7710042  0.015712517  0.039043226            2 
   21000    1.2583036   -7.0805168    4.2620048  0.016912717  0.039109623            1 
   22000    1.2614152   -7.0357832    4.7084406  0.017835002   0.03928695            2 
   23000    1.2331392   -7.0274274    5.1183734  0.018544831  0.039072258            3 
   24000    1.2554762    -6.995076    5.5539375  0.019284505  0.038833687            1 
   25000     1.230285     -7.05543    5.9577283  0.019859094  0.038563385            3 
   26000    1.2697073   -7.0190151    6.4068809  0.020534874  0.038372289            2 
   27000    1.2697434   -6.9954018    6.9078358   0.02132048  0.038221724            1 
   28000    1.2477443    -6.989198    7.3678433  0.021928105  0.038160244            2 
   29000    1.2177926   -7.0181065    7.8144053  0.022455187  0.038175267            1 
   30000    1.2369538   -7.0545855    8.2101829  0.022806063  0.038085136            2 
   31000    1.2366186   -7.0007559    8.6610364  0.023282355   0.03797516            2 
   32000     1.237527   -7.0557067    9.1314389  0.023779788  0.037843551            1 
   33000    1.2450141   -7.0242592    9.5710077  0.024169211  0.037806516            1 
   34000    1.2474797   -7.0811146    9.9808094  0.024462768  0.037745015            1 
   35000    1.2321565   -7.0138646    10.482644  0.024958675  0.037709116            1 
   36000    1.2472936   -7.0805042    10.841573  0.025096233  0.037661589            1 
   37000     1.238431   -7.0748842    11.318889  0.025492994  0.037592185            1 
   38000    1.2541707   -7.0462712    11.814585  0.025909178  0.037588013            1 
   39000    1.2371398   -7.0211728    12.282947  0.026245612   0.03757163       -1e+20 
   40000    1.2328735   -6.9978196     12.81026  0.026688041  0.037575211            1 
   41000    1.2254255   -7.1023028    13.203651   0.02683669  0.037589895            1 
   42000    1.2463669   -7.0092208    13.649616  0.027082572  0.037589655            1 
   43000     1.234384   -7.0263155    13.992024  0.027116324  0.037558144            2 
   44000    1.2388428   -7.0369002    14.257103  0.027002089  0.037474163            2 
   45000    1.2954728   -7.0320532    14.725374   0.02726921  0.037389112            2 
   46000    1.2442617   -7.0380705    15.282066  0.027684902  0.037314676            1 
   47000    1.2361217   -7.0639713    15.693788  0.027825866  0.037273246            1 
   48000     1.271982   -7.0710129    16.047871  0.027860886  0.037237021            1 
   49000    1.2428012   -7.0161365    16.653446  0.028322186  0.037210909            2 
   50000    1.2607628   -7.0363488    17.208107  0.028680177  0.037221649            2 
   51000    1.2411296    -7.049036    17.644002  0.028830068  0.037245562            1 
   52000    1.2138387   -7.0212911    18.110076  0.029022557  0.037261712            1 
   53000    1.2706453   -7.0296684    18.423374  0.028967569  0.037273079            1 
   54000    1.2369452   -7.0016711    18.941596  0.029230858  0.037278155            1 
   55000    1.2389766   -6.9948119      19.4639  0.029490757  0.037279962            2 
   56000    1.2424612   -7.0333061    20.028898  0.029804908  0.037301665            1 
   57000    1.2791833   -6.9648915    20.393326  0.029814804  0.037330651            2 
   58000    1.2262204   -7.0622956     20.75732  0.029823735   0.03734674            1 
   59000     1.229882   -6.9973009    21.240455  0.030000642  0.037353825            2 
   60000    1.2418906   -7.0235025    21.585198  0.029979441  0.037341948            1 
   61000    1.2546691   -7.0533897    21.962081  0.030002842   0.03732998            1 
   62000    1.2233965   -7.0772509    22.137997  0.029755373  0.037284041            3 
   63000    1.2490607   -7.0855598    22.483294  0.029739806  0.037223728            1 
   64000     1.245523   -7.0340079     22.91805  0.029841211  0.037148401            2 
   65000    1.2274976    -7.070344    23.185681  0.029725231  0.037064374            2 
   66000    1.2354648   -7.0546692    23.768371  0.030010569  0.036981478            2 
   67000    1.2487771   -7.0544094    24.261159   0.03017557  0.036915719            2 
   68000    1.2300309   -7.0706643    24.500532  0.030025162  0.036849359            2 
   69000    1.2340309   -7.0279435    25.011722  0.030207393  0.036779517       -1e+20 
   70000    1.2380946   -7.0553925    25.546443  0.030412432  0.036719552            1 
   71000    1.2442096   -7.0652166    25.874356  0.030368962  0.036670258            2 
   72000    1.2517884   -7.0588301    26.381864  0.030534565    0.0366317            2 
   73000     1.254137   -7.0335886    27.070773  0.030902709  0.036610744            2 
   74000    1.2117116   -7.0821168    27.574447  0.031052305  0.036599176            2 
   75000    1.2545345   -7.0826829    27.866359  0.030962621  0.036613625            1 
   76000    1.2424309   -7.0686688    28.506177  0.031256773  0.036626764            2 
   77000    1.2310048   -7.0609427    28.907818  0.031285518  0.036633766            1 
   78000    1.2321469    -7.062003    29.153324  0.031146714   0.03662262            1 
   79000    1.2332468   -7.0276425     29.71989  0.031350094  0.036612078            1 
   80000    1.2543816   -7.0199307    29.941406  0.031188965  0.036595574            2 
   81000    1.2412104   -7.0600262    30.406568  0.031282477  0.036572733            2 
   82000    1.2652434   -7.0519686    30.850431  0.031352063  0.036557828            1 
   83000    1.2533191   -7.0081778    31.498115  0.031624613  0.036549019            3 
   84000    1.2357318   -7.0596855    31.763497  0.031511405  0.036539917            1 
   85000    1.2376169    -7.048193    32.116945  0.031487201  0.036524388            1 
   86000    1.2252718   -7.1127863    32.399219  0.031394592  0.036500657            1 
   87000    1.2181805   -7.0261213    32.862986  0.031477956  0.036472504            2 
   88000    1.2315979    -7.073079    33.367273  0.031597797  0.036460941            1 
   89000    1.2294873   -7.0510163    33.690796  0.031545689   0.03644471            2 
   90000    1.2442234   -7.0486635    34.018776  0.031498867  0.036418849            2 
   91000    1.2503149   -7.0616979     34.48194  0.031576868  0.036385004            2 
   92000    1.2144628   -7.0417983    34.914973  0.031625881  0.036351312            1 
   93000    1.2553633    -7.071552    35.341066  0.031667621   0.03632306            3 
   94000    1.2546148   -7.0289339    35.645161   0.03160032  0.036291741            2 
   95000    1.2412255   -7.0369562    36.139989  0.031701745  0.036266223            1 
   96000    1.2556431   -7.0491566      36.4551  0.031645052  0.036235847            1 
   97000    1.2188299   -7.0537536    36.868444   0.03167392  0.036205777            1 
   98000    1.2325076   -7.0382183    37.527208  0.031910891  0.036182276            1 
   99000    1.2331262   -7.0643712    37.702652  0.031736239  0.036153021            1 
  100000    1.2370962   -7.0430467    38.111434  0.031759528  0.036121781       -1e+20 
  101000    1.2562287   -7.0574323    38.412135   0.03169318   0.03608861            2 
  102000    1.2240768   -7.0683528    38.833628  0.031726821  0.036053615            1 
  103000    1.2604369   -7.0364256    39.427375  0.031899171  0.036024916            2 
  104000       1.2371   -7.0668925    39.671561  0.031788109  0.035993304            2 
  105000    1.2210236    -7.059914    40.056662  0.031791002   0.03595927            1 
  106000    1.2356433   -7.0765736    40.548736  0.031877937   0.03592977            1 
  107000    1.2306513   -7.0568277    41.039558  0.031962272  0.035900813            1 
  108000    1.2663378   -7.0677314    41.711724  0.032184972  0.035880076            4 
  109000    1.2118795    -7.052822    42.124336   0.03220515  0.035864847            2 
  110000    1.2476086   -7.0314131    42.479828  0.032181688  0.035851322            1 
  111000    1.2334334    -7.043546     42.89368  0.032202462  0.035835483            1 
  112000    1.2122968   -7.0415388    43.355878  0.032258837  0.035820016            2 
  113000    1.2336646   -7.0767996    43.875625  0.032356655  0.035811187            1 
  114000     1.266995    -7.089353    44.608943  0.032608877  0.035814285            2 
  115000    1.2408103   -7.0285947    45.017214   0.03262117  0.035826699            1 
  116000    1.2229337   -7.0401001    45.738972  0.032858457  0.035840593            2 
  117000    1.2409181   -7.0643749    45.964545  0.032738279  0.035858893            2 
  118000    1.2327386    -7.030371     46.24134  0.032656314  0.035863943            3 
  119000    1.2194478   -7.0671908    46.452795  0.032529969  0.035861989            2 
  120000    1.2365365   -7.0713265    46.838587  0.032526796  0.035857782            1 
  121000    1.2599557   -7.0415132    47.261548  0.032549276  0.035854238            1 
  122000    1.2171852   -7.0490702    47.688584  0.032574169  0.035849013            2 
  123000    1.2465494   -7.0926925    48.202139  0.032657276   0.03584218            2 
  124000    1.2338575   -7.0702368    48.783674  0.032784727  0.035837972            2 
  125000    1.2579899   -7.0575263    48.972619  0.032648412  0.035833403            1 
  126000    1.2591327   -7.0938565    49.413975    0.0326812  0.035826714            2 
  127000    1.2268316   -7.0697213    49.804058  0.032679828  0.035820846            1 
  128000     1.270553   -7.0521887    50.092931  0.032612585  0.035814031            1 
  129000    1.2265482   -7.0781124    50.707409  0.032756724  0.035804139            1 
  130000    1.2469706   -7.0228606    51.142064  0.032783374  0.035800715            1 
  131000    1.2457798    -7.060608    51.472578   0.03274337  0.035793789            2 
  132000    1.2361264   -7.0865162    51.898495  0.032764201  0.035784047            2 
  133000    1.2331571   -7.0522045    52.463524  0.032871882  0.035778511       -1e+20 
  134000     1.253331   -7.0512587    52.601685   0.03271249  0.035771859            1 
  135000     1.232386   -7.0722307    53.048224  0.032745817   0.03576145            3 
  136000    1.2229872   -7.0817041    53.463819  0.032759693  0.035751648            1 
  137000    1.2606909   -7.1272749    54.054162   0.03287966  0.035746758            1 
  138000    1.2243815   -7.0828464     54.41692  0.032860459  0.035744847            1 
  139000    1.2204123   -7.0916194    55.122735  0.033047203  0.035746877            4 
  140000    1.2262889   -7.1041503    55.605906  0.033098754  0.035748625            1 
  141000    1.2466409   -7.0242166     56.41266  0.033340816  0.035756287            4 
  142000     1.234941   -7.1142623    56.813319   0.03334115  0.035770251            1 
  143000    1.2051753   -7.0555802    57.504157  0.033510581  0.035785631            1 
  144000    1.2201215   -7.0502877    57.642292  0.033357808  0.035797629            2 
  145000    1.2269009   -7.0574134    58.009232  0.033338639  0.035807685            1 
  146000    1.2310818    -7.061795    58.564716  0.033427349  0.035817114            1 
  147000    1.2426476   -7.0630864    58.827856  0.033349125  0.035822937            1 
  148000    1.2100171   -7.1057382    59.251082  0.033362096  0.035830049            1 
  149000    1.2128895   -7.1060014    59.810341  0.033450973  0.035835162            1 
  150000    1.2221649   -7.0835422    60.033683  0.033352046  0.035839597            3 
  151000    1.2357681     -7.08735    60.394489  0.033330292  0.035839278            1 
  152000    1.2288123   -7.1094134    60.808953  0.033338242  0.035839301            1 
  153000    1.2254702   -7.0464929    61.244254  0.033357437  0.035837026            2 
  154000    1.2350521    -7.077808    61.633039  0.033351211  0.035839182            2 
  155000    1.2160316    -7.105114    62.218127  0.033450606  0.035842843            1 
  156000    1.2458312    -7.026114     63.01621  0.033662505   0.03584901            2 
  157000    1.2449503   -7.0523648    63.241674  0.033567767  0.035854339            3 
  158000    1.2454866   -7.0744535    63.224337  0.033346169  0.035860675            2 
  159000    1.2160779   -7.0459421    63.893895  0.033487366  0.035863315            1 
  160000    1.2185005   -7.0634901    64.432815  0.033558758  0.035862488            2 
  161000    1.2282465   -7.0697404    64.559893  0.033416093  0.035863298            4 
  162000     1.225013   -7.0555326    65.056849  0.033465457   0.03586151            1 
  163000    1.2298454    -7.017022    65.500933  0.033487184  0.035860757            3 
  164000    1.2358418   -7.0930318     65.59376  0.033330162  0.035855417            1 
  165000    1.2536607   -7.0448835    66.354139  0.033512191  0.035850611            1 
  166000    1.2073814   -7.0893089    66.180214  0.033222999  0.035844269            1 
  167000    1.2405669   -7.1373491    66.803675  0.033335167  0.035837029            1 
  168000    1.2387248   -7.0395168    67.614922  0.033539148  0.035833774            2 
  169000    1.2532068   -7.1010749    67.984634  0.033522995  0.035833379            1 
  170000    1.2128012    -7.061926    68.388165   0.03352361  0.035829838            1 
  171000    1.2667825   -7.0967413    68.857599  0.033556335  0.035827497            1 
  172000    1.2417261   -7.0605821    69.180406  0.033517639  0.035826434            2 
  173000    1.2335854   -7.0910636     69.42074  0.033439663  0.035825178            1 
  174000    1.2126103   -7.0419933    69.906333  0.033480044  0.035820772            2 
  175000    1.2008904   -7.0487744    70.617493  0.033627377  0.035815701            2 
  176000    1.2252576   -7.0521685    71.077365  0.033654055  0.035813321            1 
  177000    1.2123112   -7.0535478    71.560149  0.033691219   0.03581226            2 
  178000    1.2089588    -7.094706    71.711039  0.033572583   0.03581107            2 
  179000    1.2172782   -7.0662903    72.157703  0.033592972  0.035808236            2 
  180000     1.208132   -7.0203185    72.734632  0.033673441  0.035804505            3 
  181000    1.2252767   -7.1024005    73.032259  0.033624428  0.035802318            5 
  182000    1.2157986   -7.0705484    73.261561  0.033544671  0.035800802            1 
  183000    1.1989212   -7.0756505    73.774698  0.033595035  0.035795154       -1e+20 
  184000      1.19572   -7.0736899    73.888675  0.033464074  0.035788986            2 
  185000    1.2187056   -7.0967304    74.454019  0.033537846  0.035783011            1 
  186000    1.2075014   -7.0786669    74.831844  0.033526812  0.035774819            1 
  187000    1.1880425   -7.0872602    75.520637  0.033654473   0.03576734            4 
  188000    1.2105753   -7.0886941     75.69472  0.033552624  0.035758074            3 
  189000    1.2245883   -7.0887219    75.784882  0.033414851  0.035748181            3 
  190000    1.2350999   -7.0968735    76.104464  0.033379151  0.035734993            4 
  191000    1.2156348   -7.0906937    76.886604  0.033545639  0.035724038            1 
  192000    1.2141311   -7.0981006     77.24455   0.03352628  0.035715871            1 
  193000    1.2406342   -7.0864905    77.616513  0.033513175  0.035708264            3 
  194000    1.2162509    -7.083477    78.066266  0.033533619  0.035701443            2 
  195000    1.2270082   -7.0752953      78.5565  0.033571154  0.035695099            4 
  196000    1.2224712   -7.0583722     79.18619  0.033667598  0.035689348            4 
  197000    1.2253372    -7.076041    79.549041  0.033650186  0.035684922            2 
  198000    1.2032513   -7.1002462    79.914873  0.033634206  0.035678592            1 
  199000    1.2308102     -7.08007    80.158141  0.033567061  0.035671528            3 
  200000    1.2176052   -7.0900906    80.314087  0.033464203  0.035663199            1 
  201000    1.2403061   -7.0743229    80.823974   0.03350911  0.035653237            2 
  202000    1.2154063   -7.0965565    81.340848  0.033556456  0.035645354            5 
  203000    1.2131049   -7.1279044    81.434572  0.033429627  0.035636454            3 
  204000    1.2217323   -7.0776694    82.069881  0.033525278  0.035627176            3 
  205000    1.2309184   -7.0857131    82.651954  0.033598355  0.035616741            1 
  206000    1.2015904   -7.1315883    82.509936  0.033377806  0.035605589            1 
  207000    1.2284752   -7.1161722     83.07261   0.03344308  0.035593347            2 
  208000    1.1915583   -7.1010416    83.758902  0.033557252  0.035582524            1 
  209000    1.2287057   -7.1197173    84.172173  0.033561472  0.035573101            4 
  210000     1.201508   -7.0810307    84.660757  0.033595538  0.035563327            1 
  211000    1.2267999   -7.0993471    85.044184   0.03358775  0.035555149            1 
  212000    1.2248458   -7.0588213     85.62172  0.033656336  0.035548694            1 
  213000     1.209875   -7.1243894    86.140353  0.033701234  0.035545047            2 
  214000    1.2616782   -7.1102024    86.489365  0.033679659   0.03554112            2 
  215000    1.2076952   -7.1273556     87.03165  0.033733198  0.035538336            2 
  216000    1.2272789   -7.0772886    87.431832  0.033731417  0.035535967            4 
  217000    1.2107007   -7.0780319    87.739159  0.033693993  0.035532631            3 
  218000    1.2135936   -7.1147512    87.948969  0.033619636  0.035526399            1 
  219000    1.2460265   -7.0705321    88.727453  0.033762349  0.035519855            1 
  220000    1.1930429   -7.0765393    89.251545  0.033807403  0.035515401            1 
  221000    1.2141407   -7.1235231    89.305522  0.033674782  0.035509287            2 
  222000     1.218268   -7.1087089    89.875957  0.033737221   0.03550452            1 
  223000    1.2291841   -7.1410253    89.922911  0.033603479  0.035498924            2 
  224000     1.246461   -7.1079031    90.350503  0.033612538  0.035493186            2 
  225000    1.1998507    -7.067176    91.048967   0.03372184  0.035487563            1 
  226000     1.208507   -7.0743228    91.247708   0.03364591  0.035480427            2 
  227000    1.2186278   -7.0725897    91.943693  0.033753191  0.035473836            2 
  228000    1.2001165   -7.1208071    91.913666  0.033594176  0.035467471            2 
  229000    1.2487192   -7.1052364     92.81271   0.03377464  0.035460882            2 
  230000    1.2185323   -7.0709449    93.772938  0.033975702  0.035460241            1 
  231000    1.2254755   -7.1223501    93.536013   0.03374315  0.035460769            4 
  232000    1.1921074   -7.0672508    94.497927  0.033943221  0.035455712            2 
  233000    1.2111433   -7.0663438    94.402093  0.033763266  0.035451142            1 
  234000    1.2280058   -7.1417363    94.679184  0.033717658  0.035444609            1 
  235000    1.2190683   -7.0902254    95.406443  0.033832072  0.035440621            1 
  236000    1.2199609   -7.1371068    95.343931  0.033666642  0.035435851            1 
  237000    1.1820323   -7.1230646    95.999314  0.033755033  0.035432222            1 
  238000     1.227721   -7.1065613    96.317103  0.033724476  0.035429596            2 
  239000    1.2051724   -7.1081709    97.008809   0.03382455  0.035425171            1 
  240000    1.2117645   -7.0966989    97.297636  0.033783901  0.035417748            1 
  241000     1.242262   -7.1112536    97.485357  0.033708629  0.035410118            1 
  242000    1.2033025   -7.0987633    97.989319  0.033742878  0.035400884            1 
  243000    1.1940107   -7.1077892       98.155  0.033660837  0.035394602            2 
  244000    1.2261363   -7.1759284    98.297362  0.033571503  0.035384713            1 
  245000    1.2178611   -7.0855753    98.809974  0.033608835  0.035375948            3 
  246000    1.2161889   -7.1208347    99.687186  0.033769372  0.035366075            2 
  247000    1.2357648   -7.1047455    99.407997   0.03353846  0.035355635            1 
  248000    1.2243128   -7.1481861    99.981318  0.033595873  0.035346584            1 
  249000    1.2157122   -7.1324975    99.988304  0.033463288  0.035337688            2 
  250000    1.2349777   -7.0695856    101.00854  0.033669515  0.035327863            2 
  251000    1.2204422   -7.0998137    101.28654  0.033627668  0.035318033            1 
  252000    1.1910891   -7.1184533    101.58773  0.033593827  0.035307511            1 
  253000    1.2099171   -7.0660831    102.06681  0.033618843  0.035297367            2 
  254000    1.2091731   -7.1517267    102.39493  0.033594138  0.035286725            1 
  255000    1.1880452   -7.1309732    102.43189  0.033474473  0.035276559            1 
  256000    1.2133349   -7.1172571    103.12774  0.033570228  0.035267733            2 
  257000    1.1844139   -7.1154814    103.72128  0.033632063  0.035259643            1 
  258000    1.2208527   -7.1245561     103.8825  0.033553778  0.035249934            1 
  259000    1.1838756   -7.1636947    104.31812  0.033564389  0.035240129            2 
  260000    1.2013786   -7.1357589    105.14137  0.033699158  0.035231402            2 
  261000    1.2157414   -7.1094741    105.36737    0.0336422  0.035225377            4 
  262000    1.1997653   -7.1252439    105.53916  0.033568436  0.035217053            2 
  263000    1.2091614    -7.134253    105.96984  0.033577263  0.035209168            2 
  264000    1.1959581   -7.1449309    106.53695  0.033629089  0.035201606            2 
  265000    1.1861001   -7.1285818    107.09545  0.033677815  0.035194611            1 
  266000    1.2122325   -7.0773155     107.8936  0.033801253  0.035188355            2 
  267000    1.1913994   -7.1264614     107.5199  0.033558023  0.035182343            3 
  268000    1.2022235   -7.1462347    107.98952   0.03357883  0.035175462            2 
  269000    1.1805421   -7.0902936    108.62239  0.033650058  0.035166737            1 
  270000    1.1730577   -7.1336611    108.90492  0.033612628  0.035159204            2 
  271000    1.2206618   -7.0907614    109.64492  0.033716149  0.035151757            2 
  272000    1.2150444   -7.0769872    110.16582  0.033751783  0.035145993            2 
  273000    1.1953653   -7.1283312    110.23287  0.033648618   0.03513865            1 
  274000     1.195739   -7.1023156    110.61708  0.033642664  0.035130772            2 
  275000    1.2195306   -7.1250218    110.56584  0.033504799  0.035123022            2 
  276000    1.2216538   -7.1201478    111.56159  0.033684054  0.035116564            3 
  277000      1.19732   -7.1230219    111.65517  0.033590606  0.035110098            2 
  278000    1.1876025   -7.0948215    112.64796  0.033767375  0.035103875            1 
  279000    1.2097704   -7.0844463    112.59835  0.033631526   0.03509824            4 
  280000    1.1839345   -7.1173848    112.60728  0.033514072   0.03509185            1 
  281000    1.2059323   -7.1040485    113.21975  0.033576437  0.035083547            1 
  282000    1.2094553   -7.1080092    113.52502  0.033547583  0.035074558            3 
  283000    1.2057023   -7.1071413    114.45308  0.033702322  0.035067329            1 
  284000     1.232637   -7.1325124    114.26586  0.033528716    0.0350602            2 
  285000    1.1839623   -7.0845958    115.36775   0.03373326    0.0350542            1 
  286000    1.2200754   -7.1303676    115.32521  0.033602916  0.035047211            2 
  287000    1.2079477    -7.123462    115.61357  0.033569561  0.035039814            2 
  288000    1.2119952    -7.111606    116.84468  0.033809224  0.035032496            1 
  289000    1.2009463   -7.1247107    117.07848  0.033759654  0.035027323            5 
  290000    1.2025754   -7.1138922    117.51241  0.033767935  0.035022717            6 
  291000    1.2364991   -7.1332941    117.66787  0.033696412  0.035017969            3 
  292000     1.210508   -7.1231879       117.75  0.033604453  0.035011743            1 
  293000      1.22209   -7.1050067    118.45201  0.033689423   0.03500674            2 
  294000    1.2174638   -7.1248648    118.99383   0.03372841  0.035003473            2 
  295000    1.2170632   -7.1199574     119.7202  0.033819265  0.034999938            1 
  296000    1.2035103   -7.1120535    120.02957  0.033792109  0.034997318            1 
  297000     1.201248   -7.0950317    120.36746  0.033773136  0.034993885            2 
  298000    1.1903534   -7.1378655    120.80438  0.033781986   0.03498921            1 
  299000     1.199263   -7.1036076    121.42343  0.033841535  0.034985397            1 
  300000     1.179098   -7.1520058    121.59878   0.03377744  0.034982037            2 
  301000    1.1960034   -7.0872311    122.04575  0.033788966  0.034979831            1 
  302000    1.1932772   -7.1393499    122.80008  0.033885231  0.034978799            1 
  303000    1.2093457   -7.1380421    123.35497  0.033926008  0.034977491            1 
  304000    1.1868958    -7.155522    123.55121  0.033868204  0.034976479            2 
  305000     1.186348   -7.1246839     123.9152  0.033856612  0.034976112            1 
  306000    1.1888402   -7.1506327    124.66798  0.033950975  0.034974663            2 
  307000    1.1947842   -7.1329955    124.84097  0.033887342  0.034974366            1 
  308000    1.2038802   -7.1282391    125.52746  0.033963057  0.034974594       -1e+20 
  309000    1.2336366   -7.1205214        126.4  0.034088457  0.034974075            3 
  310000    1.2107048     -7.11467    126.42171  0.033984331  0.034974687            1 
  311000    1.2093389   -7.0897362    126.58164  0.033917909  0.034974177            1 
  312000    1.2089322   -7.1249382    126.84385  0.033879234  0.034973978            3 
  313000    1.2065069   -7.1684467    126.91361  0.033789566  0.034971549            2 
  314000    1.2223144   -7.1427761    127.86934  0.033935599  0.034969597            3 
  315000    1.2468671   -7.1459251    128.30945    0.0339443  0.034968465            3 
  316000     1.216475   -7.1167388    128.78037  0.033961068  0.034968027            1 
  317000    1.2321365   -7.1372671    129.18545  0.033960424  0.034968648            2 
  318000     1.195365   -7.1394601     129.5923  0.033960247  0.034969209            2 
  319000    1.2050595   -7.0895962    130.33196  0.034047013   0.03497001            1 
  320000    1.2004481   -7.1279822    130.83904  0.034072665  0.034970366            1 
  321000    1.1959402   -7.1191315    131.01846  0.034013099  0.034969858            1 
  322000    1.2092569   -7.1657588    130.87698  0.033870854  0.034968248            1 
  323000    1.2012608   -7.1499032    131.71144  0.033981279  0.034966408            2 
  324000    1.1822259   -7.1721998    131.91685   0.03392923  0.034964917            3 
  325000    1.1977575    -7.152656    132.65691  0.034014592  0.034963302            2 
  326000    1.2133614   -7.1872869    132.44613  0.033856373  0.034962341            1 
  327000    1.1823398   -7.1125139    133.33708  0.033979889  0.034961718            2 
  328000    1.2032418   -7.1908355    133.28403  0.033862813  0.034960861            1 
  329000    1.2046704   -7.1303568    134.59588  0.034092168  0.034958453            1 
  330000    1.1697255   -7.1209961     134.7262  0.034021767  0.034957136            1 
  331000    1.2012385   -7.1805656    134.44597  0.033848432  0.034954801            1 
  332000    1.2075271   -7.1586675     134.6812  0.033805522  0.034951743            5 
  333000    1.1948632   -7.0898499    135.52254  0.033914549  0.034949153            2 
  334000    1.1951242   -7.1689724    135.92655  0.033913811  0.034947298            2 
  335000    1.1969312    -7.092388    136.54931  0.033967491  0.034944668            2 
  336000    1.2088033   -7.1802547    136.55233  0.033867145  0.034940225            1 
  337000    1.2305795    -7.139716    136.66881  0.033795452  0.034937307            2 
  338000    1.1751512   -7.1139165    137.14014  0.033811671  0.034933747            1 
  339000      1.17795   -7.1288818    137.76438  0.033865383  0.034930011            1 
  340000    1.1867602   -7.1565968    137.89345  0.033797413  0.034925581            1 
  341000    1.2014857   -7.1302296    138.58878  0.033868227  0.034921637            2 
  342000    1.1846413   -7.0866413    139.26793   0.03393468  0.034919122            1 
  343000    1.1717962    -7.141426    139.45529  0.033881267  0.034914844            2 
  344000    1.1918942   -7.1322225    139.61068  0.033820416  0.034909966            3 
  345000    1.1958314   -7.1419525    139.35568  0.033660792  0.034903656            1 
  346000    1.1827348   -7.1473482    139.93156  0.033702207  0.034897707            1 
  347000     1.189139   -7.1555631    140.44597   0.03372862  0.034890282            1 
  348000    1.2026255    -7.183797    140.24991  0.033584747  0.034883772            1 
  349000     1.222625   -7.1336797    141.08463  0.033687829  0.034876441            1 
  350000    1.1913765   -7.1858817     141.0607  0.033585881  0.034869825            4 
  351000    1.1927815   -7.1336236    141.69462  0.033640698  0.034863205            1 
  352000    1.1933169   -7.1863723    141.63659  0.033531391  0.034856718            1 
  353000    1.1867318   -7.1273644     142.4455   0.03362736  0.034848687            4 
  354000    1.1939424   -7.1468394    142.55996  0.033559313  0.034840392            1 
  355000    1.1948773   -7.2027593     142.6567  0.033487489  0.034832202            4 
  356000    1.2140205   -7.1520801    143.76063  0.033651832   0.03482607            2 
  357000    1.1582966   -7.1710893    144.40438  0.033707839  0.034820204            1 
  358000    1.2069974   -7.1556871    144.89559  0.033728023  0.034814967            2 
  359000    1.1820237    -7.165533    145.02578  0.033664294  0.034808513            1 
  360000    1.1831869   -7.1306345    145.86867  0.033765896  0.034803742       -1e+20 
  361000    1.2098078   -7.1613084    146.11847  0.033730025  0.034798997            2 
  362000    1.1817281   -7.1629468    146.38017  0.033697093  0.034794773            1 
  363000    1.2000469   -7.1465298    147.47546  0.033855707  0.034790908            1 
  364000    1.1998258   -7.1544944    147.30194  0.033722971  0.034786564            2 
  365000    1.1912059   -7.1678108     148.0237  0.033795366  0.034782801            1 
  366000    1.2284428   -7.1056643    148.84185  0.033889309  0.034779036            1 
  367000    1.1730672   -7.1119235    148.22553  0.033657023  0.034774282            1 
  368000    1.2031532   -7.1216592    149.30459  0.033809917  0.034768296            3 
  369000    1.1882326   -7.1865578    148.74503  0.033591922  0.034762863            1 
  370000    1.1910331   -7.1657905    149.53987  0.033680151  0.034756742            3 
  371000    1.2113574   -7.1505536    149.90591  0.033671587  0.034750028            2 
  372000    1.1968959   -7.1642236    150.23903  0.033655696  0.034745165            1 
  373000    1.1897237   -7.1728635    150.69046  0.033666323   0.03473934            1 
  374000    1.1999736   -7.1612743    151.06375  0.033659481  0.034733035            1 
  375000    1.1708001   -7.1751445    151.15486   0.03358997  0.034725864            1 
  376000    1.1818595   -7.1877264    151.16437  0.033502742  0.034717888            3 
  377000    1.1985007   -7.1762596    151.15317  0.033411399  0.034710535            2 
  378000     1.191244   -7.1356596    152.13051  0.033538473  0.034703146            3 
  379000    1.1736502   -7.1530159    152.81741  0.033601012  0.034696081            3 
  380000     1.210989   -7.1848358    153.36087   0.03363177  0.034689748            1 
  381000    1.1973192   -7.1487367    153.50312  0.033574611  0.034683188            2 
  382000    1.1943992   -7.1679802    153.60534  0.033509019  0.034676264            1 
  383000    1.1883555   -7.1123615    153.83778  0.033472102  0.034668514            3 
  384000    1.1938046   -7.1673714    154.25881  0.033476304  0.034660295            1 
  385000    1.1772672   -7.1443569    154.78642  0.033503554  0.034652383            3 
  386000    1.1692403   -7.1306503    154.86793  0.033434355  0.034644472            1 
  387000    1.1852212   -7.1566166    155.05195  0.033387586  0.034635947            2 
  388000    1.1813702   -7.1852547    155.01936  0.033294535  0.034627052            1 
  389000    1.1815201   -7.1745904      155.648  0.033343616  0.034617129            2 
  390000    1.1683032   -7.1831871    156.24894  0.033386525  0.034607288            2 
  391000    1.1834614   -7.1845378    156.33519  0.033319521  0.034597747            1 
  392000    1.1852672   -7.1460216    157.30354  0.033440378  0.034588317            1 
  393000    1.2093375   -7.1418792    157.54403  0.033406283  0.034579782            2 
  394000    1.1880163   -7.1653685    158.02226  0.033422644  0.034570998            1 
  395000    1.1919376   -7.1707282    158.04829  0.033343522   0.03456206            1 
  396000    1.1565398   -7.1438709    158.38865  0.033330944  0.034554071            2 
  397000    1.2018686   -7.0749432    160.00145  0.033585528  0.034546132            1 
  398000    1.1847602   -7.1248821    159.73806  0.033445992  0.034538359            1 
  399000    1.2070381   -7.1601617    159.38044  0.033287476  0.034530009            2 
  400000    1.1853675   -7.2187071    159.63071  0.033256397  0.034521065            5 
  401000    1.1976105   -7.1650233     161.0003  0.033458083  0.034512521            2 
  402000    1.2166275   -7.1458769    160.49719  0.033270563  0.034503748            1 
  403000     1.226151   -7.1645426    161.14601  0.033322169  0.034495001            2 
  404000    1.1948682   -7.1679025    161.78547  0.033371591  0.034485912            1 
  405000    1.1757903    -7.166643    161.38019  0.033205801  0.034476093            2 
  406000    1.1763399   -7.1706153     161.9501  0.033240988  0.034466716       -1e+20 
  407000    1.1923865    -7.176713    162.31976  0.033235005  0.034457664            1 
  408000    1.2021427   -7.1791956    162.46266  0.033182733  0.034448442            2 
  409000    1.2008802   -7.0867494    163.73788  0.033361426  0.034439005            2 
  410000    1.1851978   -7.1401802    163.66719  0.033265689  0.034429866            1 
  411000     1.183909   -7.1986863    164.41816  0.033337016  0.034419738            1 
  412000    1.2000401   -7.1987435    164.57133  0.033287081  0.034410043            1 
  413000    1.1875802   -7.1897707    165.27109  0.033347678  0.034401322            1 
  414000    1.1764341   -7.1951395    165.87721  0.033389133  0.034393847            1 
  415000    1.1784095   -7.2311277    165.77539   0.03328823  0.034386552            2 
  416000    1.1628423   -7.2017322      166.454   0.03334415  0.034379629            2 
  417000    1.1989396    -7.216164    166.76878  0.033327094  0.034372398            2 
  418000    1.1664339   -7.1977953    167.28444  0.033350167  0.034365641            1 
  419000    1.1735883   -7.1821194    167.86804  0.033386642  0.034359059            2 
  420000    1.1807216    -7.175445     168.2923   0.03339133  0.034352466            1 
  421000    1.1911947   -7.1711493    169.04569  0.033461142  0.034346104            2 
  422000     1.200746   -7.2120236    168.62898  0.033299562  0.034340181            1 
  423000    1.1957023    -7.209884    169.37036  0.033366894  0.034334139            2 
  424000    1.1723403   -7.1472333    170.11584  0.033434716  0.034328044            3 
  425000    1.1924744   -7.1556576    170.82297    0.0334947  0.034322312            2 
  426000    1.1891961   -7.1667733    170.45412   0.03334392  0.034316623            2 
  427000    1.1985407   -7.1505904    171.70549  0.033510049  0.034310707            1 
  428000    1.1701354    -7.187633    171.23883  0.033340893   0.03430461            3 
  429000    1.1947939   -7.1530098    171.63142  0.033339437  0.034298399            1 
  430000    1.2015325    -7.139519    172.84269  0.033496646  0.034292154            1 
  431000    1.2057513   -7.1826288    172.59541  0.033371116    0.0342859            1 
  432000    1.1971472   -7.1446946     173.3537  0.033440142  0.034280009            1 
  433000    1.1836172   -7.1502259    173.90176  0.033468391  0.034275409            3 
  434000    1.1764869   -7.1863697    174.11149  0.033431545  0.034270857            2 
  435000     1.173267   -7.1651113    174.85645  0.033497404   0.03426605            1 
  436000    1.1903337   -7.1976919    174.39397  0.033332181  0.034261639            1 
  437000    1.1912666   -7.2121724    175.51274  0.033469249  0.034257237            1 
  438000    1.1963443   -7.1686961    176.03855  0.033492874  0.034253203            1 
  439000    1.1988985   -7.1908522    176.07071  0.033422686  0.034248156            2 
  440000    1.1425307   -7.1874017    176.36537  0.033402531  0.034243109            1 
  441000    1.1757584    -7.196474    176.81872  0.033412456  0.034237473            1 
  442000    1.1855814     -7.19073    176.68188  0.033311064  0.034231268            4 
  443000    1.1551314   -7.2083183    176.61123  0.033222579  0.034224651            1 
  444000    1.1757518   -7.1603134    177.18179  0.033254841   0.03421742            1 
  445000    1.1768353   -7.1295306    177.65031  0.033267848  0.034210422            1 
  446000    1.1773684   -7.1889071    177.46147  0.033157973  0.034202085            1 
  447000    1.1893863    -7.202635    178.05389  0.033194237  0.034194069            2 
  448000    1.1731499   -7.2149472    177.55397  0.033027152  0.034185647            1 
  449000    1.1431935   -7.1796404    178.93563  0.033210028  0.034177084            2 
  450000    1.1723039   -7.1562813    178.78234  0.033107841  0.034169533            1 
  451000    1.1699179   -7.1967603    179.44063  0.033156066  0.034161957            2 
  452000    1.1821752   -7.1490503    179.64426  0.033120254  0.034154709            1 
  453000    1.1809933   -7.1486105    180.42967  0.033191625  0.034147499            1 
  454000    1.1550919   -7.1426421    181.28225   0.03327501  0.034139492            1 
  455000    1.2055432   -7.1718051    181.68199  0.033275089  0.034131762            2 
  456000      1.18542   -7.1488847      181.638   0.03319408  0.034125008            1 
  457000    1.1911702   -7.1863785    181.54898  0.033105211  0.034118097            2 
  458000    1.1461515   -7.1868859    181.47844  0.033020094  0.034110656            1 
  459000    1.2017928   -7.2235636    182.92369  0.033210547   0.03410319            2 
  460000    1.1673651     -7.16347    183.70342  0.033279606  0.034095957            1 
  461000    1.2005483   -7.1660388    183.93689  0.033249619  0.034089077            2 
  462000    1.1899221   -7.1822562    183.81895  0.033156377  0.034082101            1 
  463000    1.1504729   -7.2196307    184.53914  0.033214389  0.034074927            1 
  464000    1.1486032   -7.1617898    184.88672  0.033205229  0.034067707            2 
  465000    1.1744063   -7.2042914    184.51282  0.033066813  0.034059814            1 
  466000    1.1727883   -7.1807956    185.35294   0.03314609  0.034051884            1 
  467000    1.1855491   -7.1986156    185.87609  0.033168467   0.03404467            1 
  468000     1.187736   -7.1512392    186.00109  0.033119852  0.034037745            2 
  469000    1.1792564   -7.2497675    186.24315  0.033092244  0.034030611            2 
  470000    1.1788966   -7.2366433    186.69699  0.033102303  0.034023159            3 
  471000    1.1902277   -7.1805681    187.94546  0.033252912  0.034016649            2 
  472000    1.1848874   -7.1578991    187.67411  0.033134553   0.03401062            2 
  473000    1.1692803   -7.1838551    188.13253  0.033145266  0.034003994            1 
  474000    1.1308128   -7.1765501    189.03127  0.033233345  0.033998008            3 
  475000    1.1732938   -7.2008019    189.28602  0.033208074  0.033991496            1 
  476000    1.1768458   -7.1940577    189.73795  0.033217429  0.033984952            1 
  477000    1.1500883   -7.1872257    188.80938  0.032985566  0.033977813            2 
  478000     1.198213   -7.2087958    189.97005  0.033118907  0.033970611            2 
  479000     1.154257   -7.1817377    190.66066  0.033169913  0.033964022            2 
  480000    1.1816381   -7.1648811     191.1478  0.033185382  0.033956978            1 
  481000     1.159215   -7.1656675    190.72007  0.033042285  0.033949974            2 
  482000    1.1670774    -7.210403    191.51016  0.033110332  0.033943389            3 
  483000    1.1572051   -7.2156435    191.43381  0.033028608  0.033936645            2 
  484000    1.1912935   -7.1745154    192.47054  0.033138867  0.033929862            2 
  485000    1.1487265   -7.2112985    192.44907  0.033066851  0.033923387            1 
  486000    1.1693067   -7.1567166    193.27657  0.033140701  0.033917056            3 
  487000     1.167407   -7.1994229     193.2058  0.033060541  0.033911255            2 
  488000     1.156544   -7.2190338    194.26238  0.033173221  0.033904477            2 
  489000    1.1821501   -7.2208143    194.42365  0.033132864  0.033898558            2 
  490000    1.1771624   -7.1947049    194.16069  0.033020525  0.033892178            1 
  491000    1.1867794   -7.2144271    194.86277  0.033072432  0.033885751            2 
  492000    1.1682479   -7.1862514    195.02453   0.03303261   0.03387976            2 
  493000    1.1637106   -7.1874202    196.27663  0.033177252  0.033873632            1 
  494000    1.1585385   -7.2121771    196.38564  0.033128482  0.033867996            2 
  495000    1.1726481   -7.1887532    196.68113  0.033111301  0.033862095            1 
  496000    1.1672124   -7.1911759     198.6956  0.033382998  0.033857138            3 
  497000    1.1505407   -7.2529807    197.81131  0.033167558  0.033852806            1 
  498000    1.1625359   -7.2226635    199.20239  0.033333734  0.033848877       -1e+20 
  499000    1.1753449   -7.1975667    199.01654  0.033235896  0.033844837            2 
  500000    1.1832064   -7.1992107    199.39822  0.033233037  0.033840981            3 
  501000    1.1493321   -7.2028507    199.35945  0.033160255  0.033837361            2 
  502000    1.1929824   -7.1922382    200.02467  0.033204627  0.033833617            2 
  503000    1.1651877   -7.2129606    200.55753  0.033226894  0.033829693            1 
  504000    1.1774524    -7.154312    201.19855  0.033266956  0.033825435            2 
  505000    1.1513602   -7.1403619    202.09289  0.033348662  0.033821686            1 
  506000    1.1913669   -7.2298946    201.75625  0.033227314  0.033818748            3 
  507000    1.1903098   -7.1537547    202.79791  0.033332989  0.033815194            3 
  508000    1.1524169   -7.2108767    202.23163   0.03317448  0.033811588            2 
  509000    1.1711666   -7.1359257    204.11343  0.033417391  0.033808423            1 
  510000    1.1722725   -7.1925095    203.82013  0.033303943  0.033806046            2 
  511000    1.1651317   -7.2174214      204.209  0.033302184    0.0338028            1 
  512000    1.1718657   -7.2307901    203.87231  0.033182343  0.033799244            1 
  513000      1.16266    -7.211685    204.37514  0.033199341  0.033795202            1 
  514000    1.1699463   -7.1977121    204.97566  0.033232111  0.033791087            1 
  515000    1.1503907   -7.1832608    205.66231  0.033278691  0.033786873            1 
  516000     1.191719   -7.2296171    205.56373  0.033198277  0.033782984            1 
  517000    1.1671355   -7.2248399    205.60909  0.033141375  0.033779076            3 
  518000    1.1512761   -7.1847982    207.47644  0.033377806  0.033776123            2 
  519000    1.1667899   -7.2221401    206.46202  0.033150613  0.033773039            2 
  520000    1.1567768   -7.1736728    208.04926  0.033341227  0.033769645            1 
  521000    1.1827757   -7.2204973    207.60454    0.0332061  0.033766181            3 
  522000    1.1796367   -7.2354785    208.05346  0.033214154  0.033762377            1 
  523000    1.1949371   -7.2300912    207.93483  0.033131745  0.033758091            3 
  524000     1.176069   -7.2298889    208.29132   0.03312521  0.033753674            1 
  525000    1.1567829   -7.2182402    207.48251  0.032933732  0.033748652            2 
  526000    1.1539111    -7.215517    208.94563   0.03310292  0.033743519            5 
  527000    1.1753011   -7.1751218     209.5855  0.033141287  0.033738723            1 
  528000    1.1619097    -7.208566    209.34314  0.033040268   0.03373371            1 
  529000    1.1758125   -7.1867364    209.95004  0.033073415   0.03372774            1 
  530000    1.1542216   -7.2178472    209.61576  0.032958454  0.033721521            1 
  531000    1.1755916   -7.2234127    210.16671  0.032982848  0.033715374            2 
  532000    1.1785654   -7.1875244    210.22424  0.032929863  0.033709411            1 
  533000    1.1528819   -7.1721249    211.26778  0.033031236  0.033703517            3 
  534000    1.1798251   -7.2279003    211.68271  0.033034131  0.033697738            1 
  535000    1.1667653   -7.2115892    212.27751  0.033065033  0.033692973            2 
  536000    1.1735362   -7.2507473    212.33135  0.033011716  0.033687393            4 
  537000    1.1533664   -7.1961059     212.5963  0.032991356  0.033681321            1 
  538000     1.159231   -7.2106991    213.65426  0.033093907  0.033675209            2 
  539000    1.1700026   -7.1900042    213.92426  0.033074252  0.033669671            1 
  540000     1.151108   -7.1842336    213.90376  0.033009839  0.033663909            1 
  541000    1.1519892   -7.1835141    215.11895  0.033136006  0.033658114            1 
  542000    1.1439666   -7.2600692    213.63698  0.032847014  0.033652657            1 
  543000    1.1360752   -7.2345239    214.98477  0.032993366   0.03364688            2 
  544000    1.1564832   -7.1995452    215.72379  0.033045924  0.033641291            1 
  545000    1.1884698   -7.1683513    215.77598   0.03299327  0.033635935            2 
  546000     1.151841   -7.1513692    216.52404  0.033047015  0.033631422            2 
  547000    1.1658166   -7.2363419    215.48562  0.032828401  0.033626023            1 
  548000    1.1474096   -7.1909441    216.73977  0.032959211   0.03362033            3 
  549000    1.1616403   -7.1833762    217.15802  0.032962663   0.03361495            4 
  550000    1.1434583   -7.1947577    217.45769  0.032948134  0.033609355            2 
  551000    1.1649468   -7.2140212    217.67866  0.032921757  0.033603799            3 
  552000    1.1667131   -7.1810994    218.84944  0.033038865   0.03359891            2 
  553000    1.1615475   -7.2181713     218.9632  0.032996262  0.033594528            2 
  554000    1.1744408   -7.2465352    219.32105   0.03299053   0.03358987            1 
  555000    1.1597028   -7.2408845    219.61366  0.032975024  0.033585286            1 
  556000    1.1500173   -7.1768968    220.19993  0.033003587  0.033580713            1 
  557000    1.1937055   -7.2049547    220.76829  0.033029367  0.033576624            1 
  558000    1.1404636   -7.1961073    221.63038  0.033098921  0.033572318            2 
  559000     1.135963   -7.2216244    222.14905  0.033117032  0.033567978            1 
  560000    1.1579444   -7.2191411    221.84333  0.033012401  0.033563377            1 
  561000    1.1663297   -7.2643922    221.46488  0.032897338  0.033558291            2 
  562000    1.1660484   -7.2251941    222.66869  0.033017303   0.03355355            2 
  563000    1.1635875   -7.2191483    222.61596  0.032950852  0.033548837            1 
  564000     1.136443   -7.2137884    222.68478  0.032902597  0.033543845            1 
  565000    1.1744737   -7.1967051    223.42221  0.032953128  0.033538883            1 
  566000    1.1830641   -7.2195402    223.42753  0.032895691  0.033533949            1 
  567000    1.1688721   -7.2131578    223.78043  0.032889539  0.033528739            2 
  568000    1.1802109   -7.2055329    224.62358  0.032955338  0.033524038            3 
  569000     1.172932   -7.2274337    224.81839  0.032925951  0.033519478            1 
  570000      1.13978   -7.1682159    225.64765  0.032989423  0.033514537            1 
  571000    1.1418724   -7.2053444    226.15608   0.03300585  0.033509966            5 
  572000    1.1588861   -7.2303312    226.35809  0.032977577  0.033505428            3 
  573000     1.137073   -7.1910192    227.14459  0.033034409   0.03350061            1 
  574000    1.1686091   -7.2223129    227.05193  0.032963404  0.033495566            2 
  575000    1.1760937   -7.2311306    227.30746   0.03294311  0.033490865            2 
  576000    1.1701384   -7.2516357    227.15629  0.032864046  0.033485942            2 
  577000    1.1773585    -7.232431    227.99956  0.032928879  0.033480766            1 
  578000    1.1891269   -7.2880598    227.26613  0.032766166  0.033475712            1 
  579000    1.1855581    -7.245928    228.25552  0.032851975   0.03347081            1 
  580000    1.1663356   -7.2274619    229.33377  0.032950255  0.033465434            2 
  581000    1.1571269   -7.1835417    229.99056  0.032987745  0.033460747            1 
  582000    1.1980014   -7.1954314    229.96148  0.032926901  0.033456273            5 
  583000    1.1692482    -7.233423    229.78843  0.032845687  0.033451788            2 
  584000    1.1782072   -7.2586738    229.64372  0.032768796  0.033447034            1 
  585000    1.1529101    -7.232045     230.4776  0.032831567  0.033442175            4 
  586000    1.1583775   -7.2490914    230.74495  0.032813559  0.033436971            2 
  587000    1.1577148   -7.2086931    231.36841  0.032846168  0.033432122            2 
  588000    1.1403714   -7.2333365     231.8588  0.032859807  0.033427133            1 
  589000     1.155427   -7.2043694    232.40486  0.032881277  0.033422046            2 
  590000    1.1646811   -7.1981329    233.26233  0.032946657  0.033417372            1 
  591000    1.1644973   -7.2518307    232.18671  0.032739243  0.033412302            2 
  592000    1.1311715   -7.2496584    232.68853  0.032754579  0.033407189            1 
  593000    1.1395976   -7.2180333    234.43169  0.032944308   0.03340257            1 
  594000    1.1672964   -7.2212119    234.33737  0.032875613  0.033398653            1 
  595000     1.150355   -7.2329737     234.4002   0.03282916  0.033394015            1 
  596000    1.1590158   -7.2724622    234.33715  0.032765262  0.033389135            1 
  597000    1.1532779   -7.2506603    234.60792  0.032748175  0.033384058            2 
  598000    1.1484332   -7.2550342    236.11179   0.03290298  0.033378743            1 
  599000    1.1496214    -7.233304    236.08671  0.032844561  0.033373246            1 
  600000    1.1470911   -7.2295744    236.35507  0.032827093  0.033368847            4 
  601000    1.1526155    -7.202611    236.77946  0.032831317  0.033364145            1 
  602000    1.1498107   -7.2325153    236.67331  0.032762086  0.033359162            2 
  603000    1.1251674   -7.2045232    236.89465  0.032738342  0.033353835            1 
  604000    1.1429518   -7.1924528    236.82568  0.032674625  0.033348156            1 
  605000     1.183969   -7.2410501    236.97527  0.032641222   0.03334232            2 
  606000    1.1721403   -7.2058547    237.82414  0.032704089  0.033336378            2 
  607000    1.1589378   -7.2653387    237.16864  0.032560219  0.033330317            3 
  608000    1.1234961   -7.2167608    238.91672  0.032746261  0.033323826            4 
  609000    1.1457266    -7.254381    237.71355  0.032527853  0.033317209       -1e+20 
  610000    1.1866103   -7.2057006    238.22314  0.032544144  0.033310329            1 
  611000    1.1707024   -7.2435194    238.34889  0.032508032  0.033303258            1 
  612000    1.1568053   -7.2646021    238.55723  0.032483283  0.033295691            2 
  613000    1.1701961   -7.2644384    238.79559  0.032462695   0.03328789            4 
  614000    1.1736947   -7.2452252    238.87745  0.032420935  0.033279728            2 
  615000    1.1531201    -7.265124    239.54566  0.032458762  0.033271672            1 
  616000    1.1404721   -7.2317685    239.86866  0.032449764  0.033263396            1 
  617000    1.1477285   -7.2971979     239.8933    0.0324005   0.03325596            1 
  618000     1.146482   -7.2515138    240.25368  0.032396667  0.033248366            1 
  619000    1.1430014   -7.2315091    242.00857  0.032580583  0.033241463            2 
  620000    1.1665145   -7.2415397    240.91187  0.032380628  0.033234103            1 
  621000    1.1278187   -7.2230997    241.54286  0.032413159  0.033226592            1 
  622000    1.1525776    -7.271343    241.20121  0.032315274  0.033218596            1 
  623000    1.1333567   -7.2292764     242.6675  0.032459537  0.033210556            1 
  624000     1.147897   -7.2509315    242.03805  0.032323457  0.033203124            2 
  625000    1.1494339   -7.2273287     243.5875  0.032478333  0.033195516            2 
  626000    1.1330289   -7.2073849    243.48062  0.032412224  0.033187426            1 
  627000     1.160701   -7.1961762    244.06417  0.032438087  0.033179302            2 
  628000    1.1508863   -7.2693212    243.27242  0.032281372  0.033171418            1 
  629000     1.144475   -7.2726494    244.28631  0.032364376  0.033163234            1 
  630000    1.1610801   -7.2275669    244.93556  0.032398883  0.033155738            1 
  631000    1.1474629   -7.2220167     245.7799  0.032459047  0.033148418            1 
  632000    1.1477224    -7.266132    245.23831  0.032336275  0.033140522            1 
  633000    1.1768386   -7.2488096    245.32121  0.032296105  0.033132524            1 
  634000    1.1698205   -7.2316251    246.00439  0.032334962  0.033124493            2 
  635000    1.1404235   -7.2391262    245.67394  0.032240674  0.033116758            2 
  636000    1.1705494   -7.2134261    247.12258  0.032379793  0.033108761            2 
  637000    1.1261751   -7.2177643    247.38545   0.03236335  0.033101347            1 
  638000    1.1674466   -7.2292101    247.69777  0.032353418  0.033093689            1 
  639000    1.1784525   -7.2684423     247.2084  0.032238967  0.033085742            1 
  640000    1.1733034   -7.2420464     247.4128  0.032215208  0.033077949            2 
  641000    1.1478222   -7.2214315    248.02857  0.032245004  0.033070543            1 
  642000    1.1509273    -7.246401    248.44919  0.032249375  0.033062704            1 
  643000    1.1543353   -7.2693181    248.63666  0.032223517  0.033054527            1 
  644000    1.1568312    -7.249383    249.86159  0.032331987  0.033046369            2 
  645000    1.1585918   -7.2571183    250.56925  0.032373287  0.033038441            2 
  646000    1.1325749   -7.2572693    250.44684  0.032307384  0.033030854            1 
  647000    1.1642562   -7.2451227    250.59569  0.032276621  0.033023395            1 
  648000    1.1636011   -7.2763326    250.33948  0.032193864    0.0330151            2 
  649000    1.1508938   -7.2389188    250.80102  0.032203521   0.03300665            4 
  650000    1.1443681   -7.2197673    251.43616  0.032235405  0.032998063            1 
  651000    1.1635387   -7.2731491    250.81436  0.032106293  0.032989577            2 
  652000    1.1446004   -7.2814687    251.14928  0.032099857  0.032980877            2 
  653000    1.1422011   -7.2974465    250.90778   0.03201988  0.032972469            1 
  654000    1.1516526   -7.2251753    252.34119  0.032153566  0.032963954            1 
  655000    1.1296268   -7.2535947    252.75363  0.032156951  0.032955742            1 
  656000    1.1622819   -7.2726365    251.97901  0.032009528  0.032947046            2 
  657000    1.1547814   -7.2408858    252.34294  0.032006969  0.032938381            1 
  658000    1.1233516   -7.2378022    253.13982  0.032059248  0.032929629            1 
  659000    1.1509993   -7.2643157    254.40458  0.032170534  0.032920881            2 
  660000    1.1305439   -7.2553016    254.28701  0.032106946    0.0329124            1 
  661000    1.1402449   -7.2702098    254.51478  0.032087087  0.032903613            1 
  662000    1.1506523   -7.2553209    254.34827  0.032017657  0.032894866            2 
  663000    1.1524954   -7.2675747    254.81664  0.032028235  0.032885918            1 
  664000    1.1459907   -7.2563111    255.54206  0.032071041  0.032876748            2 
  665000    1.1417584   -7.2443691     255.7752   0.03205203  0.032868158            1 
  666000    1.1617806   -7.2990679     255.0038  0.031907383  0.032859086            4 
  667000    1.1237781   -7.2983085     256.0459  0.031989743  0.032849604            1 
  668000    1.1546412   -7.2942632    255.80558  0.031911873  0.032840223            1 
  669000    1.1522367   -7.2740582    257.08626    0.0320237  0.032831206            1 
  670000    1.1762695   -7.2655876    256.99366  0.031964385  0.032822193            3 
  671000    1.1450049   -7.2760494    257.65633  0.031999048  0.032813268            1 
  672000    1.1247024   -7.2797977     256.7132  0.031834474  0.032804443            5 
  673000    1.1495648   -7.2571289    257.48991  0.031883347  0.032795177            3 
  674000    1.1591953   -7.2528106    258.87121  0.032006827  0.032786039            1 
  675000    1.1419487   -7.2603265    258.22877  0.031880095  0.032776825            1 
  676000    1.1612513   -7.2784061    258.46875  0.031862518  0.032768042            1 
  677000    1.1591216   -7.2166334    259.25519  0.031912258  0.032759273            1 
  678000    1.1504563   -7.2697387    259.48339  0.031893239  0.032750589            2 
  679000      1.12796   -7.2538512    260.14404  0.031927349  0.032741553            1 
  680000    1.1686511   -7.2266858     260.0895  0.031873713  0.032732786            5 
  681000    1.1396577   -7.2326408    259.62562  0.031770144  0.032723685            5 
  682000    1.1171935   -7.2391238    261.13037  0.031907426   0.03271444            2 
  683000    1.1381637   -7.2771758    260.55651  0.031790692  0.032705392            3 
  684000    1.1330442   -7.2608758    261.82788  0.031899108  0.032696049            1 
  685000       1.1644   -7.2555303    261.67986  0.031834532  0.032687215            3 
  686000    1.1631417   -7.2373011    262.48574  0.031886023  0.032678033            2 
  687000    1.1478776   -7.3244074     261.4754  0.031717055  0.032668968            2 
  688000     1.167531    -7.257365    262.83917   0.03183614  0.032659683            2 
  689000    1.1108413   -7.2880098    262.77652  0.031782356  0.032650595            2 
  690000    1.1315794   -7.2463597    263.64426  0.031841094   0.03264189            1 
  691000     1.144196    -7.309703    263.13852  0.031734023  0.032633327            3 
  692000    1.1263271   -7.2575709    264.87958  0.031897829  0.032624688            2 
  693000    1.1463394   -7.2214774    264.46114  0.031801484  0.032616296            1 
  694000    1.1567308   -7.3155656    264.88716  0.031806816  0.032607446            3 
  695000    1.1581085   -7.2662326    265.55425  0.031841037  0.032598924            2 
  696000    1.1577416   -7.2768742    266.69553  0.031931937  0.032590889            1 
  697000    1.1381653   -7.2822698    266.45605  0.031857491  0.032582565            1 
  698000    1.1453915   -7.2621635    266.00307  0.031757768  0.032574083            2 
  699000    1.1374058   -7.2587599    266.46814   0.03176778  0.032565132            3 
  700000    1.1336006   -7.2984512    265.83445  0.031646958  0.032556176            1 
  701000    1.1562367   -7.2305929     266.9614  0.031735782  0.032547383            1 
  702000    1.1581983   -7.3085411    267.30658   0.03173155  0.032538788            2 
  703000    1.1055654   -7.2435638    268.25461  0.031798792  0.032530292            2 
  704000    1.1207546   -7.3223064    267.51741   0.03166636  0.032521553            1 
  705000    1.1237521   -7.2426996    268.49271  0.031736727  0.032512941            3 
  706000    1.1203368   -7.2759832    268.76053  0.031723386  0.032504406            2 
  707000    1.1078481   -7.2514318     268.6809   0.03166913  0.032495789            1 
  708000    1.1169727   -7.2786855    269.41795  0.031711152  0.032487306            2 
  709000    1.1418831   -7.2917661    269.86059  0.031718452  0.032479093            2 
  710000    1.1511405   -7.2715317    270.25499   0.03172007   0.03247084            2 
  711000    1.1367441   -7.2641811     271.1106  0.031775739  0.032462311            1 
  712000    1.1617235   -7.2690264     270.4423  0.031652891  0.032453848            1 
  713000    1.1354076   -7.2658415    271.06409   0.03168117  0.032445412            1 
  714000    1.1507715   -7.2597417    272.04887  0.031751736     0.032437            1 
  715000    1.1285636   -7.2555283    271.69804  0.031666438  0.032428834            2 
  716000     1.136548   -7.2689864    271.99362  0.031656613  0.032420426            1 
  717000    1.1396445   -7.2400823    273.23554  0.031756803  0.032412143            1 
  718000    1.1309694   -7.2606732    272.78196  0.031659931  0.032403735            1 
  719000    1.1389327   -7.3294606    272.03859  0.031529739  0.032394912            1 
  720000    1.1201478   -7.3043947    272.81835  0.031576198  0.032385696            1 
  721000    1.1173251   -7.2866691    273.51853   0.03161333  0.032377058            3 
  722000    1.1193276   -7.2614357    273.81744  0.031604044  0.032368247            2 
  723000    1.1377189   -7.3014155    273.61586  0.031537097  0.032359527            1 
  724000    1.1183346   -7.2439237    274.50514  0.031595895  0.032350579            1 
  725000    1.1355527   -7.2917735    273.49729   0.03143647  0.032341486            1 
  726000    1.1206066   -7.2952015    274.27277  0.031482182  0.032332226            2 
  727000    1.1579404   -7.2634676    276.03065  0.031640377  0.032323166            1 
  728000    1.1718391   -7.3038987    275.35429  0.031519493  0.032314506            2 
  729000    1.1223717   -7.2544082    276.44943  0.031601443  0.032306033            7 
  730000    1.1223181   -7.2607687    276.98184  0.031618931  0.032297642            1 
  731000    1.0968385   -7.3007489    275.72374  0.031432255  0.032289017            2 
  732000    1.1385295   -7.2768921    277.13275  0.031549721  0.032280069            2 
  733000    1.1150907    -7.271184    277.24701  0.031519669   0.03227153            1 
  734000    1.1429178   -7.3193481    277.11545  0.031461791  0.032262711            1 
  735000    1.1426715   -7.3162015    277.63095  0.031477431  0.032253843            1 
  736000     1.094103    -7.287843    277.77505   0.03145098  0.032245118            1 
  737000    1.1277543   -7.2986051     278.3561  0.031474005  0.032236521            2 
  738000    1.1397526    -7.244825    278.72496  0.031473008   0.03222803            1 
  739000    1.1480336   -7.2885637    279.12661  0.031475712  0.032219182            2 
  740000    1.1193591   -7.2314337    280.64386  0.031604039  0.032210671            1 
  741000    1.1324668    -7.320744    280.15292  0.031506176   0.03220227            1 
  742000    1.1390317   -7.2792272    279.86022  0.031430842  0.032193898            2 
  743000    1.1635606    -7.309249    280.44949  0.031454631  0.032185351            3 
  744000    1.1338157   -7.3143122    281.04071  0.031478574  0.032176925            1 
  745000    1.1185608   -7.3285699    281.96835  0.031540084  0.032168272            1 
  746000    1.1309171   -7.2623486    282.51874  0.031559288  0.032160286            1 
  747000    1.1086464   -7.2713526    283.25732  0.031599433  0.032152758            2 
  748000    1.1014508   -7.3002169    282.15539  0.031434424  0.032144863            3 
  749000    1.1266139   -7.2904436    283.30691  0.031520573  0.032137106            1 
  750000    1.0984335    -7.315599    282.94422  0.031438247  0.032128965            1 
  751000     1.126416   -7.3024424    282.72937  0.031372544  0.032120925            2 
  752000    1.1479322   -7.2694719    284.59801    0.0315379  0.032113201            3 
  753000    1.1264714   -7.2686871    284.91337  0.031530917  0.032105925            1 
  754000    1.1415749   -7.2437601    286.86728  0.031705048   0.03209876            4 
  755000       1.0985   -7.3001792    284.96231  0.031452793  0.032091405            2 
  756000    1.1278015   -7.2811505    284.66272  0.031378165  0.032083654            1 
  757000    1.1367733   -7.2925269    285.06959  0.031381504  0.032075331            2 
  758000    1.1389138   -7.3125775      285.049  0.031337841  0.032067141            2 
  759000    1.1511359   -7.2625836    286.15683  0.031418185   0.03205874            1 
  760000     1.144694   -7.2748033    286.11682  0.031372458  0.032050347            2 
  761000    1.1457868   -7.2672846    286.00503  0.031318991  0.032041923            3 
  762000    1.1423197   -7.2821703    287.46771  0.031437851  0.032033832            1 
  763000    1.1431879   -7.3096569    286.92127  0.031336967  0.032025587            1 
  764000    1.1326157    -7.283497    287.53246  0.031362616  0.032017583            1 
  765000    1.1028302   -7.2527892    288.54685  0.031432118   0.03200929            1 
  766000     1.129264   -7.3262087    287.70157  0.031299127  0.032001157            2 
  767000    1.1420609   -7.2782779    289.16289  0.031417089  0.031993266            1 
  768000    1.1231496    -7.298113    288.85812  0.031343112  0.031985441            1 
  769000    1.1339074   -7.2960709    288.89689  0.031306555  0.031977484            2 
  770000    1.1100388   -7.2976674     289.6828  0.031350952  0.031969544            2 
  771000    1.1267408   -7.3124262    290.36897  0.031384454  0.031961806            3 
  772000    1.1185863    -7.346455    288.92062  0.031187459  0.031953716            1 
  773000     1.142912   -7.2983052    290.58743  0.031326804  0.031945759            3 
  774000    1.1332853   -7.2885027    291.41857  0.031375815   0.03193802            2 
  775000    1.1323486   -7.3507205    291.11829  0.031303042  0.031930197            2 
  776000    1.1275983   -7.3139468    293.10147  0.031475673  0.031922582            2 
  777000    1.1312581   -7.3238797     291.9194  0.031308386  0.031915438            4 
  778000    1.1420251   -7.3421483    290.89591  0.031158516  0.031907948            4 
  779000    1.1161918   -7.2960683    292.79906  0.031322107  0.031900186            1 
  780000    1.1204234   -7.2919365    292.81719  0.031283887  0.031892861            2 
  781000    1.1269238   -7.2846571    293.93428  0.031363026  0.031885449            1 
  782000    1.0931062   -7.3134419    293.19896  0.031244561  0.031878003            1 
  783000    1.1239122   -7.2875875    294.69873  0.031364275  0.031870633            7 
  784000    1.1132771   -7.2843247    294.95937  0.031351974  0.031863301            1 
  785000    1.1325571   -7.2747457    295.78694  0.031399888  0.031856143            3 
  786000    1.1147897   -7.3200549    295.95751  0.031378023  0.031849018            1 
  787000    1.1280063    -7.332655    295.41576  0.031280787  0.031841902            2 
  788000    1.1339496   -7.2830422    297.17457  0.031427091  0.031834967            3 
  789000    1.1203055   -7.2952072    297.24658  0.031394865  0.031828085            2 
  790000    1.1063803   -7.3135459    296.45055  0.031271155  0.031821199            1 
  791000     1.140369   -7.2706496     297.2776  0.031318752  0.031813812            1 
  792000    1.1235732   -7.3071209     297.3854  0.031290551  0.031806621            2 
  793000     1.153556   -7.2996196    298.03291  0.031319137  0.031799097            1 
  794000    1.1074684   -7.3175768    297.17707  0.031189869  0.031791935            2 
  795000    1.1286589   -7.3095671    298.19446  0.031257281  0.031784455            2 
  796000    1.1380637   -7.3291403    297.85024  0.031181976  0.031777136            2 
  797000    1.1370406   -7.3061003    298.59752  0.031220987  0.031769481            1 
  798000      1.12007   -7.2783068    298.47501   0.03116907  0.031761972            1 
  799000    1.1249271   -7.3013986    300.31774  0.031322251  0.031754771            2 
  800000    1.1129204    -7.314957    300.28203  0.031279378  0.031747575            2 
  801000    1.1140606    -7.279226    300.91776  0.031306467  0.031740564            1 
  802000    1.1194364   -7.3252117    300.04675  0.031176927  0.031733668            1 
  803000    1.1063071   -7.3287005    301.65608  0.031305114  0.031726601            3 
  804000    1.0975769   -7.3044452    300.99499  0.031197657  0.031719513            2 
  805000    1.1179275   -7.3043704    301.18601  0.031178676  0.031712682            1 
  806000    1.1337231   -7.2941434    300.67059  0.031086702  0.031705797            1 
  807000    1.1032648   -7.3174808    301.55395    0.0311394  0.031698545            3 
  808000    1.1416614   -7.3061245    302.61774  0.031210575  0.031691274            1 
  809000    1.1275948   -7.2904239    302.01325  0.031109729  0.031683993            3 
  810000    1.1263795    -7.303979    302.08977  0.031079194  0.031676565            1 
  811000     1.136353   -7.2982732    302.89811  0.031123933  0.031669171            2 
  812000    1.1227265   -7.3110418    303.60484  0.031158132   0.03166159            2 
  813000    1.0977558   -7.2773377    303.73619  0.031133271  0.031654169            1 
  814000    1.1033956   -7.3252296    303.81623  0.031103218  0.031646745            2 
  815000    1.1247408   -7.3282392     303.0232  0.030983967   0.03163899            1 
  816000    1.1382103   -7.3429051    304.03471  0.031049296  0.031631349            1 
  817000     1.105955    -7.325269    303.60299  0.030967258  0.031623541            2 
  818000    1.1060634   -7.3567017    303.89433   0.03095908  0.031615771            1 
  819000    1.1159192    -7.317427    305.75048  0.031110142  0.031607833            2 
  820000    1.1335605   -7.3266141    304.87276  0.030983004  0.031600128            1 
  821000    1.1277222   -7.3005121    306.16522  0.031076454  0.031592441            2 
  822000    1.1101551   -7.3093974    305.36559  0.030957582  0.031584689            1 
  823000    1.1119138   -7.2833181    306.40524  0.031025237  0.031576698            1 
  824000    1.1104844   -7.3088649    307.01776  0.031049531  0.031569192            1 
  825000    1.1098622    -7.306588    306.89062  0.030999053  0.031561223            2 
  826000    1.1113662    -7.322951    306.97669  0.030970207  0.031553207            1 
  827000    1.1008496   -7.3526674    307.15655  0.030950882  0.031545048            1 
  828000    1.1058763     -7.29055    307.27216  0.030925137  0.031537096            1 
  829000    1.1038202   -7.3422613    308.07179  0.030968214  0.031529358            1 
  830000    1.1047065   -7.2767845    308.10726  0.030934464  0.031521425            3 
  831000    1.1398865   -7.3246901     307.4765  0.030833985  0.031513146            1 
  832000    1.1065497   -7.3449394     308.4593  0.030895362  0.031505027            2 
  833000    1.1075709   -7.3345516    308.80616  0.030892973  0.031496911            1 
  834000    1.1222031   -7.3205961    309.25937  0.030901216  0.031489122            1 
  835000    1.1084218   -7.3129905    309.79392  0.030917557  0.031481448            1 
  836000     1.119086   -7.3160438    309.68511  0.030869728  0.031473477            2 
  837000    1.1137645    -7.334255    309.72696  0.030837013  0.031465073            2 
  838000    1.1358446   -7.3170323    310.28883  0.030856089  0.031456737            2 
  839000    1.0899591   -7.3002792    311.03758  0.030893681   0.03144855            1 
  840000    1.1224771   -7.3660092    310.35487  0.030789174   0.03144038            2 
  841000    1.1323531    -7.334892      310.317  0.030748811  0.031431941            1 
  842000    1.1095526   -7.2942909    311.72883  0.030852022  0.031423713            2 
  843000    1.1042409   -7.3134068    311.87154  0.030829532  0.031415337            3 
  844000    1.1112525   -7.2978915    311.78319  0.030784281  0.031407015            2 
  845000    1.1327194   -7.3231031    311.37743  0.030707834  0.031398661            2 
  846000    1.1262619   -7.3446471    311.70874  0.030704171  0.031390091            2 
  847000    1.1067458   -7.3360233    313.00061  0.030795022  0.031381515            3 
  848000    1.1271876   -7.3194927    314.01915    0.0308588  0.031373152            1 
  849000    1.1452728   -7.3065086    312.97714  0.030720175  0.031364664            1 
  850000    1.1327777   -7.3001961    313.75134  0.030759935  0.031356466            2 
  851000    1.1247731   -7.3090922    313.48109  0.030697326  0.031348175            2 
  852000    1.1146245   -7.3351034    314.96749  0.030806679  0.031339946            1 
  853000    1.1260803   -7.3251208    314.21873  0.030697414   0.03133174            3 
  854000    1.1129213   -7.3460059    315.56003  0.030792352  0.031323447            1 
  855000    1.0964858    -7.333008     314.6611  0.030668724  0.031315106            1 
  856000    1.1107072   -7.3169629    316.00923  0.030764138  0.031306829            1 
  857000    1.1451521   -7.3015134    316.28026  0.030754596  0.031298831            4 
  858000    1.1049195   -7.3255021    316.76751  0.030766075  0.031290666            2 
  859000    1.1224588   -7.3053321    317.47711  0.030799099  0.031282729            1 
  860000    1.0729357   -7.3027656    317.76098  0.030790793  0.031274931            2 
  861000    1.1479092   -7.3123371    317.81513  0.030760272  0.031267091            2 
  862000    1.1062029   -7.3340188     317.8851  0.030731351  0.031259429            1 
  863000     1.118083   -7.2969556    318.57941  0.030762786  0.031251619            1 
  864000    1.1261614    -7.331622    318.95765  0.030763663  0.031244033            1 
  865000    1.0876742    -7.380838    318.68606  0.030701932  0.031236217            1 
  866000    1.1026902   -7.3147526    320.26623  0.030818536  0.031228332            1 
  867000    1.1164688   -7.3366911    318.66341  0.030628932  0.031220658            4 
  868000    1.1157909   -7.3147294     320.5405  0.030773857  0.031212936            1 
  869000    1.0881383    -7.335216    320.27257  0.030712751  0.031205079            3 
  870000     1.103381   -7.3640541     319.8771  0.030639569  0.031197347            2 
  871000    1.0949437   -7.3096151    321.07512  0.030719012  0.031189793            2 
  872000    1.0990415   -7.3704333    319.92532  0.030573903  0.031182213            1 
  873000    1.1111038   -7.3419081    320.77324  0.030619821  0.031174377            2 
  874000    1.0983733   -7.3671802    321.25341  0.030630569  0.031165884            3 
  875000    1.1113162   -7.3448345    320.85787  0.030557892  0.031157723            4 
  876000    1.0981775   -7.3863538    322.31626  0.030661745  0.031149472            2 
  877000    1.1064425   -7.3199759    321.92204  0.030589324  0.031141161            2 
  878000    1.1114394   -7.3481651    321.09135  0.030475641  0.031132978            3 
  879000    1.1197711   -7.3229558    323.01371  0.030623219  0.031124607            1 
  880000    1.1158018   -7.3098263    322.23224  0.030514416   0.03111617            1 
  881000     1.120051   -7.3805244    320.79051  0.030343408  0.031107762            2 
  882000    1.0695347   -7.3462263    321.26379  0.030353722  0.031098985            1 
  883000    1.0979581   -7.3631232    321.80099  0.030370044  0.031090252            1 
  884000     1.088437   -7.3103846    322.54536   0.03040586  0.031081417            3 
  885000    1.0983164   -7.3402099    323.56774  0.030467772  0.031072848            1 
  886000    1.1173545   -7.3564035    322.99381  0.030379403  0.031063989            2 
  887000     1.093431    -7.364738      322.368  0.030286359  0.031055153            1 
  888000    1.1347092   -7.3151638    324.11607  0.030416298  0.031046622            1 
  889000    1.1063446   -7.3396507    324.29428  0.030398789  0.031038149            1 
  890000    1.1138773   -7.3640927    324.21088  0.030356824  0.031029292            1 
  891000    1.0924815   -7.3406542    324.61703   0.03036074  0.031020386            1 
  892000    1.1115539   -7.3678874     324.2893  0.030296086  0.031011449            2 
  893000    1.1043375   -7.3469227    324.08334   0.03024294  0.031002253            2 
  894000    1.1082021    -7.355864    324.26531  0.030226073  0.030993009            1 
  895000    1.1087454   -7.3430896    324.46267  0.030210677  0.030983432            1 
  896000    1.1219259   -7.3461978    325.72513  0.030294375  0.030973998            2 
  897000    1.1212376   -7.3189126    326.29744  0.030313771  0.030964647            3 
  898000    1.1119149   -7.3372035    325.84981  0.030238475  0.030955559            1 
  899000    1.1073664   -7.3679326    326.63484  0.030277609  0.030946453            2 
  900000    1.0960987   -7.3322021    326.74631  0.030254288  0.030937217            2 
  901000    1.1083719   -7.3442578    326.55462   0.03020298  0.030928191            1 
  902000    1.1243509   -7.3752568    326.76165  0.030188623  0.030918891            2 
  903000    1.0781844   -7.3575944    327.90268  0.030260491    0.0309097            3 
  904000    1.0947032   -7.3905637    326.75721  0.030121424  0.030900392            2 
  905000    1.1376899     -7.37717    327.77585  0.030181938  0.030891048            2 
  906000    1.1108815   -7.3654741    327.82146   0.03015282  0.030881671            1 
  907000    1.0984273   -7.4003746    326.71858  0.030018245  0.030872224            2 
  908000       1.1111   -7.3175396    329.36447  0.030228017  0.030862997            3 
  909000     1.101206   -7.3222642    329.35114  0.030193541  0.030853951            1 
  910000    1.1162305   -7.3497881    329.59094   0.03018232  0.030844701            3 
  911000    1.0830002   -7.3379997    329.77613   0.03016613  0.030835627            2 
  912000    1.1015831   -7.3363923      328.927  0.030055465  0.030826548            1 
  913000    1.0722066   -7.3325453    329.23679  0.030050821  0.030817186            1 
  914000    1.0919243   -7.3117272    329.45008  0.030037389  0.030807712            1 
  915000     1.114384   -7.3804887    330.31513  0.030083345  0.030798442            2 
  916000    1.1113076   -7.3819311    329.80386  0.030003991  0.030788997            1 
  917000    1.0725499   -7.3902282    329.66459  0.029958614  0.030779507            1 
  918000    1.0874565   -7.3560969    330.61135  0.030011923  0.030769942            1 
  919000     1.086534   -7.3741872     330.9167  0.030006955  0.030760711            4 
  920000    1.1095956   -7.3231518    331.16733  0.029997041  0.030751428            2 
  921000    1.0972477   -7.3768177    332.83799  0.030115634  0.030742555            2 
  922000    1.0949694   -7.3610765    332.47522  0.030050183  0.030733204            2 
  923000    1.1066082    -7.386012    331.81267  0.029957807  0.030723815            1 
  924000    1.1077279   -7.3741645    332.37971  0.029976525  0.030714301            1 
  925000    1.0763665   -7.3785386    332.08223  0.029917318  0.030704953            2 
  926000    1.0850574   -7.3625641    332.93741   0.02996197  0.030695431            2 
  927000    1.1338334   -7.3611466    333.18124  0.029951568  0.030685809            2 
  928000    1.0913183    -7.370165    334.56635  0.030043674  0.030676575            1 
  929000    1.1217558   -7.3216764    334.11486  0.029970834  0.030667229            2 
  930000    1.1055103   -7.3755716    335.52923  0.030065343  0.030658065            1 
  931000    1.1304356   -7.3155117    335.51135  0.030031449  0.030649196            3 
  932000    1.0966686   -7.3227498    336.99252  0.030131663  0.030640315            1 
  933000    1.0980467   -7.3886768    335.54874  0.029970413   0.03063143            2 
  934000    1.0967553   -7.3296847    336.23646  0.029999685  0.030622599            3 
  935000    1.0960194   -7.3655807    336.66909  0.030006158    0.0306138            2 
  936000    1.1124145   -7.3434079    336.44761  0.029954382  0.030605082            3 
  937000    1.0818365   -7.3413953    336.77623  0.029951639  0.030596406            2 
  938000    1.0837873   -7.3728724    337.18444  0.029955974  0.030587527            2 
  939000    1.1013664   -7.3440513    338.02221  0.029998421  0.030578765            2 
  940000    1.1109203   -7.3163135    337.76304  0.029943531  0.030570262            3 
  941000     1.124143   -7.3575652    338.46886  0.029974217  0.030561367            1 
  942000    1.1407564   -7.3658359    339.24041  0.030010652  0.030552732            2 
  943000    1.0905108   -7.3354357    338.40132  0.029904676  0.030544189            2 
  944000    1.0933044   -7.3782597     339.1031  0.029934949  0.030535634            2 
  945000    1.1032884   -7.3832572    339.11514  0.029904333  0.030526853            3 
  946000    1.0996343   -7.3674949    338.74454  0.029840076  0.030517898            3 
  947000    1.0969146   -7.3578037    339.40318  0.029866524   0.03050887            1 
  948000    1.0973952   -7.3636717    339.10473  0.029808784  0.030499786            3 
  949000    1.1069448   -7.3915605    339.67763  0.029827681  0.030490564            4 
  950000    1.1040749    -7.390657    339.55183  0.029785248  0.030481402            1 
  951000    1.1331477   -7.3642645    339.93677  0.029787659  0.030472576            2 
  952000    1.0871242    -7.344682    341.29844  0.029875564  0.030463784            1 
  953000    1.1009157   -7.3516447    340.86354  0.029806185  0.030455152            1 
  954000    1.0702469   -7.3406304    341.75528  0.029852837  0.030446236            4 
  955000    1.0952813   -7.3969263    340.85445  0.029742971  0.030437099            1 
  956000    1.1217374   -7.3785382    341.55082  0.029772561  0.030427662            2 
  957000    1.1044083   -7.3816676    341.37299  0.029725966  0.030418319            2 
  958000    1.0887438   -7.3502627    341.61892  0.029716329  0.030408817            1 
  959000    1.1043783   -7.3377951    342.29402  0.029744006  0.030399243            1 
  960000    1.0731336   -7.3531792    340.95556  0.029596837  0.030389594            1 
  961000    1.0988507   -7.3502613    341.52048  0.029615026   0.03037973            3 
  962000    1.0658984   -7.3469209    342.15003  0.029638776  0.030370089            3 
  963000    1.0915362    -7.402927    341.59609  0.029560063   0.03036015            2 
  964000    1.1016731   -7.3751629    341.69106  0.029537609  0.030350099            1 
  965000    1.1030432   -7.3842527    343.15717  0.029633607  0.030340261            1 
  966000    1.1187392   -7.3396823    342.65152   0.02955931   0.03033045            1 
  967000    1.0832974   -7.3861932    343.16726  0.029573187  0.030320777            1 
  968000    1.1275003   -7.3981134    342.52753  0.029487563  0.030311008            2 
  969000    1.0868736   -7.3870999    344.91213  0.029662206  0.030301312            1 
  970000    1.1035882    -7.394578    345.39262  0.029672906  0.030291804            3 
  971000    1.1071908   -7.4113993    343.90027  0.029514269  0.030282473            2 
  972000    1.0926319   -7.4074244    345.19374  0.029594799  0.030272954            2 
  973000    1.0901151   -7.3900047    345.21027  0.029565799  0.030263796            2 
  974000    1.1075915   -7.3900535    346.30203  0.029628853  0.030254505            2 
  975000    1.0846797   -7.4066108    345.84716  0.029559587     0.030245            2 
  976000     1.075103   -7.3620032    346.68354  0.029600712  0.030235617            2 
  977000    1.0785059   -7.3518841    347.46639  0.029637188  0.030226305            5 
  978000    1.0780299   -7.3386697    346.74154  0.029545121  0.030216883            1 
  979000     1.096011   -7.3529761    347.63053  0.029590614  0.030207329            2 
  980000    1.0606192   -7.3963546     346.3064  0.029447823  0.030197753            2 
  981000    1.0756845   -7.3579045    346.80328  0.029460013  0.030187948            3 
  982000    1.0803015    -7.367925    347.29354  0.029471617  0.030178406            2 
  983000    1.0865033   -7.3895581    347.63277  0.029470394  0.030168747            1 
  984000    1.0913983    -7.357094    346.66027  0.029358085  0.030159043            2 
  985000    1.0927656   -7.3684675    347.28767   0.02938136  0.030149482            2 
  986000    1.1123922   -7.3355472    349.38845  0.029529112  0.030139979            1 
  987000    1.0971251   -7.3555092    349.90529  0.029542831  0.030130665            1 
  988000    1.0874908   -7.3750974    348.72482  0.029413362  0.030120999            4 
  989000    1.0920847   -7.4155533    347.90817   0.02931481  0.030111456            3 
  990000    1.1133092   -7.3628693    349.44547  0.029414602  0.030101926            2 
  991000     1.076807    -7.359563    350.76194  0.029495622  0.030092542            1 
  992000    1.1180894   -7.3762042    349.09088  0.029325511   0.03008305            2 
  993000    1.0871579   -7.4188562    349.86173  0.029360668  0.030073483            1 
  994000    1.1118244   -7.3902171    350.81509  0.029411058  0.030064126            1 
  995000     1.103889   -7.3202367    352.67017  0.029536865  0.030054975            3 
  996000    1.0701138    -7.366885    351.24288  0.029387791  0.030045725            3 
  997000    1.0901921   -7.3728791    351.11068  0.029347265  0.030035953            2 
  998000    1.1113211   -7.4003219    350.59885  0.029275121  0.030026401            1 
  999000     1.079229   -7.3981764    351.06756  0.029284915  0.030016595            1 
 1000000    1.0842576   -7.3913483    351.41565  0.029284638  0.030006603            1 
 1001000    1.1140954   -7.3562724    352.54757  0.029349614  0.029997138            4 
 1002000    1.0912371   -7.3653924      353.064  0.029363273   0.02998799            1 
 1003000    1.0974535   -7.3480147    352.49319  0.029286573  0.029978417            2 
 1004000    1.1027435   -7.3569765    353.10928  0.029308539  0.029968697            1 
 1005000    1.0938558   -7.3659517    352.80112  0.029253824  0.029958995            3 
 1006000    1.0698884   -7.3593284    353.03706   0.02924429  0.029949193            1 
 1007000    1.1018323   -7.3978725    352.98364  0.029210827  0.029939332            3 
 1008000    1.0783808   -7.3924046    354.14065    0.0292775  0.029929494            1 
 1009000    1.0991377   -7.3954702    354.08592  0.029243965    0.0299197            1 
 1010000    1.0789286   -7.4060416    355.02476  0.029292472  0.029909906            1 
 1011000    1.0797412   -7.3458602     355.0632  0.029266667  0.029900231            1 
 1012000     1.098119   -7.3848387    355.01212  0.029233541  0.029890651            4 
 1013000    1.0964305   -7.3651037    355.10575  0.029212385  0.029880658            1 
 1014000    1.0990321   -7.3930411    354.23426  0.029111954  0.029870502            1 
 1015000    1.0992408   -7.4283539    353.69045  0.029038625  0.029860398            1 
 1016000    1.0833232   -7.3350942    355.76952  0.029180571  0.029850412            3 
 1017000    1.0948333   -7.3497175    355.30127  0.029113509  0.029840437            1 
 1018000    1.0981795   -7.4029625    354.21416   0.02899592  0.029830324            1 
 1019000    1.0705856   -7.3662004    355.71503  0.029090205   0.02982037            3 
 1020000     1.100209    -7.399903    356.40291  0.029117885  0.029810267            1 
 1021000    1.0900883   -7.3549839    356.73507  0.029116477  0.029800225            1 
 1022000    1.1094104   -7.3758804    356.86192   0.02909833  0.029789938            1 
 1023000    1.0748232   -7.3598706    357.63857  0.029133152  0.029779662            3 
 1024000    1.0767269   -7.3764626    356.34401   0.02899935  0.029769569            1 
 1025000    1.0944743   -7.3698386    356.60194  0.028992028  0.029759281            2 
 1026000    1.0861966   -7.4072436    355.81773  0.028900076    0.0297491            3 
 1027000    1.0896044   -7.3789393    357.20863  0.028984796  0.029739062            1 
 1028000    1.0922065   -7.3574715    358.33922   0.02904825  0.029729032            2 
 1029000    1.0532286   -7.3997522    357.30544  0.028936301  0.029718838            1 
 1030000    1.1135847   -7.3972436    358.51035  0.029005692  0.029708661            2 
 1031000    1.1157721   -7.3709658     358.7925  0.029000363  0.029698653            4 
 1032000    1.1078662     -7.40815    358.20814  0.028925076  0.029688729            1 
 1033000    1.0989206   -7.3849225     359.1939  0.028976597  0.029678604            3 
 1034000    1.0868423   -7.3479509    358.54188  0.028896025  0.029668396            1 
 1035000    1.0610706   -7.3569606    359.54316  0.028948725   0.02965822            1 
 1036000    1.0861731   -7.3991769    358.58622  0.028843808  0.029647986            5 
 1037000    1.0909076   -7.3658935    359.05966  0.028854039  0.029637798            2 
 1038000    1.0867195   -7.4046298    359.45773  0.028858199  0.029627448            1 
 1039000     1.084446   -7.4019481    360.03161  0.028876452  0.029616932            2 
 1040000    1.0721892   -7.3742242    360.53998  0.028889421  0.029606537            1 
 1041000    1.0834459   -7.3982823     359.4807  0.028776873  0.029596033            1 
 1042000    1.0760969   -7.4420192    359.78817  0.028773846  0.029585648            1 
 1043000    1.0706417    -7.452581    358.52463  0.028645305  0.029574929            3 
 1044000    1.0859922   -7.4019071    359.77944  0.028718026  0.029564105            2 
 1045000    1.0863978   -7.4279786    361.07467  0.028793833  0.029553588            1 
 1046000    1.0719993   -7.4046946    359.92335  0.028674581  0.029543092            2 
 1047000    1.0683621   -7.3789832    362.44887  0.028848207  0.029532882            1 
 1048000    1.0825147   -7.4072372    361.46915  0.028742776  0.029522781            1 
 1049000    1.1248014   -7.3937661    363.07588  0.028843016  0.029512519            3 
 1050000    1.0567049   -7.3819804     362.6079  0.028778405  0.029502107            1 
 1051000    1.0721852   -7.3694556    362.56672  0.028747757  0.029491838            2 
 1052000    1.0679085   -7.4506392    361.78458  0.028658474  0.029481458            2 
 1053000    1.0702637    -7.435934    362.13922  0.028659324  0.029471134            2 
 1054000    1.1095156   -7.4287795    362.13765  0.028632009  0.029460703            1 
 1055000    1.0874822    -7.424833    363.43081  0.028707015   0.02945037            2 
 1056000    1.0746406   -7.3680879     363.6229  0.028694989  0.029440066            1 
 1057000    1.0834817   -7.4219281    364.36062  0.028726003  0.029429894            4 
 1058000    1.0801552   -7.4105363    364.41558  0.028703181  0.029419861            6 
 1059000    1.0604977   -7.3833626    364.70104   0.02869854   0.02941002            1 
 1060000    1.0740875   -7.4020185    363.49069  0.028576312  0.029399881            1 
 1061000    1.0820127   -7.3870885    366.32019  0.028771614  0.029389818            1 
 1062000    1.0609937     -7.41528    364.23277  0.028580725  0.029379607            3 
 1063000    1.0732479   -7.4179341    364.77961  0.028596708  0.029369443            2 
 1064000     1.065159   -7.4041862    365.55466  0.028630534  0.029359423            2 
 1065000    1.0752775   -7.4082808    365.99205  0.028637875  0.029349105            1 
 1066000    1.0815991   -7.3779571    367.01083  0.028690653  0.029338926            2 
 1067000      1.04989   -7.4075503    366.05186  0.028588868  0.029328669            1 
 1068000    1.0937318   -7.4280399    365.92719  0.028552371  0.029318387            4 
 1069000    1.0801294   -7.3815114    367.26614  0.028630039  0.029308284            2 
 1070000    1.0876997   -7.4126944     366.8522  0.028571044  0.029298069            2 
 1071000    1.0965359   -7.4135635    365.95878  0.028474851  0.029287888            1 
 1072000    1.0792813   -7.4198306    366.68828  0.028504997  0.029277565            2 
 1073000    1.0740917   -7.3970614    368.48923    0.0286183  0.029267357            1 
 1074000    1.0923454   -7.4130801    368.27263  0.028574847  0.029257305            1 
 1075000    1.0847185   -7.3978997    369.14116  0.028615594  0.029247321            2 
 1076000    1.0936103   -7.4181151    367.65884  0.028474198  0.029237259            1 
 1077000    1.0719595   -7.4185112    367.78134  0.028457237  0.029227039            1 
 1078000    1.0476266   -7.4317457    369.43504  0.028558677  0.029216769            1 
 1079000    1.0799154   -7.3763063    369.04856   0.02850236  0.029206484            2 
 1080000    1.0705056   -7.4051275    368.54926  0.028437443  0.029196031            3 
 1081000    1.0725794   -7.4412828    367.83444  0.028356031  0.029185663            1 
 1082000    1.0927987   -7.3963006     369.3381  0.028445633  0.029175242            1 
 1083000    1.0912599   -7.3835611    369.97985  0.028468748  0.029164992            6 
 1084000    1.0718913   -7.4387544    369.10372  0.028375132  0.029154773            1 
 1085000     1.093448   -7.4192126    369.99022  0.028417068  0.029144368            8 
 1086000    1.0795447   -7.3886407    370.51317  0.028431029   0.02913403            1 
 1087000    1.0854222   -7.4718572    370.60998  0.028412295  0.029123764            1 
 1088000    1.0886336   -7.4198717    370.98675  0.028415039  0.029113596            1 
 1089000    1.0732512   -7.4416145    370.86577  0.028379689  0.029103299            2 
 1090000    1.0857918   -7.4125381    371.64656  0.028413346  0.029093387            2 
 1091000    1.0917711   -7.3588797    373.03473  0.028493334  0.029083446            2 
 1092000    1.0758592   -7.3999399    373.09674  0.028471974  0.029073651            1 
 1093000    1.0675587   -7.3712629    373.31875  0.028462851   0.02906376            3 
 1094000    1.0796681   -7.4111732    373.47218  0.028448521  0.029054003            1 
 1095000    1.0901741   -7.4640745    372.88322  0.028377718  0.029044168            2 
 1096000    1.0466709   -7.3693415    373.58348   0.02840507  0.029034387            1 
 1097000     1.090919   -7.4171011    374.97442  0.028484839  0.029024984            1 
 1098000    1.0684534   -7.4668088    373.19699  0.028323997  0.029015302            2 
 1099000    1.0852553   -7.3715262    375.40189  0.028465415  0.029005784            6 
 1100000     1.050833   -7.3920281    375.91971  0.028478766  0.028996331            2 
 1101000    1.0800267   -7.4124041    374.14229  0.028318369  0.028986606            2 
 1102000    1.0740752    -7.408908    376.31752  0.028457163  0.028976996            2 
 1103000    1.0710521   -7.4588619    374.96134  0.028328902  0.028967253            1 
 1104000    1.0935473   -7.4209589    374.94901  0.028302311  0.028957311            2 
 1105000    1.0724587   -7.4450286     376.0161  0.028357172  0.028947626            1 
 1106000    1.0566132   -7.3727078    376.22573  0.028347328  0.028937984            2 
 1107000    1.0978092   -7.4302236    376.94429  0.028375812  0.028928423            1 
 1108000    1.0905667   -7.4240309    376.52342  0.028318548  0.028918714            1 
 1109000    1.0528463   -7.4232615    377.47243  0.028364324  0.028909156            1 
 1110000    1.0922065   -7.4162659    377.45139  0.028337191  0.028899617            1 
 1111000    1.0886368    -7.406853    377.70865  0.028330982  0.028890077            2 
 1112000    1.0849514   -7.4183481    377.94055  0.028322883  0.028880714            2 
 1113000    1.0486334   -7.4495669    378.40102  0.028331913  0.028871151            1 
 1114000    1.0820411   -7.4005468    378.88787  0.028342898  0.028861654            1 
 1115000    1.0770316   -7.4073159    378.53014  0.028290743  0.028852254            1 
 1116000    1.0671135   -7.4235275    378.45235  0.028259584  0.028842756            3 
 1117000     1.075211   -7.4414557    378.48222  0.028236513  0.028833083            2 
 1118000    1.0734736   -7.4266628    379.09044  0.028256592  0.028823595            2 
 1119000    1.0734695   -7.4125699    379.99824  0.028298946  0.028813902            2 
 1120000    1.0778312     -7.42849    379.28876   0.02822089  0.028804487            1 
 1121000    1.0959703   -7.4232978    379.92681  0.028243147  0.028794923            4 
 1122000    1.0572427   -7.4052173    380.34054  0.028248703  0.028785576            1 
 1123000    1.0526417   -7.4361111    379.78235  0.028182128  0.028776221            2 
 1124000    1.0576082   -7.4130583    379.74084  0.028153977  0.028766756            1 
 1125000    1.0669705   -7.3889612    381.53072  0.028261534  0.028757269            2 
 1126000    1.0805968   -7.4244022    380.21473  0.028139041  0.028747497            1 
 1127000    1.0776272   -7.4683899    380.41744  0.028129062  0.028737746            1 
 1128000     1.075847   -7.4649627    380.31713  0.028096715  0.028727909            1 
 1129000    1.0512474   -7.4547654    380.57916  0.028091169  0.028717921            1 
 1130000     1.087808   -7.4449362    380.55495  0.028064524   0.02870813            2 
 1131000    1.0558244   -7.4125956    380.87314  0.028063155  0.028698238            3 
 1132000    1.0524605   -7.4139641    382.82456   0.02818202  0.028688394            2 
 1133000    1.0788377   -7.4141389      381.827  0.028083775  0.028678805            3 
 1134000    1.0589823   -7.4001467    383.20579  0.028160332   0.02866938            2 
 1135000    1.0718501   -7.3947539    383.55789  0.028161372  0.028660087            1 
 1136000    1.0675065   -7.4158495    382.36376  0.028048985  0.028650836            1 
 1137000    1.0573167   -7.4276385    383.39437  0.028099851  0.028641456            3 
 1138000    1.0659694   -7.4080134    384.96781  0.028190379  0.028632029            1 
 1139000    1.0855161   -7.4657996    383.58025  0.028064109  0.028622403            2 
 1140000    1.0709269   -7.4585114    382.90138  0.027989867  0.028613029            2 
 1141000    1.0735885   -7.4492787    384.15103  0.028056605  0.028603474            3 
 1142000    1.0693126   -7.4502958    382.71318  0.027927115  0.028593763            3 
 1143000    1.0582113   -7.4326033    384.54834  0.028036478  0.028584156            1 
 1144000    1.0715309   -7.4692619    383.87087  0.027962622  0.028574649            1 
 1145000    1.0672143    -7.466685    384.11863  0.027956232  0.028564923            3 
 1146000    1.0773219   -7.4300618    385.39053  0.028024326  0.028555401            1 
 1147000    1.0617805    -7.457667    386.25304  0.028062557  0.028545876            2 
 1148000    1.0608592   -7.4368495    384.95302  0.027943744  0.028536538            2 
 1149000    1.0910868   -7.4660524    385.65088  0.027970038  0.028527157            3 
 1150000    1.0736731   -7.4118523    386.54577  0.028010563  0.028517784            1 
 1151000    1.0467414   -7.4329509    386.78413  0.028003485  0.028508295            1 
 1152000    1.0364366   -7.4696709    385.17645   0.02786288  0.028498825            2 
 1153000    1.1006233   -7.4202633    387.74377  0.028024267  0.028489358            1 
 1154000    1.0728704   -7.4569614    386.61327  0.027918347  0.028480066            1 
 1155000    1.0545842   -7.4271588    388.01057   0.02799499  0.028470612            1 
 1156000    1.0574636   -7.4019039    387.90882  0.027963438  0.028461188            1 
 1157000    1.0748387   -7.4262782    387.71907  0.027925603  0.028451766            2 
 1158000    1.0948588   -7.4248435    387.82285  0.027908956  0.028442289            1 
 1159000    1.0934493   -7.4601591     388.5974  0.027940567   0.02843302            4 
 1160000      1.07413   -7.4456858    388.81578  0.027932168  0.028423635            2 
 1161000    1.0685406   -7.4647827    388.78688  0.027906035  0.028414117            2 
 1162000    1.0504024   -7.4249225    388.31767   0.02784837  0.028404642            2 
 1163000    1.0549466   -7.4308186    389.48533  0.027908092  0.028395141            2 
 1164000    1.0809175   -7.4400961    388.69805  0.027827753  0.028385857            2 
 1165000    1.0635913   -7.4343211    388.13481  0.027763577  0.028376383            1 
 1166000    1.0509252   -7.4744984    389.47159  0.027835305  0.028366767            1 
 1167000    1.0470428   -7.4789346     388.9391  0.027773429  0.028357397            2 
 1168000    1.0608987   -7.4480935    390.13005  0.027834621  0.028348012            1 
 1169000    1.0698187   -7.4225939    391.08218  0.027878684  0.028338783            1 
 1170000    1.0729335   -7.4885406    389.38044  0.027733649  0.028329457            2 
 1171000    1.0600643   -7.4550186    391.03551  0.027827748  0.028320092            5 
 1172000    1.0695111   -7.4157434     391.6557  0.027848102  0.028310516            3 
 1173000    1.0559614   -7.4217526    391.27084  0.027797019   0.02830104            1 
 1174000    1.0439931    -7.444489    391.54358  0.027792701  0.028291575            1 
 1175000     1.074251   -7.4387387    391.67208  0.027778162   0.02828226            3 
 1176000    1.0445641   -7.4379605    392.61622  0.027821444  0.028272761            1 
 1177000    1.0709231    -7.473784    391.74097  0.027735837   0.02826336            1 
 1178000    1.0478353   -7.4492803    392.32098  0.027753323  0.028254052            4 
 1179000     1.064816   -7.4220301    393.06177  0.027782144  0.028244739            3 
 1180000    1.0696385   -7.4440886    393.04736  0.027757582  0.028235414            2 
 1181000    1.1120383   -7.4396036    393.27838   0.02775038  0.028226182            5 
 1182000    1.0663742   -7.4467853    393.59606  0.027749299  0.028216944            2 
 1183000    1.0578548   -7.4403106    393.17989  0.027696526  0.028207578            1 
 1184000    1.0559092   -7.4660545     392.6822  0.027638105  0.028197959            2 
 1185000    1.0882055   -7.4954842    393.42161   0.02766678  0.028188355            2 
 1186000      1.04115   -7.4769268    393.72342  0.027664659  0.028178765            1 
 1187000    1.0575246   -7.4461149    394.47241  0.027693935  0.028169538            2 
 1188000    1.0612612   -7.4557178    395.57244  0.027747786  0.028160446            1 
 1189000    1.0469234   -7.4725548    394.20359  0.027628511  0.028151153            2 
 1190000    1.1039644   -7.4371128    396.51851  0.027767403  0.028142014            1 
 1191000    1.0636131   -7.4601269    394.76526  0.027621415  0.028132797            2 
 1192000    1.0525889   -7.4950253    394.10497  0.027552081  0.028123428            1 
 1193000    1.0673988   -7.4840871    395.09101  0.027597863  0.028114182            1 
 1194000    1.0609336   -7.4756425    396.13611   0.02764769  0.028104907            1 
 1195000    1.0900247   -7.4547797    396.28264  0.027634773  0.028095521            6 
 1196000    1.0609801   -7.4667427    396.10824  0.027599515  0.028086124            1 
 1197000    1.0617126   -7.4792608    396.73747  0.027620264  0.028076833            1 
 1198000    1.0554628   -7.4496202    397.28894  0.027635569  0.028067752            1 
 1199000    1.0562958   -7.4541004    397.78574  0.027647049  0.028058592            1 
 1200000    1.0439616   -7.4628145    397.65802   0.02761514  0.028049594            2 
 1201000    1.0506683   -7.4599861    398.38825  0.027642815  0.028040603            1 
 1202000    1.0586176    -7.461137    398.40825  0.027621204  0.028031598            1 
 1203000    1.0467895   -7.4448771    398.21457  0.027584827  0.028022572            1 
 1204000    1.0565499   -7.4739251    399.61818  0.027659065  0.028013465            1 
 1205000    1.0708316   -7.4634606    398.02847  0.027526174  0.028004501            2 
 1206000    1.0754352   -7.4654984    399.10959  0.027578053  0.027995442            2 
 1207000    1.0669755   -7.4872375    398.58839   0.02751922  0.027986319            2 
 1208000    1.0600284   -7.4636752    399.54756  0.027562607  0.027977185            1 
 1209000    1.0642131   -7.4709877    399.02714  0.027503938  0.027968015            1 
 1210000    1.0800301   -7.4696383    399.28955   0.02749928  0.027958756            1 
 1211000     1.042955   -7.4643192    401.07265  0.027599274    0.0279495            2 
 1212000    1.0581093   -7.4820793    398.01508  0.027366273   0.02794019            2 
 1213000     1.047219   -7.4776891    398.63396   0.02738623  0.027930865            2 
 1214000     1.051033   -7.4712705     398.8536  0.027378748  0.027921481            2 
 1215000    1.0549453   -7.4663992     398.4889    0.0273312  0.027912139            1 
 1216000    1.0744998   -7.4893073    399.92935  0.027407439  0.027902669            3 
 1217000    1.0520149    -7.483755    399.21189  0.027335791  0.027893382            1 
 1218000    1.0615728   -7.4635364    400.61067   0.02740905   0.02788389            3 
 1219000    1.0712888   -7.4386158    402.59261  0.027522054  0.027874623            2 
 1220000    1.0366124   -7.4538146    401.32265   0.02741275  0.027865296            2 
 1221000    1.0615324   -7.4437771    400.93565  0.027363886  0.027855941            2 
 1222000    1.0575986   -7.4656257    400.91254  0.027339917   0.02784667            2 
 1223000    1.0540471   -7.4731333    401.72261  0.027372759  0.027837254            1 
 1224000    1.0430489   -7.4952791     399.2198  0.027179997  0.027827722            3 
 1225000     1.072485   -7.4690359    402.40763  0.027374669  0.027818319            1 
 1226000    1.0464167   -7.4982033     401.8269  0.027312867  0.027808954            5 
 1227000    1.0501603   -7.4406628    402.10377  0.027309411  0.027799396            3 
 1228000    1.0406805   -7.4989959    401.97096   0.02727816  0.027790039            4 
 1229000    1.0543657   -7.4640175     402.0168  0.027259072   0.02778047            3 
 1230000    1.0575797   -7.4461226    402.59241  0.027275908  0.027770986            2 
 1231000     1.062003   -7.4291884    403.27812  0.027300171  0.027761667            1 
 1232000    1.0325487   -7.4673881    402.17983  0.027203722  0.027752226            2 
 1233000    1.0615495   -7.4618563    403.61385  0.027278579  0.027742743            2 
 1234000    1.0500822    -7.417791    403.62152  0.027256991  0.027733481            3 
 1235000    1.0720013   -7.4505551     403.6537  0.027237092  0.027724174            1 
 1236000    1.0694009   -7.4355353    404.73641  0.027288054  0.027714895            1 
 1237000    1.0504803   -7.4810131    403.74972  0.027199523  0.027705626            1 
 1238000    1.0592279   -7.4594776    406.06447  0.027333365  0.027696341            2 
 1239000    1.0273472   -7.4541772    406.01231  0.027307796  0.027687237            2 
 1240000    1.0486573   -7.4644985    405.24545  0.027234237  0.027678128            2 
 1241000    1.0438792   -7.5057642    404.64321  0.027171852  0.027668881            2 
 1242000    1.0853211   -7.4704478    405.74774  0.027224084  0.027659391            1 
 1243000    1.0514442   -7.4991086    403.52319  0.027053043  0.027649858            1 
 1244000    1.0716726   -7.4668527    405.62698  0.027172226   0.02764042            3 
 1245000    1.0339395   -7.4911727     404.7284  0.027090254  0.027630849            1 
 1246000    1.0401802   -7.4901521    404.61045  0.027060624  0.027621297            2 
 1247000    1.0315615   -7.4595859     406.2705   0.02714986  0.027611904            1 
 1248000    1.0491756   -7.4319235    408.04809  0.027246801  0.027602639            1 
 1249000    1.0520238   -7.4631361    406.25802  0.027105553  0.027593355            3 
 1250000    1.0410014   -7.4684477    406.96693  0.027131129   0.02758392            3 
 1251000    1.0437327   -7.4743174    406.99374  0.027111227  0.027574399            1 
 1252000    1.0473108   -7.4766847    406.48871  0.027055958  0.027564935            1 
 1253000    1.0381206    -7.488165    407.28486  0.027087314  0.027555486            2 
 1254000    1.0274713   -7.4620388    407.50501  0.027080344  0.027546001            1 
 1255000    1.0499656   -7.4689799    408.59515  0.027131152  0.027536633            1 
 1256000    1.0623389    -7.468094    408.78992  0.027122473  0.027527342            2 
 1257000    1.0339502   -7.4789009    407.83364  0.027037499  0.027518044            1 
 1258000    1.0755616   -7.4462498    408.81193  0.027080811  0.027508623            1 
 1259000    1.0659974   -7.5079563    408.65412  0.027048856  0.027499359            2 
 1260000    1.0462981   -7.4802996    408.48469  0.027016183  0.027490035            3 
 1261000    1.0455049   -7.5125013    407.63513  0.026938615   0.02748066            4 
 1262000    1.0299079    -7.495544    409.92231  0.027068298  0.027471398            2 
 1263000    1.0624788   -7.4583045    409.83909  0.027041376  0.027462271            2 
 1264000     1.026405   -7.4866921     410.6002  0.027070161  0.027453202            1 
 1265000    1.0406814   -7.4754897    409.94527  0.027005617  0.027444127            1 
 1266000    1.0500693   -7.4541963    411.57588  0.027091619  0.027435033            2 
 1267000    1.0539229   -7.4876509    409.76707  0.026951267  0.027426018            2 
 1268000    1.0783988   -7.4642094    411.28684  0.027029892  0.027416941            1 
 1269000    1.0410271   -7.4681268    411.58528   0.02702819   0.02740795            2 
 1270000    1.0603501   -7.4643279    411.07389  0.026973352  0.027398771            1 
 1271000     1.062212   -7.5235395    410.78648  0.026933286  0.027389562            1 
 1272000    1.0222072   -7.4991687      411.938  0.026987552  0.027380285            4 
 1273000    1.0741562   -7.4902396    411.76135  0.026954789  0.027371047            1 
 1274000    1.0726528   -7.4997772    410.80472  0.026871057  0.027361781            1 
 1275000    1.0385946   -7.4756806    412.12771  0.026936452  0.027352647            2 
 1276000     1.057346   -7.5156484    410.94669  0.026838211  0.027343196            1 
 1277000    1.0458003   -7.4893702    411.97143  0.026884066  0.027334013            2 
 1278000    1.0798355   -7.4758188    414.14874  0.027005004  0.027324943            1 
 1279000    1.0558657   -7.4608191    414.01262  0.026975021  0.027315855            2 
 1280000     1.028389   -7.4829753     413.6915   0.02693304  0.027306771            3 
 1281000    1.0793553   -7.5116977    413.28589  0.026885629  0.027297521            1 
 1282000    1.0606211   -7.4605364     412.6308  0.026822075  0.027288295            2 
 1283000    1.0635302   -7.4804524    413.24008  0.026840743  0.027279021            1 
 1284000    1.0394276   -7.5188701    413.12443  0.026812333  0.027269619            2 
 1285000    1.0375696     -7.45896    414.40758  0.026874681  0.027260213            3 
 1286000    1.0498027   -7.4939237    415.00592  0.026892556  0.027251124            1 
 1287000    1.0450119   -7.5087183    414.73626    0.0268542  0.027241888            2 
 1288000    1.0508545   -7.5409975     413.6165  0.026760902   0.02723263            2 
 1289000    1.0414794   -7.5212288    414.57272   0.02680196  0.027223459            2 
 1290000    1.0343834   -7.5412007    415.04835  0.026811909  0.027214489            1 
 1291000    1.0510616   -7.4744102    415.81465  0.026840605  0.027205551            1 
 1292000    1.0536583   -7.4787923    415.31303  0.026787476  0.027196606            2 
 1293000    1.0338116   -7.5024231    415.72205   0.02679312  0.027187647            3 
 1294000    1.0504057   -7.4781688    416.71866  0.026836596  0.027178629            3 
 1295000    1.0604843    -7.468126    416.73947  0.026817212  0.027169797            1 
 1296000    1.0472795   -7.4863966    417.13722  0.026822095  0.027160906            2 
 1297000    1.0514875   -7.5125303    416.35195  0.026750961  0.027152024            2 
 1298000    1.0567241   -7.5037544      417.303   0.02679141  0.027143089            2 
 1299000    1.0661476   -7.5211028    417.31431  0.026771511  0.027134111            1 
 1300000    1.0391639   -7.5099772    418.59332  0.026832905  0.027125228            2 
 1301000    1.0514034    -7.526017    416.98614  0.026709335    0.0271163            7 
 1302000    1.0372733   -7.4901084    418.22789  0.026768298  0.027107494            2 
 1303000    1.0052369   -7.4811868    420.67648  0.026904354  0.027098864            1 
 1304000    1.0542717   -7.4991083    419.49023  0.026807913  0.027090272            2 
 1305000    1.0589573   -7.4816841    419.75016   0.02680397  0.027081635            1 
 1306000    1.0433628   -7.4819122     420.3707  0.026823041  0.027072973            2 
 1307000    1.0392665   -7.5077813    419.98411   0.02677787  0.027064306            1 
 1308000    1.0459541   -7.5058992    421.52955  0.026855858  0.027055627            1 
 1309000    1.0434441    -7.529706    419.84797   0.02672829  0.027046921            1 
 1310000     1.026972   -7.5251366     419.8517  0.026708123  0.027038219            3 
 1311000    1.0659001   -7.5395251    420.79302  0.026747586  0.027029522            1 
 1312000    1.0284038   -7.4897836    421.11047  0.026747362  0.027020902            2 
 1313000    1.0295364    -7.489672    420.98071  0.026718756  0.027012133            2 
 1314000    1.0262916   -7.4863903    421.95992  0.026760523  0.027003432            2 
 1315000    1.0210728   -7.4879013    421.79787  0.026729903  0.026994685            4 
 1316000     1.033588   -7.5336554    420.71986  0.026641328  0.026986039            2 
 1317000    1.0430074   -7.5292048    421.20574  0.026651844  0.026977168            2 
 1318000    1.0608459   -7.4908045    421.28137  0.026636404  0.026968355            3 
 1319000    1.0399003   -7.4745874    420.98041  0.026597196  0.026959524            2 
 1320000    1.0351207   -7.4826279    421.62826  0.026617945  0.026950733            3 
 1321000    1.0463166   -7.5009872    422.28737  0.026639375  0.026942078            1 
 1322000    1.0397967   -7.4794791    422.12078  0.026608723  0.026933546            2 
 1323000    1.0319953   -7.4938286     423.8619  0.026698281  0.026925117            5 
 1324000    1.0414898     -7.47324    424.40081  0.026712035  0.026916733            1 
 1325000    1.0232079   -7.5239032    423.83029  0.026655993  0.026908259            3 
 1326000    1.0308931   -7.5288725    423.19467  0.026595945  0.026899768            2 
 1327000    1.0503502    -7.534198    423.55073  0.026598263  0.026891369            1 
 1328000    1.0303513   -7.5112813     424.0874   0.02661191  0.026883004            2 
 1329000    1.0432162    -7.480948     424.9188  0.026644018  0.026874801            1 
 1330000    1.0197612   -7.5013885    425.78432  0.026678215  0.026866247            1 
 1331000    1.0670893   -7.5379536    424.36247   0.02656915  0.026857949            1 
 1332000    1.0404014   -7.5333473    425.24819  0.026604616  0.026849419            1 
 1333000    1.0415962   -7.5149105    425.93094   0.02662734  0.026841048            3 
 1334000    1.0465885    -7.506684    427.29812  0.026692786  0.026832778            2 
 1335000    1.0387818   -7.5191355    425.82701  0.026580962   0.02682454            3 
 1336000    1.0284988   -7.5195932    426.58579  0.026608395  0.026816349            2 
 1337000    1.0283362   -7.5214742    428.33979  0.026697818  0.026808191            1 
 1338000    1.0475013   -7.5075093    427.28923  0.026612434  0.026800048            2 
 1339000    1.0532709   -7.4810693     426.7996  0.026562086  0.026791867            1 
 1340000     1.035197   -7.4705375    428.54874  0.026651041  0.026783901            1 
 1341000    1.0445496   -7.4891607     427.8036  0.026584862  0.026775814            9 
 1342000    1.0299143   -7.5414363    427.88389  0.026570038  0.026767613            2 
 1343000    1.0480912   -7.5115213    428.34631  0.026578947  0.026759498            1 
 1344000    1.0372265   -7.4824974    428.40951   0.02656309  0.026751435            1 
 1345000     1.030165   -7.5370727    429.28881  0.026597819  0.026743281            1 
 1346000    1.0314043   -7.5030425     428.8045  0.026548075  0.026735098            3 
 1347000    1.0283397   -7.4914969    429.55748  0.026574949  0.026727092            4 
 1348000    1.0492461   -7.5207168    429.39451   0.02654516  0.026719037            2 
 1349000    1.0311697   -7.5547117    428.62567  0.026477988  0.026710813            3 
 1350000     1.043207   -7.5388262    429.88797  0.026536294  0.026702651            2 
 1351000    1.0319689   -7.4827184    430.81258  0.026573685  0.026694701            2 
 1352000    1.0092974   -7.5175221     430.7235  0.026548539  0.026686748            1 
 1353000    1.0260896   -7.5127634    430.41776  0.026510086  0.026678789            2 
 1354000    1.0247159   -7.5018786     431.1428   0.02653513  0.026670801            2 
 1355000     1.030085   -7.4992419    430.86983  0.026498759  0.026662802            3 
 1356000    1.0494449   -7.5015316    430.50694  0.026456916  0.026654647            3 
 1357000    1.0506454   -7.5133034    431.23576  0.026482176  0.026646374            2 
 1358000    1.0257848   -7.5379373    430.06395  0.026390768   0.02663813            2 
 1359000    1.0490074   -7.4985367    431.88788  0.026483191  0.026629967            1 
 1360000    1.0421344   -7.4778412    433.00306   0.02653205  0.026622005            1 
 1361000    1.0434149   -7.4989837    432.21449  0.026464272  0.026614002            2 
 1362000     1.025966   -7.5244979    431.61147  0.026407946  0.026605895            2 
 1363000    1.0472942   -7.4881465    433.41536  0.026498861  0.026597896            3 
 1364000    1.0372209   -7.5439112    431.76383  0.026378533  0.026589861            2 
 1365000    1.0264236   -7.5535202    432.99955  0.026434649   0.02658174            3 
 1366000    1.0384911   -7.5118779     432.1839  0.026365538  0.026573714            1 
 1367000     1.049808   -7.5404947    433.97565  0.026455478  0.026565616            2 
 1368000    1.0522601   -7.4803019    433.95488  0.026434873  0.026557581            1 
 1369000    1.0436388    -7.499236    434.73141  0.026462832  0.026549576            1 
 1370000      1.05401    -7.487305    434.93277  0.026455765  0.026541701            4 
 1371000    1.0389017   -7.5312135    434.19671  0.026391728  0.026533738            2 
 1372000    1.0437949   -7.5240896     435.1318  0.026429288  0.026525766            2 
 1373000    1.0498863   -7.5673896     433.6438  0.026319725  0.026517836            4 
 1374000    1.0489118   -7.5167439    434.30438  0.026340634  0.026509837            2 
 1375000    1.0337308    -7.517331    435.55552  0.026397304  0.026501819            1 
 1376000    1.0301276   -7.5360226    436.50518  0.026435633  0.026493798            3 
 1377000    1.0245254   -7.5177045    434.88559  0.026318421  0.026485813            3 
 1378000    1.0367311   -7.5349328    435.58385  0.026341549  0.026477825            2 
 1379000    1.0330014   -7.5045438    437.65173  0.026447409  0.026469863            2 
 1380000    1.0310939   -7.5088672    436.84168  0.026379328  0.026462007            3 
 1381000    1.0327651   -7.5394591     435.6061  0.026285669  0.026454138            1 
 1382000    1.0171904   -7.5293496    436.89753  0.026344521  0.026446227            2 
 1383000    1.0384854   -7.5441466    437.39857  0.026355662  0.026438354            1 
 1384000    1.0321443   -7.5329865    436.49418  0.026282164  0.026430496            3 
 1385000    1.0489629   -7.5494937    436.81637  0.026282573   0.02642259            6 
 1386000    1.0355833   -7.5884351    437.40178  0.026298808  0.026414708            2 
 1387000    1.0447686   -7.5217965    437.82778  0.026305442  0.026406868            2 
 1388000    1.0266916   -7.4978146    439.20068  0.026368917  0.026399088            1 
 1389000    1.0461841   -7.5350231    438.28276  0.026294862   0.02639127            1 
 1390000   0.99951145   -7.5490601    438.38054  0.026281807  0.026383447            1 
 1391000    1.0292482   -7.5477118    437.59502  0.026215853  0.026375524            2 
 1392000    1.0538912   -7.5235021    438.77253  0.026267512  0.026367686            2 
 1393000    1.0471875   -7.5592434    437.86519  0.026194376  0.026359749            6 
 1394000    1.0261932   -7.5668614    438.05223  0.026186766  0.026351786            1 
 1395000    1.0418447   -7.5447086    438.02176  0.026166174  0.026343765            4 
 1396000   0.99666821   -7.5073685    438.01722  0.026147159  0.026335693            1 
 1397000    1.0312968   -7.5173638    438.33679  0.026147506  0.026327628            1 
 1398000    1.0109046   -7.4853145    440.28729   0.02624507  0.026319583            1 
 1399000    1.0138323   -7.5604193    439.66739  0.026189385  0.026311625            2 
 1400000    1.0453633   -7.5525406    438.92683  0.026126597  0.026303812            2 
 1401000    1.0240778   -7.5169847    439.72647  0.026155512  0.026295879            2 
 1402000    1.0434651   -7.5620287    439.61117  0.026130003  0.026287806            2 
 1403000    1.0079926   -7.5391743    440.67828  0.026174761  0.026279843            2 
 1404000    1.0440075   -7.5416455    439.66176  0.026095783  0.026271938            8 
 1405000    1.0148166   -7.5136396    441.36947  0.026178498  0.026263974            2 
 1406000    1.0314434    -7.564779    439.54584  0.026051792  0.026255933            2 
 1407000    1.0146928   -7.5508437    440.35679  0.026081307  0.026247831            2 
 1408000    1.0095958   -7.5579942    441.31035  0.026119221  0.026239692            2 
 1409000    1.0393233   -7.5279147     440.6642  0.026062467  0.026231621            3 
 1410000    1.0320666   -7.5218238    441.15632  0.026073068  0.026223562            1 
 1411000    1.0142469    -7.534804    441.64893  0.026083683  0.026215549            4 
 1412000    1.0426893   -7.5596265    441.10872  0.026033329   0.02620747            2 
 1413000    1.0426436   -7.4991889    442.44787  0.026093882  0.026199422            2 
 1414000    1.0219884   -7.5738574    442.99512   0.02610768  0.026191216            1 
 1415000    1.0142725   -7.5270518    441.81397  0.026019668  0.026183079            1 
 1416000    1.0207803   -7.5270118    441.03201  0.025955273  0.026174982            1 
 1417000      1.02266   -7.4825629    443.27567  0.026068906  0.026166866            1 
 1418000     1.024204   -7.4962654     444.2002  0.026104854  0.026158935            1 
 1419000    1.0288211   -7.5371878    443.68588  0.026056253  0.026150979            1 
 1420000    1.0267045   -7.5183715     443.9308  0.026052277   0.02614294            2 
 1421000    1.0121585   -7.5217638    442.71708  0.025962766  0.026135009            2 
 1422000    1.0222038   -7.5408702    443.65914  0.025999715  0.026126916            2 
 1423000     1.027026   -7.5416979    444.74315  0.026044926  0.026118838            1 
 1424000     1.015771   -7.6089048    442.53474  0.025897398  0.026110674            5 
 1425000    1.0183177   -7.4923701    445.06974   0.02602747  0.026102555            2 
 1426000    1.0319941   -7.5613272    443.96993  0.025944947  0.026094519            2 
 1427000    1.0294271   -7.5278478    443.49962    0.0258993  0.026086422            2 
 1428000    1.0152896   -7.5574635    444.27924   0.02592666  0.026078401            1 
 1429000    1.0437239   -7.5699809    444.37942  0.025914359  0.026070361            3 
 1430000    1.0224441   -7.5480238    444.47488    0.0259018  0.026062204            1 
 1431000    1.0385383   -7.5625122    443.25757   0.02581281  0.026054047            1 
 1432000    1.0431377   -7.5486362    445.33654  0.025915767  0.026045885            2 
 1433000    1.0335462   -7.5376145    444.46767  0.025847154  0.026037804            1 
 1434000    1.0089457   -7.5262673    445.59633   0.02589472  0.026029657            1 
 1435000    1.0277392   -7.5415126    446.13419  0.025907909  0.026021391            1 
 1436000    1.0398237   -7.5137132     445.1137  0.025830647  0.026013081            3 
 1437000     1.028678   -7.5620784    444.88484  0.025799399  0.026004955            4 
 1438000     1.024105   -7.5490614    446.14498  0.025854484  0.025996802            3 
 1439000     1.041652   -7.5262008    446.30964  0.025846053  0.025988591            2 
 1440000    1.0219733   -7.5466317    446.81324  0.025857248   0.02598049            2 
 1441000    1.0323862   -7.5375499    446.73794  0.025834949  0.025972396            3 
 1442000    1.0047787   -7.5157331    446.67414  0.025813346  0.025964378            3 
 1443000    1.0297719   -7.5560966    446.56761  0.025789305    0.0259563            3 
 1444000    1.0224592   -7.5560043     448.4143  0.025878018  0.025948173            2 
 1445000    1.0199943   -7.5538379    446.68677  0.025760483  0.025940189            4 
 1446000    1.0337156   -7.5169537    448.66252  0.025856531  0.025932203            1 
 1447000    1.0214646   -7.5421796    448.28373  0.025816847   0.02592428            1 
 1448000    1.0278914   -7.5167093    447.58679  0.025758908  0.025916198            2 
 1449000    1.0141139   -7.5659002    447.94048  0.025761473  0.025908164            2 
 1450000    1.0134405   -7.5799723      447.448  0.025715402  0.025900072            1 
 1451000    1.0115549   -7.5532242      449.429  0.025811452  0.025891939            1 
 1452000    1.0426499   -7.5720983    448.36368  0.025732534  0.025883834            1 
 1453000    1.0147938   -7.5027819    449.58783  0.025785033  0.025875893            1 
 1454000    1.0370318    -7.541549    449.66278  0.025771594  0.025867902            1 
 1455000    1.0061934     -7.54788    447.54299  0.025632474  0.025859932            2 
 1456000      1.03714   -7.5631875    449.70408  0.025738558  0.025851989            1 
 1457000    1.0280472     -7.54242    449.52799  0.025710821  0.025844046            4 
 1458000    1.0340152   -7.5609639    450.41881  0.025744102  0.025836085            1 
 1459000    1.0136455   -7.5695237    450.69417  0.025742184  0.025828261            3 
 1460000    1.0163229   -7.5644488    450.66307  0.025722778    0.0258204            2 
 1461000    1.0180626   -7.5474749    450.24294  0.025681208  0.025812612            1 
 1462000    1.0361603   -7.5100707    452.60096  0.025798048  0.025804894            4 
 1463000    1.0256894   -7.5402066    451.69138  0.025728604  0.025797114            2 
 1464000    1.0306808   -7.5542622    451.07613  0.025676009  0.025789313            1 
 1465000    1.0136453   -7.5547207    451.85358  0.025702706  0.025781463            2 
 1466000    1.0447099   -7.5256011    452.67161  0.025731674  0.025773562            1 
 1467000    1.0117839   -7.5277996    454.29069  0.025806106  0.025765702            2 
 1468000    1.0078889   -7.5470548    453.51649  0.025744578   0.02575797            2 
 1469000    1.0096258   -7.5682878    453.44919  0.025723235  0.025750259            1 
 1470000    1.0148914   -7.5673827    452.54771  0.025654632  0.025742448            2 
 1471000   0.99885623   -7.5825287    452.97694  0.025661508  0.025734613            1 
 1472000    1.0013035   -7.5645374    452.03082  0.025590513  0.025726715            1 
 1473000    1.0243327   -7.5670717    452.88489  0.025621458  0.025718903            3 
 1474000    1.0098796    -7.581454    452.88066  0.025603836  0.025711027            1 
 1475000    1.0240946   -7.5207382    455.23759  0.025719638  0.025703209            3 
 1476000    1.0288837    -7.552764    453.26932  0.025591086  0.025695452            3 
 1477000    1.0013246   -7.6046381    453.21106  0.025570473   0.02568755            2 
 1478000    1.0063014   -7.5948268    452.77667   0.02552868  0.025679554            1 
 1479000    1.0071352   -7.5878356    452.66851  0.025505325  0.025671455            1 
 1480000    1.0203016   -7.5604435    453.81206  0.025552481  0.025663464            2 
 1481000     1.013398   -7.6086486    453.14866  0.025497899   0.02565548            1 
 1482000   0.98696803   -7.5700346    453.90036  0.025522962  0.025647525            2 
 1483000    1.0107248   -7.5861814    454.25942  0.025525928  0.025639676            3 
 1484000    1.0156436   -7.5206545     455.8644  0.025598854  0.025631901            2 
 1485000     1.008409   -7.5435868    455.58235  0.025565788  0.025624242            2 
 1486000    1.0239687   -7.5529019    455.56766   0.02554776  0.025616433            2 
 1487000    1.0045271   -7.5575213    455.40245  0.025521321  0.025608629            3 
 1488000    1.0168219   -7.5811681    456.28695  0.025553705  0.025600808            1 
 1489000   0.99739345   -7.5964728    455.63272  0.025499928  0.025592985            3 
 1490000    1.0257836   -7.6102241    457.17626  0.025569142  0.025585173            1 
 1491000    1.0190569   -7.5822223    455.50438   0.02545855  0.025577466            1 
 1492000    1.0109012   -7.5383211    456.41824  0.025492529  0.025569691            2 
 1493000    1.0143961   -7.5776159    456.85128  0.025499625  0.025561957            3 
 1494000   0.99794049   -7.5795558    456.23628  0.025448253  0.025554248            2 
 1495000    1.0137277    -7.564269     457.9319  0.025525747  0.025546451            2 
 1496000    1.0096588   -7.6091451    457.06282  0.025460273  0.025538648            2 
 1497000    1.0070195   -7.5675116    458.14599  0.025503562  0.025530808            1 
 1498000    1.0167982   -7.5636799    458.68608  0.025516582  0.025523102            2 
 1499000     1.017422     -7.51778    458.87746  0.025510199  0.025515433            1 
 1500000    1.0195181   -7.5933811    456.72945  0.025373858  0.025507734            1 
 1501000    1.0349621   -7.5594487    458.41628  0.025450604  0.025500047            2 
 1502000    1.0062964   -7.5402685    459.22872  0.025478735  0.025492356            4 
 1503000     1.015214   -7.5613824    459.08237  0.025453669  0.025484702            3 
 1504000    1.0128031   -7.5622548    458.72935  0.025417185  0.025477011            1 
 1505000     1.007968   -7.5461852    460.14909  0.025478909  0.025469378            1 
 1506000    1.0125936   -7.5737046    460.31992  0.025471443  0.025461768            2 
 1507000    1.0100403   -7.5610399    459.84408  0.025428228  0.025454126            3 
 1508000    1.0187739   -7.5875119    460.33633  0.025438568  0.025446489            2 
 1509000    1.0232615   -7.5808215    459.44392  0.025372427  0.025438761            2 
 1510000    1.0187043   -7.5798014     461.6888  0.025479515  0.025431036            4 
 1511000   0.99513968   -7.5477931    460.54566  0.025399606  0.025423403            2 
 1512000     1.015674   -7.5472974    461.72618  0.025447871  0.025415757            1 
 1513000    1.0075093   -7.5554158     461.4719  0.025417047  0.025408098            3 
 1514000    1.0174453   -7.5331599    460.47502  0.025345388  0.025400431            2 
 1515000   0.99297062   -7.5478995    461.25881  0.025371772  0.025392887            2 
 1516000    1.0000447   -7.5709524    460.94742  0.025337919  0.025385227            6 
 1517000    1.0027615   -7.5782149    461.91845  0.025374558  0.025377619            2 
 1518000   0.99458517   -7.6013576    459.27868  0.025212927  0.025369896            2 
 1519000    1.0075288   -7.5593627    462.70021  0.025384036  0.025362184            1 
 1520000   0.99179925    -7.560799       461.54  0.025303728  0.025354559            1 
 1521000    1.0492248   -7.5906079     462.2081  0.025323696  0.025347036            2 
 1522000    1.0153277   -7.5938991    462.11869  0.025302162  0.025339363            2 
 1523000     1.012731   -7.5891291    461.94227  0.025275896  0.025331599            1 
 1524000    1.0119923    -7.589507    462.07968  0.025266824  0.025323911            2 
 1525000    1.0231051   -7.6201116    461.80232    0.0252351  0.025316094            2 
 1526000    1.0226488    -7.595633    463.48931  0.025310688  0.025308522            1 
 1527000   0.98688794   -7.6036664    463.74079  0.025307836  0.025300977            1 
 1528000    1.0121864   -7.5944479    462.68088  0.025233468  0.025293425            2 
 1529000   0.99743403    -7.602379    462.67076  0.025216414  0.025285932            3 
 1530000    1.0200774   -7.5914942    463.69977  0.025255979  0.025278375            2 
 1531000    1.0090917   -7.5630197     463.9304  0.025252036  0.025270751            1 
 1532000   0.98654952   -7.5996875    463.26753  0.025199496  0.025263207            3 
 1533000   0.99402143   -7.6311821    463.05614  0.025171567  0.025255629            2 
 1534000    1.0096474   -7.5628284    465.66787  0.025297038  0.025248071            2 
 1535000    0.9967053   -7.5815803    464.20605  0.025201197  0.025240536            2 
 1536000   0.99899644     -7.56472    464.51705  0.025201663  0.025232935            3 
 1537000   0.98190046    -7.564794    465.43584  0.025235081   0.02522533            1 
 1538000    0.9973793   -7.5368563    465.13547  0.025202398  0.025217716            1 
 1539000     1.001535   -7.6079102    464.07828  0.025128778  0.025210032            1 
 1540000    1.0072509   -7.5959499    464.69966  0.025146086  0.025202385            3 
 1541000   0.99192983   -7.6148155    465.27022  0.025160622  0.025194695            2 
 1542000    1.0175443   -7.5809882    465.55897   0.02515991  0.025186937            2 
 1543000   0.99887836   -7.5787679    466.82768  0.025212124  0.025179323            1 
 1544000   0.99239114   -7.5893588    466.66439  0.025186981  0.025171746            1 
 1545000    1.0014885   -7.5738318    466.74938  0.025175263  0.025164308            2 
 1546000    1.0058779   -7.5700787    466.81052  0.025162275  0.025156893            1 
 1547000   0.98240872   -7.6056051    466.96483  0.025154322  0.025149305            2 
 1548000    1.0030648   -7.5998711    466.62925  0.025120007  0.025141816            1 
 1549000   0.98614265   -7.5899937    466.94424  0.025120736   0.02513437            1 
 1550000    0.9966783   -7.5829387    467.48652  0.025133684  0.025126848            2 
 1551000    1.0052582   -7.5835876    467.75724  0.025132025  0.025119293            2 
 1552000    1.0060187   -7.5772971    467.68165  0.025111772  0.025111696            1 
 1553000    1.0255141   -7.5992509    467.20359   0.02506995   0.02510418            2 
 1554000    1.0008107    -7.606235    467.29151  0.025058532  0.025096669            3 
 1555000   0.98406287   -7.6149279    468.53152   0.02510887  0.025089128            1 
 1556000   0.99742304   -7.5694273    468.34087  0.025082523  0.025081515            3 
 1557000    1.0060509   -7.6392424    467.75652  0.025035138   0.02507378            1 
 1558000    1.0063607   -7.6032548    468.05892  0.025035244   0.02506611            1 
 1559000    1.0134012   -7.6193548    468.13734  0.025023377   0.02505841            1 
 1560000   0.99843248   -7.6052839     468.0428  0.025002286  0.025050692            1 
 1561000   0.99482029    -7.603374    466.85115  0.024922654  0.025042971            4 
 1562000   0.98714655   -7.5922398    467.96234   0.02496598  0.025035246            2 
 1563000   0.98902258   -7.6017907    468.09655  0.024957163  0.025027468            2 
 1564000     1.010661   -7.6203108    466.28994  0.024844945  0.025019742            4 
 1565000    1.0058357   -7.5862066    469.98851  0.025026012  0.025011969            2 
 1566000   0.99928398   -7.6116077    467.39236   0.02487188  0.025004156            1 
 1567000   0.97800224   -7.5936659    469.49115  0.024967621  0.024996407            2 
 1568000   0.99041655   -7.5817814    469.33772  0.024943544  0.024988619            3 
 1569000    0.9765206   -7.6044582    470.14905  0.024970738  0.024980799            2 
 1570000    1.0154549    -7.592234    468.47584  0.024866021  0.024972989            1 
 1571000    1.0145852   -7.5644515    469.70055  0.024915158  0.024965235            1 
 1572000    1.0083563   -7.5733432    470.40879  0.024936853  0.024957468            1 
 1573000   0.99170284   -7.6127619    469.52245  0.024874044  0.024949692            1 
 1574000    1.0051232   -7.6181184    469.42126  0.024852883  0.024941768            1 
 1575000     1.010994   -7.6089544    469.23826  0.024827421  0.024933851            3 
 1576000   0.97074139   -7.6050573    469.98672  0.024851244  0.024925909            1 
 1577000    1.0107019   -7.5749102    470.73644  0.024875102  0.024918127            2 
 1578000     1.015636   -7.6175568    470.15579  0.024828675  0.024910318            1 
 1579000     1.012701   -7.6336868    470.51968  0.024832155  0.024902601            3 
 1580000    1.0081837   -7.5971472    473.52174  0.024974775  0.024894851            1 
 1581000   0.98591247   -7.5856352    472.83213   0.02492263   0.02488718            2 
 1582000   0.99696375   -7.5746647     471.9489  0.024860351  0.024879615            2 
 1583000    1.0025374   -7.6031177    472.34444  0.024865469  0.024871983            3 
 1584000   0.99402574   -7.5972861    473.06036  0.024887435  0.024864321            1 
 1585000    0.9754641   -7.6247192    473.16626    0.0248773  0.024856716            3 
 1586000     1.004294   -7.5838174    473.66245  0.024887687  0.024849107            1 
 1587000    0.9978743   -7.6060271    472.16061  0.024793143  0.024841483            2 
 1588000   0.99507039    -7.578489    473.64941  0.024855657  0.024833951            1 
 1589000   0.98303426   -7.6503172    471.97886  0.024752405  0.024826333            1 
 1590000   0.99320323   -7.6286586    472.91248  0.024785769  0.024818694            5 
 1591000   0.99227836   -7.6136581     473.0229  0.024775974  0.024811035            1 
 1592000     1.001777   -7.6238408    473.41056  0.024780703    0.0248034            2 
 1593000     1.010331   -7.6045107    474.15491  0.024804086   0.02479581            1 
 1594000    1.0094547   -7.6336916    474.52036  0.024807631  0.024788138            1 
 1595000    1.0019023   -7.5948263    473.18586  0.024722354  0.024780444            2 
 1596000    1.0049863   -7.6556308     472.9938  0.024696836  0.024772699            1 
 1597000   0.99850867   -7.6355267     473.9023  0.024728778  0.024765063            2 
 1598000    1.0002581   -7.6377511    474.42332  0.024740473   0.02475741            2 
 1599000   0.98565098   -7.5916714    476.88852  0.024853477  0.024749906            3 
 1600000   0.99011536   -7.5768602    475.13399  0.024746562   0.02474244            2 
 1601000    1.0033205   -7.5915064    475.61794  0.024756295  0.024734844            4 
 1602000   0.98660581   -7.5664872    476.56001  0.024789846  0.024727339            1 
 1603000    1.0002898   -7.6547582    476.09159   0.02475003  0.024719759            3 
 1604000   0.99628991   -7.6319606    474.70107  0.024662358   0.02471208            2 
 1605000    1.0006426    -7.658347    474.86497  0.024655502   0.02470439            2 
 1606000   0.98693508   -7.6238457    476.21842  0.024710379  0.024696729            2 
 1607000   0.99012117   -7.5955293    475.83315  0.024675024  0.024689104            2 
 1608000    1.0157489   -7.6096339    474.86955   0.02460974  0.024681473            2 
 1609000   0.98081391   -7.6133785    475.99076  0.024652515  0.024673907            3 
 1610000   0.99295156   -7.6213107    477.08905   0.02469405  0.024666355            4 
 1611000    1.0195606   -7.6345688    477.40476  0.024695053  0.024658888            1 
 1612000   0.97882008   -7.6517943    476.90451  0.024653872  0.024651284            2 
 1613000   0.99509842   -7.6444935    477.17769  0.024652701  0.024643719            2 
 1614000   0.98996149   -7.6415017    477.61651  0.024660084  0.024636043            1 
 1615000   0.97252684   -7.6204979    475.50361   0.02453579  0.024628435            5 
 1616000   0.98027627    -7.623363    477.86747  0.024642506  0.024620871            1 
 1617000   0.97070484   -7.5995402    477.19462   0.02459259  0.024613283            2 
 1618000   0.99220795   -7.6033722    477.70615  0.024603737  0.024605779            1 
 1619000   0.99141251   -7.6108703    478.25969  0.024617031  0.024598342            3 
 1620000   0.96902259   -7.6102098    479.75408  0.024678708  0.024590902            2 
 1621000   0.99522479   -7.6343061    479.58124  0.024654598  0.024583454            1 
 1622000   0.99350609   -7.6182928    478.04048  0.024560238  0.024575996            6 
 1623000    0.9808245   -7.6378473    478.59127  0.024573386  0.024568507            3 
 1624000   0.98664895   -7.6139077    479.94065  0.024627497  0.024561132            2 
 1625000   0.97038408   -7.6350594    479.93962  0.024612288  0.024553787            2 
 1626000    1.0027108   -7.6284465     479.2078  0.024559645   0.02454647            3 
 1627000    1.0016685   -7.6596654    479.84326  0.024577098  0.024539047            2 
 1628000   0.97654203    -7.619788    480.35233   0.02458806   0.02453161            2 
 1629000    1.0083337    -7.623613    480.72077  0.024591814  0.024524254            2 
 1630000   0.98718655   -7.5943802    480.00296  0.024540029  0.024516904            1 
 1631000    1.0019422   -7.6506817    480.02731  0.024526227  0.024509482            2 
 1632000   0.99336767   -7.6378146    481.61307  0.024592171  0.024502006            3 
 1633000    1.0090308   -7.6372547    480.28835   0.02450951   0.02449459            2 
 1634000   0.97459501   -7.5863771    481.14154  0.024538022  0.024487257            1 
 1635000   0.99094042   -7.6123223    480.96086  0.024513805  0.024479956            3 
 1636000   0.99891502   -7.5933769    483.25556  0.024615707  0.024472691            2 
 1637000    1.0008341   -7.6218538    482.69303  0.024572034  0.024465434            2 
 1638000   0.99298777   -7.5710734    481.84565  0.024513922  0.024458137            4 
 1639000   0.99644998   -7.6204721    481.80537  0.024496917  0.024450678            1 
 1640000   0.97278739   -7.6187011    482.45654  0.024515068  0.024443398            3 
 1641000    1.0032993   -7.6598613    482.44052  0.024499316  0.024436057            1 
 1642000    0.9776458   -7.6327181    481.43341  0.024433283   0.02442866            4 
 1643000   0.98244558   -7.6077811    481.13151    0.0244031  0.024421218            2 
 1644000   0.96203886    -7.654977    481.48528  0.024406188  0.024413661            2 
 1645000   0.97857335   -7.6217885    480.98227   0.02436587  0.024406185            8 
 1646000    1.0015779   -7.6018213    481.32704  0.024368522  0.024398715            1 
 1647000     0.996882   -7.6436669    482.46046  0.024411074  0.024391193            5 
 1648000   0.98891423    -7.622123    481.65221  0.024355391  0.024383673            3 
 1649000   0.97475569   -7.6383136     483.4945  0.024433722  0.024376254            1 
 1650000    0.9802408   -7.6222092    481.87403  0.024337072  0.024368789            1 
 1651000   0.99183723   -7.6248953    482.90908  0.024374575   0.02436133            2 
 1652000   0.98486941   -7.6440432    482.70397  0.024349474  0.024353841            3 
 1653000   0.99392796   -7.6083463    482.52526  0.024325734  0.024346335            2 
 1654000   0.96609764   -7.5964491    484.96904  0.024434152  0.024338841            1 
 1655000   0.98270789   -7.6413995     484.6429  0.024402966  0.024331408            2 
 1656000   0.97741354   -7.6263984    483.83018  0.024347332   0.02432389            2 
 1657000   0.97632132   -7.6496082    482.79756  0.024280706  0.024316243            1 
 1658000   0.98895253   -7.6466213    482.95842  0.024274146  0.024308701            1 
 1659000   0.97242692   -7.5888024    485.01387  0.024362762  0.024301126            2 
 1660000   0.96388817   -7.6255379    484.31109  0.024312806  0.024293623            7 
 1661000   0.97542123   -7.6554255    483.43604  0.024254266  0.024286042            1 
 1662000   0.98204533   -7.6743933    482.85333  0.024210456  0.024278323            2 
 1663000   0.98850121   -7.6753553    482.69436  0.024187931  0.024270707            1 
 1664000   0.98922245   -7.6357871    483.89515  0.024233531  0.024263102            2 
 1665000   0.96200673   -7.6295087    484.87277  0.024267906    0.0242554            2 
 1666000    1.0109632   -7.6718009    482.90483  0.024154904  0.024247792            1 
 1667000    1.0006441   -7.6377351     484.1995  0.024205134   0.02424016            3 
 1668000   0.98991497   -7.6078962    485.05379  0.024233303  0.024232538            2 
 1669000   0.97637998   -7.6294378    486.27469  0.024279743  0.024224925            1 
 1670000   0.96317031   -7.6212401    485.06467  0.024204824  0.024217322            1 
 1671000     0.989868   -7.6561459    483.94484  0.024134492  0.024209638            1 
 1672000   0.98834793   -7.6500827      485.031  0.024174193   0.02420193            1 
 1673000   0.97965745   -7.6364369     485.6345  0.024189804  0.024194261            2 
 1674000   0.98851424   -7.6397833    485.17636  0.024152547  0.024186641            2 
 1675000   0.98203237    -7.635702    485.64854  0.024161619  0.024178956            1 
 1676000   0.98059788   -7.6425313    485.43995  0.024136831  0.024171247            2 
 1677000   0.98396545   -7.6825629    483.79507  0.024040701  0.024163586            4 
 1678000   0.97199028   -7.6388736    486.03339  0.024137534   0.02415585            3 
 1679000     0.981847   -7.6518956    484.64874  0.024054434   0.02414819            3 
 1680000   0.97943143   -7.6338924    484.83917  0.024049562  0.024140484            1 
 1681000     1.000174   -7.6632126    484.72987  0.024029837  0.024132674            1 
 1682000   0.99281559   -7.6226167    486.18189  0.024087489  0.024124916            1 
 1683000    1.0056158   -7.6423288    486.39659  0.024083808  0.024117177            1 
 1684000    1.0068989   -7.6542955    486.01993  0.024050868   0.02410948            2 
 1685000   0.95951436   -7.6317677    485.69016  0.024020285  0.024101655            1 
 1686000   0.99132326   -7.6462471    485.93636  0.024018207  0.024093848            3 
 1687000   0.99030595   -7.6548077    486.38289  0.024026027  0.024085963            2 
 1688000   0.98707099   -7.6238519    486.81856  0.024033302  0.024078213            2 
 1689000   0.98509456   -7.6141098    485.78792  0.023968222  0.024070469            3 
 1690000   0.97754352   -7.6127029    487.90554  0.024058458  0.024062689            3 
 1691000   0.95870524   -7.6216047    487.10605  0.024004832  0.024055007            1 
 1692000   0.97322298   -7.6452893    487.38875  0.024004568  0.024047276            5 
 1693000   0.97881112   -7.6381967    485.76847  0.023910636  0.024039483            2 
 1694000   0.96264964   -7.6292419    486.65027  0.023939899  0.024031623            3 
 1695000   0.98031063   -7.6408432    487.65693  0.023975267  0.024023727            5 
 1696000   0.95469684   -7.6443253    486.97585  0.023927666   0.02401585            2 
 1697000    0.9826866   -7.6572565    487.14859  0.023922048  0.024007963            1 
 1698000   0.98218537   -7.6125906    488.47015  0.023972818  0.024000143            3 
 1699000    0.9760326    -7.613473    488.02336  0.023936794  0.023992346            4 
 1700000    1.0043554   -7.6321611    487.39289  0.023891808  0.023984443            1 
 1701000    0.9539595   -7.6559992    486.57668  0.023837776  0.023976522            3 
 1702000   0.98046392   -7.6157429    489.22268  0.023953324  0.023968663            3 
 1703000   0.95953428    -7.645097    489.51177  0.023953404  0.023960835            2 
 1704000   0.98671625   -7.6834694     487.9671  0.023863806  0.023953065            3 
 1705000   0.98661429    -7.621955    489.24008  0.023912027  0.023945313            2 
 1706000   0.97277666   -7.6625693    488.64007  0.023868702  0.023937593            4 
 1707000    0.9794507   -7.6456645    490.36674  0.023939013  0.023929829            3 
 1708000   0.97915167   -7.6562679    490.82367  0.023947291  0.023922088            2 
 1709000   0.96485772   -7.6520946    490.04836  0.023895473  0.023914385            2 
 1710000    0.9910147   -7.6499027    491.26503  0.023940791  0.023906634            2 
 1711000    0.9911061   -7.6384992    490.75243  0.023901833  0.023899056            1 
 1712000   0.99021679   -7.6509352    489.81685  0.023842331  0.023891421            2 
 1713000   0.95210964   -7.6437211    491.07056  0.023889403   0.02388387            1 
 1714000   0.98936835   -7.6567278    491.23063  0.023883247  0.023876274            1 
 1715000   0.96620281   -7.7072159    490.98896  0.023857578  0.023868679            1 
 1716000   0.95840466   -7.6710709    490.72903  0.023831053  0.023861077            2 
 1717000   0.97987189   -7.6994087     490.5042  0.023806261  0.023853529            2 
 1718000   0.97666399   -7.6297723    492.74663  0.023901176  0.023845999            4 
 1719000   0.97185109   -7.6845574    492.31244  0.023866222  0.023838552            3 
 1720000   0.96730553   -7.6535575    492.58958  0.023865774  0.023831088            3 
 1721000    1.0000331   -7.6235609     493.6376  0.023902653  0.023823612            2 
 1722000   0.98003468   -7.6939146    493.32906  0.023873841  0.023816144            1 
 1723000   0.96629487    -7.648091    493.33094  0.023860077  0.023808656            1 
 1724000   0.99389391   -7.6570847    494.35347  0.023895663  0.023801232            1 
 1725000   0.97059841   -7.6756384    493.31734  0.023831755  0.023793807            1 
 1726000   0.98131532   -7.6628391     492.6345   0.02378498  0.023786398            1 
 1727000   0.97426298   -7.6809964    494.24044  0.023848699  0.023779003            1 
 1728000   0.95642046   -7.6534945     493.9401  0.023820414  0.023771617            2 
 1729000   0.97797486   -7.6618826    495.04567  0.023859922  0.023764285            3 
 1730000    0.9733045   -7.6287647    494.38697  0.023814401  0.023756977            2 
 1731000   0.97890923   -7.6867403    494.59758  0.023810783  0.023749663            2 
 1732000   0.96952975    -7.654121    494.67873  0.023800939  0.023742363            2 
 1733000   0.97344837   -7.6403617    495.67352  0.023835041  0.023735194            2 
 1734000   0.94903975   -7.6599724    495.75403  0.023825165  0.023727977            2 
 1735000    0.9766242    -7.668011    496.43662  0.023844218  0.023720734            3 
 1736000   0.96792159   -7.6408519    496.22819  0.023820477  0.023713443            2 
 1737000   0.96820086   -7.6694693    495.46625   0.02377021  0.023706222            2 
 1738000   0.96173137   -7.6755617    495.27525  0.023747375  0.023699056            3 
 1739000    0.9738454   -7.6675429    497.23857  0.023827802  0.023691794            3 
 1740000   0.98909485   -7.6656937    497.89768  0.023845674  0.023684583            3 
 1741000   0.98227554   -7.6747893    495.80179  0.023731658  0.023677343            1 
 1742000   0.97947034   -7.6734228     496.7026  0.023761127  0.023670069            1 
 1743000   0.98288266   -7.6434619    496.66559  0.023745725  0.023662786            2 
 1744000   0.99005082   -7.6454529    496.05869   0.02370311  0.023655558            2 
 1745000   0.97689307   -7.6741729     495.5515  0.023665306  0.023648288            1 
 1746000   0.97735706   -7.6575416    496.03636  0.023674893  0.023641031            1 
 1747000   0.96521142   -7.6987941     497.1154  0.023712813  0.023633819            2 
 1748000   0.98214796   -7.6671241    497.56247   0.02372056  0.023626487            3 
 1749000   0.95881775   -7.6878785    498.30383  0.023742321  0.023619174            3 
 1750000    0.9915759   -7.6927969    498.11951  0.023719976  0.023611926            3 
 1751000   0.97860429   -7.6770834    499.03925  0.023750202  0.023604696            4 
 1752000   0.96679077   -7.6972878    496.80527  0.023630387  0.023597468            4 
 1753000   0.97810307   -7.6881822    497.91504  0.023669663  0.023590195            2 
 1754000   0.95622684   -7.6757039    497.81264  0.023651303  0.023582948            2 
 1755000   0.96334411    -7.692872    496.92398   0.02359563  0.023575615            1 
 1756000   0.95759916   -7.6795493    496.34439  0.023554688  0.023568327            3 
 1757000   0.95051903   -7.6705693    498.64314   0.02365031  0.023561096            1 
 1758000    0.9670186   -7.6868487    499.11371  0.023659164  0.023553898            3 
 1759000    1.0208677   -7.6869959    498.70204   0.02362621  0.023546619            2 
 1760000   0.97785038   -7.6836313    499.70815  0.023660424  0.023539418            3 
 1761000   0.95995287   -7.6463546    500.74438  0.023696024  0.023532336            1 
 1762000   0.94713302    -7.673167    500.11028  0.023652586  0.023525153            3 
 1763000   0.97086747   -7.6631196    499.51953  0.023611246  0.023517871            1 
 1764000   0.95285367   -7.6960033    499.64706  0.023603886  0.023510575            4 
 1765000   0.97346864   -7.6701094    500.77392  0.023643717   0.02350335            2 
 1766000   0.98810497   -7.6698706    499.93914  0.023590937  0.023496186            3 
 1767000   0.98588104   -7.6944299    500.41041  0.023599812   0.02348897            3 
 1768000   0.98647721   -7.6898526    499.22785  0.023530725  0.023481691            3 
 1769000   0.97324627   -7.6828763    500.20296  0.023563358  0.023474441            4 
 1770000   0.97463352   -7.6713227    500.15407  0.023547743   0.02346724            3 
 1771000   0.99374235   -7.6861809    500.34973  0.023543654  0.023460012            2 
 1772000   0.96701862    -7.657281    501.39505  0.023579526  0.023452852            3 
 1773000   0.96536278   -7.6581607    501.20404   0.02355725  0.023445704            1 
 1774000   0.93947855   -7.6808803    502.24785  0.023593003  0.023438574            4 
 1775000   0.96544716   -7.6764141    501.47759  0.023543549  0.023431449            1 
 1776000   0.97280841   -7.6687644    503.11143  0.023606955  0.023424376            2 
 1777000   0.97347984   -7.6514234    501.45165  0.023515834  0.023417277            1 
 1778000   0.96108266   -7.6780201    501.49756   0.02350476  0.023410084            1 
 1779000   0.97863754   -7.7052301    500.46104  0.023442994  0.023402858            1 
 1780000    0.9594459   -7.6787863    502.55081  0.023527659  0.023395718            1 
 1781000   0.96407454   -7.6743358    502.12722  0.023494629  0.023388538            3 
 1782000   0.97373411   -7.6738624    502.16908  0.023483402  0.023381451            2 
 1783000   0.98016019   -7.6600115     502.7813  0.023498846  0.023374331            3 
 1784000   0.95226023   -7.6321172    504.34193  0.023558573  0.023367292            1 
 1785000   0.96540606   -7.6576836    502.93459  0.023479673  0.023360223            3 
 1786000   0.97725651   -7.7027842    503.55014  0.023495247  0.023353099            5 
 1787000   0.97200084   -7.7135136    502.71044  0.023442942  0.023345926            2 
 1788000   0.94395311   -7.7406065    502.04025  0.023398595   0.02333873            6 
 1789000   0.96827789   -7.6997394    503.75441  0.023465363  0.023331496            2 
 1790000   0.95168142   -7.7108223    503.25325  0.023428922  0.023324309            2 
 1791000   0.95376603   -7.6566038    504.98556  0.023496443  0.023317158            1 
 1792000   0.96439213   -7.6672047    504.48049  0.023459844  0.023309966            2 
 1793000   0.95452384    -7.697252    503.94825  0.023422023  0.023302744            1 
 1794000    0.9907719   -7.6856499     504.6653  0.023442275  0.023295543            2 
 1795000   0.97358091   -7.6691902    503.16151  0.023359402  0.023288328            2 
 1796000   0.95833974   -7.6777324    505.21197  0.023441535  0.023281116            2 
 1797000   0.95933487   -7.7324759    501.82817  0.023271571  0.023273824            1 
 1798000   0.95949066   -7.6993517    505.26064  0.023417716  0.023266532            2 
 1799000   0.96397383   -7.7096748    503.37454  0.023317331  0.023259307            2 
 1800000   0.97287696   -7.7055367    503.99854  0.023333266  0.023252131            2 
 1801000   0.98318864    -7.662627    506.29356  0.023426502  0.023245003            2 
 1802000   0.94760647   -7.6852093    505.82557  0.023391859   0.02323791            2 
 1803000   0.95368886   -7.6948746    504.63831  0.023324011  0.023230724            1 
 1804000   0.97423034   -7.7251761    504.29594  0.023295267  0.023223549            2 
 1805000   0.95871746   -7.6896793    504.73268  0.023302525  0.023216439            2 
 1806000   0.94024441   -7.6861301    506.49058  0.023370735  0.023209327            2 
 1807000   0.97740149   -7.6912512    505.42862  0.023308828  0.023202131            1 
 1808000   0.98809211   -7.7000483    506.99118  0.023367956  0.023195015            2 
 1809000   0.98851332   -7.7372802     504.8854  0.023258034  0.023187898            3 
 1810000   0.94726637   -7.7248135    507.77375  0.023378165  0.023180811            1 
 1811000   0.95894007   -7.7128573    507.99006   0.02337521  0.023173776            1 
 1812000   0.96606879   -7.6830121    508.01268   0.02336335  0.023166817            2 
 1813000   0.95987117   -7.7066707    506.18383  0.023266401  0.023159908            3 
 1814000   0.97609001   -7.7054045    507.71161   0.02332376  0.023152964            3 
 1815000   0.96292957   -7.6773144    508.66396  0.023354636  0.023145965            1 
 1816000   0.96597068   -7.7132082     507.8665  0.023305181  0.023139009       -1e+20 
 1817000    0.9590476   -7.7221178    508.11447  0.023303727  0.023132079            3 
 1818000   0.97838912   -7.6414007    509.43083  0.023351248  0.023125208            1 
 1819000   0.95147926   -7.6847849    509.18051  0.023326943  0.023118285            3 
 1820000   0.97433391   -7.6894684    508.09451  0.023264401  0.023111351            1 
 1821000   0.97110688   -7.6636038    509.47345  0.023314729  0.023104442            1 
 1822000   0.96945937   -7.6871724    508.97988  0.023279358  0.023097505            2 
 1823000   0.98219939   -7.7253039    509.09991  0.023272075  0.023090539            3 
 1824000   0.94098451   -7.7178823    509.28754  0.023267888  0.023083538            3 
 1825000    0.9638297   -7.6758218    508.90224  0.023237545  0.023076615            2 
 1826000   0.95713206   -7.7199538    508.81406  0.023220795  0.023069659            3 
 1827000   0.96442559   -7.6891169    508.80323  0.023207591  0.023062702            1 
 1828000   0.96230167   -7.7144772    508.90338  0.023199461  0.023055834            2 
 1829000   0.96635419    -7.693093    510.63744  0.023265784  0.023048928            3 
 1830000   0.94538159   -7.6856452    511.03325  0.023271095  0.023042061            3 
 1831000   0.97514165   -7.6694817     511.1266  0.023262634  0.023035198            2 
 1832000   0.94819092   -7.6713858    511.35633  0.023260386  0.023028335            3 
 1833000   0.97112162   -7.6748492    510.95006  0.023229226  0.023021491            3 
 1834000   0.94872822   -7.7149717    509.96321   0.02317172  0.023014546            2 
 1835000   0.96660681     -7.71322    511.36486  0.023222746  0.023007557            2 
 1836000   0.94301997   -7.6887237    511.68702   0.02322472  0.023000663            2 
 1837000   0.96402081   -7.7147565    510.87178  0.023175094  0.022993737            3 
 1838000   0.96572895   -7.7014655    511.41281  0.023187015  0.022986859            3 
 1839000   0.95079229   -7.7376344    510.53864  0.023134794   0.02297986            1 
 1840000   0.97586953   -7.7236634     511.7458  0.023176893  0.022972944            4 
 1841000   0.93900507    -7.699636    511.50048  0.023153199  0.022966102            2 
 1842000   0.97545034   -7.7210634     512.4043  0.023181519  0.022959218            1 
 1843000   0.96196146   -7.6860381     512.0396  0.023152451  0.022952266            2 
 1844000    0.9400896   -7.6714667    511.80894  0.023129471  0.022945359            4 
 1845000   0.93851398   -7.7154017    512.42553  0.023144784  0.022938479            2 
 1846000   0.95274733   -7.6932766    513.50719  0.023181076  0.022931601            3 
 1847000   0.97846221   -7.6926042    510.93143  0.023052311  0.022924819            1 
 1848000   0.94786416   -7.7208996    512.77758  0.023123087  0.022917924            1 
 1849000   0.96112417   -7.6807126    512.71327  0.023107683  0.022910983            2 
 1850000   0.94923212   -7.7544881    512.64636  0.023092179  0.022904076            4 
 1851000   0.96738227   -7.6763843    514.41196  0.023159192  0.022897207            1 
 1852000   0.94840525   -7.6985191    514.25459  0.023139605  0.022890358            2 
 1853000   0.96383546    -7.668054    514.74675  0.023149251  0.022883524            4 
 1854000   0.97251068   -7.7565732    511.93433  0.023010353  0.022876675            3 
 1855000   0.95402719   -7.7535144    513.27038  0.023057969  0.022869747            3 
 1856000   0.96957367   -7.7448176    513.33984  0.023048664  0.022862835            2 
 1857000   0.94357629   -7.7382281     513.1465  0.023027576  0.022855949            2 
 1858000   0.95067247   -7.7115761    513.21706  0.023018347  0.022849012            6 
 1859000   0.94262364   -7.7398175    514.35597  0.023057019  0.022842067            2 
 1860000   0.94919438   -7.6993588    515.08389  0.023077235  0.022835192            1 
 1861000   0.95762517   -7.7081122    514.64591  0.023045222  0.022828351            2 
 1862000   0.98484214   -7.7181701    513.98449  0.023003244  0.022821487            3 
 1863000   0.94017513   -7.7220717     514.2327     0.023002  0.022814552            3 
 1864000   0.96646173   -7.6899573     515.8242   0.02306081  0.022807665            6 
 1865000   0.95964307   -7.6685585    515.28705  0.023024444  0.022800855            1 
 1866000   0.94042263   -7.7097096     515.3264  0.023013862   0.02279396            3 
 1867000   0.93661875   -7.6730661    516.36932  0.023048086  0.022787196            1 
 1868000   0.92165536   -7.6973124    516.68905  0.023050011  0.022780388            4 
 1869000   0.94622076    -7.708576    517.21358  0.023061066  0.022773538            1 
 1870000      0.95971   -7.6938851    517.72567  0.023071554  0.022766871            5 
 1871000   0.95244205   -7.6914183    516.43901  0.023001916   0.02276023            1 
 1872000    0.9583618   -7.7297305    516.02802  0.022971333  0.022753548            1 
 1873000   0.95386727   -7.6968776     516.7021  0.022989059  0.022746847            8 
 1874000   0.92586147   -7.7469644    516.76326  0.022979512  0.022740129            1 
 1875000    0.9564274   -7.7270794    516.76391  0.022967285  0.022733438            4 
 1876000   0.93479767   -7.7132057    516.94382  0.022963034  0.022726719            2 
 1877000   0.94470382   -7.7374847    517.04204  0.022955161  0.022720051            1 
 1878000   0.94144006   -7.7009813       516.77  0.022930866  0.022713388            2 
 1879000   0.92922074   -7.7413796    517.84418  0.022966302  0.022706753            2 
 1880000   0.96360697   -7.7348247    517.92993  0.022957887  0.022700151            2 
 1881000   0.94672775   -7.7003191    520.12079  0.023042743  0.022693519            3 
 1882000    0.9649681   -7.7251932    518.56016  0.022961396  0.022686966            2 
 1883000   0.96335444   -7.7189252    518.84097  0.022961629  0.022680352            1 
 1884000   0.95530949   -7.7122958    520.02965  0.023002019  0.022673817            3 
 1885000   0.96649104   -7.7318126    518.25204  0.022911231  0.022667321            1 
 1886000   0.97691638    -7.743265    520.26583  0.022988063  0.022660815            2 
 1887000    0.9498381   -7.7404907     519.5618  0.022944789  0.022654276            1 
 1888000   0.94400264     -7.72896    519.94243  0.022949436  0.022647768            2 
 1889000   0.95582541   -7.7195455    520.01754  0.022940601  0.022641266            2 
 1890000   0.95005851   -7.7081568    520.86563  0.022965857   0.02263477            2 
 1891000   0.94484767   -7.7404463    519.45187   0.02289141  0.022628272            1 
 1892000   0.94750325   -7.7096591    520.30002  0.022916668  0.022621786            2 
 1893000   0.96069669   -7.7151494    521.06974  0.022938446  0.022615303            2 
 1894000     0.939914   -7.6955499    522.84627    0.0230045  0.022608967            1 
 1895000   0.96835563   -7.7201807    521.98262  0.022954381  0.022602567            3 
 1896000   0.95706194    -7.710783     521.8659  0.022937144  0.022596224            1 
 1897000   0.94945433   -7.7281469    522.74125  0.022963506  0.022589937            1 
 1898000   0.94680461   -7.7255003    522.03889  0.022920569  0.022583476            2 
 1899000   0.93651259   -7.7451882    522.69089  0.022937111  0.022577015            2 
 1900000   0.94870635   -7.7280669    522.85853  0.022932392  0.022570627            1 
 1901000   0.93020474   -7.6949575    523.46123  0.022946749  0.022564121            2 
 1902000   0.93269642   -7.7136238    523.59101   0.02294037  0.022557735            1 
 1903000   0.94368343   -7.7621295     524.8549  0.022983662  0.022551437            2 
 1904000   0.93702122   -7.7130677    523.69475  0.022920814  0.022545132            4 
 1905000   0.93739853   -7.7354378    522.56625  0.022859416  0.022538778            2 
 1906000   0.95361928   -7.7175734    525.26051   0.02296522  0.022532492            3 
 1907000   0.95978101   -7.7233398     524.2985  0.022911139  0.022526148            3 
 1908000   0.93448427   -7.7399296    522.72331  0.022830333  0.022519801            2 
 1909000   0.95697924   -7.7493933    523.95453   0.02287212  0.022513435            1 
 1910000   0.93739164   -7.7308241    524.93645  0.022902987  0.022507083            3 
 1911000   0.93509033   -7.7158183    524.94471  0.022891362  0.022500787            3 
 1912000   0.96356963   -7.7374894    525.25584   0.02289295  0.022494497            1 
 1913000   0.93451956   -7.7444672    524.47109  0.022846798  0.022488203            1 
 1914000   0.94575263   -7.7417224    525.10159  0.022862312  0.022481966            1 
 1915000   0.97898753    -7.734804    525.09391   0.02285004  0.022475665            4 
 1916000   0.94469107   -7.7520319    526.53683  0.022900871  0.022469387            1 
 1917000    0.9501457   -7.7513462    524.98079  0.022821283  0.022463075            1 
 1918000   0.93851738   -7.7511344    524.25791  0.022777976  0.022456799            2 
 1919000   0.94706427   -7.7740603    525.24442  0.022808946  0.022450489            3 
 1920000   0.95052385   -7.7758552    524.77146  0.022776539  0.022444143            3 
 1921000   0.93136495   -7.7499136     526.1081  0.022822666  0.022437799            2 
 1922000   0.95351656   -7.7204476    525.01325  0.022763322  0.022431445            1 
 1923000    0.9340645   -7.7828364    525.66003  0.022779512  0.022425118            2 
 1924000   0.93501563   -7.7466642    526.40325  0.022799864  0.022418782            2 
 1925000   0.95785348   -7.7472481    528.09199  0.022861125  0.022412505            2 
 1926000   0.95778912   -7.7483581    527.02111  0.022802921  0.022406303            2 
 1927000   0.94411924   -7.7326861    527.04551  0.022792143  0.022399964            4 
 1928000   0.94776564   -7.7150391    526.34065  0.022749855  0.022393652            1 
 1929000   0.93205689   -7.7517907    526.73755  0.022755208  0.022387361            2 
 1930000    0.9282598   -7.7332297    527.71727   0.02278572    0.0223811            2 
 1931000   0.93655481   -7.7579702    526.71541  0.022730684   0.02237483            2 
 1932000   0.96388722   -7.7501604     527.2084  0.022740183  0.022368506            3 
 1933000   0.93931732   -7.7602477    526.93262   0.02271653  0.022362118            2 
 1934000   0.95661642   -7.7507901    527.30889  0.022720997  0.022355787            1 
 1935000   0.96466693   -7.7620834    527.87422  0.022733601  0.022349487            2 
 1936000    0.9432206   -7.7371469    528.65299   0.02275538  0.022343131            1 
 1937000   0.95089535   -7.7525726    528.82857  0.022751186  0.022336769            1 
 1938000    0.9599296   -7.7257589    526.83004   0.02265351    0.0223304            1 
 1939000   0.92884275   -7.7413775    526.92305  0.022645825  0.022324041            1 
 1940000     0.936713   -7.7201391      526.984   0.02263677  0.022317644            2 
 1941000   0.94093739   -7.7748175    527.30379  0.022638837  0.022311266            1 
 1942000   0.93459124   -7.7634748    526.97797  0.022613198  0.022304876            3 
 1943000   0.93416638   -7.7206888    527.32146  0.022616292  0.022298483            2 
 1944000   0.93645467   -7.7748504    527.37136  0.022606797  0.022291999            4 
 1945000   0.93084094   -7.7740275    527.41045  0.022596849  0.022285453            2 
 1946000   0.95413251   -7.7541397    526.28847   0.02253719   0.02227905            2 
 1947000   0.93468955   -7.8047434    527.36353  0.022571629  0.022272578            2 
 1948000   0.93648213   -7.7737157    526.14726  0.022508011  0.022266116            1 
 1949000   0.91851944   -7.7234025    528.93803  0.022615787   0.02225965            2 
 1950000   0.93155817   -7.7686455    528.17325  0.022571506  0.022253201            1 
 1951000   0.92340107   -7.7646885    528.22525  0.022562158  0.022246769            1 
 1952000   0.94191148   -7.7561933    527.27991  0.022510242  0.022240314            2 
 1953000   0.94446348   -7.7590849    527.93989  0.022526877   0.02223384            2 
 1954000   0.92616056   -7.7667254    527.70026  0.022505129  0.022227405            2 
 1955000   0.93726956   -7.7484246    529.03998  0.022550724   0.02222102            3 
 1956000   0.95035469    -7.768722    529.66874  0.022565983  0.022214629            1 
 1957000   0.94638544   -7.7834025    527.87198  0.022477941  0.022208213            2 
 1958000   0.92202965   -7.7545224    529.69911  0.022544225   0.02220179            2 
 1959000   0.92225609    -7.797714     528.6119  0.022486469   0.02219538            3 
 1960000   0.93735617   -7.7441913    529.81832  0.022526289  0.022188995            1 
 1961000   0.96328753   -7.7638221    530.20379  0.022531183  0.022182636            2 
 1962000   0.91728426   -7.7478264    530.45623  0.022530421  0.022176271            8 
 1963000   0.93851771   -7.7576202    529.93841  0.022496961  0.022169923            3 
 1964000    0.9501686   -7.7513315    530.13215  0.022493727  0.022163492            3 
 1965000   0.93814669   -7.7581305    530.38593  0.022493042  0.022157131            2 
 1966000   0.93617802   -7.7689582    530.33527  0.022479454  0.022150722            3 
 1967000   0.93368017   -7.7421374    531.58436  0.022520944  0.022144344            1 
 1968000   0.94573488   -7.7881704    530.09714  0.022446525  0.022137868            2 
 1969000   0.93649024   -7.7428098    531.44821  0.022492306  0.022131528            3 
 1970000   0.94556659   -7.7344201    530.50682  0.022441067  0.022125208            2 
 1971000   0.93638329   -7.7521393    530.67899   0.02243696  0.022118817            2 
 1972000   0.93987949   -7.7524401    531.36926  0.022454752  0.022112391            2 
 1973000   0.93019836   -7.7847235    531.02695  0.022428913  0.022106019            5 
 1974000   0.91147362   -7.7582609    531.81722  0.022450913  0.022099603            3 
 1975000   0.93567048   -7.7936506    530.45145  0.022381918   0.02209313            2 
 1976000   0.92620919   -7.7417232    532.66888  0.022464106  0.022086666            3 
 1977000   0.94088358   -7.7702578    530.03696  0.022341804  0.022080252            2 
 1978000   0.93664751    -7.751365    529.98011  0.022328114  0.022073778            1 
 1979000   0.92279714   -7.7598465    531.37723  0.022375663  0.022067291            1 
 1980000   0.93929154   -7.7629807    531.93177  0.022387701  0.022060819            1 
 1981000    0.9395355   -7.7654499    531.22638  0.022346726  0.022054379            1 
 1982000   0.94790422    -7.753915    530.96868  0.022324617   0.02204792            2 
 1983000   0.95246102   -7.7515144    530.79431  0.022306031  0.022041492            2 
 1984000    0.9566694   -7.7690643    530.88526  0.022298608  0.022034995            1 
 1985000    0.9281867   -7.7633916    532.22332  0.022343548  0.022028492            2 
 1986000   0.93697575   -7.7506945    532.66794  0.022350954  0.022022031            3 
 1987000   0.92287154   -7.7770464    533.61781  0.022379542  0.022015592            3 
 1988000   0.92150777   -7.7640909    532.68467  0.022329169   0.02200915            2 
 1989000   0.94179456   -7.7958383    531.27596  0.022258922  0.022002664            2 
 1990000   0.93068515   -7.7657258    533.17131  0.022327107  0.021996247            2 
 1991000   0.94221156   -7.7568227    532.91533  0.022305179  0.021989884            2 
 1992000   0.93951014   -7.7560686    533.33787  0.022311658   0.02198351            3 
 1993000   0.92860355   -7.7425713    533.53963  0.022308899  0.021977247            2 
 1994000   0.96179443   -7.7401321    533.17345  0.022282408  0.021970902            2 
 1995000   0.93407845   -7.7316554    534.32655  0.022319405  0.021964606            1 
 1996000   0.91782588   -7.7563887    533.13381  0.022258426  0.021958267            2 
 1997000   0.92797613   -7.7455879     534.5232  0.022305258  0.021951922            1 
 1998000   0.92293615   -7.8087207    533.63076  0.022256872  0.021945539            4 
 1999000    0.9234989   -7.7496302      534.332  0.022274971  0.021939133            5 
 2000000   0.92501916   -7.7566961    534.26091  0.022260871  0.021932764            1 
 2001000   0.92884468   -7.7729306    533.11756  0.022202131  0.021926376            1 
 2002000   0.93660007    -7.784886     535.0157  0.022270051  0.021920106            3 
 2003000   0.90918446   -7.7508869    535.43335  0.022276308  0.021913811            1 
 2004000   0.92130107   -7.7667549    536.58223  0.022312967  0.021907547            1 
 2005000   0.92356013   -7.8038205    534.48314  0.022214594  0.021901208            1 
 2006000    0.9361642   -7.8128719    534.58494  0.022207749  0.021894813            1 
 2007000   0.92991319   -7.7799547    535.38323   0.02222983  0.021888407            2 
 2008000   0.92621528   -7.7868819    535.94446  0.022242051  0.021882073            4 
 2009000   0.92246224   -7.7668292    537.05771  0.022277157   0.02187579            3 
 2010000   0.93872006   -7.7619546    536.65447  0.022249356   0.02186954            3 
 2011000   0.93556704   -7.7953275     536.6296  0.022237262  0.021863293            3 
 2012000   0.94321698   -7.8018757    535.88575    0.0221954  0.021857028            3 
 2013000   0.92738712   -7.7940403       535.39  0.022163852  0.021850719            2 
 2014000   0.91652563   -7.8048609     535.6577  0.022163924  0.021844346            2 
 2015000   0.94172624   -7.7633619    538.42425  0.022267339  0.021838081            4 
 2016000   0.92735952   -7.8064235    536.31607   0.02216915  0.021831838            2 
 2017000   0.94113328   -7.7599842    538.82953  0.022262003  0.021825628            1 
 2018000   0.90124507   -7.7476665    537.55431  0.022198312  0.021819453            6 
 2019000   0.92894916   -7.7811635    538.51531  0.022226982  0.021813321            2 
 2020000   0.94393854    -7.805321    538.29732  0.022206985  0.021807221            2 
 2021000    0.9318338   -7.8056319    537.93348  0.022180995  0.021801002            4 
 2022000   0.93391469   -7.7824571    539.22245  0.022223147  0.021794816            2 
 2023000   0.95514709   -7.7529021    538.57688  0.022185569  0.021788662            2 
 2024000   0.93371045   -7.7717443    538.95592  0.022190214  0.021782551            4 
 2025000   0.93506454   -7.7816221    539.21422  0.022189885  0.021776321            1 
 2026000   0.91776138   -7.7733355    538.44204  0.022147172  0.021770113            2 
 2027000   0.91597363   -7.7783081     538.6891  0.022146403   0.02176387            4 
 2028000   0.93150738   -7.7809016    538.64073  0.022133495  0.021757639            3 
 2029000   0.93596415   -7.7660735    539.65965  0.022164434  0.021751441            2 
 2030000   0.93136553   -7.7693378    539.67547  0.022154165  0.021745246            1 
 2031000   0.91641532   -7.7757407    539.41985  0.022132769  0.021739038            1 
 2032000    0.9263786   -7.7701591    539.58319  0.022128576  0.021732811            2 
 2033000   0.91764217   -7.7584564    539.98228   0.02213405  0.021726589            1 
 2034000   0.92170833   -7.7918502    539.57341  0.022106417  0.021720371            1 
 2035000    0.9256407   -7.7650837    539.68133  0.022099973  0.021714143            1 
 2036000   0.93582242   -7.7798104    539.40977  0.022078003  0.021707944            1 
 2037000   0.90581005   -7.7755099    539.93885  0.022088809   0.02170176            1 
 2038000   0.92238066   -7.8244141    538.84507  0.022033246  0.021695535            2 
 2039000   0.92775797   -7.8058427    540.79201  0.022102011  0.021689323            2 
 2040000   0.92741939   -7.7792737    541.55567  0.022122372  0.021683168            2 
 2041000   0.93457968   -7.7949631    540.57967  0.022071683  0.021677055            3 
 2042000   0.89934574   -7.7684795    541.59909  0.022102477  0.021670901            2 
 2043000   0.91859025   -7.8063941    539.60611  0.022010365  0.021664707            4 
 2044000   0.93337668   -7.7705449    541.22728  0.022065691   0.02165855            2 
 2045000   0.93048122   -7.8079492    539.83862  0.021998314  0.021652344            5 
 2046000    0.9229345   -7.8134262    539.10419  0.021957649  0.021646075            2 
 2047000   0.91225797   -7.7653321    539.68488  0.021970562  0.021639839            1 
 2048000   0.89999135   -7.7861405    540.94099  0.022010945  0.021633636            4 
 2049000   0.92147037   -7.7650346    542.31245  0.022055981  0.021627443            1 
 2050000   0.91567242    -7.814886    540.76351  0.021982257  0.021621201            2 
 2051000   0.93803004   -7.8470917    540.42487   0.02195778   0.02161496            3 
 2052000   0.92600313   -7.7500887    543.19648  0.022059636  0.021608788            1 
 2053000   0.92964978   -7.7828228    540.59893  0.021943454  0.021602617            1 
 2054000   0.92429056   -7.7920704     541.8017  0.021981568  0.021596416            1 
 2055000   0.92070561   -7.7908022    542.16318  0.021985531  0.021590242            2 
 2056000   0.94582071    -7.798152    540.75201   0.02191764  0.021584043            2 
 2057000   0.90877391   -7.7749168    541.89182  0.021953161  0.021577832            3 
 2058000   0.92187951   -7.7740262    543.22124  0.021996325   0.02157162            2 
 2059000   0.89928834   -7.7935519    542.45182  0.021954501  0.021565371            2 
 2060000   0.93848052   -7.8138769    543.32529  0.021979178   0.02155919            2 
 2061000   0.92758143   -7.7731693    542.66548  0.021941836  0.021553033            3 
 2062000    0.9299966   -7.7906286      542.868  0.021939379  0.021546939            1 
 2063000   0.92685776    -7.794598    543.15423  0.021940306  0.021540768            3 
 2064000   0.93494214   -7.8090501    543.90599  0.021960029  0.021534653            1 
 2065000   0.91448344    -7.781706    544.47848  0.021972497  0.021528475            2 
 2066000   0.92761425   -7.8224277    542.93493  0.021899602  0.021522336            1 
 2067000   0.91837446   -7.7926143    543.58345  0.021915153   0.02151617            4 
 2068000   0.90352406   -7.7909392    544.31936   0.02193421  0.021510011            5 
 2069000   0.93054823   -7.8135752    543.01145   0.02187093  0.021503858            1 
 2070000   0.90913831   -7.7775907    543.79208  0.021891791  0.021497733            5 
 2071000   0.93690012   -7.8046438     542.9286  0.021846475  0.021491621            3 
 2072000   0.91945794    -7.780797    544.54234  0.021900834  0.021485546            1 
 2073000   0.93751716   -7.8045727     544.1429  0.021874212  0.021479407            2 
 2074000   0.93981629   -7.8060656    543.62078  0.021842687  0.021473249            2 
 2075000   0.91825289   -7.7556488     545.3105   0.02190002  0.021467117            2 
 2076000   0.94045792   -7.8129817     544.2923  0.021848599  0.021460982            1 
 2077000   0.95741781   -7.8343239     544.4521  0.021844491  0.021454824            2 
 2078000   0.90518515   -7.8012967    544.39969  0.021831877  0.021448614            2 
 2079000    0.9293465   -7.8118937     544.2199  0.021814169  0.021442429            2 
 2080000   0.93967462   -7.8002093    544.59107  0.021818552  0.021436261            2 
 2081000   0.91372502   -7.7801174    544.62651  0.021809487  0.021430098            2 
 2082000   0.90917199   -7.7920701    544.12991  0.021779135  0.021423886            4 
 2083000   0.92134341   -7.7888753    545.62237  0.021828387  0.021417691            1 
 2084000   0.92110888   -7.7790915    544.46519  0.021771641  0.021411413            2 
 2085000   0.92461912   -7.8097622     544.4796  0.021761775  0.021405182            2 
 2086000   0.90913815   -7.7889744    546.70787  0.021840359  0.021398952            4 
 2087000   0.90759725   -7.7904688    545.68845  0.021789189   0.02139269            1 
 2088000   0.92815985    -7.820321    544.60367  0.021735459  0.021386373            1 
 2089000   0.92235427   -7.7673957    546.29073  0.021792354  0.021380118            2 
 2090000   0.91544551   -7.7650386    544.86224   0.02172497   0.02137384            4 
 2091000   0.90202506   -7.8338227    545.18668   0.02172751  0.021367561            1 
 2092000   0.93160829   -7.7949228    545.90501  0.021745738  0.021361288            4 
 2093000   0.91550283   -7.8053578    544.34445  0.021673214  0.021355056            2 
 2094000   0.91957726   -7.8156372    546.60694  0.021752903  0.021348846            1 
 2095000   0.90902675   -7.8083864    545.93174  0.021715662  0.021342579            1 
 2096000   0.90235137   -7.8110875    545.67004  0.021694897  0.021336358            1 
 2097000   0.91298197   -7.8061942    546.84245  0.021731142  0.021330167            1 
 2098000   0.91229953   -7.7785495     545.5091  0.021667823  0.021323952            2 
 2099000   0.94007131   -7.8282307    544.67316  0.021624311  0.021317647            3 
 2100000   0.90406978   -7.7993345    545.88482  0.021662096  0.021311423            1 
 2101000   0.90453717   -7.7788288    546.05962  0.021658719  0.021305181            1 
 2102000   0.90731634   -7.7790416    546.38027  0.021661127  0.021298929            1 
 2103000   0.91611211   -7.7830342    548.16629    0.0217216  0.021292709            2 
 2104000    0.9229907   -7.7976751    544.25155  0.021556224  0.021286451            5 
 2105000   0.92003124   -7.8118123    546.88852  0.021650377  0.021280155            3 
 2106000   0.92766647   -7.8411358    547.30163  0.021656443  0.021273848            2 
 2107000   0.90833457   -7.8307638    547.12035  0.021638995  0.021267597            3 
 2108000   0.88927792   -7.8411833    545.81741  0.021577222  0.021261329            2 
 2109000   0.92276983   -7.8261718    547.21149  0.021622076  0.021255039            1 
 2110000   0.91844093   -7.8483118    547.24457  0.021613135  0.021248771            1 
 2111000   0.92018617    -7.793146    548.43497  0.021649888  0.021242561            3 
 2112000   0.90610462   -7.8155623    547.15037  0.021588951  0.021236285            1 
 2113000    0.8801187   -7.8266004    547.76372  0.021602923  0.021230032            2 
 2114000   0.89631822   -7.8068849    547.78326  0.021593474  0.021223827            1 
 2115000   0.91687326   -7.8642747    548.48635  0.021610967  0.021217546            2 
 2116000   0.91963539   -7.8126056    548.42869  0.021598483  0.021211342            4 
 2117000   0.91217841   -7.8545506     547.6875  0.021559105  0.021205141            2 
 2118000   0.90708061   -7.8186202    548.00854  0.021561557  0.021198906            2 
 2119000   0.91171015   -7.8072851    548.88387  0.021585806  0.021192685            2 
 2120000   0.91719106   -7.8142151    548.74619  0.021570212  0.021186464            1 
 2121000   0.89624156   -7.8224958    548.83777   0.02156364    0.0211803            1 
 2122000     0.921359   -7.8106752    548.65571  0.021546329  0.021174126            1 
 2123000   0.91980513   -7.7905889    549.26514  0.021560101  0.021167916            2 
 2124000   0.91240142   -7.8349211    548.53085  0.021521141  0.021161774            1 
 2125000   0.90853655   -7.8133296    550.55196  0.021590273  0.021155608            2 
 2126000   0.91522021   -7.8326521    550.70857  0.021586256  0.021149483            2 
 2127000   0.92461925   -7.8531036    549.18937  0.021516587  0.021143337            1 
 2128000   0.92941134   -7.8122095    549.12605  0.021503996  0.021137167            4 
 2129000   0.88992279   -7.7989347    550.66625  0.021554182  0.021131022            2 
 2130000   0.90664537   -7.8479763    550.51238  0.021538043   0.02112487            3 
 2131000   0.91546113   -7.8183695    550.92909  0.021544232  0.021118769            2 
 2132000   0.93252202   -7.8453257    551.26545  0.021547274  0.021112653            5 
 2133000   0.89176989   -7.8291953    550.86163  0.021521395   0.02110649            1 
 2134000   0.91937505   -7.8078331    550.56415  0.021499694  0.021100401            1 
 2135000   0.90988752   -7.8078079    550.73928  0.021496459   0.02109429            3 
 2136000   0.91998675   -7.8320885     550.8727    0.0214916  0.021088153            3 
 2137000   0.91520561   -7.8377138    550.28528  0.021458637  0.021082026            3 
 2138000   0.91189339   -7.8184887    550.43007  0.021454243  0.021075929            2 
 2139000   0.90819319   -7.8377645    550.54586  0.021448725   0.02106978            1 
 2140000   0.89826724   -7.7928208    551.64446  0.021481482  0.021063675            3 
 2141000   0.91647064   -7.8176561    551.60171  0.021469785  0.021057561            1 
 2142000   0.90847625   -7.8323757     551.7934  0.021467219  0.021051389            2 
 2143000   0.91427768     -7.80895    551.68513  0.021452992  0.021045294            3 
 2144000   0.91193829   -7.8417795    552.79485  0.021486118  0.021039204            2 
 2145000   0.90488831   -7.8702834    550.58536  0.021390263  0.021033026            3 
 2146000   0.92296995   -7.8200732    551.51426  0.021416366  0.021026883            1 
 2147000   0.91106327   -7.8301817    552.59471  0.021448328  0.021020756            6 
 2148000   0.87874689   -7.8307818    552.60019  0.021438555  0.021014654            1 
 2149000   0.90598689   -7.8196633    551.73602  0.021395068  0.021008521            1 
 2150000   0.88884633   -7.8607682    550.85206  0.021350855  0.021002286            1 
 2151000   0.91677057   -7.8608349    551.61564  0.021370511  0.020996007            2 
 2152000   0.91065008   -7.8409302    551.93908  0.021373106  0.020989808            2 
 2153000   0.87936699   -7.8271978    553.67464  0.021430355  0.020983624            3 
 2154000   0.90047585   -7.8232801    553.76829  0.021424029  0.020977525            2 
 2155000   0.90960858   -7.8179682    551.99887  0.021345664  0.020971366            1 
 2156000   0.90899504   -7.8380143    551.76967  0.021326904  0.020965145            2 
 2157000   0.91749798   -7.8527424    551.90261  0.021322153  0.020958921            2 
 2158000   0.91267477   -7.8597481    552.53233   0.02133659  0.020952711            4 
 2159000   0.91776166   -7.8665727     552.4777  0.021324599  0.020946542            3 
 2160000   0.90507057   -7.8361174    553.54159  0.021355771  0.020940352            3 
 2161000   0.91495353   -7.8421595    553.47806  0.021343439  0.020934232            2 
 2162000   0.89774627    -7.876382    552.46199  0.021294403   0.02092803            1 
 2163000    0.9078498   -7.8327524    552.93288    0.0213027  0.020921806            1 
 2164000   0.88394271   -7.8387788    553.55102   0.02131666  0.020915612            1 
 2165000   0.91737736   -7.8457096    554.94695  0.021360545  0.020909453            2 
 2166000   0.89882538   -7.8144024    553.64752   0.02130069   0.02090329            1 
 2167000   0.91708805   -7.8310025    553.60243  0.021289126  0.020897172            2 
 2168000   0.90894091   -7.8511214    553.16443  0.021262471  0.020891003            1 
 2169000    0.8988945   -7.8277716    553.72644   0.02127426  0.020884847            3 
 2170000   0.90475616   -7.8278059    555.08642  0.021316683  0.020878726            3 
 2171000   0.88703233   -7.8366254    553.98633  0.021264637  0.020872594            2 
 2172000   0.87156785   -7.8125468    555.62076  0.021317555    0.0208665            1 
 2173000   0.91589375   -7.8163664    555.41052  0.021299683    0.0208604            2 
 2174000   0.90894428   -7.8412671    553.88552  0.021231429  0.020854346            2 
 2175000   0.88622613   -7.8262784    553.34278  0.021200873  0.020848242            3 
 2176000   0.90419708   -7.8231205    555.53001  0.021274893  0.020842123            2 
 2177000   0.88505834   -7.8263218    556.51312  0.021302753  0.020836034            2 
 2178000   0.91018122   -7.8548209    554.18146  0.021203759  0.020829908            2 
 2179000   0.91086585   -7.8410946    555.80547  0.021256137  0.020823863            5 
 2180000   0.91045755   -7.8498017    555.91542  0.021250589  0.020817768            1 
 2181000    0.9028731   -7.8735864    555.82513  0.021237396  0.020811698            3 
 2182000   0.88952102   -7.8347028    555.48385  0.021214629  0.020805633            1 
 2183000   0.90511203   -7.8402471    555.26917  0.021196716  0.020799563            2 
 2184000   0.91503986   -7.8348786    555.90694  0.021211346  0.020793506            2 
 2185000   0.92361526    -7.869897    553.85645  0.021123435   0.02078735            1 
 2186000   0.89985668   -7.8841603    554.35371  0.021132728  0.020781201            1 
 2187000   0.89005043   -7.8476742    556.50581  0.021205068  0.020775091            3 
 2188000   0.89103427   -7.8683018    554.47649  0.021118087  0.020768973            3 
 2189000   0.90154646    -7.860569    555.02143  0.021129185  0.020762771            1 
 2190000   0.92178072   -7.8676003    555.64264  0.021143175  0.020756615            2 
 2191000   0.89772522   -7.8590761    555.72669  0.021136722  0.020750436            2 
 2192000   0.90435367   -7.8485543    555.64623   0.02112402  0.020744293            1 
 2193000   0.89752339   -7.8709989      556.488  0.021146375  0.020738218            2 
 2194000   0.87190006   -7.8668157    556.27853   0.02112878  0.020732125            5 
 2195000   0.90009569   -7.8592911    556.29494  0.021119778  0.020726034            2 
 2196000   0.91427529   -7.8667005    555.67656  0.021086694  0.020719919            1 
 2197000   0.91873079   -7.8955846    556.86841  0.021122304  0.020713861            3 
 2198000   0.87858457   -7.8523488    556.97972  0.021116914  0.020707837            1 
 2199000   0.87735159   -7.8347484    557.47427  0.021126052  0.020701817            2 
 2200000   0.90508738   -7.8491857    557.42964  0.021114759  0.020695801       -1e+20 
 2201000   0.90370926   -7.8197866    557.19077  0.021096122  0.020689845            5 
 2202000   0.90327066   -7.8420853    559.04811  0.021156831  0.020683888            2 
 2203000   0.89357376   -7.8435117    558.19144  0.021114822  0.020677876            8 
 2204000   0.89718507   -7.8574093    557.50504  0.021079289  0.020671865            5 
 2205000   0.88970886   -7.8575953    557.79954  0.021080859  0.020665852            2 
 2206000    0.9141234   -7.8569185    558.48112  0.021097051  0.020659784            2 
 2207000    0.9011647   -7.8349906    559.90061  0.021141089  0.020653778            2 
 2208000    0.9094207   -7.8785911    557.87498  0.021055064  0.020647764            1 
 2209000   0.89526851   -7.8177078    559.68402  0.021113778  0.020641723            2 
 2210000   0.91203282   -7.8970035    558.68435  0.021066529  0.020635697            2 
 2211000   0.88516433   -7.8335022     559.8473  0.021100833  0.020629674            3 
 2212000   0.90071802   -7.8584826     559.4155  0.021075027  0.020623696            3 
 2213000   0.88604103   -7.8666533     558.2542  0.021021773  0.020617726            2 
 2214000   0.91113987    -7.854471    558.75303  0.021031054  0.020611727            2 
 2215000   0.88846535   -7.8366595     558.7151  0.021020132  0.020605723            2 
 2216000   0.90080075   -7.8166673    560.14068  0.021064255  0.020599739            1 
 2217000     0.890157   -7.8570459    559.70043  0.021038206  0.020593784            1 
 2218000   0.87859272   -7.8520858    560.34093  0.021052785  0.020587837            3 
 2219000   0.90332706   -7.8436049    559.93495  0.021028051  0.020581881            1 
 2220000   0.90085815   -7.8648704    559.16055   0.02098951  0.020575914            3 
 2221000   0.89528079   -7.8629158    561.10108   0.02105287  0.020569925            1 
 2222000   0.88017905   -7.8512152    561.27207  0.021049808  0.020563995            2 
 2223000   0.88740547   -7.8652965    561.63412  0.021053911  0.020558072            3 
 2224000   0.87401771   -7.8647291    563.68844  0.021121419  0.020552168            3 
 2225000    0.9010132   -7.8641802    560.23795  0.020982695  0.020546275            3 
 2226000   0.88917754   -7.8666066    560.97249  0.021000767  0.020540345            2 
 2227000   0.88221224   -7.8750796    560.37262   0.02096889  0.020534396            2 
 2228000   0.90587649   -7.8274655    564.71823  0.021122016  0.020528537            2 
 2229000   0.90210124   -7.8898866    560.64948  0.020960426  0.020522633            3 
 2230000   0.90415443   -7.8930931    560.81768  0.020957313  0.020516714            1 
 2231000   0.88761827   -7.8869169    561.50355  0.020973538   0.02051079            8 
 2232000   0.87112561   -7.8738028    561.31738   0.02095719  0.020504785            3 
 2233000   0.89416699   -7.8521803    561.20646  0.020943666  0.020498883            2 
 2234000   0.88518684    -7.862953     561.6348  0.020950269  0.020492921            2 
 2235000   0.87666649   -7.8779951    560.16402  0.020886056  0.020487012            1 
 2236000   0.87181257   -7.8662131    562.28478  0.020955754  0.020481088            2 
 2237000   0.91029534   -7.9095846    560.17747  0.020867884  0.020475116            1 
 2238000   0.89039485   -7.8688808    562.39438  0.020941107  0.020469126            3 
 2239000   0.90104035   -7.8589145    562.72283  0.020943979  0.020463164            3 
 2240000   0.88573341   -7.8452237     563.4801  0.020962801  0.020457224            2 
 2241000   0.88884715    -7.830852     563.9138  0.020969574  0.020451304            1 
 2242000   0.88744143   -7.8869564    561.75028  0.020879805  0.020445318            3 
 2243000   0.89890847   -7.8485729    562.26898  0.020889768  0.020439323            3 
 2244000   0.87941055   -7.8657589    562.97736  0.020906765  0.020433313            1 
 2245000   0.88863917   -7.8898607    562.08153  0.020864199  0.020427363            3 
 2246000   0.87466897   -7.8913419    560.98793  0.020814334  0.020421342            2 
 2247000   0.90345906   -7.8683388    562.30843  0.020854043   0.02041528            1 
 2248000    0.9006105   -7.8581607    561.83231  0.020827117  0.020409208            2 
 2249000   0.87395466   -7.8818894    559.89098  0.020745923  0.020403115            2 
 2250000   0.90318889   -7.8582292    561.92593  0.020812072  0.020397007            3 
 2251000   0.90000573   -7.9082112    562.03446  0.020806844  0.020390968            4 
 2252000   0.88035145    -7.887299    561.80552  0.020789133  0.020384973            2 
 2253000   0.91006511   -7.8621421     562.9835  0.020823476  0.020378944            4 
 2254000   0.88382191   -7.8635876    563.77719  0.020843581  0.020372941            4 
 2255000   0.88902469   -7.8782767    561.51542  0.020750755     0.020367            2 
 2256000    0.8944976   -7.8780908    563.19835  0.020803721  0.020361016            3 
 2257000   0.88645993   -7.8968098    564.45448  0.020840883  0.020355043            1 
 2258000   0.89465121   -7.8679622    563.88685  0.020810704  0.020349078            1 
 2259000   0.88725143   -7.8598763    564.73731  0.020832865  0.020343132            2 
 2260000   0.89036941   -7.8534547    563.51854  0.020778707  0.020337188            1 
 2261000   0.88514625   -7.8522093    564.03425  0.020788525  0.020331262            3 
 2262000   0.88209626   -7.9033822     563.4532  0.020757928  0.020325327            2 
 2263000   0.88143322   -7.9253705     563.7729  0.020760528   0.02031935            3 
 2264000   0.88458158   -7.9046745     562.9071   0.02071949  0.020313395            2 
 2265000    0.8630922    -7.917749    563.52073  0.020732919  0.020307407            2 
 2266000   0.90125964   -7.8787303    564.82563  0.020771757  0.020301422            1 
 2267000   0.89800003    -7.910526    562.65075  0.020682648  0.020295466            1 
 2268000   0.87816098   -7.8672917    564.28778  0.020733678   0.02028948            2 
 2269000   0.91023897   -7.8994126    563.65122  0.020701161  0.020283492            2 
 2270000   0.88916887   -7.8591697    565.24403  0.020750515  0.020277496            2 
 2271000   0.89671948   -7.8761309    563.86419  0.020690745  0.020271513            1 
 2272000     0.894688   -7.8861095    564.48284   0.02070433  0.020265508            2 
 2273000   0.89254516   -7.8532799    564.52629  0.020696814  0.020259555            2 
 2274000   0.87609306   -7.8253721    566.33876  0.020754132  0.020253631            2 
 2275000    0.8926129   -7.8515676    564.68064  0.020684272   0.02024765            2 
 2276000   0.87581612    -7.859815    564.43216  0.020666087  0.020241595            2 
 2277000   0.89791992   -7.8800884    564.49301  0.020659238  0.020235575            2 
 2278000   0.87816438   -7.8736757      564.007   0.02063239   0.02022957            2 
 2279000    0.9015011    -7.899991    564.54502  0.020643009  0.020223595            2 
 2280000   0.87505785   -7.8989628    564.27277  0.020624005   0.02021761            5 
 2281000   0.87563207    -7.902938    563.73034  0.020595146  0.020211559            1 
 2282000   0.87182505   -7.9081768    563.98465  0.020595408  0.020205533            2 
 2283000    0.8763611    -7.863979    566.51857  0.020678879  0.020199572            1 
 2284000   0.89604567   -7.8924957    565.98212  0.020650253  0.020193622            5 
 2285000   0.89886549   -7.8924968    565.61009  0.020627647  0.020187677            1 
 2286000   0.88258324   -7.9059087    563.77353  0.020551674  0.020181691            1 
 2287000   0.87929886   -7.8629912    566.90476  0.020656783   0.02017571            3 
 2288000   0.89524507    -7.887346    568.70553  0.020713342  0.020169802            9 
 2289000   0.88188066   -7.8834519    565.78665  0.020598029  0.020163819            1 
 2290000   0.85990134   -7.8915374    566.65758  0.020620727  0.020157839            3 
 2291000   0.89521918   -7.8817896     566.5519  0.020607882  0.020151871            2 
 2292000   0.87710844   -7.8721555    566.70299  0.020604384  0.020145913            1 
 2293000   0.89355961   -7.9047427    565.34391  0.020546006  0.020139974            3 
 2294000   0.85727832   -7.8591269    566.96992  0.020596117  0.020134016            2 
 2295000   0.88375842   -7.8503507    566.32393  0.020563687  0.020128049            1 
 2296000   0.87927864   -7.8858744     566.5456  0.020562776  0.020122081            1 
 2297000   0.89562026   -7.8794827    566.54083  0.020553651  0.020116135            2 
 2298000   0.87647099    -7.938502    566.37458  0.020538678   0.02011019            5 
 2299000   0.87172373   -7.9050351     565.3836  0.020493823  0.020104237            1 
 2300000   0.88981712   -7.8826239    567.39529    0.0205578  0.020098238            3 
 2301000   0.86941984   -7.9117706    565.19765  0.020469276  0.020092311            4 
 2302000   0.87168236   -7.9351429    566.58281  0.020510527  0.020086352            5 
 2303000   0.88222615   -7.9102187    565.48888  0.020462038  0.020080427            4 
 2304000   0.87660298   -7.9038687    566.96976  0.020506719  0.020074501            2 
 2305000    0.8867424   -7.9426316    566.84161  0.020493189  0.020068532            1 
 2306000   0.87705466   -7.9109683    566.52489  0.020472857  0.020062535            2 
 2307000   0.88112529   -7.9151878    567.71567  0.020506996  0.020056565            1 
 2308000   0.86652252   -7.8803193    568.75685  0.020535704  0.020050613            3 
 2309000   0.86971116   -7.8997267    568.29804  0.020510251  0.020044703            1 
 2310000   0.89125326   -7.9166847    566.72352  0.020444572  0.020038754            2 
 2311000   0.87075501   -7.8851433    568.60909  0.020503718  0.020032845            1 
 2312000   0.87840662   -7.8889789    568.07576  0.020475626  0.020026935            2 
 2313000    0.8963448   -7.9078143    567.40109  0.020442466  0.020021004            2 
 2314000   0.88755609   -7.8792741      568.481  0.020472522   0.02001506            1 
 2315000   0.87180271   -7.8378973    569.24745  0.020491269  0.020009161            2 
 2316000   0.86680932   -7.9228378    567.50034  0.020419557  0.020003242            2 
 2317000   0.87274282   -7.9151537    568.29902   0.02043947  0.019997256            2 
 2318000   0.87492298   -7.9127676     568.9537  0.020454188  0.019991307            3 
 2319000   0.87452487   -7.9196809    568.11998  0.020415408   0.01998535            1 
 2320000   0.86192718   -7.9065361    569.69923  0.020463335  0.019979438            1 
 2321000    0.8707185   -7.9098383    568.21454  0.020401211   0.01997353            2 
 2322000    0.8682799   -7.8836166    569.73185  0.020446879  0.019967666            2 
 2323000   0.89496317   -7.9148149     569.6932  0.020436691  0.019961845            2 
 2324000   0.88781378   -7.9237115    568.82275  0.020396685  0.019955992            1 
 2325000   0.86993525   -7.9064187    568.86197  0.020389318   0.01995011            2 
 2326000   0.88804845   -7.9231775    569.48511  0.020402877  0.019944218            1 
 2327000   0.87913093   -7.9040128    569.64347  0.020399781  0.019938327            2 
 2328000   0.85417222   -7.9224361    570.69284  0.020428581  0.019932438            2 
 2329000   0.86120215   -7.8948152    569.57118  0.020379676   0.01992657            1 
 2330000   0.89588954   -7.9352717    570.03791  0.020387622  0.019920682            2 
 2331000   0.87105409   -7.9078421    569.90798  0.020374231  0.019914764            2 
 2332000   0.88995904   -7.9270715    569.70194  0.020358131  0.019908904            3 
 2333000   0.89288411   -7.9284051    570.55377  0.020379832  0.019903014            4 
 2334000   0.88791714   -7.8916717    570.09657  0.020354776  0.019897139            4 
 2335000   0.88034972   -7.9514035    568.58743  0.020292199   0.01989121            3 
 2336000   0.88089505   -7.9048152    569.95697  0.020332369  0.019885305            1 
 2337000   0.87072047   -7.9349676    569.59165  0.020310642  0.019879395            1 
 2338000   0.88404844   -7.9271631    569.67875  0.020305059  0.019873481            1 
 2339000    0.8997358   -7.9163545    572.03041  0.020380163  0.019867595            1 
 2340000   0.88584811   -7.9408771    569.46061  0.020279936  0.019861662            2 
 2341000   0.87810148   -7.9299881    570.60855  0.020312137  0.019855714            3 
 2342000   0.86941372   -7.9097671    571.11851  0.020321609  0.019849827            2 
 2343000   0.87881552   -7.9432595    570.52085  0.020291679  0.019843967            2 
 2344000   0.86065901   -7.8913636    572.79738  0.020363957  0.019838082            1 
 2345000   0.87622063   -7.9228685    570.66767   0.02027959  0.019832234            2 
 2346000   0.88001691   -7.9041153    572.06043  0.020320419   0.01982634            2 
 2347000   0.88697533   -7.9166148    571.03671  0.020275412  0.019820432            2 
 2348000   0.86456709   -7.9314093    571.37879  0.020278918  0.019814496            1 
 2349000   0.88234875   -7.9381556    570.13361  0.020226111  0.019808562            5 
 2350000   0.88276853   -7.8912544    570.89994  0.020244679  0.019802663            2 
 2351000   0.87348444   -7.9070061    570.66377  0.020227697  0.019796709            1 
 2352000   0.85748886   -7.8755268     570.5845  0.020216288  0.019790789            1 
 2353000   0.86871317   -7.9488615    569.82477  0.020180789  0.019784859            2 
 2354000   0.89134889   -7.9106706    571.31338  0.020224914  0.019778964            2 
 2355000    0.8839749   -7.8984644    571.16792  0.020211179  0.019773078            1 
 2356000   0.88356815   -7.9552104    570.67314    0.0201851  0.019767225            5 
 2357000   0.86853219   -7.9050731    572.37808  0.020236815  0.019761293            1 
 2358000   0.87235114   -7.9214964    570.70114  0.020168969  0.019755369            2 
 2359000   0.86522875   -7.9177869    572.97332  0.020240685  0.019749473            2 
 2360000   0.86395303   -7.8739564    573.69125  0.020257459  0.019743599            4 
 2361000   0.88362901   -7.9105463    572.13562  0.020193972  0.019737757            2 
 2362000   0.87818039   -7.8981602    573.60596  0.020237297  0.019731939            3 
 2363000   0.87920232    -7.868778    573.30787  0.020218221  0.019726096            1 
 2364000   0.86501072   -7.8903729    573.37836  0.020212153  0.019720291            2 
 2365000   0.89669587   -7.9264534    572.74207  0.020181186  0.019714475            1 
 2366000   0.86066577   -7.9279707    573.71923  0.020207073  0.019708625            1 
 2367000   0.87844694   -7.9179875    573.07932  0.020176008  0.019702779            2 
 2368000   0.85822174    -7.911537    573.11562  0.020168765  0.019696953            2 
 2369000   0.89227965   -7.9229857    572.84674  0.020150793  0.019691141            3 
 2370000    0.8856474   -7.9039813    572.90225  0.020144242   0.01968528            2 
 2371000     0.849291   -7.9619433    573.99271  0.020174072  0.019679471            4 
 2372000    0.8696191   -7.9285469    572.72808  0.020121138  0.019673624            2 
 2373000   0.88175326   -7.9070362     575.1107   0.02019633  0.019667816            3 
 2374000   0.84144955   -7.9108371    575.14587  0.020189057  0.019661959            2 
 2375000   0.86301457   -7.9412005      572.955  0.020103684  0.019656132            2 
 2376000   0.88007322   -7.9505147    573.56886  0.020116753  0.019650302            3 
 2377000   0.87925877   -7.9635882     572.7789  0.020080595  0.019644466            1 
 2378000   0.87153007   -7.9781705    573.02107  0.020080637  0.019638576            2 
 2379000   0.87401653   -7.9730751    572.78312  0.020063861   0.01963266            3 
 2380000    0.8647127   -7.9288177    573.70633  0.020087757   0.01962677            2 
 2381000   0.87470826   -7.9348675     572.2891  0.020029718  0.019620871            1 
 2382000   0.85877391   -7.9234705    574.51874  0.020099312  0.019614999            1 
 2383000    0.8666831   -7.9092443    573.61696  0.020059343  0.019609174            7 
 2384000   0.89028347   -7.9307442    575.22385  0.020107098  0.019603317            2 
 2385000   0.86860942   -7.9277015    574.27832   0.02006563  0.019597383            2 
 2386000   0.89134451   -7.9417488    573.60687  0.020033769  0.019591525            1 
 2387000   0.87149561   -7.9310839    574.84614  0.020068641  0.019585716            2 
 2388000   0.87058924   -7.9281793    573.76598  0.020022542  0.019579862            1 
 2389000   0.86656385   -7.9802723    574.02994  0.020023369  0.019573933            2 
 2390000   0.87554095   -7.9535792    573.03042   0.01998014  0.019568024            2 
 2391000   0.86576547    -7.934085    572.86903  0.019966159  0.019562134            2 
 2392000     0.859404   -7.9533892    573.94505  0.019995299  0.019556213            3 
 2393000   0.87328232   -7.9525952    575.02557  0.020024571  0.019550303            2 
 2394000   0.87128568   -7.9675782    574.20797  0.019987746  0.019544372            6 
 2395000   0.86512873   -7.9527777     573.0906  0.019940522  0.019538441            2 
 2396000   0.86843943   -7.9533877    573.38703  0.019942509  0.019532508            3 
 2397000   0.86202884   -7.9217244    573.45111  0.019936417  0.019526562            1 
 2398000    0.8704951   -7.9345758    574.50594   0.01996476  0.019520644            6 
 2399000   0.86905715   -7.9538134     574.0586  0.019940899  0.019514711            2 
 2400000   0.87049214   -7.9409853    573.46637  0.019912027  0.019508813            2 
 2401000   0.85927812    -7.930486    576.30293  0.020002184  0.019502908            2 
 2402000   0.87276571   -7.8970578    575.95971  0.019981949  0.019497034            1 
 2403000   0.86786349   -7.9284129    575.45163  0.019956014   0.01949118            2 
 2404000   0.86556974   -7.9391509    574.41294  0.019911707  0.019485267            2 
 2405000   0.87893189   -7.9414875    575.10266  0.019927327  0.019479336            1 
 2406000   0.86361149   -7.9138452    575.88608  0.019946179  0.019473416            2 
 2407000   0.88518922   -7.9239723    574.95152  0.019905537  0.019467538            3 
 2408000   0.87186394   -7.9504218     575.2694  0.019908271  0.019461642            2 
 2409000   0.85933539   -7.9203744    574.55628  0.019875338  0.019455736            3 
 2410000   0.86244101   -7.9221143    576.46595  0.019933124  0.019449787            1 
 2411000   0.85706426   -7.9112056      574.973  0.019873255  0.019443865            1 
 2412000   0.87760327   -7.9568162    575.79547  0.019893431  0.019437965            2 
 2413000   0.86468623   -7.9257597    575.63143  0.019879522   0.01943207            1 
 2414000   0.87653706   -7.9993163    572.97682  0.019779647  0.019426109            1 
 2415000   0.87215727   -7.9560013    575.28032  0.019850943  0.019420132            2 
 2416000   0.87446342   -7.9613035    575.70159  0.019857257  0.019414183            4 
 2417000   0.85202871   -7.9411801    574.95318  0.019823237  0.019408246            3 
 2418000   0.85958114   -7.9747387    574.83933  0.019811115  0.019402379            1 
 2419000   0.86952683   -7.9376434    576.71484  0.019867536  0.019396492            2 
 2420000   0.86917113   -7.9920322    575.18562  0.019806667   0.01939063            2 
 2421000   0.86583004   -7.9239507     577.5678  0.019880483  0.019384762            1 
 2422000   0.86154573   -7.9377238    577.71102  0.019877203  0.019378919            1 
 2423000   0.87400391    -7.928298    576.65354   0.01983263  0.019373079            4 
 2424000   0.85901001   -7.9353957    575.65559   0.01979014   0.01936721            2 
 2425000   0.86665857   -7.9512259    575.38141  0.019772557  0.019361313            2 
 2426000   0.87986015   -7.9748144     575.4401  0.019766423   0.01935546            3 
 2427000   0.86300008   -7.9243023    576.10548  0.019781125  0.019349613            2 
 2428000   0.87017344   -7.9476289    575.81585  0.019763037  0.019343774            1 
 2429000   0.85705317   -7.9326051    577.45201  0.019811034   0.01933791            3 
 2430000   0.86828727   -7.9407028    577.74337  0.019812873  0.019332011            1 
 2431000   0.83614327   -7.9294378    576.70382  0.019769088  0.019326145            3 
 2432000   0.86619112   -7.9785216    575.62056   0.01972384  0.019320232            4 
 2433000   0.85722386   -7.9405565    576.95507  0.019761442  0.019314315            2 
 2434000   0.85101424   -7.9935544    576.44786  0.019735958  0.019308393            3 
 2435000    0.8629984   -7.9754527    575.72996  0.019703284  0.019302503            1 
 2436000   0.86431099   -7.9599257    576.74193  0.019729814   0.01929661            3 
 2437000   0.86122357   -7.9359343    578.43204  0.019779512  0.019290746            1 
 2438000   0.85410046   -7.9533986    577.89912  0.019753183  0.019284929            2 
 2439000   0.85817826   -7.9391655    577.76775  0.019740596  0.019279118            1 
 2440000   0.85951624   -7.9638472    579.12482  0.019778853  0.019273279            2 
 2441000   0.86257996   -7.9646413    578.58691  0.019752387  0.019267449            1 
 2442000   0.86488858   -7.9086563    579.19008  0.019764881  0.019261596            4 
 2443000   0.86719764   -7.9400815    578.32647  0.019727332  0.019255798            1 
 2444000   0.86246517   -7.9336058    578.62702  0.019729508  0.019249995            1 
 2445000    0.8662969   -7.9426178    577.27364  0.019675312  0.019244185            2 
 2446000   0.86587609   -7.9495819    577.47292  0.019674057  0.019238311            4 
 2447000   0.87994132   -7.9608891    576.27595  0.019625254  0.019232384            1 
 2448000    0.8479645   -7.9928944    577.73664  0.019666961  0.019226456            1 
 2449000   0.86201576   -7.9631513    578.08716  0.019670857   0.01922055            2 
 2450000   0.87285604   -7.9357695    578.78439  0.019686544  0.019214712            1 
 2451000   0.85995407   -7.8995586    579.16829  0.019691564  0.019208868            4 
 2452000   0.84938556   -7.9195238     579.6263  0.019699099  0.019203052            2 
 2453000   0.84325852     -7.93701    577.45727  0.019617382  0.019197185            2 
 2454000   0.86208074   -7.9350064    577.80513  0.019621201  0.019191282            2 
 2455000   0.85571042   -7.9510436    578.22415  0.019627432  0.019185356            2 
 2456000   0.86092827   -7.9639801    578.99416  0.019645567  0.019179468            3 
 2457000   0.86948525    -7.979446    577.43396  0.019584655  0.019173587            2 
 2458000    0.8489301   -7.9332834    577.63759  0.019583591  0.019167691            2 
 2459000   0.86268148    -7.972043    577.36082  0.019566247   0.01916178            2 
 2460000   0.82612151   -7.9689148    578.28764   0.01958969  0.019155836            1 
 2461000   0.84477628   -7.9968768    577.67648  0.019561035    0.0191499            1 
 2462000   0.84649111   -7.9526501    577.10295  0.019533677   0.01914398            1 
 2463000   0.85203173   -7.9500615    577.65344  0.019544371  0.019138062            2 
 2464000   0.85706303   -7.9667528    578.34623   0.01955987  0.019132128            2 
 2465000   0.85347153   -7.9670374     578.4508   0.01955547  0.019126233            1 
 2466000   0.86299549   -7.9999578    577.93461  0.019530096  0.019120313            1 
 2467000   0.86424702   -7.9927097    576.75547  0.019482349  0.019114363            3 
 2468000   0.87631007   -7.9813142    577.85344  0.019511529  0.019108408            3 
 2469000   0.86188896   -7.9972464    578.41874  0.019522706  0.019102424            4 
 2470000    0.8493028   -7.9714367    578.23934   0.01950875  0.019096482            1 
 2471000   0.84650304   -7.9888915    578.23297   0.01950064  0.019090585            1 
 2472000   0.86081969   -7.9630806    577.93052  0.019482555  0.019084715            3 
 2473000   0.86535535   -7.9653892    579.01809  0.019511325  0.019078834            2 
 2474000   0.86177337   -7.9714299    578.72086  0.019493427  0.019072981            6 
 2475000   0.84717483    -7.975234    579.64274  0.019516591  0.019067097            4 
 2476000   0.86317247   -7.9628089    578.36921  0.019465846  0.019061199            2 
 2477000   0.85487514   -7.9733997    577.19212  0.019418386  0.019055297            2 
 2478000   0.84592138   -7.9912827    577.99835  0.019437663  0.019049366            2 
 2479000   0.85707016   -7.9952431    578.20011  0.019436604  0.019043428            1 
 2480000   0.85817045   -7.9674448     580.2709   0.01949835  0.019037507            2 
 2481000    0.8635778   -7.9742893    578.57862   0.01943365  0.019031581            4 
 2482000   0.86852792    -8.008002    578.65403  0.019428352  0.019025594            3 
 2483000   0.86522118   -7.9670736    579.48856  0.019448535  0.019019674            1 
 2484000   0.86955579   -7.9769383     577.8731   0.01938651  0.019013759            4 
 2485000   0.85370152   -7.9555678    580.41272  0.019463874  0.019007842            3 
 2486000    0.8420621   -7.9816847    578.80786  0.019402248  0.019001932            3 
 2487000   0.84652648    -7.993161    580.16283  0.019439848  0.018995977            1 
 2488000   0.88291486   -7.9757344    579.22541  0.019400637  0.018989988            2 
 2489000   0.87390913   -7.9869391     578.9729  0.019384388  0.018984019            2 
 2490000   0.85949548   -7.9752241    578.91648  0.019374715  0.018978068            2 
 2491000   0.85461695   -7.9434271    580.15899  0.019408504  0.018972113            1 
 2492000   0.85969234   -7.9651969    579.19176  0.019368371  0.018966204            4 
 2493000   0.83495378   -7.9593669     580.6536  0.019409467  0.018960296            7 
 2494000   0.85766827    -7.967118    579.19233  0.019352858  0.018954409            1 
 2495000   0.84363893   -7.9532542    581.58383  0.019424978  0.018948541            1 
 2496000   0.85416244   -7.9776978    579.34916  0.019342587  0.018942677            5 
 2497000   0.84913564   -7.9781062    579.68394  0.019346013  0.018936806            2 
 2498000   0.84618949    -7.971345    579.57939  0.019334781  0.018930902            1 
 2499000   0.85630397   -7.9603766    580.89004   0.01937075  0.018924998            2 
 2500000   0.84952724   -7.9582406    581.13838  0.019371279  0.018919152            2 
 2501000   0.85596446   -7.9419278    579.99053  0.019325287  0.018913284            2 
 2502000    0.8606837   -8.0092751    580.45154  0.019332918  0.018907374            1 
 2503000   0.83883865   -7.9658034    580.21673  0.019317377  0.018901484            2 
 2504000   0.85429095   -7.9622246    581.28292  0.019345145  0.018895601            2 
 2505000    0.8397827   -7.9825076    580.77207  0.019320428  0.018889711            2 
 2506000   0.84952813   -7.9941319    579.94821  0.019285322  0.018883818            2 
 2507000   0.85304937   -7.9747132    580.15056  0.019284356  0.018877942            2 
 2508000   0.84732186   -7.9806701    580.68362  0.019294379  0.018872044            2 
 2509000   0.84180694   -7.9982994    581.05948  0.019299172  0.018866131            1 
 2510000   0.84600314   -7.9382145     582.6793  0.019345262  0.018860262            2 
 2511000   0.85833576   -7.9814279    580.22247  0.019256023  0.018854418            2 
 2512000   0.86014759   -8.0040248    581.33116  0.019285137  0.018848549            5 
 2513000   0.85594569   -7.9924987    581.08167  0.019269189  0.018842678            3 
 2514000   0.85661151   -7.9979993    581.21922  0.019266084  0.018836799            8 
 2515000    0.8476623   -7.9751052    581.03463  0.019252307  0.018830939            3 
 2516000   0.85623525   -7.9687353    580.78785  0.019236481  0.018825076            2 
 2517000   0.82306736   -8.0004609    580.54301  0.019220733  0.018819166            5 
 2518000   0.84825981   -7.9805809      581.692  0.019251125  0.018813273            2 
 2519000   0.84527888   -7.9901183    580.81293  0.019214402  0.018807367            4 
 2520000   0.86081311   -7.9925667    581.88945  0.019242376  0.018801478            1 
 2521000   0.82748464   -7.9644724     581.2502  0.019213612  0.018795592            2 
 2522000   0.83973324    -8.001586     581.5597  0.019216221  0.018789717            2 
 2523000   0.84996459   -7.9626555    581.76146  0.019215268  0.018783832            2 
 2524000   0.84512342   -8.0111757    581.63836  0.019203591  0.018777933            1 
 2525000   0.83210522   -7.9776255    582.27435  0.019216975   0.01877206            5 
 2526000   0.85015919   -7.9849421    583.04716  0.019234863  0.018766203            2 
 2527000   0.83111029   -8.0030699    582.87722  0.019221647  0.018760338            1 
 2528000   0.86869302   -8.0010722    582.62511  0.019205733  0.018754511            2 
 2529000    0.8403903   -7.9815936    582.99622  0.019210367   0.01874871            1 
 2530000   0.85549451   -8.0103966    581.94609  0.019168185  0.018742901            2 
 2531000   0.85688818   -7.9580746    584.85739  0.019256466   0.01873707            5 
 2532000   0.84971414    -8.000504    582.38331  0.019167434   0.01873123            2 
 2533000   0.85430833    -8.035651     582.8889    0.0191765   0.01872539            1 
 2534000   0.82342379   -8.0271323    582.95612  0.019171143   0.01871952            2 
 2535000   0.85090362   -7.9954395    583.63986  0.019186057   0.01871365            3 
 2536000   0.85269195   -8.0348373    581.80493  0.019118196  0.018707793            5 
 2537000   0.84012578   -7.9678425    583.22986  0.019157465  0.018701953            1 
 2538000   0.84718687   -8.0072441    583.80219  0.019168708  0.018696111            2 
 2539000   0.86670596   -7.9896402    583.31366  0.019145125  0.018690276            3 
 2540000   0.83354726   -7.9849791    583.86734  0.019155752  0.018684424            3 
 2541000   0.83122752   -8.0013703    582.23287  0.019094611  0.018678573            1 
 2542000   0.82807985    -8.023225    582.95146  0.019110656  0.018672706            2 
 2543000   0.84717631   -8.0339388    583.13074  0.019109016  0.018666818            3 
 2544000   0.84134171   -8.0077755    582.05182  0.019066163  0.018660965            3 
 2545000   0.85806051   -8.0067794     584.8765  0.019151162  0.018655147            1 
 2546000    0.8340098    -8.002072    584.75203  0.019139566  0.018649332            3 
 2547000   0.84970118   -7.9972665    584.59071  0.019126774  0.018643513            2 
 2548000   0.85107754   -7.9825875    584.59068  0.019119266  0.018637764            3 
 2549000   0.84278788   -7.9749266    585.52984  0.019142469  0.018632003            1 
 2550000   0.85272614   -8.0117419    583.46844  0.019067596  0.018626233            3 
 2551000   0.84917406   -7.9782529     583.9476  0.019075774  0.018620464            1 
 2552000    0.8169449   -7.9885217    584.25463  0.019078325  0.018614693            1 
 2553000   0.85154557   -8.0145835     584.3766  0.019074833  0.018608896            1 
 2554000   0.84354745   -7.9929339    584.32844  0.019065793  0.018603092            1 
 2555000   0.84126092   -7.9830189    584.68385  0.019069923  0.018597321            3 
 2556000   0.85503597   -8.0225188    582.84367  0.019002467   0.01859153            2 
 2557000   0.83249342   -8.0007008    584.44022  0.019047067  0.018585697            3 
 2558000   0.83825039   -8.0177591    583.68521  0.019015025  0.018579878            4 
 2559000   0.84244971   -8.0070416    585.78429  0.019075951  0.018574076            2 
 2560000    0.8332804   -7.9727058    586.01896  0.019076138  0.018568328            1 
 2561000     0.832882   -7.9511701    584.74076  0.019027097  0.018562585            4 
 2562000   0.82905962   -7.9761648    586.11289  0.019064301   0.01855685            1 
 2563000   0.85322676   -7.9885028    586.21663  0.019060236  0.018551164            2 
 2564000   0.85806965   -7.9984489    584.88864  0.019009641  0.018545436            2 
 2565000    0.8484489   -7.9591723    586.14852  0.019043162  0.018539696            1 
 2566000   0.83114996   -7.9769806    585.96606  0.019029815  0.018533986            1 
 2567000   0.83103495   -7.9723733    586.95739  0.019054583  0.018528289            2 
 2568000   0.82217028   -7.9986489    585.92705  0.019013728  0.018522573            1 
 2569000   0.84511347   -7.9927356    586.04109  0.019010026  0.018516841            2 
 2570000   0.84803164   -8.0146096    585.50937  0.018985388  0.018511069            1 
 2571000   0.84647647   -8.0047229    585.42469  0.018975259  0.018505267            7 
 2572000   0.83853943   -7.9883499    586.96097  0.019017657  0.018499486            2 
 2573000   0.82816024   -8.0034938     585.3227  0.018957206  0.018493666            3 
 2574000   0.83744726   -8.0027717    585.68838   0.01896168  0.018487879            4 
 2575000   0.83527794   -8.0252182    585.80549  0.018958107  0.018482097            2 
 2576000   0.83686097   -8.0158493    584.41671   0.01890582  0.018476304            3 
 2577000   0.83904808   -8.0460135    585.91562  0.018946954   0.01847049            2 
 2578000   0.84212204   -8.0234212    585.02782  0.018910907   0.01846473            2 
 2579000   0.84906569   -8.0041253    585.74208  0.018926654  0.018458957            2 
 2580000   0.84959533   -8.0551317    585.71416  0.018918416  0.018453157            1 
 2581000   0.85352262   -8.0286599    585.18909  0.018894133  0.018447362            3 
 2582000   0.82827704   -8.0197576    586.14521  0.018917674  0.018441591            3 
 2583000   0.82725687   -8.0175524    585.50833  0.018889803  0.018435808            3 
 2584000   0.81681379   -8.0073828    585.92869  0.018896049  0.018430028            2 
 2585000   0.83446102   -8.0202747     585.7672  0.018883533  0.018424272            1 
 2586000   0.81583162   -8.0173233    586.39627  0.018896502  0.018418512            2 
 2587000   0.84361252   -8.0131658     585.8594  0.018871905  0.018412756            2 
 2588000   0.84793066   -7.9969859    586.48943  0.018884899  0.018407036            3 
 2589000   0.82679114   -8.0007643     586.9047  0.018890971  0.018401319            2 
 2590000    0.8420244   -8.0185268    585.73474  0.018846034  0.018395569            1 
 2591000    0.8449648   -8.0167535     586.7447  0.018871243  0.018389817            2 
 2592000   0.82932814   -8.0156011    587.43982  0.018886311  0.018384081            2 
 2593000   0.82217236    -8.009908    586.14144    0.0188373  0.018378347            2 
 2594000   0.83747799   -7.9947442    587.59563  0.018876755  0.018372589            1 
 2595000    0.8279524    -7.976735     587.8124  0.018876442  0.018366825            1 
 2596000   0.85201591   -8.0362397    586.76937  0.018835689  0.018361096            2 
 2597000   0.83572123   -8.0142589    586.21213  0.018810555  0.018355365            3 
 2598000   0.84931558   -8.0008585    587.20555  0.018835179  0.018349683            2 
 2599000   0.83268584   -8.0084924    587.00047  0.018821357  0.018343952            1 
 2600000   0.84787682   -8.0296219    588.07285  0.018848489  0.018338229            1 
 2601000   0.84459976   -8.0132079    586.61551  0.018794551  0.018332496            1 
 2602000   0.83881055   -8.0364369    587.29429  0.018809066  0.018326786            1 
 2603000   0.83136676   -7.9700374    589.51143  0.018872821  0.018321109            2 
 2604000    0.8406276   -8.0124858     588.3806  0.018829384  0.018315434            2 
 2605000   0.84594945   -8.0208255    586.35938  0.018757498  0.018309732            2 
 2606000   0.82737424   -8.0385412    586.37147  0.018750687  0.018303998            3 
 2607000    0.8204992   -8.0410332    586.87432  0.018759568  0.018298274            1 
 2608000   0.84328695   -8.0070223    588.33112  0.018798924  0.018292586            3 
 2609000   0.81999914   -8.0254078    587.69597  0.018771431  0.018286885            5 
 2610000   0.83950706    -8.006708    587.80376  0.018767681  0.018281157           10 
 2611000   0.84367513   -8.0229217    588.44545  0.018780973  0.018275417            1 
 2612000   0.83071541   -8.0257188    587.83399  0.018754275  0.018269735            3 
 2613000   0.81252707   -8.0337281    586.24678  0.018696478  0.018264027            6 
 2614000   0.84120026   -8.0252375    588.25135  0.018753231    0.0182583            3 
 2615000   0.83621097   -8.0493926     587.5486  0.018723665  0.018252574            4 
 2616000   0.83847771   -8.0066063    587.42094  0.018712441  0.018246837            3 
 2617000   0.82359259   -8.0101215    587.64318  0.018712367  0.018241104            4 
 2618000   0.84641628   -8.0484343    587.06693  0.018686877  0.018235394            1 
 2619000   0.83918895   -8.0411851    588.58484   0.01872804  0.018229678            1 
 2620000   0.83579796   -8.0425711    587.54797  0.018687912  0.018223965            1 
 2621000   0.83598425   -8.0351739    588.76615  0.018719514  0.018218275            3 
 2622000   0.83225699     -8.02325    588.20999  0.018694698  0.018212572            3 
 2623000   0.83949948    -8.062492    587.11241  0.018652701  0.018206818            4 
 2624000   0.83586355   -8.0446454    587.14896  0.018646753  0.018201025            2 
 2625000   0.82457802   -8.0222526    587.86137  0.018662266  0.018195274            7 
 2626000   0.82723691   -8.0394606    589.03958  0.018692548  0.018189536            4 
 2627000   0.82848412   -8.0572684     587.9985  0.018652408  0.018183796            1 
 2628000   0.83456114     -8.05659    588.46683  0.018660161   0.01817803            2 
 2629000   0.83069455    -8.033398    588.92364  0.018667543  0.018172265            3 
 2630000   0.83371466   -8.0583057    587.16604  0.018604754  0.018166529            3 
 2631000   0.83902558   -8.0558756     587.0463   0.01859389  0.018160802            1 
 2632000    0.8261515   -8.0644558    588.08644  0.018619758  0.018155058            2 
 2633000   0.84519966   -8.0529988    587.39517  0.018590808  0.018149315            1 
 2634000   0.83851755   -8.0643525    587.53823  0.018588276  0.018143575            1 
 2635000    0.8314866   -8.0396021     588.5392  0.018612878  0.018137847            1 
 2636000   0.82530865   -8.0444856    588.79834  0.018614009  0.018132093            3 
 2637000   0.83167082   -8.0168251    589.63332  0.018633337  0.018126366            3 
 2638000   0.85885497   -8.0335727    588.31695   0.01858469  0.018120641            2 
 2639000   0.83474546   -8.0225778    588.50199  0.018583491  0.018114912            2 
 2640000   0.83075083   -8.0507783    590.65771  0.018644499  0.018109178            3 
 2641000   0.84080134   -8.0811725    588.23061  0.018560855  0.018103452            8 
 2642000   0.83617373   -8.0474332    589.07696  0.018580525  0.018097703            2 
 2643000   0.83590235   -8.0760615    590.25453  0.018610623  0.018091991            2 
 2644000   0.82371411   -8.0376075      589.408  0.018576904  0.018086263            1 
 2645000   0.82772231   -8.0408487    590.03172  0.018589531  0.018080568            2 
 2646000   0.81576648   -8.0560275    589.22484  0.018557094  0.018074846            1 
 2647000   0.81964041   -8.0704034    590.34368  0.018585307  0.018069104            2 
 2648000   0.85561164   -8.0441425    589.14456  0.018540551  0.018063403            4 
 2649000   0.81396737    -8.055855    589.95633  0.018559089  0.018057694            2 
 2650000   0.82992985   -8.0808658     589.9156  0.018550805  0.018051951            1 
 2651000   0.82774338   -8.0624776    587.77463  0.018476507  0.018046243            3 
 2652000   0.81818117   -8.0621392    589.00871  0.018508318  0.018040553            2 
 2653000   0.83092356   -8.0515088    589.37114  0.018512726   0.01803486            3 
 2654000   0.81727555   -8.0352071    589.99164  0.018525233  0.018029186            1 
 2655000   0.83347061   -8.0571548    590.22532  0.018525591  0.018023489            2 
 2656000   0.82250037   -8.0486629    588.90221  0.018477103  0.018017796            1 
 2657000   0.82393716   -8.0522768    589.22331  0.018480219  0.018012072            2 
 2658000   0.81403515   -8.0402611    589.50684  0.018482156  0.018006382            2 
 2659000   0.83810144   -8.0383989    590.76792  0.018514727  0.018000705            1 
 2660000   0.83345268   -8.0328737    590.93017   0.01851285  0.017995039            2 
 2661000   0.82563793   -8.0612715    589.73015  0.018468312   0.01798939            1 
 2662000   0.82408504   -8.0368862    590.21924  0.018476685   0.01798369            2 
 2663000   0.83840773   -8.0408307     591.2727  0.018502713   0.01797801            1 
 2664000   0.84160021   -8.0484718    590.83438  0.018482056  0.017972366            2 
 2665000   0.82230764   -8.0221324    590.34108  0.018459696  0.017966714            2 
 2666000   0.83612768   -8.0429776    588.82399  0.018405351  0.017961009            2 
 2667000   0.82746348   -8.0375342    590.36929  0.018446734  0.017955307            3 
 2668000   0.82337645   -8.0510744    590.26752  0.018436642  0.017949586            5 
 2669000   0.83230826    -8.056945    589.80229  0.018415208  0.017943881            4 
 2670000   0.82733055   -8.0699155    590.34193  0.018425154  0.017938183            2 
 2671000   0.82782459   -8.0532255    589.71394  0.018398663  0.017932479            5 
 2672000   0.83933073   -8.0927886    588.45851  0.018352623  0.017926781            2 
 2673000   0.79697711   -8.0366229    591.23439  0.018432298  0.017921086            1 
 2674000   0.82728311   -8.0601443    590.62926  0.018406546  0.017915414            2 
 2675000   0.82229435   -8.0570558    591.23933  0.018418671  0.017909767            5 
 2676000   0.80094061   -8.0121008    591.62557  0.018423816  0.017904124            3 
 2677000   0.83551974   -8.0533837     590.7719  0.018390359  0.017898452            2 
 2678000    0.8323881   -8.0485386    591.28861  0.018399571  0.017892783            2 
 2679000   0.82401746   -8.0372071    590.28191  0.018361388   0.01788712            1 
 2680000   0.83728136    -8.066258    589.68977  0.018336125  0.017881472            3 
 2681000   0.80874728   -8.0951751    590.80139  0.018363838  0.017875797            1 
 2682000   0.82247807   -8.0662799    590.51954  0.018348233  0.017870116            2 
 2683000    0.8098037   -8.0443586    591.69413  0.018377877  0.017864431            3 
 2684000   0.81630922   -8.0746021    591.30793  0.018359039  0.017858793            4 
 2685000   0.82310004   -8.0682922    591.23954  0.018350079  0.017853106            2 
 2686000   0.82673823   -8.0454838    590.93465  0.018333788  0.017847432            4 
 2687000   0.82439392   -8.0602468    591.95109  0.018358488  0.017841766            5 
 2688000   0.82075389   -8.0620528    591.67919  0.018343229  0.017836108            2 
 2689000   0.83392466   -8.0113051    592.10013  0.018349453  0.017830466            2 
 2690000   0.81427032   -8.0444135    590.50931  0.018293349  0.017824834            1 
 2691000   0.79722303   -8.0356872    592.67091   0.01835349  0.017819182            2 
 2692000   0.82085497   -8.0429715    591.36865   0.01830636  0.017813517            4 
 2693000   0.83385053   -8.0749328    591.04299  0.018289485  0.017807837            1 
 2694000   0.82102046   -8.0424858    591.03378  0.018282411  0.017802153            2 
 2695000   0.81750243   -8.0348483    592.74801  0.018328633  0.017796502            3 
 2696000   0.78844396   -8.0415612    591.70263  0.018289522  0.017790839            4 
 2697000   0.81820276   -8.0251401    591.42531  0.018274172  0.017785182            1 
 2698000   0.83361182   -8.0436631    590.71294  0.018245396  0.017779519            2 
 2699000   0.81828275    -8.053897    591.79564  0.018272065  0.017773843            2 
 2700000   0.81223941   -8.0523782    592.40832  0.018284207  0.017768179            2 
 2701000   0.81694913   -8.0180672    591.86715  0.018260741  0.017762536            3 
 2702000   0.82692261   -8.0753378    591.52679  0.018243486  0.017756865            2 
 2703000   0.83038258    -8.031426     592.4725  0.018265893  0.017751167            2 
 2704000    0.8056337   -8.0711337    591.53194  0.018230151   0.01774545            4 
 2705000   0.81076024   -8.0765218    590.34525  0.018186853  0.017739736            1 
 2706000   0.80660002   -8.1028325    590.06893  0.018171623  0.017734001            1 
 2707000   0.80623734   -8.0886816    589.41278  0.018144711   0.01772824            2 
 2708000   0.81839487   -8.0796744    590.17636  0.018161508  0.017722486            2 
 2709000   0.80845114   -8.0766933     591.1388   0.01818441  0.017716744            4 
 2710000   0.82039284   -8.0726667    590.27681  0.018151193  0.017710999            1 
 2711000   0.81896335   -8.0569808    591.07448  0.018169018  0.017705283            2 
 2712000   0.80315826   -8.0765019    591.64782  0.018179935  0.017699608            1 
 2713000   0.82552273    -8.075583    591.57666  0.018171049  0.017693921            2 
 2714000   0.81866971   -8.0492999    591.64987  0.018166601  0.017688219            2 
 2715000   0.81363615   -8.0976549    591.47055  0.018154406  0.017682497            1 
 2716000   0.81329161   -8.0699601    591.67715  0.018154061  0.017676786            3 
 2717000   0.83798506   -8.0625624    591.70671  0.018148286  0.017671068            3 
 2718000   0.83030041   -8.0638279    590.87504   0.01811611  0.017665352            5 
 2719000   0.80850847   -8.0476736    591.94265  0.018142168   0.01765964            2 
 2720000   0.83375925   -8.0725135    590.31643  0.018085675   0.01765393            4 
 2721000   0.82790267   -8.0539149    591.99374  0.018130397  0.017648238            1 
 2722000    0.8157164   -8.0370174    592.41186  0.018136537   0.01764253            2 
 2723000   0.81705105   -8.0992929     590.9307  0.018084548  0.017636826            2 
 2724000   0.80256309   -8.0827636    591.87819  0.018106895  0.017631102            2 
 2725000    0.8170539   -8.0819823    592.40254  0.018116286  0.017625366            3 
 2726000   0.81572936   -8.0719065    592.21704  0.018103969  0.017619645            2 
 2727000   0.82408214   -8.0852598    593.52448  0.018137284   0.01761394            2 
 2728000   0.81021106   -8.0784148    592.36095  0.018095093  0.017608232            3 
 2729000   0.80329719   -8.0695525    593.02214  0.018108652  0.017602539            2 
 2730000   0.81349622   -8.0603118    590.44062  0.018023218  0.017596851            2 
 2731000   0.83257915   -8.0960569    590.95046  0.018032176  0.017591121            2 
 2732000   0.82608815   -8.0969071    590.38107  0.018008207  0.017585365            2 
 2733000   0.81888479   -8.1011475    591.25023   0.01802812  0.017579638            2 
 2734000   0.80569717   -8.0680407    591.87499  0.018040569  0.017573918            2 
 2735000   0.82075876   -8.0941158    591.66403  0.018027545  0.017568176            2 
 2736000   0.82372734    -8.105885    590.98933  0.018000406  0.017562422            3 
 2737000   0.80700445   -8.0679993    593.79574  0.018079276  0.017556699            2 
 2738000    0.8011192   -8.0920694    591.06427  0.017989538  0.017550978            2 
 2739000   0.79508625   -8.0735836    593.46659   0.01805606  0.017545256            4 
 2740000   0.81987094   -8.1021535    592.05355  0.018006495  0.017539575            1 
 2741000   0.79613399   -8.0659956    592.39321  0.018010252  0.017533884            2 
 2742000   0.81896329   -8.0728011     593.0362  0.018023225  0.017528203            2 
 2743000   0.81893576   -8.0487927    594.01297  0.018046329  0.017522545            1 
 2744000   0.81585656   -8.0827143     593.6945  0.018030081  0.017516907            2 
 2745000    0.8169983   -8.0922989    592.81317  0.017996757  0.017511225            3 
 2746000   0.81004518     -8.06667    593.24209  0.018003219  0.017505543            2 
 2747000   0.82702648   -8.0838346     593.6867  0.018010154   0.01749988            1 
 2748000   0.80052431   -8.0940071    591.69176  0.017943103  0.017494204            3 
 2749000   0.81814172   -8.1064031    592.81292  0.017970563  0.017488524            1 
 2750000   0.80698823   -8.1127155    593.02316  0.017970399  0.017482851            2 
 2751000   0.81083249   -8.0803317    592.94312  0.017961442  0.017477171            3 
 2752000   0.80237711   -8.1226528    592.22952  0.017933307  0.017471509            3 
 2753000   0.79842804   -8.0922266    593.11746  0.017953671  0.017465833            2 
 2754000   0.81742576   -8.0877351    594.01056  0.017974176  0.017460185            1 
 2755000   0.80517238   -8.1100595    592.77644  0.017930322  0.017454525            3 
 2756000   0.79912849   -8.0710805    593.75403  0.017953375  0.017448863            3 
 2757000   0.81212803   -8.0962581    593.40516  0.017936319  0.017443207            2 
 2758000   0.80955033   -8.1033711    592.98598  0.017917149  0.017437529            3 
 2759000   0.81933619   -8.1166064    591.76877  0.017873891  0.017431827            3 
 2760000   0.83672104   -8.0892987    592.73015  0.017896442  0.017426123            2 
 2761000     0.824222    -8.078743    592.62876    0.0178869   0.01742044            1 
 2762000   0.82183048   -8.0734523    593.11243  0.017895016  0.017414769            2 
 2763000   0.82223354   -8.0858778    594.37161  0.017926517  0.017409112            2 
 2764000   0.81217443   -8.0962947    593.94335   0.01790712   0.01740347            2 
 2765000   0.79518713    -8.086609    593.56176  0.017889143  0.017397827            1 
 2766000   0.79713971   -8.0810092    593.18216  0.017871239   0.01739216            1 
 2767000   0.82194984   -8.0592486    592.90976  0.017856576  0.017386488            2 
 2768000   0.83015462   -8.0562968    594.07352  0.017885161  0.017380844            2 
 2769000   0.79366555   -8.0774149    593.89492  0.017873327  0.017375197            2 
 2770000    0.7945791   -8.1064966    592.31422  0.017819321  0.017369523            1 
 2771000   0.78377115   -8.1234146    592.17987   0.01780885  0.017363811            2 
 2772000    0.8049257   -8.0613429    593.91012  0.017854441  0.017358104            3 
 2773000   0.81398098   -8.0640249    594.30968   0.01786001  0.017352444            2 
 2774000   0.80046231   -8.0928163    594.29251  0.017853055  0.017346798            3 
 2775000   0.80622525   -8.0714388       595.07   0.01786997  0.017341176            3 
 2776000    0.7912315   -8.0720161    593.55474  0.017818046  0.017335521            3 
 2777000   0.78750086   -8.0751716    593.30741  0.017804208  0.017329888            2 
 2778000   0.81925389   -8.0944219    593.29404  0.017797397  0.017324234            1 
 2779000   0.80170787    -8.078838    593.73905  0.017804337  0.017318555            1 
 2780000   0.81494311   -8.1073436    593.16799  0.017780815   0.01731289            2 
 2781000   0.80051162    -8.114415    592.05778  0.017741154  0.017307199            5 
 2782000   0.79475511   -8.0941944    593.81602  0.017787444  0.017301496            3 
 2783000   0.80162715    -8.135238     592.8188  0.017751192  0.017295792            1 
 2784000   0.80953388   -8.1357095    592.48816  0.017734919   0.01729006            4 
 2785000   0.80911466   -8.1021141    594.04014  0.017774989  0.017284362            2 
 2786000   0.80486119    -8.104143    594.73841  0.017789495  0.017278695            2 
 2787000   0.79893992   -8.0892079    594.54825  0.017777426  0.017273024            2 
 2788000   0.79473057   -8.1199124    594.63897  0.017773762  0.017267334            1 
 2789000   0.81840385   -8.0539435    594.36094  0.017759082  0.017261688            2 
 2790000   0.79353599    -8.081398    593.16161  0.017716894  0.017256064            2 
 2791000   0.80046886   -8.1001943    594.49027  0.017750217  0.017250382            3 
 2792000   0.80876069   -8.1087177    593.62653  0.017718079  0.017244711            2 
 2793000   0.82070472   -8.0750813    594.43417  0.017735833  0.017239035            2 
 2794000   0.78773017   -8.1041055    595.74265  0.017768511  0.017233345            4 
 2795000   0.81644472    -8.105512    593.19433  0.017686176  0.017227642            2 
 2796000   0.81000578   -8.0914871    594.05347  0.017705456   0.01722195            1 
 2797000   0.79746014   -8.1067917    594.16179  0.017702353   0.01721627            3 
 2798000   0.78907105   -8.1291177    592.41904  0.017644122  0.017210566            1 
 2799000   0.81329626   -8.1109227    594.50471  0.017699914   0.01720486            2 
 2800000   0.79290791   -8.1167061    592.17068  0.017624127  0.017199169            2 
 2801000   0.80222012   -8.0957737    593.73697  0.017664434  0.017193467            1 
 2802000   0.81514755   -8.0940895    593.65988  0.017655837  0.017187784            2 
 2803000   0.80381417   -8.1201493    592.32927  0.017609979  0.017182029            1 
 2804000   0.80788605   -8.1222149    594.33059  0.017663177   0.01717631            8 
 2805000    0.8163028   -8.1230979     593.2172  0.017623803  0.017170604            3 
 2806000   0.81123413   -8.0789116    593.71494  0.017632304   0.01716491            2 
 2807000   0.82565549    -8.090796    594.53774   0.01765045  0.017159229            2 
 2808000   0.79996361   -8.0906164     594.6003   0.01764602   0.01715357            2 
 2809000   0.80294565   -8.0755762     594.2628  0.017629726  0.017147936            1 
 2810000   0.79924404    -8.105254    593.73012  0.017607655  0.017142252            2 
 2811000   0.80190324   -8.1048634    592.82648  0.017574602  0.017136557            2 
 2812000   0.80773007   -8.1188465    593.59935  0.017591256  0.017130883            3 
 2813000   0.82576466   -8.1079276    593.43058  0.017580003  0.017125212            1 
 2814000   0.80074261   -8.1311097    594.30828  0.017599748  0.017119533            2 
 2815000   0.78192417   -8.1262995    593.57858  0.017571894  0.017113841            2 
 2816000   0.80202563   -8.1322856    595.29281  0.017616383  0.017108119            3 
 2817000   0.81159545   -8.1215462    592.92269  0.017540016  0.017102424            1 
 2818000   0.82033711   -8.1119948    594.26179  0.017573391  0.017096746            2 
 2819000   0.80741216    -8.133005    593.57074  0.017546729  0.017091084            1 
 2820000   0.80201553   -8.1458006    592.84753  0.017519135  0.017085428            6 
 2821000   0.77950446    -8.130327    593.31585  0.017526759  0.017079739            1 
 2822000   0.80591605   -8.1311072    593.91501  0.017538241  0.017074098            1 
 2823000   0.80749611   -8.0897676    596.00331  0.017593674  0.017068451            2 
 2824000    0.7819929   -8.1071554    594.71997  0.017549574  0.017062792            2 
 2825000   0.81931581   -8.1410477    595.18622  0.017557116  0.017057102            6 
 2826000   0.81493296   -8.1469498    595.33238  0.017555213  0.017051415            2 
 2827000   0.78731683    -8.121044     593.5442  0.017496292  0.017045728            2 
 2828000   0.80602726   -8.1181543    594.69693  0.017524073  0.017040047            3 
 2829000   0.79931141   -8.1414482    594.45816  0.017510845  0.017034368            2 
 2830000   0.80609965    -8.119815    594.92251  0.017518331  0.017028673            3 
 2831000   0.81436829   -8.1559291    593.51332  0.017470662  0.017022959            2 
 2832000   0.80102659   -8.1573455    593.46525  0.017463078  0.017017254            1 
 2833000   0.79421126   -8.1267335    594.13369  0.017476576  0.017011566            2 
 2834000   0.78924609    -8.117398    594.23331  0.017473339   0.01700593            2 
 2835000   0.80626449   -8.1040735    596.09772  0.017521979   0.01700026            2 
 2836000   0.79385863   -8.0978289    595.07035  0.017485612   0.01699461            2 
 2837000   0.80813192   -8.1260038    594.01762  0.017448526  0.016988955            3 
 2838000    0.7947253   -8.1121293    596.37095   0.01751148    0.0169833            1 
 2839000   0.79036548   -8.1214333    594.09683  0.017438559  0.016977664            1 
 2840000   0.77355943    -8.153153    594.59761  0.017447113  0.016972012            2 
 2841000   0.80972416   -8.1163909    596.05553  0.017483736   0.01696636            3 
 2842000   0.81132567   -8.1474229    595.01251  0.017447001  0.016960701            2 
 2843000   0.79155801   -8.1453736    594.99265  0.017440282  0.016955063            2 
 2844000    0.7772703   -8.1243579    594.31161  0.017414194  0.016949413            2 
 2845000   0.78383267   -8.1438459    593.75159  0.017391669  0.016943767            4 
 2846000   0.79141581   -8.1302806    594.80557   0.01741642  0.016938154            2 
 2847000   0.79206242   -8.1315463    596.09236  0.017447968   0.01693254            6 
 2848000   0.79959479   -8.1140871     595.6453   0.01742876  0.016926934            1 
 2849000   0.77647038   -8.1135001    596.42427  0.017445427  0.016921345            3 
 2850000   0.80641445   -8.1078613    595.84145  0.017422265   0.01691582            1 
 2851000   0.79927781   -8.1165922    595.92698  0.017418654  0.016910277            3 
 2852000   0.79805113   -8.0871507      597.115  0.017447259  0.016904745            1 
 2853000   0.79272997   -8.1219412    596.92992  0.017435738  0.016899227            4 
 2854000   0.78726355   -8.0987405    595.89809    0.0173995  0.016893675            2 
 2855000   0.79529688   -8.1538372    596.19454  0.017402059  0.016888115            2 
 2856000   0.79587681   -8.1584653     593.6538  0.017321831  0.016882525            2 
 2857000    0.7825498   -8.1239012    596.43402  0.017396862  0.016876949            2 
 2858000   0.79449013   -8.1241022    595.43008  0.017361502  0.016871398            4 
 2859000   0.78802497   -8.1496624    596.63346  0.017390505  0.016865855            2 
 2860000    0.7854718   -8.1027739     596.0325  0.017366914  0.016860299            1 
 2861000   0.80411288   -8.1456152    596.52272  0.017375123  0.016854734            3 
 2862000   0.80159271   -8.1308976    596.63128  0.017372213   0.01684916            1 
 2863000   0.78700339   -8.1449792    595.17962  0.017323892  0.016843607            3 
 2864000   0.78044476   -8.1579722     596.6199   0.01735975  0.016838038            2 
 2865000    0.7987179   -8.1092058    596.51772  0.017350719  0.016832463            1 
 2866000   0.81271534   -8.1448647    597.02895   0.01735953  0.016826883            1 
 2867000   0.78599247   -8.1541762    596.23416  0.017330373  0.016821298            3 
 2868000   0.80277446   -8.1349632    596.19227  0.017323113  0.016815713            3 
 2869000   0.78533751   -8.1427272     595.7557  0.017304395  0.016810119            2 
 2870000   0.79057905   -8.1593289    595.41262  0.017288404   0.01680452            3 
 2871000   0.79519607   -8.1453049    595.14355  0.017274572  0.016798921            5 
 2872000   0.79564971   -8.1410298    596.66693  0.017312759   0.01679332            3 
 2873000   0.78622527   -8.1395536    595.93399  0.017285474  0.016787712            3 
 2874000   0.78244945   -8.1634541    596.49123  0.017295617  0.016782081            2 
 2875000   0.79057613   -8.1463015    596.83134  0.017299459  0.016776481            2 
 2876000   0.79290386   -8.1436476    596.50136  0.017283883  0.016770907            3 
 2877000   0.80677713   -8.1615936    596.24052   0.01727032  0.016765339            1 
 2878000   0.79127502   -8.1692933    595.94427  0.017255741  0.016759758            1 
 2879000   0.78270623    -8.157589    595.40164  0.017234041  0.016754149            2 
 2880000   0.79652805   -8.1778927    596.35211  0.017255559  0.016748526            4 
 2881000   0.78171957   -8.1763549     595.7362  0.017231754  0.016742902            2 
 2882000   0.78713358   -8.1630992    596.23422  0.017240175  0.016737297            3 
 2883000   0.77056006   -8.1514648    595.90257  0.017224609  0.016731716            3 
 2884000   0.78400906   -8.1533067    597.01595  0.017250808  0.016726146            2 
 2885000   0.79513635   -8.1396252    596.73226  0.017236634  0.016720583            3 
 2886000   0.78125571   -8.1546494    594.91203  0.017178102  0.016715007            1 
 2887000   0.78596938     -8.14305    596.04427  0.017204834  0.016709422            3 
 2888000   0.78793274   -8.1849841    594.93964  0.017167003  0.016703847            3 
 2889000    0.7991513   -8.1655117    596.95455   0.01721918  0.016698254            3 
 2890000   0.79513795   -8.1671983    596.89308   0.01721145  0.016692636            2 
 2891000   0.80135241   -8.1606229    597.52103  0.017223597  0.016687048            2 
 2892000   0.79645946   -8.1447367    596.33327  0.017183416   0.01668146            3 
 2893000   0.78312999   -8.1631398    595.86802  0.017164075  0.016675882            6 
 2894000   0.78928221   -8.1544331    596.45102  0.017174932  0.016670305            3 
 2895000   0.77782082   -8.1382005    596.79397  0.017178871  0.016664729            4 
 2896000   0.78021918    -8.177493    596.19803   0.01715579  0.016659121            1 
 2897000   0.80238441    -8.168134    597.24204    0.0171799  0.016653523            3 
 2898000   0.79508424   -8.1221477    598.48663   0.01720976  0.016647958            2 
 2899000   0.79506803   -8.1525163    598.20323  0.017195678  0.016642411            1 
 2900000   0.77813484   -8.1473119    597.45869  0.017168353  0.016636872            3 
 2901000   0.77409967   -8.1740661    596.45182  0.017133512  0.016631331            2 
 2902000   0.77673388   -8.1880878    596.82392  0.017138293  0.016625772            1 
 2903000   0.79340546   -8.1552369    596.39973  0.017120213  0.016620227            1 
 2904000   0.78094951   -8.1383196    596.67596  0.017122244  0.016614678            2 
 2905000   0.78599555   -8.1337049    597.36125  0.017136008  0.016609152            2 
 2906000    0.7749072   -8.1202047    597.71943  0.017140383  0.016603628            3 
 2907000   0.79024263   -8.1182949    597.69415  0.017133762  0.016598108            1 
 2908000   0.77789164   -8.1293531     597.7618  0.017129809  0.016592587            4 
 2909000   0.79917989   -8.1523665    597.31162  0.017111024  0.016587032            3 
 2910000   0.78684916   -8.1683384    596.12604  0.017071193  0.016581481            2 
 2911000   0.76715973   -8.1761825    595.91624  0.017059322  0.016575918            6 
 2912000   0.77168915   -8.1740781    597.21766  0.017090707  0.016570352            3 
 2913000   0.78334305   -8.1608979    597.08091  0.017080928  0.016564804            2 
 2914000   0.77696854   -8.1516906    597.72552    0.0170935  0.016559263            2 
 2915000   0.79201207   -8.1413047    598.17494  0.017100484  0.016553725            2 
 2916000   0.80842541   -8.1744138    597.62774  0.017078982  0.016548178            1 
 2917000   0.79596389   -8.1428207    597.25435   0.01706246  0.016542616            2 
 2918000   0.78646655   -8.1691247     595.7991  0.017015053  0.016537055            1 
 2919000   0.76963976    -8.203151    597.12717  0.017047138  0.016531479            1 
 2920000   0.77361368   -8.2080072    597.34026  0.017047382  0.016525901            1 
 2921000   0.79085761   -8.2190034    597.38967  0.017042955  0.016520327            7 
 2922000    0.7978846   -8.1586992    598.22441  0.017060929  0.016514786            2 
 2923000   0.78533199   -8.1704893    596.02555  0.016992404  0.016509242            2 
 2924000   0.78035627   -8.1882769    598.03072  0.017043739  0.016503676            1 
 2925000   0.77368996   -8.1886308    597.65572  0.017027229  0.016498136            2 
 2926000    0.7907975   -8.1937898    596.47066  0.016987658  0.016492597            4 
 2927000   0.77430022   -8.1651919    598.76137  0.017047072  0.016487063            2 
 2928000    0.7634779   -8.1830162     597.5363  0.017006384  0.016481546            1 
 2929000   0.77651369   -8.1866756    597.51749  0.017000043  0.016476041            1 
 2930000   0.77954073   -8.1641463    597.25593  0.016986801  0.016470538            2 
 2931000   0.76549841   -8.1702445     598.2569  0.017009465   0.01646506            3 
 2932000   0.78425585   -8.1941283    598.65406  0.017014952  0.016459553            3 
 2933000   0.77761408   -8.1735894    598.66139  0.017009359  0.016454042            4 
 2934000   0.78197516    -8.144984    598.86098   0.01700923  0.016448546            2 
 2935000   0.78431495   -8.1364381    598.31486  0.016987929  0.016443082            2 
 2936000   0.78790351   -8.1760537    598.13731  0.016977103  0.016437634            6 
 2937000   0.78243588   -8.1601908    598.25248  0.016974591  0.016432164            3 
 2938000   0.77869391   -8.1690992    598.58213  0.016978163  0.016426688            3 
 2939000   0.77755021   -8.1826268     598.0326  0.016956805  0.016421217            2 
 2940000   0.78685676   -8.1493651    598.85008  0.016974209  0.016415749            2 
 2941000   0.79130022    -8.155133    598.27318  0.016952091  0.016410273            2 
 2942000   0.77088174    -8.158398    598.94512  0.016965362  0.016404817            2 
 2943000   0.78180448     -8.14966    599.60858  0.016978383  0.016399337            2 
 2944000   0.78608092    -8.162603    598.25279  0.016934239  0.016393878            1 
 2945000   0.77543036    -8.175067    598.40545  0.016932809  0.016388408            2 
 2946000   0.78170555   -8.1798522    599.77958  0.016965931  0.016382942            6 
 2947000   0.77441083   -8.1344746    600.69223  0.016985981  0.016377529            2 
 2948000   0.76870034   -8.1299598    598.66572  0.016922934  0.016372108            1 
 2949000   0.78269767   -8.1615014    597.31541  0.016879038  0.016366661            3 
 2950000   0.76703047   -8.1623274    599.21601  0.016927006  0.016361225            6 
 2951000   0.78620001   -8.1701891    599.23093  0.016921691  0.016355772            3 
 2952000   0.77724312   -8.1817174    598.28039  0.016889126  0.016350317            2 
 2953000   0.78350668   -8.1743709    598.29631  0.016883856  0.016344858            2 
 2954000   0.79673222    -8.166785    599.28655  0.016906075  0.016339402            3 
 2955000   0.75985452   -8.1692392    598.20368  0.016869816  0.016333944            2 
 2956000   0.77090678   -8.1640864    599.75227  0.016907766  0.016328496            3 
 2957000   0.77425533   -8.1803442    598.75204   0.01687386  0.016323044            1 
 2958000   0.78939873   -8.1765107    598.70181   0.01686674  0.016317605            1 
 2959000   0.78305296   -8.1604807    600.56775   0.01691359   0.01631216            1 
 2960000   0.78015717   -8.1602466    600.12765  0.016895486  0.016306729            2 
 2961000   0.76535305   -8.1574946    599.50677  0.016872306  0.016301292            3 
 2962000   0.78099371   -8.1877589    600.10521  0.016883446  0.016295861            4 
 2963000   0.78394177   -8.1723592    599.71654  0.016866817  0.016290439            2 
 2964000    0.7753018   -8.1607456    600.67401  0.016888046  0.016285011            1 
 2965000   0.76617714   -8.1396332    599.17336  0.016840173   0.01627958            3 
 2966000   0.78613333   -8.1630466    600.52574  0.016872492  0.016274161            2 
 2967000   0.77573854   -8.1826629    599.24366  0.016830796  0.016268722            2 
 2968000   0.77083332     -8.18317    599.64054  0.016836268  0.016263291            2 
 2969000   0.77373823   -8.1982151    599.75143   0.01683371  0.016257844            1 
 2970000   0.78365171   -8.1835025    600.42712  0.016847001  0.016252417            2 
 2971000   0.77149615   -8.1688102    600.31149  0.016838087  0.016246994            2 
 2972000   0.78823725   -8.1669375     600.8629  0.016847883  0.016241599            2 
 2973000   0.79260841   -8.1763966    600.99335  0.016845873  0.016236182            2 
 2974000   0.79219796   -8.1691876     600.9041  0.016837707   0.01623081            3 
 2975000   0.77754312   -8.1836095     599.8082   0.01680135  0.016225435            2 
 2976000   0.77589515   -8.1728295    600.69218  0.016820458  0.016220056            1 
 2977000   0.76115255   -8.1639539    601.55264  0.016838894  0.016214687            3 
 2978000    0.7765515   -8.1711848    599.20107  0.016767435  0.016209295            2 
 2979000   0.79026859   -8.1625739    600.49351  0.016797961  0.016203912            2 
 2980000   0.76947485   -8.1633185    601.87459  0.016830945  0.016198512            2 
 2981000   0.76894628   -8.2040342     600.3618  0.016783009  0.016193098            4 
 2982000   0.76751261   -8.2021062    601.13582  0.016799011  0.016187688            2 
 2983000   0.77439916   -8.1736239    599.43877  0.016745971  0.016182275            3 
 2984000   0.76659336   -8.1820603    600.01511  0.016756454  0.016176856            5 
 2985000   0.78642856   -8.1754414     600.5244  0.016765059  0.016171426            3 
 2986000   0.76546531   -8.2109272    599.05873   0.01671854  0.016166018            3 
 2987000   0.78132049   -8.1916642    600.34733  0.016748893  0.016160596            3 
 2988000    0.7700294   -8.1762501    601.40949  0.016772911  0.016155205            3 
 2989000   0.77120497   -8.1506527    601.14364  0.016759887  0.016149805            1 
 2990000   0.77074984   -8.2052514    600.37604  0.016732888   0.01614441            2 
 2991000   0.78290426   -8.1511797    600.58349  0.016733074  0.016139013            3 
 2992000    0.7565771   -8.1967669    599.73066  0.016703728  0.016133617            2 
 2993000   0.77268636   -8.1875086    600.29318   0.01671381  0.016128243            4 
 2994000   0.76028053   -8.1722211    599.86387  0.016696278  0.016122841            1 
 2995000   0.77643205   -8.2261925    599.31224  0.016675355  0.016117438            1 
 2996000   0.77301373   -8.1694668     600.5447  0.016704069  0.016112042            1 
 2997000   0.78567715   -8.2163711    600.06335  0.016685112  0.016106658            2 
 2998000    0.7703687   -8.2230956    600.71695  0.016697714  0.016101255            2 
 2999000   0.77543988   -8.1905452    601.04626  0.016701296  0.016095883            3 
 3000000   0.76090176   -8.1926421    601.16651   0.01669907   0.01609052            4 
 3001000     0.758895   -8.2338984    599.80562  0.016655715  0.016085155            2 
 3002000   0.75170068   -8.1721505    601.62329  0.016700624  0.016079799            3 
 3003000   0.76856569   -8.1652757    600.20899  0.016655816  0.016074467            1 
 3004000   0.76979564   -8.2118925    600.13651  0.016648261  0.016069124            2 
 3005000   0.78738124   -8.2069072     602.7421  0.016714978  0.016063779            3 
 3006000   0.76987514   -8.2149236    600.30956  0.016641982  0.016058426            2 
 3007000   0.77957397   -8.2127517    600.31239  0.016636526  0.016053055            1 
 3008000   0.79751092    -8.204415     599.8847  0.016619146  0.016047691            1 
 3009000   0.76299922   -8.2228998    601.62104   0.01666171  0.016042326            2 
 3010000   0.76734745   -8.1971809    601.06206  0.016640699  0.016036978            3 
 3011000   0.77626248   -8.2464907    599.60416  0.016594823  0.016031616            2 
 3012000   0.77202186   -8.2179524    599.60174  0.016589247  0.016026229            4 
 3013000   0.76174528   -8.2473139    599.92778  0.016592759  0.016020836            2 
 3014000   0.76718237   -8.2335676    600.35715  0.016599125   0.01601546            3 
 3015000   0.77136323   -8.2493263    600.57778  0.016599718  0.016010095            2 
 3016000   0.77597593   -8.2195368    601.08008  0.016608092   0.01600471            3 
 3017000   0.79426495   -8.2177609     601.4114  0.016611739  0.015999325            2 
 3018000   0.78258051   -8.2330518    599.95387  0.016565989  0.015993954            2 
 3019000   0.75771442   -8.2083292    599.70293  0.016553576  0.015988563            2 
 3020000   0.76920442   -8.2165131    600.63014  0.016573679  0.015983178            1 
 3021000   0.79067803   -8.2545511     600.2191  0.016556855  0.015977777            6 
 3022000   0.76586626   -8.2126413    600.28847  0.016553289  0.015972394            5 
 3023000   0.76417263    -8.238564    598.79168  0.016506552  0.015967028            3 
 3024000     0.772845   -8.1817285    601.30352  0.016570313  0.015961696            4 
 3025000   0.75488812   -8.1887238    600.80866  0.016551203  0.015956379            3 
 3026000   0.76297493   -8.1816179     601.4483  0.016563348  0.015951061            1 
 3027000   0.77053435   -8.2126751    601.73469  0.016565761  0.015945752            2 
 3028000   0.77238619   -8.2022876    601.36612  0.016550146  0.015940444            2 
 3029000   0.75799641   -8.2304977    601.33151   0.01654373  0.015935115            2 
 3030000   0.79175229   -8.2266693    601.90283  0.016553983  0.015929773            2 
 3031000   0.76800095   -8.2098464    600.74397   0.01651666  0.015924417            1 
 3032000   0.77042606   -8.2526366    601.71082  0.016537786  0.015919056            2 
 3033000   0.76803188   -8.2381946     601.1588  0.016517167  0.015913715            2 
 3034000   0.76659867   -8.2199636     600.3151  0.016488549  0.015908378            3 
 3035000   0.75382345   -8.2232211     601.8403  0.016524994  0.015903068            5 
 3036000   0.75556897   -8.1930572    600.78976  0.016490716  0.015897723            1 
 3037000   0.77092647   -8.2321777     601.1643  0.016495563  0.015892403            2 
 3038000   0.76483881   -8.2457378    599.74557  0.016451217  0.015887066            4 
 3039000   0.76548648   -8.2166929    601.32464  0.016489104  0.015881724            1 
 3040000   0.76400613   -8.2053761    602.66461  0.016520411  0.015876401            1 
 3041000   0.77851955   -8.2234699     601.7149  0.016488954  0.015871067            6 
 3042000    0.7564038    -8.217371    600.94837  0.016462535  0.015865728            3 
 3043000   0.76063061   -8.2102092    601.49782  0.016472172  0.015860397            2 
 3044000   0.76559215   -8.1779795    602.74012   0.01650077  0.015855094            2 
 3045000   0.77150986   -8.2209081    602.03103  0.016475945  0.015849808            5 
 3046000    0.7690373   -8.2290925    602.30682  0.016478081  0.015844513            4 
 3047000    0.7601943   -8.2193699    601.55593  0.016452137  0.015839222            3 
 3048000   0.76811783   -8.2223745    600.80503  0.016426209  0.015833929            2 
 3049000   0.75883066   -8.2289987    601.07639  0.016428238  0.015828623            2 
 3050000   0.77760985   -8.2038415    601.67739  0.016439273  0.015823328            4 
 3051000   0.76173821   -8.2280779    601.21136  0.016421156  0.015818055            3 
 3052000   0.76641887   -8.2072876    601.52025   0.01642421  0.015812779            1 
 3053000   0.76176231    -8.221292    602.30622  0.016440283  0.015807501            1 
 3054000   0.75635952   -8.2167261    601.75824  0.016419948  0.015802215            2 
 3055000   0.76519111   -8.2108364    602.60569  0.016437689  0.015796937            2 
 3056000   0.76968594   -8.2319067      602.216  0.016421684  0.015791671            1 
 3057000   0.75942415   -8.2380052    602.53383  0.016424976  0.015786401            2 
 3058000   0.73922961   -8.2268786    601.93291  0.016403229  0.015781134            2 
 3059000   0.76714936   -8.2211438    601.58363  0.016388352   0.01577585            2 
 3060000   0.79150449   -8.2405732    601.99561  0.016394216  0.015770556            1 
 3061000   0.76857876   -8.2410779    601.75604  0.016382338  0.015765252            1 
 3062000   0.76701722   -8.2333646    602.32981  0.016392603  0.015759932            3 
 3063000    0.7617213   -8.2153595    600.38028  0.016334212  0.015754628            2 
 3064000   0.76704931   -8.2472789    601.13629  0.016349442  0.015749301            2 
 3065000   0.75024267   -8.2360995    601.39327  0.016351095  0.015743998            1 
 3066000   0.76901886   -8.2330868    602.87212  0.016385957  0.015738709            3 
 3067000   0.74602075   -8.2123814    601.69993  0.016348765  0.015733408            2 
 3068000   0.77647696    -8.233184    603.21838   0.01638468   0.01572812            3 
 3069000   0.74555461   -8.2303638    600.98617  0.016318729   0.01572282            5 
 3070000    0.7552769   -8.2514976    601.89834  0.016338174  0.015717512            1 
 3071000   0.75634067   -8.2592344    601.78198  0.016329697   0.01571221            3 
 3072000    0.7602811   -8.2340657    602.40426  0.016341261  0.015706906            2 
 3073000   0.74648333   -8.2427396    600.88211  0.016294666  0.015701606            2 
 3074000     0.763261    -8.236403      602.348  0.016329104    0.0156963            1 
 3075000   0.76933875   -8.2542883    602.61911  0.016331141  0.015691037            1 
 3076000   0.75212731   -8.2585982    601.75921  0.016302536  0.015685766            5 
 3077000   0.76339686   -8.2223306     602.3904  0.016314332  0.015680487            4 
 3078000   0.75214108   -8.2338757    602.13354  0.016302078  0.015675233            3 
 3079000   0.77234943   -8.2204802    602.86887  0.016316685  0.015669982            3 
 3080000   0.75489074   -8.2237878    602.27171   0.01629523  0.015664725            2 
 3081000   0.76871213   -8.2538505    601.44388  0.016267551  0.015659456            2 
 3082000   0.75019573   -8.2588541    602.66863  0.016295388  0.015654195            1 
 3083000   0.75596406   -8.2394485    602.53411  0.016286466   0.01564893            3 
 3084000    0.7564309   -8.2460759    600.54872  0.016227538  0.015643663            2 
 3085000   0.76141182   -8.2510389     601.5366  0.016248963  0.015638377            1 
 3086000   0.76427863   -8.2605331    602.27727  0.016263698  0.015633092            1 
 3087000   0.74505517   -8.2649533    602.31537  0.016259458  0.015627818            3 
 3088000   0.75576984   -8.2507267    602.33338  0.016254679  0.015622544            2 
 3089000   0.74667644   -8.2679465    601.60192  0.016229684  0.015617269            3 
 3090000   0.76872697   -8.2426675    601.55374  0.016223132  0.015611981            2 
 3091000   0.74952115   -8.2329769    602.21167  0.016235621   0.01560669            2 
 3092000   0.76834599   -8.2502001    602.38366  0.016235006  0.015601414            2 
 3093000   0.76519903    -8.223803    602.38235  0.016229722  0.015596144            1 
 3094000   0.75357958   -8.2523022    602.88343  0.016237972  0.015590897            2 
 3095000   0.75621829   -8.2308285    601.86932  0.016205421   0.01558564            1 
 3096000   0.74601658   -8.2028559    602.61531  0.016220266  0.015580405            1 
 3097000    0.7817987   -8.2481032    603.45355  0.016237584  0.015575177            3 
 3098000   0.73794881   -8.2349025    602.48649  0.016206329   0.01556993            2 
 3099000   0.75842246   -8.2449279    604.04906  0.016243118  0.015564673            6 
 3100000   0.75570445   -8.2690189    602.08636  0.016185117    0.0155594            2 
 3101000   0.75237062   -8.2655904    601.96601  0.016176664  0.015554121            5 
 3102000   0.77429648   -8.2644972    601.65048  0.016162972  0.015548829            1 
 3103000   0.75650837   -8.2613383    601.96527  0.016166217  0.015543555            2 
 3104000   0.76926374   -8.2595611    601.49684  0.016148433  0.015538282            1 
 3105000    0.7665061   -8.2823507    601.19986  0.016135262  0.015533008            2 
 3106000   0.75026176   -8.2762284    602.39717  0.016162191  0.015527727            2 
 3107000   0.75753844   -8.2690821    602.36822  0.016156212  0.015522442            1 
 3108000   0.73970802   -8.2763916    600.94154  0.016112761  0.015517159            1 
 3109000   0.75599755   -8.2735189    602.91689  0.016160526  0.015511887            3 
 3110000   0.74677924   -8.2849807     602.5453  0.016145373  0.015506623            1 
 3111000   0.77506849   -8.2316773    602.90083  0.016149706  0.015501373            4 
 3112000   0.76095376   -8.2521679    602.59986  0.016136457  0.015496132            5 
 3113000   0.76073626   -8.2477122    601.78805  0.016109542  0.015490892            2 
 3114000   0.75085447   -8.2342364    604.07196  0.016165488  0.015485683            3 
 3115000   0.77130547   -8.2702511    601.84834  0.016100812  0.015480466            2 
 3116000   0.76115102   -8.2151104    603.15006  0.016130457  0.015475243            1 
 3117000   0.73944001   -8.2442851    603.36632  0.016131064  0.015470023            2 
 3118000   0.74685117   -8.2791318    603.01196   0.01611642  0.015464793            1 
 3119000    0.7451539   -8.2232615     603.1871  0.016115932  0.015459575            1 
 3120000     0.740486   -8.2319245    604.38808  0.016142844  0.015454377            3 
 3121000    0.7532556   -8.2586882    601.73418   0.01606681  0.015449175            4 
 3122000   0.73557605   -8.2278162    602.14918  0.016072741  0.015443964            1 
 3123000   0.73816216   -8.2632534    603.16446  0.016094686  0.015438769            5 
 3124000   0.75139699   -8.2388525    602.52939  0.016072594   0.01543358            5 
 3125000   0.74557897   -8.2458441    603.05586  0.016081489  0.015428378            2 
 3126000   0.74204668   -8.2628168    604.12437   0.01610483  0.015423174            3 
 3127000   0.74657215   -8.2348554    603.76108  0.016089998  0.015417961            6 
 3128000   0.75319494   -8.2648319    603.05138  0.016065947  0.015412727            2 
 3129000   0.77235744   -8.2357369    602.35106  0.016042161  0.015407509            1 
 3130000   0.74707944    -8.225945    602.27442  0.016034995  0.015402298            3 
 3131000   0.75052555   -8.2605655    602.45564  0.016034697  0.015397071            3 
 3132000   0.74282456   -8.2416199    602.42392  0.016028733  0.015391855            5 
 3133000   0.74350711   -8.2604183     602.8671  0.016035405   0.01538664            1 
 3134000   0.75966446   -8.2546006    602.34426  0.016016386  0.015381444            1 
 3135000   0.75895076   -8.2252602    603.65046  0.016045998  0.015376251            2 
 3136000   0.73792992   -8.2498479    603.60241  0.016039605   0.01537107            3 
 3137000   0.72880723   -8.2584104    602.60806  0.016008077  0.015365879            2 
 3138000   0.75074358   -8.2615089    603.45793  0.016025545  0.015360688            2 
 3139000   0.75389708    -8.254777    604.35842  0.016044346  0.015355485            2 
 3140000   0.75877059   -8.2541881    604.03897  0.016030758  0.015350284            3 
 3141000   0.74073633   -8.2499429    602.30871  0.015979749  0.015345091            3 
 3142000   0.73248297   -8.2601919    603.83563  0.016015161   0.01533991            3 
 3143000   0.74372497   -8.2645971    602.74196  0.015981068  0.015334718            2 
 3144000   0.76443045   -8.2747857    602.57391  0.015971531  0.015329521            2 
 3145000   0.74402982   -8.2701675    604.47061  0.016016709  0.015324308            2 
 3146000   0.74438686   -8.2700392    602.92504  0.015970678   0.01531911            5 
 3147000   0.75032819   -8.2851513     601.9638  0.015940149  0.015313887            5 
 3148000   0.74471155   -8.2567181    603.51389  0.015976119  0.015308676            4 
 3149000   0.73296863   -8.2741547     603.0961   0.01595999  0.015303458            3 
 3150000   0.74051973   -8.2982027    601.69541  0.015917868  0.015298239            2 
 3151000   0.74735334    -8.267887    602.37015  0.015930661  0.015293024            2 
 3152000   0.75694898   -8.2747291    603.39908   0.01595281  0.015287815            2 
 3153000   0.74225251    -8.279567    602.22572  0.015916739  0.015282611            3 
 3154000   0.75103595   -8.2674704     603.3696  0.015941915  0.015277398            3 
 3155000   0.74719492   -8.2595368    602.58796  0.015916217  0.015272211            2 
 3156000   0.74634265   -8.2676995    603.28927  0.015929691  0.015267032            3 
 3157000   0.72863687   -8.2383851    603.29397   0.01592477  0.015261852            1 
 3158000   0.72796734   -8.2803955    604.88216  0.015961636  0.015256676            2 
 3159000    0.7439657   -8.2922312    602.16144  0.015884812  0.015251507            4 
 3160000   0.75639535   -8.2529942    603.05847  0.015903441  0.015246325            7 
 3161000    0.7480595   -8.2875635    603.46171   0.01590904  0.015241144            3 
 3162000   0.72484464   -8.2791335    603.48677  0.015904669  0.015235964            2 
 3163000   0.75378782    -8.239235    604.06982  0.015915002  0.015230795            2 
 3164000   0.74807634   -8.2708293    603.62546  0.015898269  0.015225623            2 
 3165000   0.74480029   -8.2627884    603.47801  0.015889363  0.015220437            2 
 3166000   0.74568234   -8.2590429     603.7519  0.015891554  0.015215293            2 
 3167000     0.756901   -8.2324904    605.10898  0.015922245  0.015210147            2 
 3168000   0.75691579   -8.2479344    603.98834   0.01588774  0.015204998            2 
 3169000   0.73729276   -8.2559199    603.53153  0.015870714  0.015199852            1 
 3170000   0.75902469   -8.2535796    603.46983  0.015864086  0.015194718            1 
 3171000   0.73242348   -8.2881613    603.07054   0.01584859  0.015189569            3 
 3172000   0.75366424   -8.2730013    602.61564  0.015831643  0.015184404            1 
 3173000   0.74267539   -8.2750316    603.08308  0.015838929  0.015179227            5 
 3174000   0.73609765   -8.2857897    604.21532  0.015863666  0.015174068            3 
 3175000   0.74501601   -8.2986159    603.61815  0.015842996    0.0151689            1 
 3176000   0.74184161   -8.3000646    603.38962  0.015832011   0.01516374            2 
 3177000   0.74141111   -8.2664946    602.38824  0.015800762  0.015158586            5 
 3178000   0.74992212   -8.2951327    603.33327   0.01582057  0.015153428            2 
 3179000   0.73662182   -8.2495509    605.22301  0.015865131  0.015148294            5 
 3180000   0.74839928   -8.2826998    604.02507  0.015828749  0.015143175            2 
 3181000   0.75644995   -8.2806961    603.54084  0.015811088  0.015138043            2 
 3182000   0.76043639   -8.2711909     603.9663  0.015817261  0.015132927            1 
 3183000   0.75315817   -8.2684285    603.17087  0.015791467  0.015127802            3 
 3184000   0.73941927   -8.2743679    602.46273  0.015767974  0.015122682            2 
 3185000   0.74665985   -8.2852838    603.77476  0.015797351  0.015117561            3 
 3186000   0.73036841   -8.2780218    604.42318  0.015809353  0.015112451            4 
 3187000   0.73980484   -8.2804833    604.33981  0.015802212  0.015107337            2 
 3188000    0.7512628   -8.2663474    604.05256  0.015789747  0.015102232            2 
 3189000   0.74931242    -8.266319     604.2689  0.015790449  0.015097134            3 
 3190000   0.73085398   -8.2712985    604.23273  0.015784554  0.015092034            3 
 3191000   0.75649708   -8.2561771    604.88945  0.015796758  0.015086948            1 
 3192000   0.74270891   -8.2658135    604.12343   0.01577181  0.015081845            1 
 3193000     0.730105   -8.2608495    604.51655  0.015777131  0.015076751            3 
 3194000   0.74871908     -8.25972    604.77103  0.015778831  0.015071659            2 
 3195000   0.72394829   -8.2818678    603.80529  0.015748703  0.015066558            4 
 3196000   0.72699388   -8.2853149    602.98393   0.01572236   0.01506145            4 
 3197000   0.72812817   -8.2435084    605.08333  0.015772165  0.015056366            1 
 3198000   0.73376098   -8.2453318    603.85028  0.015735102  0.015051304            1 
 3199000   0.73556589   -8.2762043    605.00101   0.01576016  0.015046235            2 
 3200000   0.71789388    -8.317346    604.39324  0.015739407  0.015041166            2 
 3201000   0.73793423   -8.2765777    604.26151  0.015731061  0.015036079            3 
 3202000   0.74803716   -8.3062243    604.35006  0.015728452  0.015030978            4 
 3203000    0.7425297   -8.3020836    603.60348  0.015704118  0.015025899            2 
 3204000   0.73784618   -8.2703964    604.12955  0.015712899  0.015020807            2 
 3205000   0.73754677   -8.2695641     604.8899  0.015727766  0.015015728            1 
 3206000   0.72667004   -8.2772412    605.59195  0.015741109  0.015010642            4 
 3207000   0.74117317   -8.3120637    604.33499  0.015703539  0.015005564            3 
 3208000   0.73027272   -8.2894954     603.7861  0.015684385  0.015000468            1 
 3209000   0.72425126   -8.2665574    603.70237  0.015677323  0.014995381            1 
 3210000   0.73811295   -8.2988941    605.39068  0.015716269    0.0149903            2 
 3211000   0.74650461   -8.3116266    604.16807  0.015679645  0.014985205            2 
 3212000   0.74989573   -8.3074148    605.02566  0.015697013   0.01498011            1 
 3213000   0.73510585   -8.2861111    604.23814  0.015671702   0.01497501            1 
 3214000   0.74497872   -8.3164875    604.00944  0.015660896  0.014969931            5 
 3215000   0.73658037   -8.3017582    604.95223  0.015680462  0.014964843            5 
 3216000   0.71928649   -8.2873453    606.19071  0.015707678  0.014959793            3 
 3217000   0.74094749   -8.2896423    604.57217  0.015660869  0.014954733           11 
 3218000   0.74360527   -8.3012601    605.50683  0.015680206  0.014949689            3 
 3219000   0.74180081   -8.2881236    604.86325  0.015658674  0.014944641            3 
 3220000   0.73573222   -8.3006631    605.26922  0.015664317  0.014939584            3 
 3221000   0.74985995   -8.2999951    605.02186  0.015653054   0.01493454            3 
 3222000   0.74068112   -8.2669772    605.05384  0.015649023  0.014929491            2 
 3223000   0.72242706   -8.2960945    605.72946  0.015661637  0.014924441            1 
 3224000   0.75988363   -8.3150719    604.75613   0.01563162  0.014919378            4 
 3225000   0.73579132   -8.3080762    604.94701  0.015631706  0.014914301            5 
 3226000   0.73271699   -8.2807141    605.15289  0.015632178  0.014909212            9 
 3227000   0.72559921   -8.2980989     604.4639  0.015609542  0.014904135            9 
 3228000   0.74079173   -8.3078773    605.52511  0.015632102  0.014899056            2 
 3229000   0.72772209   -8.3198533    603.95525  0.015586747   0.01489399            5 
 3230000   0.72079507   -8.2547713    606.18509   0.01563945  0.014888947            4 
 3231000   0.74819384   -8.2965979    605.42768  0.015615075  0.014883912            1 
 3232000    0.7239053   -8.2853588     605.6313  0.015615493  0.014878873            1 
 3233000   0.73899026   -8.3020361    604.88669  0.015591471   0.01487384            1 
 3234000   0.74011489   -8.3074151    605.42321  0.015600475  0.014868825            3 
 3235000   0.72255331    -8.325148    604.47373  0.015571193   0.01486378            3 
 3236000   0.71918167   -8.3052541    604.10433  0.015556869  0.014858732            4 
 3237000   0.73534283   -8.3156469    604.15627    0.0155534  0.014853676            1 
 3238000   0.72457887   -8.2998779    604.59365  0.015559853  0.014848633            2 
 3239000   0.73079158   -8.3079714    603.98133  0.015539295  0.014843607            2 
 3240000   0.73314372   -8.3168167     605.5262  0.015574233  0.014838572            1 
 3241000   0.73169324   -8.2717923    606.91105  0.015605036  0.014833533            2 
 3242000   0.73893535   -8.2930808    605.41192  0.015561688  0.014828509            5 
 3243000   0.74412571   -8.3012893    605.01667  0.015546733  0.014823479            3 
 3244000   0.72634846   -8.3107547    605.84255  0.015563156  0.014818468            2 
 3245000   0.72735577     -8.29113    604.72842  0.015529749  0.014813449            4 
 3246000   0.73608139   -8.3035726    604.89093  0.015529137  0.014808424            1 
 3247000   0.73908826    -8.318342    604.36041  0.015510738   0.01480339            2 
 3248000   0.73346085   -8.2974101    605.44454  0.015533778  0.014798359            1 
 3249000   0.72561806   -8.3240137    604.97109  0.015516854  0.014793341            3 
 3250000   0.74672296   -8.3221153    603.97154   0.01548645  0.014788292            1 
 3251000   0.74119968   -8.3208922    605.86201  0.015530145  0.014783264            3 
 3252000   0.75798151   -8.3271866     604.9774  0.015502701  0.014778246            3 
 3253000   0.74123119   -8.2926622    605.67549  0.015515818  0.014773235            2 
 3254000    0.7044294   -8.3288326    605.90857  0.015517019  0.014768229            2 
 3255000   0.74162011   -8.2954679    605.11925  0.015492044  0.014763212            2 
 3256000   0.73299365   -8.3043131    604.28962  0.015466053  0.014758202            2 
 3257000    0.7411327   -8.2905251    604.53922  0.015467691    0.0147532            1 
 3258000   0.74311421   -8.3073968    605.25438  0.015481235  0.014748174            2 
 3259000   0.72749111   -8.3148438    605.43533  0.015481112  0.014743157            2 
 3260000   0.72968183   -8.2916375    604.96517  0.015464345  0.014738162            3 
 3261000   0.74340048    -8.288831    605.16153   0.01546462  0.014733159            3 
 3262000   0.74222175   -8.2935494    605.42368  0.015466577  0.014728168            4 
 3263000    0.7135732   -8.2716837     606.8559  0.015498414  0.014723189            3 
 3264000   0.73397697   -8.3214316    604.69983  0.015438619  0.014718195            3 
 3265000   0.74641313   -8.3175258    604.07446  0.015417929   0.01471319            1 
 3266000   0.73655286   -8.3272433    604.44598  0.015422688  0.014708175            1 
 3267000   0.71769485   -8.3254086    604.85988  0.015428525  0.014703174            1 
 3268000   0.71982802   -8.3052985     603.7084  0.015394441  0.014698185            2 
 3269000   0.72003904   -8.3116772    605.67128   0.01543977   0.01469319            3 
 3270000   0.73740141   -8.2980285    604.71167  0.015410593  0.014688188            3 
 3271000   0.72606862   -8.3435836     604.1038  0.015390395  0.014683182            2 
 3272000   0.71838616   -8.3089201    604.13713  0.015386541   0.01467818            2 
 3273000   0.73170011   -8.3087874    604.08053  0.015380399  0.014673186            1 
 3274000   0.74127052   -8.3200616    604.62407  0.015389535  0.014668198            2 
 3275000   0.73750512   -8.3270161     604.8677  0.015391036  0.014663194            5 
 3276000   0.70729656   -8.3314483    605.61214  0.015405274  0.014658191            3 
 3277000   0.73347879   -8.3495114    605.60603  0.015400418  0.014653196            3 
 3278000   0.71794817   -8.3296407    604.46707  0.015366765  0.014648206            5 
 3279000   0.72811135   -8.3019539    604.94433  0.015374208  0.014643217            3 
 3280000   0.73253847    -8.314775    607.52805  0.015435164   0.01463824            1 
 3281000   0.73367072   -8.3051824    605.82958  0.015387321  0.014633263            2 
 3282000   0.74062698   -8.3141706    604.82841  0.015357211  0.014628295            1 
 3283000   0.72954088   -8.3347734    605.40581   0.01536719  0.014623319            3 
 3284000   0.70569145   -8.2778155    605.90316  0.015375131  0.014618356            4 
 3285000   0.72817615   -8.3324811    605.60103  0.015362786  0.014613405            7 
 3286000   0.72349111   -8.3263474     605.3399  0.015351489  0.014608439            4 
 3287000   0.73406117   -8.3444778     605.5379  0.015351838  0.014603475            3 
 3288000   0.71374836   -8.3222302    605.37004  0.015342915  0.014598521            1 
 3289000   0.72965602   -8.3249554    605.09408  0.015331258  0.014593572            4 
 3290000   0.72979348   -8.3437782    604.76167  0.015318178  0.014588606            4 
 3291000   0.72109427   -8.3179508    605.89042  0.015342105  0.014583647            1 
 3292000   0.74166927    -8.313337    606.35042  0.015349089  0.014578701            2 
 3293000   0.72949206   -8.3221424    606.24959  0.015341877  0.014573762            2 
 3294000   0.73105219   -8.3188369    606.60707  0.015346263  0.014568819            1 
 3295000   0.73408206   -8.3191859    605.16797  0.015305209  0.014563893            3 
 3296000    0.7148304   -8.3154674    606.30284  0.015329259  0.014558954            3 
 3297000   0.73723974   -8.3147329    605.66119  0.015308391   0.01455403            1 
 3298000   0.72306651   -8.3102232     607.6038  0.015352835  0.014549108            2 
 3299000   0.71012616   -8.3153848    606.09688  0.015310116  0.014544175            6 
 3300000   0.73566293   -8.3068285    606.56416  0.015317277  0.014539247            3 
 3301000   0.73197426    -8.335754    605.45006  0.015284511  0.014534326            4 
 3302000   0.72134061   -8.3227369    604.51805  0.015256361  0.014529393            1 
 3303000   0.72172695   -8.2932718    606.16988  0.015293417  0.014524463            3 
 3304000   0.72696767   -8.2947944    605.33369  0.015267698  0.014519548            3 
 3305000   0.71912421   -8.3067882     607.1535  0.015308964  0.014514629            1 
 3306000   0.72129973   -8.3151474    606.08126  0.015277305  0.014509734            2 
 3307000   0.70956429   -8.3404278    605.66357   0.01526216  0.014504801            3 
 3308000   0.71294825   -8.3224782    606.69101  0.015283429  0.014499885            3 
 3309000   0.72078429   -8.3217158    605.07143  0.015238023  0.014494973            3 
 3310000   0.71458556   -8.3131904    607.28991  0.015289273  0.014490062            2 
 3311000   0.71694681   -8.3170678    606.55795  0.015266233   0.01448514            3 
 3312000   0.71430281   -8.3204728    606.75286  0.015266527  0.014480219            1 
 3313000   0.71455044   -8.3176289    605.68735  0.015235118  0.014475315            1 
 3314000   0.74317031   -8.3010061     605.7966  0.015233268  0.014470416            3 
 3315000   0.71531289   -8.3171289    607.09362  0.015261277  0.014465531            4 
 3316000   0.71273908   -8.3391754    605.63827  0.015220101   0.01446062            2 
 3317000   0.71615846   -8.3216435    606.53948  0.015238154  0.014455703            1 
 3318000   0.71019448     -8.31411    605.33039  0.015203194  0.014450776            2 
 3319000   0.71806937   -8.3266471    605.85091  0.015211683  0.014445867            2 
 3320000   0.72504142   -8.3524307    604.64572   0.01517685  0.014440931            1 
 3321000   0.72718358   -8.3299069    605.59173  0.015196019  0.014436018            2 
 3322000   0.71891101   -8.3358452    606.17888  0.015206173  0.014431093            2 
 3323000   0.72647655   -8.3399499    606.18639  0.015201785  0.014426168            5 
 3324000   0.71769379   -8.3536674    605.47019  0.015179257  0.014421228            2 
 3325000   0.72267724   -8.3320859    606.19765  0.015192924  0.014416297            2 
 3326000   0.72232961   -8.3485868     606.3182  0.015191376  0.014411368            3 
 3327000   0.71698463   -8.3396326    606.11916  0.015181825  0.014406439            2 
 3328000   0.70728259    -8.347265    606.01994  0.015174778  0.014401513            6 
 3329000    0.7267906   -8.3319486    605.90874  0.015167436  0.014396602            3 
 3330000   0.71738838   -8.3647424    604.18703  0.015119796  0.014391695            2 
 3331000   0.71578407   -8.3307378    606.40781  0.015170815   0.01438679            3 
 3332000   0.71907755    -8.332541     605.5116  0.015143848  0.014381887            2 
 3333000   0.70443091   -8.3600112    605.98104  0.015151041  0.014376979            3 
 3334000   0.71366196   -8.3454962    606.20257  0.015152034  0.014372071            2 
 3335000     0.723595   -8.3638227    606.42783  0.015153119  0.014367166            1 
 3336000   0.71806558   -8.3265545    607.64514  0.015178985  0.014362263            2 
 3337000   0.71868474   -8.3687006    606.67461    0.0151502  0.014357364            4 
 3338000   0.71339499   -8.3440253    606.96862  0.015153001   0.01435247            2 
 3339000   0.71197335   -8.3531102    606.35127  0.015133056  0.014347582            1 
 3340000   0.70711464   -8.3492447    606.57055  0.015133996  0.014342691            1 
 3341000   0.72041547   -8.3747476    606.02644  0.015115894  0.014337793            2 
 3342000   0.72049641    -8.368391    605.43698  0.015096673  0.014332906            1 
 3343000   0.70990653   -8.3458302    606.73163   0.01512443  0.014328027            3 
 3344000    0.7094818   -8.3635288    606.19763    0.0151066  0.014323148            4 
 3345000   0.70068072   -8.3729286    605.97199  0.015096462  0.014318265            2 
 3346000   0.71155116   -8.3700046    605.27411  0.015074569  0.014313383            3 
 3347000   0.72370605   -8.3424225    604.84218  0.015059311  0.014308504            2 
 3348000   0.70648258   -8.3616274    606.13276  0.015086937  0.014303631            1 
 3349000   0.71639741   -8.3700318    606.87446  0.015100887  0.014298763            3 
 3350000    0.7233508   -8.3839262    606.44621  0.015085727    0.0142939            2 
 3351000   0.73498597   -8.3346138    605.98425  0.015069737  0.014289035            1 
 3352000   0.71746319   -8.3543147    605.88965  0.015062889  0.014284172            2 
 3353000   0.72287979   -8.3498072    606.66081  0.015077563  0.014279306            3 
 3354000   0.72257769   -8.3500733    606.29457  0.015063968  0.014274434            1 
 3355000   0.70706421   -8.3537891    606.50427  0.015064686  0.014269568            4 
 3356000   0.71199284   -8.3594007     605.9264  0.015045848  0.014264706            2 
 3357000   0.70966784   -8.3547858    606.54317  0.015056677  0.014259843            2 
 3358000   0.68967991   -8.3723736    605.99025  0.015038471  0.014254993            2 
 3359000   0.70776387   -8.3781024    604.54201  0.014998065   0.01425013            5 
 3360000   0.70770159   -8.3505421     605.4066  0.015015045  0.014245267            1 
 3361000   0.71064093   -8.3478444    606.23278  0.015031062  0.014240418            1 
 3362000   0.70152688   -8.3429795    606.54071  0.015034224  0.014235575            1 
 3363000   0.71632495   -8.3320467     606.8973  0.015038589  0.014230744            2 
 3364000   0.70232522   -8.3352081    606.55212  0.015025568  0.014225914            1 
 3365000   0.71253808   -8.3608913    606.95557  0.015031094  0.014221078            1 
 3366000   0.71114899   -8.3502312    606.67412   0.01501966  0.014216249            2 
 3367000     0.709339    -8.328115    607.96232  0.015047082   0.01421142            2 
 3368000    0.7039588   -8.3712103    606.92924  0.015017054  0.014206588            1 
 3369000   0.71744545   -8.3599173    607.02657  0.015015004  0.014201749            2 
 3370000   0.72423992   -8.3528737    607.17663  0.015014259  0.014196933            2 
 3371000   0.69465738   -8.3599406    606.97858  0.015004909  0.014192106            2 
 3372000   0.73023343    -8.359927    605.08243  0.014953599  0.014187274            2 
 3373000   0.70050106   -8.3542366    606.29635  0.014979157  0.014182445            3 
 3374000   0.71549162   -8.3489396    607.23118  0.014997806  0.014177609            2 
 3375000   0.72032431   -8.3684493    606.55055  0.014976557  0.014172777            3 
 3376000   0.72170656   -8.3554819     606.2224   0.01496402  0.014167948            2 
 3377000   0.71103265   -8.3718638    607.58487  0.014993211  0.014163108            5 
 3378000    0.7057448   -8.3757486    604.93348  0.014923364  0.014158261            3 
 3379000    0.7151544   -8.3594488    606.96583   0.01496907  0.014153426            5 
 3380000    0.7132806     -8.38073    606.01017  0.014941079  0.014148586            2 
 3381000   0.68558189   -8.3677273     606.1501  0.014940109   0.01414375            2 
 3382000   0.70659529   -8.3822972    606.04376  0.014933071  0.014138931            4 
 3383000   0.70457399   -8.3741127    605.36386  0.014911909   0.01413411            1 
 3384000   0.72700288   -8.3689838    606.11337   0.01492596  0.014129295            2 
 3385000   0.69970146   -8.3740191    606.75474   0.01493734  0.014124472            4 
 3386000   0.70825084   -8.3564491    606.22278  0.014919836  0.014119671            3 
 3387000   0.69243945   -8.3638521    605.96131  0.014908998  0.014114865            3 
 3388000   0.70509704    -8.360311    605.93273  0.014903894  0.014110046            1 
 3389000   0.72202209   -8.3645767    607.65888  0.014941942  0.014105252            3 
 3390000   0.70934812   -8.3646052    607.39109  0.014930951  0.014100444            2 
 3391000   0.70964144   -8.3459604    606.31847  0.014900189  0.014095636            2 
 3392000   0.70946089   -8.3656773    607.12037  0.014915496  0.014090833            2 
 3393000   0.70689536   -8.3768416    606.38125  0.014892947  0.014086031            3 
 3394000   0.69572903    -8.373492     606.2221  0.014884652  0.014081217            2 
 3395000   0.70584264   -8.3569299    605.78314  0.014869493  0.014076398            1 
 3396000   0.70840061   -8.3922991    606.72193  0.014888151  0.014071579            1 
 3397000   0.70612343   -8.3559304    605.71057  0.014858958  0.014066783            2 
 3398000   0.72020537   -8.4014645    606.37505  0.014870881   0.01406197            1 
 3399000   0.70600982   -8.3856743    605.31424  0.014840498  0.014057157            1 
 3400000   0.70273727   -8.3958493    606.82763  0.014873226   0.01405234            2 
 3401000   0.68623764   -8.4117597    606.57772   0.01486273  0.014047523            2 
 3402000   0.70991463   -8.3761781    608.05064  0.014894441   0.01404271            2 
 3403000   0.71619106   -8.3842395    606.31559  0.014847575   0.01403791            2 
 3404000   0.70938408   -8.4092864    605.88375  0.014832642  0.014033099            1 
 3405000   0.70242456   -8.3922624    606.34446  0.014839561  0.014028293            6 
 3406000   0.71325362   -8.3716754    606.09099  0.014829002  0.014023485            2 
 3407000   0.70386612   -8.4007794    605.67619  0.014814504  0.014018677            2 
 3408000   0.72505609   -8.3887358    607.33439  0.014850704  0.014013858            1 
 3409000   0.71523754   -8.3784571    605.35816  0.014798038  0.014009041            3 
 3410000   0.71034711   -8.3863911    605.95132  0.014808195  0.014004215            2 
 3411000   0.68124432   -8.3890535    605.21967  0.014785978  0.013999391            2 
 3412000   0.67961907   -8.3965584    605.43018  0.014786786  0.013994577            1 
 3413000   0.68495453   -8.4135945    605.62324  0.014787168  0.013989748            1 
 3414000   0.69833706   -8.4068341    606.51544  0.014804614  0.013984921            2 
 3415000   0.70028172    -8.401175    605.99584    0.0147876  0.013980115            3 
 3416000   0.69984103   -8.3915499    606.10237   0.01478587  0.013975312            2 
 3417000   0.69436666   -8.3865269    605.89209  0.014776414  0.013970514            1 
 3418000   0.70481542   -8.3877577    606.24889   0.01478079  0.013965705            4 
 3419000   0.70641783    -8.373532    606.16939  0.014774529  0.013960913            2 
 3420000   0.70073945   -8.4089348    605.86737   0.01476285  0.013956109            2 
 3421000   0.70209331   -8.3759526    606.99606  0.014786029  0.013951323            2 
 3422000   0.68992912   -8.3815766    605.13702  0.014736436  0.013946549            1 
 3423000   0.70744886    -8.392629    607.06911  0.014779168  0.013941766            3 
 3424000    0.7088996   -8.4170579    606.27954  0.014755635  0.013936984            6 
 3425000   0.70510356   -8.4050274     607.6056  0.014783591    0.0139322            2 
 3426000   0.71014541   -8.3810467    606.90395  0.014762209  0.013927413            2 
 3427000   0.69824722   -8.3951131    606.87704  0.014757247  0.013922647            1 
 3428000   0.69839805   -8.4019501    606.54403  0.014744847  0.013917888            3 
 3429000    0.7186802    -8.377942    607.42947  0.014762065  0.013913126            5 
 3430000   0.69135684   -8.3855059    606.63252  0.014738399   0.01390837            3 
 3431000   0.69724771   -8.4001391    605.81748  0.014714308  0.013903612            3 
 3432000    0.7037144   -8.3981264    606.84897  0.014735066   0.01389884            1 
 3433000   0.70139606   -8.3896942    606.42723  0.014720537  0.013894082            1 
 3434000   0.71251533   -8.3950056     606.7406  0.014723855   0.01388932            1 
 3435000   0.69967055   -8.3892148     605.9801  0.014701118  0.013884557            2 
 3436000   0.71735152    -8.389275    607.29772  0.014728796  0.013879794            4 
 3437000   0.67993964    -8.377334    606.97279  0.014716632  0.013875036           10 
 3438000    0.6936672   -8.3869493    606.92143  0.014711107  0.013870289            2 
 3439000   0.69801842   -8.3812895    607.43822  0.014719352  0.013865541            4 
 3440000   0.70244007   -8.3659765    606.38491  0.014689557  0.013860791            2 
 3441000   0.69637568   -8.3860182    607.21388  0.014705364  0.013856061            2 
 3442000   0.68301765    -8.371076    606.42757  0.014682054  0.013851339            1 
 3443000   0.71935471    -8.388288    606.61256  0.014682267  0.013846613            1 
 3444000   0.71925681   -8.3944634    606.29948  0.014670429  0.013841889            3 
 3445000   0.70904209   -8.3958991    605.94685   0.01465764  0.013837158            4 
 3446000    0.7013164   -8.4116728    605.24236   0.01463635  0.013832409            2 
 3447000   0.70191641   -8.3761897    608.09799  0.014701141   0.01382768            1 
 3448000   0.68850634   -8.4020454    605.70603  0.014639067   0.01382296            1 
 3449000   0.68723827   -8.3988218    605.43527  0.014628281  0.013818235            3 
 3450000   0.69158432   -8.3925465    607.43048  0.014672234   0.01381352            2 
 3451000   0.71929941   -8.3837136    609.22999  0.014711436  0.013808814            2 
 3452000   0.68811615    -8.375904    607.06458    0.0146549   0.01380411            2 
 3453000   0.69903564   -8.3877321     607.1916  0.014653721    0.0137994            3 
 3454000   0.68899055   -8.3804071     606.7868  0.014639712  0.013794699            2 
 3455000   0.70834933   -8.3956164    607.33963  0.014648809  0.013789996            4 
 3456000   0.70378149   -8.3710905    608.58066  0.014674495  0.013785304            2 
 3457000   0.68994647   -8.3792134    607.83293  0.014652226  0.013780609            3 
 3458000   0.69953689    -8.408569    608.73434  0.014669711   0.01377592            2 
 3459000   0.71570127   -8.3984903     608.6983  0.014664602  0.013771233            2 
 3460000   0.69520906   -8.4103214    607.79446  0.014638595  0.013766544            4 
 3461000   0.69350148   -8.3832468    607.96116  0.014638379  0.013761862            2 
 3462000   0.70068488   -8.3812526    608.11143  0.014637768  0.013757172            2 
 3463000   0.68951837   -8.3816864    607.23017  0.014612334  0.013752493            1 
 3464000   0.69667983   -8.3887363     608.3108  0.014634113  0.013747812            2 
 3465000   0.69208396   -8.3755987    608.75969  0.014640685  0.013743144            2 
 3466000    0.6976372   -8.3762912    608.30618  0.014625557  0.013738477            3 
 3467000   0.69884181   -8.3842847    607.63978  0.014605321  0.013733809            5 
 3468000   0.69623683   -8.3572096    607.56938  0.014599418  0.013729141            2 
 3469000   0.67810527   -8.3904347    608.02778  0.014606221  0.013724472            2 
 3470000   0.68505713   -8.3820298    608.05661  0.014602704  0.013719798            1 
 3471000    0.6929426   -8.3815204    607.80881  0.014592548  0.013715134            2 
 3472000   0.70730153   -8.4123967    607.16086  0.014572793  0.013710458            4 
 3473000    0.7010309   -8.4137721    606.82151  0.014560455  0.013705774            3 
 3474000    0.6764014   -8.4090355    607.67601  0.014576761  0.013701111            4 
 3475000   0.68637157   -8.4035462    607.94503  0.014579017  0.013696456            2 
 3476000   0.70185187    -8.394034    607.51986   0.01456463  0.013691803            1 
 3477000   0.70395115   -8.3961429    607.59689  0.014562288  0.013687151            2 
 3478000   0.69582068   -8.3904664    608.30815  0.014575143  0.013682493            3 
 3479000   0.69253572   -8.3894464    607.28756  0.014546507  0.013677839            2 
 3480000   0.69149368   -8.3961671    608.68681  0.014575833  0.013673196            2 
 3481000   0.69013685   -8.4064714    607.59779  0.014545576  0.013668568            3 
 3482000    0.6941141   -8.4254957    607.75772  0.014545226  0.013663926            2 
 3483000   0.70359797   -8.3970351    606.76373  0.014517268  0.013659279            1 
 3484000   0.69316228   -8.4208967    606.88248  0.014515942  0.013654639            1 
 3485000   0.70384962   -8.3992308    607.58586  0.014528595  0.013650008            2 
 3486000   0.70647805   -8.3955069    608.25903   0.01454052  0.013645381            3 
 3487000   0.69480288   -8.3966256    607.69492  0.014522869  0.013640747            2 
 3488000   0.67967764   -8.3904486    608.67135  0.014542033   0.01363613            1 
 3489000   0.70334925   -8.3976367    608.47564  0.014533191  0.013631513            2 
 3490000   0.69502305    -8.391204    607.73657  0.014511379  0.013626907            2 
 3491000   0.68522724   -8.4328149     607.2611  0.014495873  0.013622284            3 
 3492000   0.69179705   -8.4321409    607.82307  0.014505132  0.013617661            1 
 3493000   0.69503053   -8.4211167    608.60393  0.014519609  0.013613043            2 
 3494000    0.6959888   -8.4076268    609.30262  0.014532117   0.01360843            3 
 3495000   0.71129859   -8.3938383    608.06883  0.014498541  0.013603822            3 
 3496000   0.71075181   -8.4112606    607.77733  0.014487446  0.013599233            1 
 3497000     0.700458   -8.4173581    607.40962   0.01447454  0.013594631            2 
 3498000   0.68203033   -8.4291464    608.53795  0.014497283   0.01359003            2 
 3499000   0.68252975   -8.4229136    608.22212  0.014485618  0.013585414            3 
 3500000   0.70130167   -8.3932828    609.51481  0.014512257  0.013580801            1 
 3501000   0.69017907   -8.4340825    608.27928  0.014478703  0.013576196            1 
 3502000   0.69538014   -8.3994033    609.16812   0.01449572  0.013571591            2 
 3503000   0.69469335   -8.3990889    608.58777  0.014477776  0.013567002            2 
 3504000   0.67927957   -8.4116436    607.99011   0.01445943  0.013562403            2 
 3505000   0.68529406   -8.4119599    608.28325  0.014462274  0.013557801            1 
 3506000   0.69409002   -8.4311735    607.73778  0.014445184  0.013553189            2 
 3507000   0.68568379   -8.4175555    607.55649  0.014436757   0.01354859            3 
 3508000   0.67998593   -8.4513036    608.23958  0.014448869  0.013543985            2 
 3509000    0.6835857   -8.4077349    607.29228  0.014422254   0.01353937            3 
 3510000   0.68228096   -8.4323106    607.95453  0.014433868  0.013534751            2 
 3511000   0.69653084   -8.4396993    607.40112  0.014416622  0.013530134            3 
 3512000   0.70133267   -8.4219333    607.47755  0.014414331  0.013525524            2 
 3513000   0.69848752   -8.4449691    607.81165  0.014418153  0.013520914            2 
 3514000   0.68163999   -8.4510584    607.79664  0.014413694  0.013516296            2 
 3515000     0.699605   -8.4212523    606.95541  0.014389649  0.013511687            1 
 3516000   0.68727385   -8.4055899    607.60819  0.014401028  0.013507076            1 
 3517000   0.69500377    -8.416357    607.94657  0.014404951  0.013502474            2 
 3518000   0.68129057   -8.4537089    606.93696  0.014376941  0.013497862            3 
 3519000   0.68606725   -8.4255361    607.77815  0.014392776  0.013493249            1 
 3520000   0.67670602   -8.4520601     607.4758  0.014381529  0.013488636            3 
 3521000   0.67651226    -8.456596    608.42421  0.014399891  0.013484028            2 
 3522000   0.69178925   -8.4363963    606.81257   0.01435767  0.013479426            1 
 3523000   0.67461366   -8.4303533    607.42068  0.014367979  0.013474815            2 
 3524000    0.6806612   -8.4022024    608.26319  0.014383825  0.013470223            1 
 3525000   0.69548209   -8.4017514    606.99011  0.014349648  0.013465625            2 
 3526000   0.69440032   -8.4341063    608.12869  0.014372488  0.013461037            3 
 3527000   0.68810249   -8.4093099    609.00139  0.014389032  0.013456437            3 
 3528000   0.68363495   -8.4339507     606.5147  0.014326216  0.013451841            2 
 3529000    0.7045985   -8.4330218    607.99573   0.01435713  0.013447246            2 
 3530000   0.68951781   -8.4310463     607.5057  0.014341494  0.013442648            2 
 3531000   0.69031275   -8.4350677    607.72109  0.014342516  0.013438043            1 
 3532000   0.69444603   -8.4235822    607.85915  0.014341713  0.013433449            2 
 3533000   0.67937097   -8.4378373    608.28012  0.014347583  0.013428863            1 
 3534000   0.69250625   -8.4328226    607.75559  0.014331154  0.013424273            1 
 3535000   0.67256507   -8.4387201    606.54683  0.014298605  0.013419703            4 
 3536000   0.69688048   -8.4554426    606.24508   0.01428745   0.01341512            2 
 3537000   0.66222244   -8.4395322    607.99456  0.014324629  0.013410546            2 
 3538000   0.69663686   -8.4311837    608.78075  0.014339098  0.013405974            3 
 3539000   0.68221013   -8.4477437    606.54784  0.014282468  0.013401396            1 
 3540000   0.69642018   -8.4277426    607.45283  0.014299737   0.01339682            3 
 3541000   0.68745893   -8.4407414    607.34068  0.014293059  0.013392256            2 
 3542000   0.69584568    -8.420451    608.56411  0.014317808  0.013387703            2 
 3543000   0.68196664   -8.4157612    607.89037   0.01429792  0.013383136            2 
 3544000   0.69996177    -8.436452    608.75437  0.014314202  0.013378566            2 
 3545000   0.69459661   -8.4320925    608.00557  0.014292562  0.013373999            2 
 3546000   0.68162866   -8.4313271    608.26669  0.014294668  0.013369435            2 
 3547000   0.69659608   -8.4305617    608.59276  0.014298298  0.013364864            2 
 3548000    0.6990513   -8.4548243    606.99845  0.014256822  0.013360288            1 
 3549000   0.69785791   -8.4448118    606.21119  0.014234319  0.013355709            4 
 3550000   0.66693092   -8.4419775    607.20572  0.014253655  0.013351129            2 
 3551000   0.68691201   -8.4477056    607.44863  0.014255342   0.01334654            4 
 3552000   0.67844653   -8.4218317    607.62049  0.014255361  0.013341961            1 
 3553000   0.69562025   -8.4400632    606.35306  0.014221622  0.013337391            3 
 3554000   0.68208006   -8.4414597     606.9432  0.014231457  0.013332816            2 
 3555000   0.68458284   -8.4584612    607.08471  0.014230771  0.013328234            2 
 3556000   0.68772352   -8.4523789    606.89176  0.014222248  0.013323664            1 
 3557000   0.69191108   -8.4355286    607.45101  0.014231352  0.013319093            1 
 3558000    0.6887627   -8.4539871    608.03096  0.014240935  0.013314524            1 
 3559000    0.7029544   -8.4781194    607.65359  0.014228098  0.013309958            2 
 3560000   0.68667301   -8.4473815    607.99143  0.014232009  0.013305396            5 
 3561000   0.68499037   -8.4267744    608.20198   0.01423294  0.013300848            2 
 3562000   0.67733897   -8.4717697    606.57545  0.014190891  0.013296292            3 
 3563000    0.6777973   -8.4647598    606.50956  0.014185367  0.013291727            3 
 3564000   0.67917426   -8.4364756    607.38478  0.014201851  0.013287173            2 
 3565000   0.68293855   -8.4332373    607.92429  0.014210479  0.013282612            2 
 3566000   0.68649446   -8.4440545     606.9913  0.014184691  0.013278054            1 
 3567000   0.67824998   -8.4232416    607.43568  0.014191096  0.013273504            6 
 3568000    0.6749231   -8.4671313     606.8839  0.014174232  0.013268961            3 
 3569000   0.68119666   -8.4495085    605.94117  0.014148248   0.01326441            2 
 3570000   0.69420494   -8.4377106    607.55617  0.014181983  0.013259855            2 
 3571000   0.67669884   -8.4561176    607.80552  0.014183831   0.01325531            3 
 3572000   0.66466571   -8.4638778     607.7113  0.014177662  0.013250773            5 
 3573000   0.67993986   -8.4536738    607.44454  0.014167472   0.01324622            2 
 3574000   0.68084709   -8.4332976    607.16305  0.014156945  0.013241658            1 
 3575000   0.69267459   -8.4554503    607.07107  0.014150841  0.013237104            8 
 3576000   0.68299079   -8.4679282    607.70113  0.014161566  0.013232558            3 
 3577000   0.67473306   -8.4402398    606.51957   0.01413008  0.013228008            1 
 3578000   0.67098148   -8.4393987    607.69523  0.014153513  0.013223466            3 
 3579000   0.67902285   -8.4669285    607.52614  0.014145621  0.013218934            1 
 3580000   0.67944687   -8.4681924    607.82482  0.014148622  0.013214398            1 
 3581000    0.6806007   -8.4284184    608.45269  0.014159283  0.013209864            6 
 3582000   0.67583588   -8.4549057    608.53413  0.014157224  0.013205326            2 
 3583000   0.68492462   -8.4686619    607.23333  0.014123019  0.013200789            2 
 3584000   0.69197345   -8.4427205    607.12459   0.01411655  0.013196246            1 
 3585000   0.68099726   -8.4622196    607.39247  0.014118839  0.013191708            1 
 3586000    0.6674661   -8.4573287    605.53083   0.01407164  0.013187178            2 
 3587000   0.67012169   -8.4361537    607.47233  0.014112822  0.013182656            3 
 3588000     0.696346   -8.4553219    606.68134  0.014090518  0.013178133            2 
 3589000   0.67935639   -8.4518592    606.88689  0.014091365  0.013173606            1 
 3590000   0.68241417   -8.4383694    606.54245  0.014079444  0.013169075            2 
 3591000   0.68010785   -8.4720955    606.21179   0.01406785  0.013164544            1 
 3592000   0.67379356   -8.4872657    607.27325  0.014088559  0.013160017            2 
 3593000   0.66719505   -8.4697614    606.36025  0.014063462  0.013155496            2 
 3594000   0.67421277   -8.4680397    606.96849  0.014073653  0.013150964            2 
 3595000   0.66860963   -8.4402101    607.46395  0.014081223  0.013146436            1 
 3596000   0.69083936   -8.4749208    607.53687  0.014078997  0.013141904            2 
 3597000    0.6833084   -8.4579948     606.7688  0.014057288  0.013137374            2 
 3598000    0.6884156   -8.4642776    606.73081  0.014052502  0.013132851            1 
 3599000   0.68721433    -8.459805    606.65864  0.014046926  0.013128323            3 
 3600000    0.6982497   -8.4679596    606.03722  0.014028639  0.013123791            3 
 3601000   0.65786161    -8.464942    607.11036  0.014049578  0.013119266            2 
 3602000   0.65493174   -8.4620508    606.32108  0.014027417  0.013114743            4 
 3603000   0.67301149   -8.4740154    606.83038  0.014035303  0.013110225            2 
 3604000   0.67811292   -8.4943292    606.08736  0.014014229  0.013105706            2 
 3605000   0.68241342   -8.4677158    607.51135  0.014043258  0.013101197            2 
 3606000   0.67914895   -8.4795364    608.04179  0.014051622  0.013096689            2 
 3607000   0.66317111       -8.469    607.34725   0.01403168  0.013092172            2 
 3608000   0.67507766   -8.4589597    607.41206  0.014029288  0.013087674            3 
 3609000   0.66956089   -8.4802234    606.54892  0.014005471  0.013083175            1 
 3610000   0.67037648   -8.4739022     607.4531  0.014022463  0.013078683            1 
 3611000   0.69095533   -8.4873501    607.90221  0.014028944  0.013074201            2 
 3612000   0.67786371   -8.4852486    606.08131   0.01398305  0.013069715            2 
 3613000   0.67888231   -8.4360102     607.7285  0.014017172  0.013065222       -1e+20 
 3614000   0.68248904   -8.4662455    608.90685  0.014040464  0.013060738            1 
 3615000    0.6678272    -8.453659    607.06927   0.01399422  0.013056258            4 
 3616000    0.6733424   -8.4692973    607.47793  0.013999768  0.013051763            1 
 3617000   0.67227825   -8.4800358     607.1885  0.013989229  0.013047285            3 
 3618000    0.6754578    -8.484237    606.64103  0.013972753  0.013042795            3 
 3619000   0.65723647   -8.4720744    606.64138    0.0139689  0.013038296            1 
 3620000   0.66899466   -8.4551644    607.04407  0.013974311    0.0130338            4 
 3621000   0.66984126   -8.4756186    607.44404  0.013979657  0.013029313            2 
 3622000   0.66820839   -8.4709563    606.41684  0.013952164  0.013024818            1 
 3623000   0.68644143   -8.4510282     607.7817  0.013979706  0.013020337            2 
 3624000   0.67390875   -8.4793637    606.53321   0.01394714  0.013015849            3 
 3625000   0.67820926   -8.4829743    605.96929  0.013930329   0.01301136            1 
 3626000   0.67265541    -8.461665    605.97845  0.013926697  0.013006871            4 
 3627000   0.69059861   -8.4588753     606.3755   0.01393198  0.013002392            1 
 3628000   0.67001422   -8.4580761    607.68122  0.013958132  0.012997908            4 
 3629000    0.6663733   -8.4649993    607.54435  0.013951143  0.012993424            2 
 3630000   0.67130594   -8.4881454    606.30338   0.01391881  0.012988944            2 
 3631000   0.66913779   -8.4838326    606.38604  0.013916874  0.012984458            4 
 3632000   0.66765718   -8.4958363    606.00415   0.01390428  0.012979977            1 
 3633000   0.67375906   -8.4809017     606.6551  0.013915384    0.0129755            2 
 3634000   0.68120681   -8.5070394    606.84263  0.013915856  0.012971027            2 
 3635000   0.67409436   -8.4699965    608.11607  0.013941221  0.012966547            1 
 3636000   0.68299275   -8.4852953    607.24456  0.013917413  0.012962067            1 
 3637000   0.67747645   -8.4752359    606.40842  0.013894428  0.012957591            2 
 3638000   0.66079774   -8.5032815    606.41518  0.013890764  0.012953115            1 
 3639000   0.66510352   -8.4667228    605.94313  0.013876137  0.012948627            3 
 3640000   0.65878819   -8.5139705    605.29501  0.013857486  0.012944144            2 
 3641000   0.67551062   -8.4763805    606.53661  0.013882098  0.012939664            2 
 3642000   0.67653959   -8.5029858     606.4334  0.013875924  0.012935184            3 
 3643000   0.68105301   -8.4708296    608.20737  0.013912695  0.012930703            2 
 3644000   0.66746984   -8.4920511    606.34732   0.01386634  0.012926224            3 
 3645000   0.67881854    -8.486823    606.46212  0.013865161  0.012921748            4 
 3646000   0.65485883   -8.4875495    607.00122  0.013873679  0.012917271            3 
 3647000   0.66225511   -8.4988557    607.29877  0.013876674  0.012912792            1 
 3648000   0.65570929   -8.4859941    606.70208   0.01385924  0.012908314            2 
 3649000   0.65742612    -8.502832     606.2841  0.013845896  0.012903843            1 
 3650000   0.65531428   -8.4963832    605.63481  0.013827279  0.012899361            2 
 3651000   0.65165443   -8.4746274    607.61683  0.013868731  0.012894887            3 
 3652000     0.671498   -8.4824965    606.37844  0.013836675  0.012890424            5 
 3653000   0.66732977   -8.4981663    607.09795  0.013849301  0.012885964            2 
 3654000   0.67415609   -8.4965877    606.74684  0.013837503  0.012881506            5 
 3655000    0.6772954   -8.4930549    606.03978  0.013817596   0.01287704            2 
 3656000   0.66722202   -8.4882461    607.27896  0.013842062  0.012872579            1 
 3657000   0.65803636   -8.4908842    605.64089   0.01380095  0.012868115            2 
 3658000   0.67255209   -8.4892318    606.50299  0.013816817   0.01286365            1 
 3659000   0.66168956   -8.5023831    605.36507  0.013787125  0.012859183            1 
 3660000    0.6733149   -8.4722722    606.14863  0.013801198  0.012854708            2 
 3661000    0.6656629   -8.4768413    606.43338   0.01380391  0.012850247            1 
 3662000   0.66253962   -8.4823266    607.17709  0.013817065  0.012845786            3 
 3663000   0.66187496   -8.4875681    606.98909  0.013809016  0.012841332            4 
 3664000   0.66360582    -8.490706    606.84752  0.013802027  0.012836875            1 
 3665000   0.66894736   -8.4941417    605.87341  0.013776112  0.012832428            3 
 3666000   0.67380468   -8.4868037    607.45137  0.013808224  0.012827984            1 
 3667000   0.67049731   -8.4785084    607.39427   0.01380316  0.012823542            2 
 3668000   0.67874266   -8.4903345    605.36425  0.013753277  0.012819089            3 
 3669000   0.67137067    -8.500598    605.48602  0.013752294  0.012814653            1 
 3670000   0.66196892   -8.4905519    606.13115  0.013763196  0.012810214            2 
 3671000   0.68075102   -8.4897504    605.96017  0.013755565  0.012805777            4 
 3672000   0.66218314   -8.4841206    606.65817   0.01376766  0.012801352            5 
 3673000   0.66994408   -8.5018255    605.92176  0.013747204  0.012796915            2 
 3674000   0.66920775   -8.5003228    606.85451  0.013764619  0.012792484            2 
 3675000   0.66267737   -8.4906128    606.66878  0.013756662  0.012788065            3 
 3676000   0.66105879    -8.505933    605.44852  0.013725257  0.012783639            4 
 3677000    0.6599114   -8.4890433    606.37689  0.013742564  0.012779211            1 
 3678000   0.66038804   -8.4881467    606.16823    0.0137341  0.012774776            1 
 3679000   0.65715385   -8.4944491    605.73914  0.013720647  0.012770346            3 
 3680000   0.66230039   -8.4984604    605.83974  0.013719197  0.012765916            2 
 3681000   0.67970062   -8.5181763    605.88891  0.013716583  0.012761488            1 
 3682000   0.66443014   -8.5013183    606.47578   0.01372614  0.012757051            4 
 3683000   0.65556282   -8.5152269    605.42765  0.013698698  0.012752617            1 
 3684000   0.65494672   -8.4997191    606.51833  0.013719651  0.012748193            4 
 3685000   0.66438243   -8.4890935    605.46581  0.013692126  0.012743771            2 
 3686000   0.66922904   -8.5044457    605.41825  0.013687336  0.012739354            4 
 3687000   0.66984396   -8.5083504    605.94057  0.013695429  0.012734935            4 
 3688000    0.6523133   -8.4846812    606.92751  0.013714016  0.012730516            1 
 3689000   0.66190279   -8.5098159    605.39322   0.01367564    0.0127261            3 
 3690000    0.6574709   -8.5138624     607.0018  0.013708261   0.01272169            2 
 3691000   0.67455839   -8.5018575    605.63753  0.013673745  0.012717284            3 
 3692000   0.65898647   -8.4930938    604.81395  0.013651452  0.012712881            2 
 3693000     0.674873   -8.5081213    606.35781  0.013682593  0.012708469            2 
 3694000   0.66458626   -8.5122464    605.85995  0.013667658  0.012704053            1 
 3695000   0.66086434   -8.4987017    606.87164  0.013686776  0.012699654            2 
 3696000   0.65395247   -8.5107735    606.80294  0.013681524  0.012695247            3 
 3697000   0.67447615   -8.5027478    606.87195  0.013679379  0.012690844            2 
 3698000   0.66293291   -8.5127192    605.85486   0.01365276  0.012686431            1 
 3699000   0.65580254   -8.4900559    606.30315  0.013659168  0.012682031            6 
 3700000   0.66528521   -8.4990879    606.49619  0.013659824  0.012677628            1 
 3701000   0.66818128   -8.5257255    605.78603  0.013640143  0.012673219            1 
 3702000   0.66391397   -8.5061666    606.17626  0.013645243  0.012668815            2 
 3703000   0.65063721   -8.4966131    605.86823  0.013634626  0.012664419            1 
 3704000   0.65712273   -8.4989542    606.44868  0.013644004  0.012660026            2 
 3705000   0.66942522   -8.5108163    606.24165  0.013635665  0.012655638            3 
 3706000   0.66839395   -8.5139829    607.36718  0.013657294  0.012651254            3 
 3707000   0.65438564   -8.5013962    606.47054  0.013633453  0.012646868            3 
 3708000   0.66411511   -8.5415158    606.55694  0.013631718  0.012642478            3 
 3709000    0.6551361   -8.5089854     607.1414  0.013641175  0.012638081            2 
 3710000    0.6645041   -8.4973022    605.11596  0.013592003  0.012633696            2 
 3711000   0.65673524   -8.5001344    606.47869  0.013618941  0.012629305            1 
 3712000   0.67808904   -8.5040174    607.15538  0.013630464  0.012624929            2 
 3713000     0.670279   -8.5198837    606.31604  0.013607955  0.012620551            2 
 3714000    0.6601348   -8.5053027    605.47465  0.013585412  0.012616172            3 
 3715000   0.66964535   -8.5172487    605.81914  0.013589483  0.012611789            2 
 3716000   0.66010397   -8.4989644    606.68516  0.013605247  0.012607413            1 
 3717000     0.653576   -8.4806915    607.20071  0.013613145  0.012603043            2 
 3718000   0.65304112   -8.5008657    606.76472  0.013599711  0.012598679            3 
 3719000   0.66802614   -8.5134899    605.87322  0.013576078   0.01259431            1 
 3720000   0.65217018   -8.5012952    604.34854  0.013538274  0.012589939            2 
 3721000   0.65997578   -8.4934162     605.6168  0.013563039  0.012585575            2 
 3722000   0.65720584   -8.5116766    606.61431  0.013581728  0.012581206            2 
 3723000   0.63926077   -8.5050314    606.37759  0.013572782  0.012576838            3 
 3724000   0.64983707    -8.494556    606.25011  0.013566284  0.012572467            2 
 3725000   0.66767091   -8.5207295    606.09713   0.01355922  0.012568098            2 
 3726000   0.66044977   -8.5122705     605.8705  0.013550512   0.01256373            2 
 3727000   0.64693985   -8.5309289    605.52394  0.013539128  0.012559365            1 
 3728000   0.65588539   -8.5085855    607.73631   0.01358495  0.012554997            3 
 3729000    0.6602011   -8.5019556    606.91071  0.013562857  0.012550638            4 
 3730000   0.64941073   -8.5178965    606.32479   0.01354613  0.012546286            1 
 3731000   0.64851742   -8.4909753    607.46258  0.013567913  0.012541942            3 
 3732000   0.65043496    -8.503001     607.4897  0.013564883  0.012537593            2 
 3733000   0.64915274   -8.5065079    606.27704  0.013534178  0.012533245            2 
 3734000     0.656431     -8.51034    605.93571  0.013522936  0.012528902            2 
 3735000   0.66048763   -8.4986213    606.16011  0.013524322  0.012524562            2 
 3736000   0.65473031   -8.5185538    605.90063  0.013514914  0.012520228            3 
 3737000   0.65265038   -8.5058638    606.86878  0.013532887  0.012515883            2 
 3738000   0.67389514   -8.5353824    606.62553  0.013523844  0.012511542            3 
 3739000   0.65583393   -8.4847294    607.66416  0.013543375  0.012507206            4 
 3740000   0.66654741   -8.5423001    605.90564  0.013500571  0.012502866            3 
 3741000     0.663515   -8.5357914     605.9783  0.013498581  0.012498526            3 
 3742000    0.6620617   -8.5263647     606.0801  0.013497241  0.012494193            5 
 3743000   0.63757088   -8.5314557    606.73893  0.013508303  0.012489862            2 
 3744000   0.66029591   -8.5183519    605.69094  0.013481369  0.012485523            7 
 3745000   0.65308841   -8.5259306    606.31114   0.01349157  0.012481191            3 
 3746000   0.65296471   -8.5398128    604.80501  0.013454463  0.012476858            5 
 3747000    0.6583818   -8.5278704    606.01836  0.013477857  0.012472525            4 
 3748000    0.6540849   -8.5440292    606.27976  0.013480073  0.012468197            1 
 3749000   0.63684592   -8.5018889    606.04368   0.01347123   0.01246387            4 
 3750000   0.65810688   -8.5173064    606.80978  0.013484662  0.012459542            2 
 3751000   0.65688262   -8.5379384    606.41575  0.013472313  0.012455221            2 
 3752000   0.64640331   -8.5382314    605.60111  0.013450629  0.012450892            2 
 3753000   0.65791426   -8.5431635    606.80946  0.013473876  0.012446572            3 
 3754000   0.65426844   -8.5348378     605.9185  0.013450508   0.01244225            2 
 3755000   0.65702837   -8.5040035    606.07135  0.013450318  0.012437924            3 
 3756000   0.64659587   -8.5205192    604.68065  0.013415882  0.012433603            2 
 3757000   0.63039269   -8.5511759    605.47295  0.013429885  0.012429276            2 
 3758000   0.64767787   -8.5245272    605.50759   0.01342708  0.012424956            3 
 3759000   0.63603092   -8.5339201    605.88892  0.013431961   0.01242064            3 
 3760000   0.65339809   -8.5258495    604.74128  0.013402954  0.012416325            2 
 3761000   0.65858071   -8.5320307    605.33755  0.013412602  0.012411994            1 
 3762000   0.65377948   -8.5329916    605.33578  0.013408997  0.012407671            3 
 3763000     0.660039   -8.5470412    604.75393  0.013392549  0.012403353            2 
 3764000   0.66298779   -8.5393034    606.20971  0.013421221  0.012399031            1 
 3765000   0.64601113   -8.5327931    605.22712  0.013395908  0.012394721            2 
 3766000   0.66208723   -8.5298325    604.59183  0.013378293  0.012390406            1 
 3767000   0.65979863    -8.536619    605.50967  0.013395046  0.012386093            2 
 3768000   0.67088174   -8.5289171    605.48926   0.01339104  0.012381785            5 
 3769000   0.64457621   -8.5340544    604.96462  0.013375887  0.012377474            4 
 3770000   0.65277081   -8.5351317    606.24166  0.013400567  0.012373166            2 
 3771000   0.63870544   -8.5302188    605.98359  0.013391311  0.012368851            1 
 3772000   0.64089802   -8.5415088    606.12812  0.013390954  0.012364545            3 
 3773000   0.65648395   -8.5412481     605.1224  0.013365191  0.012360234            2 
 3774000   0.63917633   -8.5511681    604.59462  0.013349996  0.012355926            1 
 3775000   0.65040548   -8.5294275    605.64872  0.013369729  0.012351618            3 
 3776000   0.64917912     -8.53865    605.14606  0.013355095   0.01234732            3 
 3777000   0.65347629   -8.5392681    606.19503  0.013374703  0.012343015            1 
 3778000   0.64468983   -8.5264194    606.74301   0.01338325  0.012338718            1 
 3779000   0.64316731   -8.5279899    605.16949  0.013345009  0.012334428            2 
 3780000   0.64924734   -8.5421185    606.12959  0.013362645  0.012330124            2 
 3781000   0.65314217   -8.5456325    605.70773  0.013349813  0.012325836            1 
 3782000    0.6467498   -8.5586603    605.02668  0.013331277  0.012321542            1 
 3783000   0.63472965   -8.5394713    606.54312  0.013361158  0.012317254            1 
 3784000    0.6359446   -8.5398495    605.48656  0.013334359  0.012312968            5 
 3785000    0.6453295   -8.5179367    605.46001  0.013330251  0.012308682            4 
 3786000   0.63896206   -8.5225443    605.94305  0.013337362    0.0123044            1 
 3787000   0.65753846   -8.5610397    604.80951  0.013308897  0.012300117            3 
 3788000    0.6342996   -8.5428243    605.57072   0.01332213  0.012295831            2 
 3789000    0.6457827   -8.5559514    606.10823  0.013330435  0.012291547            2 
 3790000   0.65431661   -8.5506382    606.49015  0.013335315  0.012287264            2 
 3791000    0.6363202   -8.5380856    606.10488  0.013323329  0.012282984            1 
 3792000   0.63559612   -8.5567604    603.90806  0.013271538  0.012278703            2 
 3793000   0.63977701   -8.5595557    605.08011  0.013293789  0.012274413            2 
 3794000   0.64961503   -8.5691453    605.27262  0.013294514   0.01227013            2 
 3795000   0.64152759   -8.5472116    605.51839  0.013296407   0.01226585            3 
 3796000   0.64463628   -8.5565712      605.176  0.013285388  0.012261573            2 
 3797000   0.63772291   -8.5543861    605.77132  0.013294955    0.0122573            2 
 3798000   0.64449987   -8.5578708    605.69225  0.013289719  0.012253023            4 
 3799000   0.64267016   -8.5389696    606.31721   0.01329993  0.012248755            1 
 3800000   0.62847265   -8.5659735    605.49903  0.013278488  0.012244472            1 
 3801000   0.65611288   -8.5733612    605.13557  0.013267026  0.012240189            1 
 3802000   0.63438002   -8.5679029    605.34289   0.01326808  0.012235908            2 
 3803000   0.62582538   -8.5436673     605.8955    0.0132767  0.012231635            4 
 3804000   0.64592557   -8.5731121    605.36894  0.013261675  0.012227364            2 
 3805000   0.65890802   -8.5366938    606.44362  0.013281726  0.012223091            2 
 3806000   0.65059595   -8.5819848    604.95922  0.013245735  0.012218816            3 
 3807000   0.62883454   -8.5655349    605.84209  0.013261582  0.012214544            1 
 3808000   0.64430673   -8.5679371    605.88676  0.013259077   0.01221028            1 
 3809000   0.63815989   -8.5490465    605.59282  0.013249165  0.012206013            2 
 3810000   0.64524445   -8.5530759    606.15023  0.013257879  0.012201756            1 
 3811000   0.63617545   -8.5475507    606.34278  0.013258611  0.012197491            2 
 3812000   0.62337586   -8.5740621    605.47093  0.013236073  0.012193229            2 
 3813000    0.6468688   -8.5604929    603.99981   0.01320045   0.01218897            3 
 3814000   0.64563215   -8.5650694     605.4445  0.013228555  0.012184713            1 
 3815000   0.64163339   -8.5436216    605.23063  0.013220416  0.012180461            2 
 3816000   0.63980387   -8.5633555    605.53371   0.01322357  0.012176214            2 
 3817000   0.65618149   -8.5816281    604.96189  0.013207621  0.012171961            2 
 3818000   0.64827784   -8.5816695    603.83886   0.01317965  0.012167708            2 
 3819000   0.63651946   -8.5571171    603.91844  0.013177936  0.012163455            1 
 3820000   0.64265732   -8.5399131    605.45416  0.013207988  0.012159202            1 
 3821000   0.65121349   -8.5574785    607.58441   0.01325099  0.012154962            1 
 3822000   0.64305031   -8.5633171    606.20184  0.013217378  0.012150731            1 
 3823000    0.6431086   -8.5663611    604.95961  0.013186843   0.01214649            3 
 3824000   0.65558695   -8.5561479     605.7651  0.013200948  0.012142259            4 
 3825000   0.65267221   -8.5412772    605.36959   0.01318888  0.012138029            3 
 3826000   0.64848199    -8.568585    605.40555  0.013186216  0.012133797            1 
 3827000   0.64411054   -8.5721636     605.6574  0.013188255  0.012129557            1 
 3828000   0.64069519    -8.567951    605.02796  0.013171107  0.012125325            3 
 3829000   0.63119388    -8.591164    604.88091  0.013164467  0.012121086            2 
 3830000   0.63324188   -8.5928587    604.23135  0.013146896   0.01211685            2 
 3831000   0.66521308    -8.567609    605.41234  0.013169154   0.01211262            1 
 3832000    0.6457008    -8.542797    605.86516  0.013175565  0.012108393            3 
 3833000   0.63349292   -8.5586245    606.10721   0.01317739  0.012104172            4 
 3834000   0.63090401   -8.5471248    605.10069  0.013152075  0.012099953            3 
 3835000   0.62815236     -8.58099    605.34252  0.013153901  0.012095734            5 
 3836000   0.64179335   -8.5896542    606.83788  0.013182957  0.012091514            1 
 3837000   0.63188994   -8.5796044    604.10327   0.01312013  0.012087288            2 
 3838000   0.62916341   -8.5444044    606.85553  0.013176471  0.012083083            4 
 3839000   0.63897659    -8.578143    605.76968  0.013149468  0.012078881            3 
 3840000   0.63947407   -8.5598761    605.20397  0.013133767  0.012074667            2 
 3841000   0.63504462   -8.5568535    604.87282  0.013123163  0.012070454            2 
 3842000   0.62249961   -8.5880859    605.50661  0.013133494  0.012066242            1 
 3843000     0.638771   -8.5399724     605.4562  0.013128983  0.012062027            3 
 3844000   0.62478015     -8.56207    605.51302    0.0131268   0.01205782            3 
 3845000    0.6356034   -8.5664151    605.04822  0.013113312   0.01205361            1 
 3846000    0.6411306   -8.5465553    605.99286  0.013130371  0.012049405            1 
 3847000   0.63159939   -8.5728569    605.95554  0.013126149  0.012045201            2 
 3848000   0.62410771    -8.570512    605.62918   0.01311567  0.012040994            4 
 3849000   0.62980249   -8.5706325    604.90874  0.013096665  0.012036793            1 
 3850000   0.63816572   -8.5890949    605.00837  0.013095419  0.012032589            3 
 3851000    0.6377702   -8.5756444    605.97268  0.013112886  0.012028388            3 
 3852000   0.63742473   -8.5624337    604.64175  0.013080689  0.012024189            1 
 3853000   0.61725163   -8.5961183    604.14969  0.013066651  0.012019986            1 
 3854000   0.63249938   -8.5751173    604.50406  0.013070923  0.012015786            2 
 3855000   0.64285982   -8.5923678    604.58601  0.013069304  0.012011592            6 
 3856000   0.64788062    -8.589156    605.13329  0.013077742  0.012007395            2 
 3857000   0.62587486   -8.5619399    605.24329  0.013076728  0.012003198            1 
 3858000     0.638136   -8.5751654    604.81827  0.013064158  0.011999005            1 
 3859000   0.63086618   -8.5646499    604.40635  0.013051878  0.011994809            1 
 3860000   0.63742072   -8.5831602     604.8371  0.013057796  0.011990617            1 
 3861000   0.62099566   -8.5764726    604.92689  0.013056352  0.011986427            2 
 3862000   0.62234994   -8.5689525    603.97159  0.013032358  0.011982233            2 
 3863000   0.62332851     -8.57703    606.05466   0.01307392  0.011978037            3 
 3864000   0.63417695   -8.5860339    604.99417  0.013047666  0.011973849            2 
 3865000   0.63254329    -8.592086    605.63379  0.013058081  0.011969667            1 
 3866000   0.63435089   -8.5889305    604.46798  0.013029574  0.011965483            1 
 3867000   0.63579669   -8.5875033    604.04803  0.013017154  0.011961299            2 
 3868000   0.64914154   -8.5794882    604.56792   0.01302499  0.011957122            2 
 3869000    0.6261538   -8.5823418    604.21209  0.013013959  0.011952949            1 
 3870000   0.62847861   -8.5979661    604.80873  0.013023444  0.011948774            3 
 3871000   0.63770125   -8.5894893    605.15178  0.013027465  0.011944603            1 
 3872000   0.62778852   -8.5848221    605.20545  0.013025255  0.011940425            3 
 3873000   0.62710868   -8.5995063    605.38688  0.013025796  0.011936242            1 
 3874000   0.62460307   -8.6002835    604.16886  0.012996232  0.011932062            5 
 3875000   0.64265627   -8.6081387    604.86329  0.013007813  0.011927876            1 
 3876000   0.63503548   -8.5858173    603.88299   0.01298338  0.011923694            4 
 3877000   0.63336785   -8.5819018    604.76255  0.012998937  0.011919513            1 
 3878000   0.63683713    -8.604495    604.98948  0.013000461  0.011915348            2 
 3879000   0.61941785   -8.5993546    605.08346  0.012999129   0.01191118            2 
 3880000   0.61883563   -8.5965153    605.43953  0.013003426  0.011907015            2 
 3881000   0.65144987   -8.6018916    605.27419  0.012996526  0.011902853            4 
 3882000   0.63396381   -8.5745983    604.65939   0.01297998  0.011898693            3 
 3883000   0.63930205   -8.6029884    604.37734  0.012970584  0.011894531            2 
 3884000    0.6333274   -8.5665458    605.23758  0.012985702  0.011890365            1 
 3885000   0.63004417   -8.6156484    604.38288  0.012964026  0.011886207            1 
 3886000   0.63775373   -8.5782249    604.56812  0.012964662  0.011882048            2 
 3887000   0.62921716    -8.569996    604.55543  0.012961055  0.011877889            1 
 3888000   0.61998786   -8.5958265     604.7125  0.012961088  0.011873738            1 
 3889000   0.63043542   -8.5955853     604.8582  0.012960877  0.011869588            1 
 3890000   0.63207118   -8.5961205    604.52302  0.012950365  0.011865431            2 
 3891000   0.64620797   -8.6016051    604.48655  0.012946255  0.011861278            1 
 3892000   0.62580498   -8.6041931    605.08573  0.012955758  0.011857129            3 
 3893000   0.62779352   -8.5775066    604.08086   0.01293092  0.011852979            1 
 3894000   0.62427628   -8.5999383    604.90177  0.012945167  0.011848831            5 
 3895000    0.6219184    -8.591858    604.71369   0.01293782  0.011844688            2 
 3896000   0.61776331   -8.5941209    604.85163  0.012937449  0.011840548            2 
 3897000   0.63258993   -8.5993542     605.0049  0.012937407  0.011836407            2 
 3898000   0.62625542   -8.5983769     603.9587  0.012911722  0.011832269            3 
 3899000   0.63623022    -8.583479    604.20274  0.012913626  0.011828129            1 
 3900000   0.63109238   -8.5843244    605.13235  0.012930178     0.011824            1 
 3901000    0.6271852   -8.5902877    603.70569  0.012896387  0.011819867            1 
 3902000   0.62998589   -8.6215893    604.09454  0.012901387  0.011815741            2 
 3903000   0.63315461   -8.5773564    604.58669  0.012908589  0.011811615            3 
 3904000   0.63356119   -8.6080208    605.23551  0.012919132  0.011807489            3 
 3905000    0.6225163   -8.5932061    603.58614  0.012880626   0.01180336            2 
 3906000   0.63797774   -8.6053144    604.11128  0.012888532  0.011799238            2 
 3907000   0.63047403   -8.6080653    605.05016  0.012905259  0.011795115            3 
 3908000   0.61586622    -8.594549    605.51625  0.012911896  0.011790993            1 
 3909000   0.61480457   -8.6191632    603.08678    0.0128568  0.011786873            6 
 3910000   0.61613539   -8.6063067    603.56039  0.012863606  0.011782746            1 
 3911000   0.61493115   -8.6120584      605.136  0.012893889  0.011778619            2 
 3912000   0.62836167   -8.5929625    603.78382  0.012861789  0.011774493            2 
 3913000   0.62908696   -8.5965046    603.87854  0.012860519  0.011770364            1 
 3914000   0.62147368   -8.6197227    604.60758  0.012872756  0.011766239            1 
 3915000   0.62173398   -8.5805501    604.28356  0.012862571  0.011762123            2 
 3916000   0.62555273   -8.6053843    604.57848  0.012865562  0.011758007            3 
 3917000   0.63063611   -8.5949452    604.22528  0.012854763   0.01175389            1 
 3918000   0.62125969   -8.6243542    602.97522  0.012824894  0.011749778            1 
 3919000   0.61976933   -8.5967673    604.46301  0.012853258  0.011745668            1 
 3920000   0.62999874   -8.5905206    605.52196  0.012872491  0.011741559            1 
 3921000   0.62783947   -8.6116702    603.68079  0.012830077  0.011737452            1 
 3922000   0.63968213    -8.591164    604.24221  0.012838735  0.011733346            2 
 3923000   0.62773649   -8.6029083    604.80561   0.01284743  0.011729242            1 
 3924000   0.63410719   -8.6007112    605.01866   0.01284868  0.011725136            2 
 3925000   0.62971467   -8.6034486    603.50762  0.012813325  0.011721032            1 
 3926000   0.62591984   -8.6068207    603.85626  0.012817462  0.011716936            3 
 3927000   0.61957505   -8.6122627    605.00196   0.01283851  0.011712838            3 
 3928000   0.61432417    -8.615709    604.32258  0.012820829  0.011708738            2 
 3929000   0.62869149    -8.623073     604.0859  0.012812546  0.011704642            1 
 3930000   0.63037789   -8.5902142    604.44643   0.01281693  0.011700549            1 
 3931000   0.62233036   -8.6120103    605.29593  0.012831678  0.011696457            2 
 3932000   0.61468672    -8.608091    604.10642  0.012803205  0.011692362            1 
 3933000   0.62735923   -8.6107699    604.84345  0.012815566  0.011688268            1 
 3934000   0.62885727   -8.6252707     603.7245  0.012788606  0.011684174            1 
 3935000   0.62309997   -8.5928398    603.76571  0.012786228  0.011680082            4 
 3936000   0.62907972   -8.6231189    604.19057  0.012791975  0.011675995            2 
 3937000   0.63111438   -8.5988619    604.54679  0.012796266   0.01167191            2 
 3938000   0.61457836   -8.6097498    605.67246  0.012816837   0.01166783            3 
 3939000   0.62018522   -8.6055144    605.02847  0.012799959  0.011663753            2 
 3940000    0.6272413   -8.6170503    604.25503  0.012780352  0.011659675            1 
 3941000   0.60909009   -8.6238037    604.96164   0.01279205  0.011655598            3 
 3942000   0.62672202   -8.6282887    603.94555  0.012767325  0.011651518            2 
 3943000   0.61734133   -8.6079634    604.27878   0.01277113  0.011647439            4 
 3944000   0.61604309   -8.6160523    603.44662  0.012750309  0.011643363            3 
 3945000   0.61386014   -8.6134237    604.00102  0.012758788  0.011639292            2 
 3946000   0.60646055   -8.6386456    603.42706  0.012743433  0.011635218            2 
 3947000    0.6320145   -8.6200506    604.36452  0.012759997   0.01163114            2 
 3948000    0.6290836    -8.628488    603.95112   0.01274804  0.011627064            2 
 3949000   0.62449894   -8.6126154    603.58581  0.012737102  0.011622989            2 
 3950000   0.62079585   -8.6172629    603.38637   0.01272967  0.011618915            2 
 3951000   0.62508675   -8.6215737    603.50393  0.012728928  0.011614842            1 
 3952000   0.61744444   -8.6455284     604.7568  0.012752125  0.011610768            1 
 3953000   0.62046488   -8.6366778    603.03509  0.012712604  0.011606701            3 
 3954000   0.61760324   -8.5910286    603.99478  0.012729615  0.011602633            2 
 3955000   0.62269885    -8.632216     604.0381  0.012727309  0.011598567            1 
 3956000   0.60543803   -8.6272853    603.27636  0.012708046  0.011594501            2 
 3957000   0.61762321   -8.6189419    602.68315  0.012692342  0.011590436            2 
 3958000   0.61178566   -8.6159037    603.22424  0.012700527  0.011586367            1 
 3959000   0.61920531   -8.6321672    602.75062   0.01268735  0.011582302            2 
 3960000   0.61423978   -8.6337993    604.42574  0.012719397  0.011578236            2 
 3961000   0.61976285    -8.616487    603.88732  0.012704858  0.011574183            3 
 3962000    0.6227627   -8.6262535     603.3665  0.012690697  0.011570127            2 
 3963000   0.61828646   -8.6270699    605.17937  0.012725616  0.011566076            1 
 3964000   0.63475317   -8.6325939    603.41487  0.012685311   0.01156202            1 
 3965000   0.61568641   -8.6277379    604.01905   0.01269481  0.011557973            2 
 3966000   0.60489802   -8.6314884    603.39226  0.012678439  0.011553921            2 
 3967000   0.61197496   -8.6297031     603.6957  0.012681617  0.011549873            1 
 3968000    0.6029641   -8.6142136    604.15315  0.012688028  0.011545835            1 
 3969000   0.62482229   -8.6204516    603.88074  0.012679112  0.011541792            1 
 3970000   0.61702958   -8.6157492     603.9526  0.012677427  0.011537758            1 
 3971000    0.6074469   -8.6204103    604.39241  0.012683464  0.011533714            1 
 3972000    0.6108598   -8.6385499    604.32301  0.012678814  0.011529674            1 
 3973000   0.61439774   -8.6216902    604.06006  0.012670108  0.011525633            2 
 3974000   0.61497295   -8.6312442    604.23416   0.01267057  0.011521589            2 
 3975000   0.63324147   -8.6190914    604.70027  0.012677154  0.011517557            1 
 3976000   0.60603676   -8.6364528    603.14255  0.012641318  0.011513523            2 
 3977000   0.60819839   -8.6327148    603.46502  0.012644896  0.011509486            2 
 3978000   0.61909865   -8.6249548    603.75437  0.012647779  0.011505448            2 
 3979000   0.60890455   -8.6511209    604.02085  0.012650181   0.01150141            1 
 3980000   0.60366514   -8.6530093    603.59604  0.012638108  0.011497373            2 
 3981000   0.62422011   -8.6356807    603.33881  0.012629549  0.011493342            5 
 3982000   0.61507119   -8.6203638     603.8875   0.01263786  0.011489319            1 
 3983000   0.60621868   -8.6126251    603.80533  0.012632968  0.011485295            2 
 3984000   0.62191024   -8.6440959    603.75589  0.012628763  0.011481273            1 
 3985000   0.60860853   -8.6458832    602.55871  0.012600558  0.011477248            2 
 3986000   0.60820157   -8.6352439     603.3232   0.01261338  0.011473227            1 
 3987000   0.61337085   -8.6420942    604.27621  0.012630136  0.011469212            2 
 3988000   0.60940157   -8.6249512     605.0266  0.012642649  0.011465192            5 
 3989000   0.61500028    -8.628176    603.62928  0.012610288   0.01146118            5 
 3990000   0.61356053   -8.6368202    603.97847  0.012614421  0.011457172            4 
 3991000    0.6199871   -8.6300856     603.9571  0.012610814  0.011453156            3 
 3992000   0.61951073   -8.6388615    603.26779  0.012593265  0.011449146            3 
 3993000   0.61071195   -8.6430763    603.39557  0.012592778  0.011445137            2 
 3994000   0.62415765   -8.6265449    603.72687  0.012596538  0.011441133            1 
 3995000   0.61197454   -8.6321751    602.68164  0.012571582   0.01143713            1 
 3996000   0.61208856   -8.6197054    603.62362   0.01258808  0.011433133            2 
 3997000   0.61336063   -8.6474054    603.69328  0.012586383  0.011429128            3 
 3998000   0.62129889   -8.6444742     603.2049  0.012573055  0.011425127            3 
 3999000   0.61037477   -8.6282642    603.98526  0.012586173  0.011421124            2 
 4000000   0.60233108   -8.6230603    604.20626   0.01258763  0.011417132            2 
 4001000   0.62040781   -8.6377527    603.35828  0.012566822   0.01141314            2 
 4002000   0.60870057   -8.6365966     602.6251  0.012548415  0.011409144            2 
 4003000   0.61065893   -8.6614313    603.22783  0.012557828  0.011405151            1 
 4004000   0.60129049   -8.6512005    603.60902  0.012562625  0.011401154            1 
 4005000   0.61200962   -8.6536978    603.55286   0.01255832  0.011397162            3 
 4006000   0.58575823   -8.6380962    603.09595   0.01254568   0.01139317            2 
 4007000   0.60518962   -8.6437087    602.95708  0.012539661  0.011389186            1 
 4008000   0.61793171   -8.6395038    602.67071  0.012530579  0.011385203            1 
 4009000   0.60185048   -8.6358047    603.50745  0.012544846  0.011381224            2 
 4010000   0.62125877   -8.6430951    604.71086  0.012566726  0.011377242            1 
 4011000   0.59761231   -8.6470301    603.20654  0.012532339   0.01137326            3 
 4012000    0.6152501   -8.6437833    603.47646  0.012534822  0.011369281            3 
 4013000   0.61071238   -8.6306234     602.9987  0.012521777  0.011365305            1 
 4014000   0.60579087   -8.6415825    603.52164  0.012529514  0.011361332            3 
 4015000   0.60406387   -8.6178186    602.98436  0.012515242  0.011357362            3 
 4016000   0.61102064   -8.6253907    604.34763  0.012540414  0.011353392            4 
 4017000   0.60938728    -8.637369    602.88638  0.012506978  0.011349429            2 
 4018000   0.61880614   -8.6293666    603.75711  0.012521925  0.011345469            2 
 4019000   0.61054212   -8.6451262    603.50221  0.012513524    0.0113415            1 
 4020000   0.60669615    -8.631236    603.09782  0.012502028  0.011337531            1 
 4021000    0.6095827   -8.6481509    602.95112  0.012495878  0.011333563            2 
 4022000   0.61255197   -8.6429377    604.05304  0.012515603  0.011329607            2 
 4023000    0.6224738    -8.650174    603.65798  0.012504308  0.011325652            1 
 4024000   0.62128057   -8.6440846     602.0923  0.012468777  0.011321695            2 
 4025000   0.60630906   -8.6487272    602.96473  0.012483742  0.011317737            1 
 4026000   0.61092245   -8.6300758    602.86257  0.012478526  0.011313783            3 
 4027000   0.61351598   -8.6283981    602.94034  0.012477037  0.011309826            2 
 4028000   0.60673012    -8.661922    602.83343  0.012471728  0.011305871            1 
 4029000   0.61579584    -8.644596    602.63642  0.012464557  0.011301919            1 
 4030000   0.61196908   -8.6421457     604.3406  0.012496704  0.011297974            2 
 4031000   0.62161822    -8.648766    603.86555  0.012483783  0.011294021            3 
 4032000   0.61014976   -8.6622537    603.16539  0.012466216  0.011290076            2 
 4033000   0.59598069   -8.6241663    604.49899  0.012490681  0.011286133            2 
 4034000   0.60827696   -8.6480535    604.01514  0.012477589  0.011282189            2 
 4035000   0.61273658   -8.6541756    602.82367   0.01244989  0.011278255            2 
 4036000   0.61677386   -8.6636915    603.86831  0.012468374  0.011274317            3 
 4037000   0.60432233   -8.6423149    602.69575  0.012441081  0.011270387            3 
 4038000   0.60342737   -8.6440731    604.49161  0.012475062  0.011266453            1 
 4039000   0.60676296   -8.6374809    603.35598  0.012448543  0.011262517            2 
 4040000   0.60367141   -8.6570185    603.95581  0.012457834  0.011258579            2 
 4041000   0.62687592   -8.6409132     603.8692  0.012452965  0.011254648            3 
 4042000   0.60137668   -8.6503588    603.67265  0.012445832  0.011250707            2 
 4043000   0.61722664   -8.6673285    604.01862  0.012449885  0.011246772            3 
 4044000   0.60550924   -8.6653379    604.89448  0.012464855  0.011242836            3 
 4045000   0.60572762   -8.6388453    603.48181   0.01243267  0.011238902            1 
 4046000   0.61481093   -8.6708723    601.83721  0.012395724  0.011234978            2 
 4047000   0.61122419   -8.6596488    602.74218  0.012411296  0.011231056            1 
 4048000   0.59346682   -8.6280264    603.39886  0.012421749  0.011227133            4 
 4049000   0.60444992   -8.6607475    603.48301  0.012420413  0.011223213            4 
 4050000   0.58677683   -8.6360473    603.16501  0.012410803  0.011219294            2 
 4051000   0.60177938     -8.65161    604.46376  0.012434456  0.011215379            1 
 4052000   0.60669514    -8.644839    603.39271   0.01240936  0.011211464            1 
 4053000   0.60682354    -8.640613    603.38959  0.012406234  0.011207553            1 
 4054000   0.61250102   -8.6456624    603.74742  0.012410529  0.011203635            1 
 4055000   0.58765334   -8.6248033    603.16707  0.012395542  0.011199724            2 
 4056000   0.59931827   -8.6550944    602.30306  0.012374734  0.011195816            3 
 4057000   0.58251001   -8.6357387    602.96958  0.012385375   0.01119191            3 
 4058000    0.6033619   -8.6524097    603.03226   0.01238361  0.011187999            1 
 4059000   0.60869558   -8.6410811    604.56326  0.012411991  0.011184091            2 
 4060000   0.60133452     -8.68041    602.80639  0.012372873  0.011180183            1 
 4061000   0.60030706   -8.6577404    603.04666  0.012374757   0.01117628            1 
 4062000    0.6065958   -8.6415939    603.33041  0.012377532  0.011172377            1 
 4063000   0.60197161   -8.6585621    603.06196  0.012368979  0.011168474            3 
 4064000   0.59309999   -8.6475121    602.58186  0.012356091  0.011164572            4 
 4065000   0.59983694   -8.6506585    603.00541  0.012361735  0.011160668            3 
 4066000   0.60213636   -8.6436438    603.51529  0.012369144  0.011156763            2 
 4067000   0.61095287   -8.6533951    603.35526  0.012362824   0.01115286            2 
 4068000   0.59689655   -8.6615111     603.0221   0.01235296  0.011148957            1 
 4069000   0.59555205   -8.6429514    602.51065   0.01233945  0.011145056            2 
 4070000    0.6049477   -8.6645543    601.53038  0.012316347  0.011141164            3 
 4071000    0.6140517   -8.6659409    602.91119  0.012341587  0.011137266            2 
 4072000   0.60367809   -8.6610992    603.57269  0.012352093  0.011133375            2 
 4073000   0.59520459   -8.6639834    602.46267   0.01232635   0.01112948            2 
 4074000   0.60988104   -8.6697378    602.42227  0.012322498  0.011125588            2 
 4075000   0.60177414    -8.657711    603.85509  0.012348775  0.011121697            2 
 4076000    0.6070428   -8.6614461      603.226  0.012332883  0.011117806            3 
 4077000   0.59336177   -8.6651213     603.3031  0.012331434   0.01111392            1 
 4078000   0.60977334   -8.6816839    603.78583  0.012338275  0.011110029            3 
 4079000   0.60644807   -8.6544964     602.6689  0.012312431  0.011106142            2 
 4080000   0.59838392   -8.6457813     602.7047  0.012310145  0.011102258            5 
 4081000    0.6092102   -8.6728197    602.34698  0.012299824  0.011098377            2 
 4082000   0.59452817   -8.6583558     602.6499  0.012302995  0.011094493            3 
 4083000   0.60822237   -8.6640119    603.27154  0.012312669  0.011090617            4 
 4084000   0.59241589   -8.6453053    602.13543  0.012286472  0.011086742            3 
 4085000   0.60695565   -8.6705411    602.11379  0.012283023  0.011082867            2 
 4086000   0.58155969   -8.6532582    602.40253  0.012285906  0.011078995            2 
 4087000   0.59678263   -8.6869611    601.77286  0.012270061  0.011075118            2 
 4088000   0.61193573   -8.6628486    602.84783  0.012288972  0.011071244            3 
 4089000   0.59968204    -8.677603    602.51639  0.012279212  0.011067373            2 
 4090000   0.60903546   -8.6534131    604.10635  0.012308605  0.011063504            2 
 4091000    0.5998353   -8.6819311    601.92274  0.012261117  0.011059635            2 
 4092000   0.60539285   -8.6457153    603.15686  0.012283253  0.011055772            1 
 4093000   0.59302226   -8.6760515    602.66557  0.012270249  0.011051905            1 
 4094000   0.60701206   -8.6717316    602.07887   0.01225531   0.01104804            3 
 4095000   0.58949183   -8.6549486     602.4254  0.012259369  0.011044179            2 
 4096000   0.58875232   -8.6542518    602.66559  0.012261263  0.011040321            3 
 4097000   0.59157928   -8.6711852    603.08954  0.012266893  0.011036461            3 
 4098000   0.60409669   -8.6517199    603.98891  0.012282189  0.011032606            4 
 4099000   0.59971066   -8.6795116    602.08342  0.012240453   0.01102876            1 
 4100000   0.60911901   -8.6734391    602.99036  0.012255902  0.011024911            4 
 4101000   0.58748828   -8.6481478     602.6455  0.012245905  0.011021058            3 
 4102000    0.5933731   -8.6831381    603.08454  0.012251839  0.011017214            6 
 4103000   0.58848936   -8.6475704    602.52512  0.012237491  0.011013362            1 
 4104000   0.59327901   -8.6650392    603.09698  0.012246121  0.011009512            1 
 4105000   0.59370963   -8.6804326     602.2042  0.012225014  0.011005662            2 
 4106000   0.58450362   -8.6622978    602.58738  0.012229814  0.011001817            3 
 4107000   0.60322605   -8.6661541    602.20394  0.012219056  0.010997971            3 
 4108000   0.58755918   -8.6589848    601.76472  0.012207171   0.01099413            2 
 4109000   0.58344452   -8.6787073    603.29299  0.012235195  0.010990285            5 
 4110000   0.57339139   -8.6697506    601.83286  0.012202613  0.010986447            3 
 4111000   0.60621346   -8.6814947    602.10318  0.012205124  0.010982607            3 
 4112000   0.58800996    -8.681645    602.26909  0.012205518  0.010978764            2 
 4113000   0.59577555   -8.6457151    602.26106  0.012202388   0.01097492            4 
 4114000   0.59076409    -8.682689    603.02578  0.012214912   0.01097109            2 
 4115000   0.58035964   -8.6665121    602.39122  0.012199093  0.010967259            4 
 4116000   0.59671964   -8.6801662    602.24104  0.012193089  0.010963427            3 
 4117000   0.58411182   -8.6630893    602.65765   0.01219856  0.010959599            2 
 4118000   0.60033725     -8.67708    602.43429  0.012191078  0.010955769            2 
 4119000   0.59229218   -8.6638264    602.92277     0.012198  0.010951938            2 
 4120000   0.58377855   -8.6844001    602.73179  0.012191177  0.010948112            4 
 4121000   0.59448337   -8.6698833    602.23586   0.01217819  0.010944285            1 
 4122000   0.60360001   -8.6748613    601.99036  0.012170272  0.010940459            2 
 4123000   0.59039447   -8.6642378      603.082  0.012189385  0.010936631            4 
 4124000   0.59946245    -8.672304    601.83894  0.012161311  0.010932814            4 
 4125000   0.58981091   -8.6627919    602.04551  0.012162535  0.010928998            3 
 4126000   0.60305937   -8.6616331    603.06171  0.012180112  0.010925183            2 
 4127000   0.59798843   -8.6906805    603.01707  0.012176259  0.010921359            3 
 4128000   0.60017437   -8.6742884    601.45889  0.012141854  0.010917541            5 
 4129000    0.5875079   -8.6916753    602.33619   0.01215662  0.010913728            2 
 4130000   0.59752366   -8.6812391    602.14703  0.012149859  0.010909918            4 
 4131000   0.58100417   -8.6788818    601.88168  0.012141565  0.010906104            2 
 4132000   0.59796071   -8.6815064    602.53747  0.012151853   0.01090229            3 
 4133000   0.59402846   -8.6683177    601.04744  0.012118869  0.010898481            4 
 4134000   0.59035145   -8.6678465    601.95904  0.012134314   0.01089467            3 
 4135000   0.59445105   -8.6831291    603.01204  0.012152601  0.010890865            2 
 4136000   0.56919257   -8.7076176    601.74781   0.01212419   0.01088706            2 
 4137000   0.58760144   -8.6880048    602.07692  0.012127889  0.010883258            6 
 4138000   0.58374814   -8.6844888    602.01408  0.012123693   0.01087946            5 
 4139000   0.58966846   -8.6857359    601.42102  0.012108823  0.010875659            3 
 4140000   0.59891208   -8.6933652    601.99027  0.012117356  0.010871864            2 
 4141000   0.59169058   -8.6953304    602.38899  0.012122454  0.010868066            2 
 4142000   0.58926248   -8.6674269     602.9511  0.012130837   0.01086427            4 
 4143000   0.57865206   -8.6631511     601.6979  0.012102701  0.010860472            4 
 4144000   0.58276307   -8.6936491    602.27746  0.012111435   0.01085668            3 
 4145000   0.58058955   -8.6830809    601.81498  0.012099216  0.010852893            2 
 4146000   0.58560884   -8.6642517    602.01554  0.012100328  0.010849103            1 
 4147000    0.5939173   -8.6774824    603.49577  0.012127156  0.010845321            2 
 4148000   0.59001122   -8.6888211    603.56976  0.012125718   0.01084154            3 
 4149000   0.58902142   -8.6916019    601.69628  0.012085167  0.010837762            2 
 4150000   0.58938963   -8.6768415    601.85561  0.012085454  0.010833979            5 
 4151000   0.59788976   -8.6707415    601.98337  0.012085107  0.010830195            2 
 4152000   0.58468766   -8.6946571    602.60223  0.012094618   0.01082641            5 
 4153000   0.58220632   -8.6784838    602.68037  0.012093273  0.010822631            3 
 4154000   0.58178514   -8.6635145     602.0128   0.01207697  0.010818856            4 
 4155000   0.57876834   -8.7096804     601.4331  0.012062437  0.010815083            3 
 4156000   0.59331662   -8.6896509     601.8638  0.012068171  0.010811306            3 
 4157000   0.59205212   -8.6757382    602.02597  0.012068518  0.010807528            2 
 4158000   0.58049141   -8.6749624    601.73692  0.012059823  0.010803754            3 
 4159000   0.59249628   -8.7025669    601.77896  0.012057765  0.010799983            3 
 4160000   0.59668927   -8.6735901    601.95374  0.012058368  0.010796217            2 
 4161000   0.57648642   -8.6871658     601.4344  0.012045069  0.010792448            3 
 4162000   0.58472987   -8.6969487     602.6036  0.012065585  0.010788679            2 
 4163000   0.58971775   -8.6913312    602.63076  0.012063231  0.010784912            3 
 4164000   0.57431626   -8.6884574    601.72584  0.012042224  0.010781149            3 
 4165000    0.5822115   -8.6851563    602.04963  0.012045811  0.010777385            2 
 4166000   0.59196053    -8.678404    601.38661  0.012029657  0.010773628            4 
 4167000    0.5938082    -8.669794    601.93857  0.012037808  0.010769872            3 
 4168000   0.57509729   -8.6867009    602.91415  0.012054426  0.010766116            2 
 4169000   0.58260777   -8.6853217    602.36235  0.012040504  0.010762365            2 
 4170000   0.58008865   -8.6610672    602.55758  0.012041518  0.010758615            4 
 4171000   0.59463198   -8.6812479    602.32167  0.012033918  0.010754865            4 
 4172000   0.58643192   -8.6867872    601.43104  0.012013244  0.010751115            3 
 4173000   0.58729498   -8.6722175    601.81396  0.012018012  0.010747367            3 
 4174000   0.58156751   -8.6738682    602.56934  0.012030214  0.010743618            3 
 4175000   0.58835499   -8.6720551    602.18329  0.012019627  0.010739872            3 
 4176000   0.58184951    -8.676881    601.26456  0.011998415  0.010736123            3 
 4177000   0.58971134   -8.6819955    601.16357  0.011993527  0.010732381            3 
 4178000   0.57957298   -8.6865158      601.235  0.011992082   0.01072864            2 
 4179000   0.58968908   -8.6947704    601.25601  0.011989631  0.010724899            2 
 4180000   0.57364268   -8.7048954    602.59577  0.012013472  0.010721163            2 
 4181000    0.5798207   -8.6863242     602.0036  0.011998796  0.010717427            3 
 4182000   0.58476207   -8.6727737    602.17334  0.011999309  0.010713695            2 
 4183000   0.58510027   -8.6758442     602.1255  0.011995488  0.010709959            3 
 4184000   0.58294074   -8.6491536    602.72742  0.012004609  0.010706229            1 
 4185000   0.58306011   -8.6895324    601.21391  0.011971603  0.010702501            4 
 4186000   0.58019466   -8.6846321     601.3551  0.011971554  0.010698776            2 
 4187000    0.5812567   -8.6837782    601.75269  0.011976608  0.010695051            2 
 4188000   0.58058058   -8.6778891    602.66918  0.011991985  0.010691328            3 
 4189000   0.58042324   -8.6703571    601.58933   0.01196764  0.010687606            3 
 4190000   0.57746464    -8.676291    601.61619  0.011965318  0.010683882            1 
 4191000   0.57613607   -8.6901422    602.45117  0.011979066  0.010680155            2 
 4192000     0.589761   -8.7103004    602.76337  0.011982414   0.01067643            1 
 4193000   0.58380774   -8.6823144    602.01716  0.011964726  0.010672712            2 
 4194000   0.57761037   -8.6697416    602.02331  0.011961996  0.010668992            1 
 4195000   0.56479713   -8.6863236    602.30803    0.0119648  0.010665277            2 
 4196000   0.58541617   -8.7076075    601.68226  0.011949521  0.010661563            1 
 4197000   0.56991404   -8.7101323    601.35589  0.011940193  0.010657845            4 
 4198000   0.58421793   -8.7092875    601.67435  0.011943671  0.010654131            2 
 4199000   0.57849809   -8.7020768    601.87378  0.011944784  0.010650418            1 
 4200000    0.5799745   -8.6981655    601.72304  0.011938949  0.010646708            2 
 4201000   0.57175018   -8.6936089    602.68115  0.011955113  0.010642997            1 
 4202000   0.58096624   -8.6969327    600.30608  0.011905166  0.010639288            2 
 4203000   0.57886263   -8.6882481    601.56294  0.011927253  0.010635575            3 
 4204000   0.58787881   -8.6891063    602.43247  0.011941652  0.010631868            1 
 4205000   0.56552112   -8.6905626    601.17961  0.011913984  0.010628163            2 
 4206000   0.57409285   -8.6995311    600.60036  0.011899674  0.010624454            2 
 4207000   0.56875441   -8.6782043    601.29915  0.011910688  0.010620752            4 
 4208000   0.57562152    -8.691334    600.63002  0.011894606  0.010617053            2 
 4209000   0.58223203   -8.6854621     601.7224  0.011913408  0.010613355            1 
 4210000   0.57958426   -8.7017164    602.64563  0.011928852   0.01060966            2 
 4211000   0.57873966   -8.7175794     601.6441    0.0119062  0.010605966            2 
 4212000    0.5788985   -8.6885747    601.45928  0.011899717  0.010602274            1 
 4213000   0.58611121   -8.6715816     602.4194  0.011915883  0.010598588            3 
 4214000   0.58296378    -8.691785    601.83423  0.011901484  0.010594896            2 
 4215000   0.58634006   -8.7008154    601.80262  0.011898035  0.010591206            2 
 4216000   0.57163672   -8.6893133    601.46357  0.011888511  0.010587516            1 
 4217000   0.56649729   -8.7032445    601.63783  0.011889136   0.01058383            1 
 4218000   0.58411269   -8.7010717    601.56695  0.011884917  0.010580144            5 
 4219000   0.59620283   -8.7018211    600.11043  0.011853331  0.010576457            3 
 4220000   0.58072913   -8.6766946    601.65249  0.011880973  0.010572777            2 
 4221000   0.58203801   -8.7112147    601.17505  0.011868733  0.010569094            2 
 4222000   0.57514568   -8.6879464    602.38371  0.011889778  0.010565411            2 
 4223000   0.57398989    -8.714723    602.12103  0.011881779  0.010561731            1 
 4224000   0.57037407   -8.7037354    601.54194  0.011867541  0.010558052            1 
 4225000   0.58038612   -8.6839655    600.82959  0.011850682  0.010554371            2 
 4226000   0.56258865   -8.7072972    601.82767  0.011867559    0.0105507            2 
 4227000   0.57862442   -8.6783389    602.04618   0.01186906  0.010547022            3 
 4228000   0.57389191   -8.6925409    600.53097  0.011836388  0.010543348            2 
 4229000   0.56455973   -8.7127745     601.4422  0.011851545  0.010539673            1 
 4230000   0.58112166   -8.7107716    600.51627  0.011830502  0.010535997            2 
 4231000   0.55968996   -8.7219792    602.01025  0.011857131  0.010532321            1 
 4232000   0.57007675   -8.7073487    601.99675  0.011854063  0.010528649            4 
 4233000   0.57296503   -8.7200091    601.04644  0.011832555   0.01052498            2 
 4234000   0.56812113   -8.7023549    601.18477  0.011832483  0.010521315            3 
 4235000   0.57257138   -8.7069196    601.51841  0.011836254   0.01051765            2 
 4236000   0.58266555    -8.700065    602.00787  0.011843088  0.010513984            5 
 4237000   0.58997463   -8.7017138    600.71798  0.011814924   0.01051032            2 
 4238000   0.56103748   -8.6892719    600.66718  0.011811137  0.010506659            4 
 4239000   0.56567429   -8.6847551    601.61085  0.011826902  0.010502998            4 
 4240000   0.58215194   -8.7144449    601.01251  0.011812353  0.010499339            3 
 4241000   0.57239226   -8.7164446    601.62097  0.011821523   0.01049568            2 
 4242000    0.5691993   -8.7060107    600.54272  0.011797555  0.010492025            3 
 4243000   0.57719753   -8.7074384      600.374  0.011791461  0.010488367            3 
 4244000   0.57317393   -8.7200701    601.43485  0.011809512  0.010484716            3 
 4245000   0.56336131   -8.6903828    602.15559  0.011820879  0.010481064            1 
 4246000   0.56820898   -8.7164722    600.71039  0.011789731  0.010477412            3 
 4247000   0.56546123   -8.7144839    601.62088  0.011804821  0.010473759            3 
 4248000   0.57875028   -8.7201026    601.82546  0.011806055  0.010470116            2 
 4249000   0.56713533   -8.7125532    600.71249  0.011781448  0.010466469            2 
 4250000    0.5754915   -8.7169608    600.88342  0.011782028  0.010462828            2 
 4251000   0.56598364    -8.701472    601.57921  0.011792896  0.010459189            2 
 4252000   0.57019114    -8.720404    601.40561   0.01178672  0.010455549            2 
 4253000   0.57702424   -8.7018375    601.17758  0.011779481  0.010451912            2 
 4254000   0.57241579    -8.691651    601.98297  0.011792489  0.010448279            2 
 4255000   0.56322091   -8.7091598    601.76586  0.011785465  0.010444647            2 
 4256000   0.56936773   -8.7202224     600.9264  0.011766259  0.010441012            1 
 4257000   0.56207556   -8.6946164    602.19897  0.011788407  0.010437385            1 
 4258000   0.56786718   -8.7132592    600.90046  0.011760225  0.010433756            2 
 4259000   0.57432946   -8.7005288    601.13012  0.011761958  0.010430129            3 
 4260000   0.56291431   -8.7114666    600.83254  0.011753375    0.0104265            3 
 4261000   0.55451473   -8.7207123    601.26886   0.01175915  0.010422871            3 
 4262000   0.57344591   -8.7020242    601.16574  0.011754375  0.010419243            1 
 4263000    0.5641038   -8.7146883    601.62178  0.011760532  0.010415616            4 
 4264000   0.57430975   -8.7023594    601.94862  0.011764162  0.010411991            2 
 4265000   0.56981581   -8.7092535     600.9636  0.011742157  0.010408365            2 
 4266000   0.57086932   -8.7057467    600.27845  0.011726021  0.010404743            1 
 4267000   0.57714095   -8.7214593    600.95794  0.011736543  0.010401121            3 
 4268000   0.57615802   -8.7392363    601.14753  0.011737495  0.010397501            3 
 4269000   0.57463269   -8.7057668    600.11623  0.011714614  0.010393886            2 
 4270000   0.56937434   -8.7076798    601.25268  0.011734049  0.010390271            3 
 4271000   0.55760713   -8.7069057    601.35584  0.011733315  0.010386655            4 
 4272000   0.56543539   -8.6979753    600.92041  0.011722074  0.010383042            2 
 4273000   0.56365404   -8.7100358    601.31269  0.011726981   0.01037943            2 
 4274000   0.55805372     -8.71871    600.19194  0.011702385  0.010375827            4 
 4275000   0.56389287   -8.7168349    600.85437  0.011712561  0.010372225            2 
 4276000   0.55788786   -8.7237808    602.01895  0.011732518  0.010368624            1 
 4277000   0.57941529   -8.6973525    600.95778  0.011709099  0.010365021            1 
 4278000   0.56690227   -8.7045084      601.015  0.011707476  0.010361422            1 
 4279000   0.57406237   -8.7018538    600.75994  0.011699773  0.010357827            1 
 4280000     0.566091   -8.7214013    601.11046  0.011703864  0.010354233            3 
 4281000    0.5636282   -8.7237882    601.65284  0.011711688  0.010350644            1 
 4282000   0.56140669   -8.7104249    600.91841   0.01169466  0.010347056            1 
 4283000   0.56852739   -8.7221742    601.05451  0.011694578  0.010343472            4 
 4284000    0.5685089   -8.6892592     602.0082  0.011710399  0.010339884            3 
 4285000   0.57247701   -8.7282358    600.28208  0.011674097  0.010336298            5 
 4286000   0.56912322   -8.7148103     600.9642  0.011684636  0.010332708            4 
 4287000   0.56043711   -8.7024342    601.13843  0.011685297  0.010329123            2 
 4288000   0.55857389   -8.7235148    600.17908  0.011663928  0.010325541            1 
 4289000   0.56826532     -8.69687    600.66102  0.011670572  0.010321957            3 
 4290000   0.55976612   -8.7232641    600.33035  0.011661429  0.010318376            1 
 4291000   0.56688109   -8.7170531    601.28081  0.011677169  0.010314798            2 
 4292000   0.56743747   -8.7030436    601.03098  0.011669598  0.010311217            5 
 4293000   0.55681805   -8.7019157    602.01682  0.011686016  0.010307642            3 
 4294000   0.57692688   -8.7085857    600.63293  0.011656438  0.010304066            3 
 4295000    0.5616951   -8.7031763    600.41255  0.011649448  0.010300491            3 
 4296000   0.56683774   -8.7309303    601.51299  0.011668082  0.010296913            2 
 4297000   0.56616475   -8.7290475    600.63367  0.011648314  0.010293341            3 
 4298000   0.55790849   -8.7121911     600.6666  0.011646242  0.010289772            2 
 4299000   0.56232591   -8.7253632    601.33371  0.011656465  0.010286201            1 
 4300000    0.5648486   -8.7291377    601.02666  0.011647804  0.010282632            7 
 4301000   0.55411781   -8.7221485    600.86995  0.011642059  0.010279066            2 
 4302000   0.55601316    -8.703202    599.88782  0.011620328  0.010275494            3 
 4303000   0.56977741   -8.7370925    600.11294  0.011621987  0.010271931            1 
 4304000   0.56757365   -8.7405585    599.86821  0.011614549  0.010268365            2 
 4305000   0.56590035   -8.7090025    600.68982  0.011627755  0.010264801            2 
 4306000   0.56329749   -8.7217518    601.42761  0.011639333  0.010261241            2 
 4307000   0.56328057    -8.726961    601.43019   0.01163668  0.010257682            2 
 4308000   0.56885333   -8.7240303    601.34038  0.011632242  0.010254119            2 
 4309000   0.56875234   -8.7295066    601.41352  0.011630957  0.010250562            1 
 4310000   0.55956343   -8.7270634    601.18822  0.011623902   0.01024701            4 
 4311000   0.57398389    -8.720684    599.14245   0.01158166  0.010243454            2 
 4312000   0.56635894    -8.705176      599.715  0.011590039  0.010239905            4 
 4313000    0.5706682   -8.7325113    601.36694   0.01161927  0.010236354            2 
 4314000   0.56842059   -8.7159283    600.87411  0.011607057  0.010232806            1 
 4315000   0.55749658    -8.735058    600.89498   0.01160477  0.010229258            1 
 4316000   0.56642206    -8.709762    600.37405  0.011592023  0.010225715            1 
 4317000   0.56095645    -8.711314    601.26931  0.011606619  0.010222173            2 
 4318000   0.57731253   -8.7107675    601.56575  0.011609652  0.010218636            3 
 4319000   0.55271901   -8.7032761    601.55895  0.011606833  0.010215093            1 
 4320000   0.55925325    -8.722016    601.46227  0.011602282  0.010211555            2 
 4321000   0.56433297   -8.7274022    601.66125  0.011603434   0.01020802            1 
 4322000   0.55420851   -8.7345861    601.75092  0.011602478   0.01020449            1 
 4323000   0.55953654   -8.7375373    600.43492  0.011574426  0.010200958            3 
 4324000   0.56441711    -8.715913    600.42624  0.011571582  0.010197427            3 
 4325000   0.55688853   -8.7343785    600.44679  0.011569302  0.010193896            2 
 4326000   0.55210939   -8.7315833    600.92397   0.01157582  0.010190361            2 
 4327000   0.55348336   -8.7340177    600.07042  0.011556706  0.010186835            2 
 4328000   0.55745191   -8.7079914    599.97322  0.011552165  0.010183308            3 
 4329000   0.55929078   -8.7404045     601.2752  0.011574559  0.010179785            2 
 4330000   0.55563401   -8.7317377    600.31424  0.011553392  0.010176261            1 
 4331000   0.57073763   -8.7187962    601.12817  0.011566385  0.010172742            2 
 4332000   0.55852641   -8.7392224    601.01144   0.01156147  0.010169224            2 
 4333000   0.55933203   -8.7246508    602.03546  0.011578496  0.010165708            4 
 4334000   0.54770095   -8.7212889    600.04376  0.011537528  0.010162195            2 
 4335000   0.54436682   -8.7200392    600.30337  0.011539857  0.010158678            3 
 4336000   0.55238223    -8.738783    599.77019  0.011526949  0.010155162            2 
 4337000   0.55184143   -8.7391623    600.84677  0.011544977  0.010151648            3 
 4338000   0.55316798    -8.729574    599.97436  0.011525556  0.010148134            4 
 4339000   0.55227707   -8.7430099    600.43203   0.01153169  0.010144624            4 
 4340000   0.55698755   -8.7414089    601.89629  0.011557148  0.010141115            2 
 4341000   0.55622383   -8.7254429    600.87874  0.011534952  0.010137604            2 
 4342000    0.5606237   -8.7483925    600.49371  0.011524906  0.010134094            5 
 4343000   0.55391251   -8.7350102    601.04264  0.011532785  0.010130587            9 
 4344000   0.54989521   -8.7141334    600.29482  0.011515785  0.010127079            4 
 4345000   0.55852924    -8.726774    600.01483  0.011507764  0.010123581            6 
 4346000   0.56910553   -8.7212653    600.57613  0.011515879  0.010120082            6 
 4347000   0.56345822   -8.7135015    600.13704  0.011504813  0.010116584            4 
 4348000   0.55549043   -8.7222243    600.59665  0.011510975  0.010113089            2 
 4349000   0.54842821   -8.7226776    600.62979  0.011508963  0.010109593            3 
 4350000   0.56566632   -8.7053396    599.26824  0.011480234    0.0101061            3 
 4351000   0.55795723   -8.7465344    600.47509   0.01150071  0.010102607            2 
 4352000   0.55146657   -8.7317898    600.46806  0.011497933  0.010099116            5 
 4353000   0.55249377   -8.7459293    600.91204  0.011503791  0.010095629            5 
 4354000   0.55087694   -8.7276575    602.32023  0.011528101  0.010092143            6 
 4355000   0.56399318   -8.7262926    601.33696  0.011506639   0.01008866            5 
 4356000   0.55539793   -8.7353971    601.17362  0.011500873  0.010085174            5 
 4357000   0.55048364   -8.7357676    600.78169  0.011490737   0.01008169            1 
 4358000   0.54858348     -8.73083    600.68415  0.011486235  0.010078207            3 
 4359000   0.55647151   -8.7393822    600.46127  0.011479339  0.010074728            4 
 4360000   0.55063161   -8.7058941    600.47514  0.011476971  0.010071249            5 
 4361000   0.55057926   -8.7145166    600.06181  0.011466441  0.010067768            6 
 4362000   0.56160887   -8.7520512    600.51142  0.011472402   0.01006429            1 
 4363000   0.55851636   -8.7337073    600.46189  0.011468827  0.010060816            3 
 4364000   0.55071317   -8.7315748    600.39824  0.011464983   0.01005734            3 
 4365000   0.54923948   -8.7366453    600.58824  0.011465984   0.01005387            4 
 4366000   0.55652001   -8.7237274    599.88706  0.011449974  0.010050398            5 
 4367000   0.55779049   -8.7342436    600.73421  0.011463518  0.010046925            3 
 4368000   0.55746957   -8.7520425    599.29879  0.011433509  0.010043453            4 
 4369000   0.54979709   -8.7429771    600.20265  0.011448132  0.010039987            2 
 4370000   0.54054927   -8.7378443    600.75001   0.01145595  0.010036518            3 
 4371000   0.56137412   -8.7520983    600.13479    0.0114416  0.010033051            2 
 4372000    0.5652911   -8.7317249    600.66706  0.011449128  0.010029592            4 
 4373000   0.55279756   -8.7553806    600.92348  0.011451396  0.010026134            5 
 4374000     0.553905   -8.7419298    599.60262  0.011423613  0.010022675            4 
 4375000   0.54556056   -8.7368735    599.83678  0.011425463  0.010019216            5 
 4376000   0.54749022   -8.7454208     600.9596  0.011444234  0.010015758            6 
 4377000   0.54768991   -8.7377136    601.28428  0.011447801  0.010012299            4 
 4378000   0.54195137   -8.7483537    600.64713  0.011433058  0.010008845            5 
 4379000   0.55506984   -8.7280878    599.31834   0.01140516  0.010005394            5 
 4380000   0.55180296   -8.7361559    600.46792  0.011424428  0.010001943            3 
 4381000   0.56642645   -8.7369745     600.3084  0.011418786 0.0099984941            5 
 4382000   0.55275168   -8.7456218    600.56651  0.011421088 0.0099950461            3 
 4383000    0.5590629   -8.7595118    599.98889    0.0114075 0.0099915952            4 
 4384000   0.55685202   -8.7374715    599.58072   0.01139714 0.0099881504            7 
 4385000   0.55330961   -8.7628738    600.21788  0.011406649 0.0099847046            5 
 4386000   0.55796045   -8.7369428    599.99518  0.011399817 0.0099812595            1 
 4387000   0.55147883    -8.735347    601.07683  0.011417765 0.0099778183            3 
 4388000   0.54685624   -8.7293938    599.98647  0.011394456 0.0099743819            6 
 4389000   0.55471287   -8.7547818    600.37376  0.011399213 0.0099709523            7 
 4390000   0.55026825   -8.7754243    600.16105  0.011392579 0.0099675124            3 
 4391000   0.54648844   -8.7390604    600.68414  0.011399912 0.0099640763            2 
 4392000   0.54663613   -8.7375962    600.75166  0.011398597  0.009960644            2 
 4393000   0.54359044   -8.7195915    600.53966  0.011391981 0.0099572141            5 
 4394000   0.55298084   -8.7507859    599.71616   0.01137377 0.0099537808            2 
 4395000   0.53604364   -8.7514232    600.21246  0.011380593 0.0099503547            1 
 4396000   0.55572745    -8.734215    600.40124  0.011381582 0.0099469296            3 
 4397000    0.5583898   -8.7446757    601.09409  0.011392125 0.0099435099            3 
 4398000   0.55477027   -8.7452077    601.06007   0.01138889 0.0099400896            1 
 4399000   0.55238361   -8.7359349    601.28947  0.011390647 0.0099366685            6 
 4400000   0.54610209   -8.7505316    600.64332   0.01137582 0.0099332457            3 
 4401000   0.54890154   -8.7260978    600.14914  0.011363878 0.0099298258            7 
 4402000   0.54460805   -8.7415297    600.90957  0.011375692 0.0099264067            6 
 4403000   0.54984425   -8.7332007    600.10233   0.01135783  0.009922988            4 
 4404000   0.54751146   -8.7445431    600.91668  0.011370661 0.0099195702            6 
 4405000   0.54701396   -8.7392105    600.27466  0.011355934 0.0099161561            5 
 4406000   0.53886889   -8.7247739    599.81439  0.011344651 0.0099127433            3 
 4407000   0.55064456   -8.7334145    600.21921  0.011349732 0.0099093321            7 
 4408000   0.54851051   -8.7200394    600.00011  0.011343015 0.0099059229            2 
 4409000   0.54690655   -8.7228067    601.02598  0.011359832 0.0099025161            1 
 4410000   0.53356207   -8.7494801    600.22403  0.011342102 0.0098991094            3 
 4411000   0.53041469   -8.7516058    600.38857  0.011342639 0.0098957022            3 
 4412000   0.54329865   -8.7387363    601.07592  0.011353051 0.0098922971            9 
 4413000    0.5500121   -8.7292862    600.46798  0.011338998 0.0098888928            3 
 4414000    0.5313772   -8.7393557     599.4651  0.011317495 0.0098854918            2 
 4415000    0.5426056   -8.7365131    600.20283  0.011328857   0.00988209            2 
 4416000   0.53955914   -8.7426925    599.96493  0.011321802 0.0098786901            6 
 4417000   0.57014596   -8.7387178    599.62521  0.011312829 0.0098752882            1 
 4418000   0.53575997   -8.7471247    600.47223  0.011326245 0.0098718902            4 
 4419000   0.55085072   -8.7435054    599.78574  0.011310737 0.0098684922            5 
 4420000   0.53919494    -8.732563     601.0271  0.011331582 0.0098651003            2 
 4421000   0.54559323   -8.7323606     600.6743  0.011322369 0.0098617087            6 
 4422000    0.5527888   -8.7531414    599.80917  0.011303505 0.0098583172            2 
 4423000   0.55359647   -8.7444024    599.51112  0.011295333 0.0098549264            1 
 4424000   0.54325832   -8.7413213    599.99268  0.011301851 0.0098515378            7 
 4425000    0.5441738   -8.7409996    600.86129  0.011315655 0.0098481536            2 
 4426000   0.55299025   -8.7442424    599.93761  0.011295707 0.0098447706            2 
 4427000   0.54906993   -8.7607652    599.90606  0.011292562 0.0098413826            4 
 4428000    0.5426326   -8.7526069     600.2354   0.01129621 0.0098379964            3 
 4429000   0.54717714   -8.7565458    599.83849  0.011286191 0.0098346147            3 
 4430000   0.53522926   -8.7532514    600.36646  0.011293575 0.0098312329            2 
 4431000   0.53668873   -8.7527363    599.46213  0.011274019 0.0098278516            2 
 4432000   0.54107923   -8.7465458    599.57429  0.011273584 0.0098244747            2 
 4433000    0.5359887    -8.733786    600.47556  0.011287983 0.0098210971            1 
 4434000   0.54620587   -8.7460032    599.65295  0.011269977 0.0098177214            1 
 4435000   0.52698453   -8.7696454    600.67088  0.011286563 0.0098143432            2 
 4436000   0.55484781   -8.7527492    600.44688  0.011279811 0.0098109688            2 
 4437000    0.5423284   -8.7463721    599.64029   0.01126212 0.0098075947            3 
 4438000   0.54563553   -8.7619751    601.11952  0.011287358 0.0098042211            5 
 4439000    0.5489463   -8.7434098    600.20389  0.011267626 0.0098008504            4 
 4440000   0.54072153   -8.7595225    599.08017  0.011243997 0.0097974791            4 
 4441000   0.54901074   -8.7641891     599.3258  0.011246074 0.0097941096            3 
 4442000   0.55140611   -8.7518948    599.79046   0.01125226  0.009790741            1 
 4443000    0.5369449   -8.7721989    598.74622  0.011230141 0.0097873727            4 
 4444000   0.53900859   -8.7611857    600.22141  0.011255277 0.0097840051            5 
 4445000   0.53260805   -8.7519772    599.56097  0.011240363 0.0097806398            2 
 4446000   0.54644434   -8.7553619    600.71336  0.011259435  0.009777278            2 
 4447000   0.54437514   -8.7490391    600.54741  0.011253793 0.0097739158            2 
 4448000   0.53705221   -8.7783808    599.22687  0.011226523  0.009770553            4 
 4449000   0.53746152   -8.7583309     599.9733  0.011237981 0.0097671956            2 
 4450000   0.53517208   -8.7510511    600.18617  0.011239441 0.0097638396            2 
 4451000   0.53832864      -8.7433    600.33424  0.011239688 0.0097604861            2 
 4452000   0.53552818   -8.7593451    600.21699  0.011234969 0.0097571357            1 
 4453000   0.53862402   -8.7768468    599.91932  0.011226876 0.0097537866            3 
 4454000   0.54086627   -8.7682643    599.50171  0.011216541 0.0097504382            1 
 4455000   0.53933856    -8.758244    599.63696  0.011216554 0.0097470859            2 
 4456000   0.53508495   -8.7583025    598.96287   0.01120143 0.0097437382            2 
 4457000   0.54171522   -8.7605902    600.09753  0.011220132 0.0097403918            2 
 4458000   0.52604101   -8.7801456    600.08634  0.011217406 0.0097370471            2 
 4459000   0.53465671   -8.7660975    599.52032  0.011204312  0.009733699            2 
 4460000   0.55685942   -8.7796457    600.34601  0.011217227 0.0097303593            1 
 4461000   0.54104338   -8.7720265    599.92944  0.011206931  0.009727019            2 
 4462000   0.53913745   -8.7629024    599.28881  0.011192455 0.0097236738            2 
 4463000   0.54961266    -8.765677     599.7276   0.01119814 0.0097203344            4 
 4464000   0.54580308   -8.7506446    600.37953  0.011207802 0.0097169964            2 
 4465000   0.54250827   -8.7676636    598.24204  0.011165398 0.0097136608            2 
 4466000   0.54047318    -8.782413    599.15775  0.011179985 0.0097103267            3 
 4467000   0.54291483   -8.7562098    598.85851    0.0111719 0.0097069909            1 
 4468000   0.54029794   -8.7634721    599.18516  0.011175492 0.0097036566            2 
 4469000    0.5398429   -8.7697226    599.38374  0.011176694 0.0097003246            3 
 4470000   0.54519872   -8.7638774    599.28011  0.011172262 0.0096969944            2 
 4471000    0.5317189   -8.7666415    599.89218  0.011181171  0.009693665            3 
 4472000   0.53472065   -8.7781545    599.52739  0.011171873 0.0096903341            2 
 4473000   0.52845796   -8.7883727    598.89853  0.011157659 0.0096870071            2 
 4474000   0.54144742   -8.7625805    599.72597  0.011170578 0.0096836846            2 
 4475000   0.53489337   -8.7761847    599.76062  0.011168727 0.0096803598            2 
 4476000   0.53180846   -8.7683568    599.30506   0.01115775 0.0096770404            1 
 4477000   0.52868729   -8.7833781    599.81874  0.011164819 0.0096737199            2 
 4478000    0.5435212    -8.777921    599.65303  0.011159242 0.0096703989            4 
 4479000   0.55319463   -8.7514205    598.88933  0.011142542 0.0096670829            2 
 4480000   0.52686596    -8.771891    600.23301  0.011165048 0.0096637695            3 
 4481000   0.54324077   -8.7687025    599.31219  0.011145432 0.0096604555            2 
 4482000   0.53014462   -8.7633606    600.44966  0.011164095 0.0096571453            2 
 4483000   0.53971172   -8.7584848    598.94381  0.011133612 0.0096538332            3 
 4484000   0.53980173   -8.7541361    599.25375   0.01113689 0.0096505229            3 
 4485000   0.54262296   -8.7595563    600.30783  0.011153992 0.0096472165            2 
 4486000   0.53867682   -8.7713217    600.40933  0.011153391 0.0096439108            3 
 4487000   0.53115974   -8.7633999    600.43224  0.011151331 0.0096406049            1 
 4488000   0.53090245   -8.7648847    599.85989  0.011138218 0.0096373005            1 
 4489000   0.53022922   -8.7875399    599.64524  0.011131752 0.0096339979            5 
 4490000   0.53555855   -8.7690073    600.41419  0.011143545 0.0096306947            6 
 4491000   0.52547319   -8.7685033    599.39757  0.011122199 0.0096273919            4 
 4492000   0.54652363   -8.7657443    599.61035  0.011123671 0.0096240908            3 
 4493000   0.53629326   -8.7799567     599.3892  0.011117093 0.0096207913            3 
 4494000   0.53271144    -8.767749    599.52186  0.011117079  0.009617495            4 
 4495000   0.53650023   -8.7886462    598.46083  0.011094936 0.0096141974            5 
 4496000   0.54378292   -8.7782301    599.32148   0.01110842 0.0096109005            4 
 4497000   0.53717748    -8.783099    599.26773  0.011104954  0.009607603            1 
 4498000   0.53406042   -8.7777372    598.55678  0.011089313 0.0096043102            2 
 4499000   0.52781991   -8.7726241    599.65035  0.011107104  0.009601021            3 
 4500000   0.53481661   -8.7712379    599.73976  0.011106292 0.0095977348            5 
 4501000    0.5220052   -8.7731667    599.58319  0.011100926 0.0095944495            5 
 4502000   0.53265748   -8.7578623       599.87  0.011103769 0.0095911621            4 
 4503000   0.53875817   -8.7788824    600.00748  0.011103847 0.0095878765            1 
 4504000   0.51787964   -8.7671867    599.64755  0.011094722  0.009584592            2 
 4505000   0.52760179   -8.7748511    599.56313  0.011090698 0.0095813044            1 
 4506000   0.53272042   -8.7898545    599.12513  0.011080136 0.0095780219            4 
 4507000   0.54086335   -8.7725819    599.17529  0.011078605  0.009574742            3 
 4508000   0.52562128    -8.779945    598.65253  0.011066484 0.0095714604            4 
 4509000   0.53467909   -8.7520037    599.43547    0.0110785 0.0095681819            3 
 4510000   0.53712519   -8.7816199    598.47657  0.011058325 0.0095649055            4 
 4511000   0.53961254   -8.7520497    599.17222  0.011068725 0.0095616311            6 
 4512000   0.53204339   -8.7788043    598.92411  0.011061689 0.0095583576            4 
 4513000   0.53335834    -8.780569    599.09117  0.011062323 0.0095550852            3 
 4514000    0.5290368   -8.7740655     599.0205  0.011058568 0.0095518122            4 
 4515000   0.53116893   -8.7764342    598.14256  0.011039914  0.009548542            7 
 4516000   0.53120233   -8.7775029    599.34954  0.011059742 0.0095452754            4 
 4517000   0.53128575   -8.7920536    599.42886  0.011058757 0.0095420102            4 
 4518000   0.53919615   -8.7733068    598.98998  0.011048214 0.0095387451            4 
 4519000    0.5261277   -8.7668949    599.36461  0.011052678 0.0095354805            4 
 4520000   0.52417579   -8.7907018    599.48553  0.011052462 0.0095322163            2 
 4521000   0.53140615   -8.7647733    600.59151  0.011070403 0.0095289603            6 
 4522000   0.52965121   -8.7902327    599.65606  0.011050716 0.0095257046            5 
 4523000   0.52658187   -8.7745521    598.75028  0.011031585 0.0095224457            5 
 4524000   0.52131128   -8.7943858    598.50372  0.011024604 0.0095191888            8 
 4525000   0.53049718   -8.7843294    599.65001  0.011043278 0.0095159345            4 
 4526000   0.51563469   -8.7791503    599.67112  0.011041227 0.0095126829            4 
 4527000   0.52419262   -8.7634597     600.2822  0.011050037  0.009509434            2 
 4528000   0.53789437   -8.7929187    598.97001  0.011023447 0.0095061827            1 
 4529000   0.52486078   -8.7793898    598.59651   0.01101414 0.0095029314            4 
 4530000   0.52184816   -8.7869232    598.92926   0.01101783 0.0094996839            5 
 4531000   0.53372263   -8.7910819    598.70021  0.011011186 0.0094964348            2 
 4532000   0.52594969    -8.787028    599.86874  0.011030243 0.0094931903            3 
 4533000   0.52613289    -8.790947    599.37716  0.011018773 0.0094899492            3 
 4534000   0.53360992   -8.7791292    599.59472  0.011020341  0.009486705            3 
 4535000   0.53652714   -8.7867213    599.05469  0.011007988 0.0094834624            1 
 4536000   0.52887215   -8.7927569    599.03242  0.011005152 0.0094802183            2 
 4537000   0.52947304   -8.7746062     599.4188  0.011009823 0.0094769771            3 
 4538000   0.52940299   -8.7915665    598.27563  0.010986404 0.0094737349            2 
 4539000   0.53106861   -8.7959692    598.36335  0.010985594 0.0094704964            1 
 4540000   0.52675767   -8.7851213    599.34579  0.011001208 0.0094672605            3 
 4541000   0.52396994   -8.8036996    598.74586  0.010987775 0.0094640255            5 
 4542000   0.53384678   -8.8023381    598.93313  0.010988792 0.0094607933            2 
 4543000   0.52209425   -8.7863048    598.58798  0.010980042 0.0094575593            1 
 4544000   0.52769974   -8.7779484    598.40452  0.010974261 0.0094543254            6 
 4545000   0.52093168   -8.7878515    599.89649  0.010999202 0.0094510945            5 
 4546000   0.52330319   -8.8034724    598.73128  0.010975423 0.0094478642            2 
 4547000   0.52713994   -8.8010688    599.12021  0.010980137 0.0094446373            4 
 4548000   0.53273614   -8.7748938    599.88321  0.010991704 0.0094414092            3 
 4549000   0.51405967   -8.7763614    599.46798  0.010981681 0.0094381856            4 
 4550000   0.53599309   -8.7831847    599.60871  0.010981845 0.0094349607            2 
 4551000   0.52161371   -8.7872282    598.72896  0.010963322 0.0094317353            6 
 4552000   0.52062974   -8.7888307    599.27478  0.010970906 0.0094285113            4 
 4553000   0.52701131   -8.8012758    598.95407  0.010962627 0.0094252921            9 
 4554000   0.53951476   -8.7999734    599.14886  0.010963784 0.0094220743            9 
 4555000    0.5230888   -8.7927221    599.35443  0.010965138 0.0094188573            7 
 4556000   0.52434667   -8.7960999    598.47518  0.010946649 0.0094156417            7 
 4557000   0.51962883   -8.7891529    597.59903  0.010928225 0.0094124277            5 
 4558000   0.52762135   -8.7952073    599.70965  0.010964415 0.0094092115            3 
 4559000   0.51878852   -8.7799017    598.85886  0.010946459 0.0094059984            3 
 4560000    0.5300166   -8.8052197    598.46624  0.010936883 0.0094027866            6 
 4561000   0.52108584   -8.7716747    599.69418  0.010956921 0.0093995784            2 
 4562000   0.52340583   -8.7839481    599.45306  0.010950114  0.009396374            9 
 4563000   0.52686904   -8.7817214    599.33831  0.010945619 0.0093931726            2 
 4564000   0.51849047   -8.7969582    597.92806  0.010917471 0.0093899653            3 
 4565000   0.51789291   -8.7945168    598.25378  0.010921026 0.0093867586            3 
 4566000   0.52267915   -8.8130573    598.68803  0.010926559 0.0093835532            2 
 4567000   0.53494807   -8.8048452    599.02776  0.010930366 0.0093803505            1 
 4568000   0.51940513    -8.789062    598.76951  0.010923262 0.0093771502            1 
 4569000   0.51821654   -8.7960031    598.89043  0.010923076 0.0093739501            2 
 4570000   0.52607017   -8.7922549    598.96761  0.010922094  0.009370751            3 
 4571000   0.52973371   -8.8009305    598.71036  0.010915014 0.0093675522            6 
 4572000   0.51704534   -8.8055495    599.23797  0.010922244 0.0093643577            6 
 4573000   0.51288428   -8.7980903     598.9081  0.010913844 0.0093611648            3 
 4574000   0.51235282    -8.801086     599.2537  0.010917754  0.009357972            5 
 4575000   0.51740184   -8.7945378    598.42892  0.010900345 0.0093547823            2 
 4576000   0.53267124   -8.8017928    598.18218  0.010893469 0.0093515941            4 
 4577000    0.5218795   -8.7800828    598.28412  0.010892945 0.0093484046            2 
 4578000   0.52149461   -8.7963747    598.61677  0.010896621 0.0093452144            4 
 4579000   0.50923872    -8.807814    599.06584  0.010902414 0.0093420287            4 
 4580000    0.5197415   -8.7995439    598.02886  0.010881165 0.0093388453            4 
 4581000    0.5352944   -8.8050438    597.86789  0.010875862 0.0093356581            6 
 4582000   0.51039985   -8.7946703    599.34025  0.010900266 0.0093324741           10 
 4583000   0.50772453   -8.7849186    598.64306  0.010885211 0.0093292921            5 
 4584000   0.51859585   -8.7920771     598.8441  0.010886491 0.0093261091            4 
 4585000   0.52829485   -8.7983545    598.41341  0.010876289  0.009322932            4 
 4586000   0.51746727   -8.8061905    597.65707  0.010860174 0.0093197535            4 
 4587000    0.5162953   -8.8125978     598.1709  0.010867141 0.0093165757            4 
 4588000   0.52192085   -8.7960274    598.51129  0.010870955 0.0093134027            3 
 4589000    0.5224387   -8.7917691      600.116  0.010897726 0.0093102316            7 
 4590000   0.52114714   -8.8188671    598.41047  0.010864388 0.0093070571            4 
 4591000   0.51984627   -8.8112925    599.12439   0.01087498 0.0093038867            2 
 4592000   0.51811767   -8.8049013    598.80235  0.010866767 0.0093007165            5 
 4593000   0.51735072   -8.8143934    598.16154  0.010852775 0.0092975506            3 
 4594000   0.50787031   -8.7954495    598.56456  0.010857723 0.0092943798            2 
 4595000   0.51994774   -8.7998135    599.26857  0.010868128 0.0092912095            2 
 4596000   0.51363779   -8.8119334    598.92605  0.010859553 0.0092880444            2 
 4597000   0.50964759   -8.8017679    598.85858  0.010855967  0.009284884            2 
 4598000   0.51326819   -8.7933762    598.51172   0.01084732 0.0092817195            2 
 4599000   0.51120839   -8.8122957    599.81377  0.010868554  0.009278558            2 
 4600000   0.51823146   -8.8018376    598.68194  0.010845687 0.0092753971            4 
 4601000   0.51060523   -8.8034147     598.5673  0.010841254 0.0092722379            6 
 4602000   0.51037275   -8.8100368     598.3102  0.010834242 0.0092690819            2 
 4603000   0.50492069   -8.8254254    597.56942  0.010818477 0.0092659226            3 
 4604000   0.50566897   -8.8082581    597.99438  0.010823819 0.0092627687            2 
 4605000   0.51444617   -8.7944425     598.3307  0.010827555 0.0092596154            2 
 4606000   0.51866835   -8.7932495    599.22716  0.010841424 0.0092564631            1 
 4607000   0.51790836    -8.796605     599.2399  0.010839301 0.0092533164            3 
 4608000   0.50734376   -8.8188377    598.14297  0.010817111 0.0092501686            2 
 4609000   0.52591642   -8.8053667    598.44598  0.010820243 0.0092470211            5 
 4610000   0.52163558   -8.8081224    598.75906  0.010823555 0.0092438774            4 
 4611000   0.52739912   -8.8044896    598.72306  0.010820557 0.0092407302            2 
 4612000   0.50266394   -8.8227652    598.44285  0.010813148 0.0092375855            5 
 4613000    0.5000129   -8.8036115    597.50086  0.010793787  0.009234444            2 
 4614000   0.51992193   -8.8140051    598.63869  0.010811998  0.009231303            4 
 4615000   0.51306371   -8.8058636    598.63584  0.010809603 0.0092281613            4 
 4616000   0.52518978   -8.8018408    599.38631   0.01082081 0.0092250242            7 
 4617000   0.51787628   -8.8000821     597.8874  0.010791412 0.0092218906            2 
 4618000   0.50873393   -8.8182447    598.43163  0.010798896 0.0092187541            4 
 4619000    0.5088842   -8.8105745    597.45676   0.01077897  0.009215618            5 
 4620000   0.51791561   -8.8093547    599.05045  0.010805383 0.0092124851            4 
 4621000   0.50686691   -8.8072597    598.68113  0.010796385 0.0092093548            5 
 4622000   0.51927583    -8.823568    598.68562   0.01079413 0.0092062268            3 
 4623000   0.51598903   -8.8175342    598.76922  0.010793302 0.0092030959            8 
 4624000   0.51930102   -8.8036739    597.49933  0.010768082 0.0091999708            4 
 4625000   0.50331297   -8.7893491    598.18986  0.010778196 0.0091968471            3 
 4626000   0.50946876   -8.8326861     598.4938  0.010781341   0.00919372            5 
 4627000   0.50686052   -8.8027577    599.28874  0.010793328 0.0091905972            3 
 4628000   0.51268382   -8.8272847    597.40935  0.010757155 0.0091874746            5 
 4629000   0.51021032   -8.8126468    597.78377  0.010761571 0.0091843524            3 
 4630000   0.51785384   -8.8109918    598.62165  0.010774328  0.009181234            2 
 4631000    0.5177832   -8.8086712    598.93597  0.010777657 0.0091781158            2 
 4632000   0.50711024   -8.8190275    598.17068  0.010761562 0.0091749959            1 
 4633000   0.50727204   -8.8287841    598.58038  0.010766609   0.00917188            2 
 4634000   0.51309663   -8.8177475    598.09108  0.010755486 0.0091687644            3 
 4635000   0.49603047   -8.7922896    598.08971  0.010753141  0.009165656            7 
 4636000    0.5235081   -8.8018835    598.01293  0.010749442 0.0091625502            2 
 4637000   0.50431422   -8.7944188    598.52612  0.010756346 0.0091594416            4 
 4638000   0.51401344   -8.8147406    598.68244  0.010756836 0.0091563348            7 
 4639000   0.51549253   -8.8164005    598.51935  0.010751587 0.0091532263            6 
 4640000   0.52384662   -8.8265977     598.0288   0.01074046 0.0091501184            3 
 4641000   0.50161983   -8.8089059    598.93927  0.010754494 0.0091470124            2 
 4642000   0.52569896   -8.8096714    597.84818   0.01073259 0.0091439091            7 
 4643000   0.51088014    -8.821715    598.58431   0.01074349 0.0091408076            4 
 4644000   0.50945028   -8.8117555    597.55187  0.010722651 0.0091377067            2 
 4645000   0.50753836   -8.8153173    598.62791  0.010739647 0.0091346097            5 
 4646000   0.52191592   -8.8050385    598.01907  0.010726415 0.0091315139            6 
 4647000   0.50999111   -8.8183828    598.88541  0.010739642 0.0091284173            1 
 4648000   0.51132074   -8.8247923    598.18936  0.010724852 0.0091253202            2 
 4649000   0.50042895   -8.8134957    598.20804   0.01072288 0.0091222273            1 
 4650000   0.50072885   -8.8157227    597.10468  0.010700801 0.0091191347            3 
 4651000   0.52247471   -8.8246279     597.8534  0.010711915 0.0091160431            3 
 4652000   0.51781003   -8.8184534    598.23729  0.010716489 0.0091129516            4 
 4653000   0.52161519   -8.8304039    598.29105  0.010715149 0.0091098639            3 
 4654000   0.50269654   -8.8214801    597.82914  0.010704576 0.0091067754            1 
 4655000   0.51181439   -8.8137272     597.5475  0.010697234 0.0091036889            2 
 4656000    0.4994329   -8.8203309    598.06622  0.010704221 0.0091006039            2 
 4657000   0.50320448    -8.824948    598.71786  0.010713583 0.0090975216            1 
 4658000    0.4980643    -8.811972    598.63145  0.010709737 0.0090944375            2 
 4659000   0.50455591    -8.821681    598.66913  0.010708112 0.0090913567            2 
 4660000   0.51469325    -8.806943     599.1963  0.010715241 0.0090882753            1 
 4661000   0.50643644   -8.8155434    598.27114  0.010696402  0.009085194            2 
 4662000   0.50855323   -8.8138347    598.38144  0.010696079 0.0090821163            1 
 4663000   0.50207211   -8.8314614    598.39056  0.010693948   0.00907904            3 
 4664000   0.51007257   -8.8063328    597.25988  0.010671453 0.0090759636            1 
 4665000   0.49429372   -8.8171704    598.20916  0.010686123 0.0090728914            1 
 4666000   0.50447893   -8.8246583    597.83789  0.010677202 0.0090698195            1 
 4667000   0.50999362   -8.8337386     598.5574  0.010687762 0.0090667468            2 
 4668000   0.51076311   -8.8089448    597.94131  0.010674473 0.0090636744            1 
 4669000   0.48696483   -8.8117116     598.7681  0.010686944 0.0090606046            4 
 4670000   0.50240684     -8.83163    598.77565   0.01068479 0.0090575359            2 
 4671000   0.50737273   -8.8205871     597.6599  0.010662597 0.0090544667            2 
 4672000   0.49800217   -8.8291751    597.89017  0.010664422 0.0090514019            2 
 4673000   0.50558754   -8.8051442      597.372    0.0106529  0.009048337            1 
 4674000   0.51276375    -8.821437    597.95683  0.010661048 0.0090452752            1 
 4675000    0.5107345    -8.828942    598.79432  0.010673696 0.0090422133            2 
 4676000   0.50269871   -8.8363228    597.93893  0.010656169 0.0090391513            2 
 4677000   0.50965889   -8.8176729    597.64651   0.01064868 0.0090360916            3 
 4678000   0.51186828   -8.8297723    597.93868  0.010651608 0.0090330323            1 
 4679000   0.50696149   -8.8260257    597.87324  0.010648166 0.0090299765            1 
 4680000   0.50104937   -8.8272049    598.37362  0.010654801 0.0090269197            1 
 4681000   0.49459043   -8.8194366    597.95584  0.010645087 0.0090238638            3 
 4682000   0.50103285   -8.8379751     597.8981  0.010641786 0.0090208088            2 
 4683000   0.49721131   -8.8372735    598.01941  0.010641672 0.0090177544            2 
 4684000    0.5045811   -8.8385823    597.58907  0.010631744 0.0090147045            1 
 4685000   0.49659248   -8.8164878    597.51131  0.010628092 0.0090116531            3 
 4686000   0.50116168   -8.8269505     598.0836  0.010636001 0.0090086044            3 
 4687000   0.49396981   -8.8105979    598.79211  0.010646329 0.0090055588            2 
 4688000   0.49095993   -8.8264686    598.88879  0.010645776 0.0090025132            3 
 4689000   0.49651785    -8.831604    598.88461  0.010643432 0.0089994701            2 
 4690000    0.5068637   -8.8169739    599.00922  0.010643376  0.008996425            1 
 4691000   0.50614262    -8.808966    597.86909  0.010620854 0.0089933844            2 
 4692000   0.50371472   -8.8259608    598.59139  0.010631419 0.0089903441            2 
 4693000   0.51645544   -8.8093302    598.20158  0.010622231 0.0089873025            2 
 4694000   0.50677726    -8.814681    597.44666  0.010606566 0.0089842618            1 
 4695000   0.49285874    -8.830006    597.72403   0.01060923 0.0089812243            2 
 4696000   0.49550737     -8.82477    597.94758  0.010610938 0.0089781873            2 
 4697000   0.50472661    -8.811846    597.54531  0.010601542 0.0089751538            1 
 4698000   0.50087542   -8.8340007    597.48268  0.010598174 0.0089721183            2 
 4699000   0.50345218    -8.845784    597.05846  0.010588396 0.0089690838            2 
 4700000   0.49949703   -8.8336557    597.95418  0.010602024 0.0089660523            2 
 4701000   0.49001253   -8.8336583    597.89517  0.010598723 0.0089630203            3 
 4702000   0.49971763   -8.8470091    598.09218  0.010599961 0.0089599886            2 
 4703000    0.5009727   -8.8419377    598.13787  0.010598516 0.0089569589            2 
 4704000   0.49240708    -8.838015     598.6156  0.010604726 0.0089539333            2 
 4705000   0.51585137   -8.8254524    598.65265  0.010603129 0.0089509066            1 
 4706000   0.50030918   -8.8301111    596.69696  0.010566245 0.0089478819            2 
 4707000   0.49710598   -8.8380139    596.38632    0.0105585 0.0089448578            1 
 4708000   0.49963645   -8.8436438    597.41955  0.010574546 0.0089418351            1 
 4709000   0.50243532   -8.8091421    597.15818  0.010567675 0.0089388162            1 
 4710000    0.5021103   -8.8230235    597.95294  0.010579493 0.0089357982            1 
 4711000   0.49693118   -8.8303003    596.73469  0.010555697 0.0089327799            5 
 4712000   0.49490237   -8.8279107    597.65951  0.010569813 0.0089297663            3 
 4713000    0.5055729   -8.8137002     597.5533  0.010565692 0.0089267529            1 
 4714000   0.50233445   -8.8373642    597.30842  0.010559122 0.0089237408            1 
 4715000   0.50244412   -8.8331375    598.07131  0.010570366 0.0089207262            2 
 4716000   0.49532079   -8.8414398    597.59328  0.010559678 0.0089177137            2 
 4717000   0.50257281   -8.8231427    598.30153  0.010569951 0.0089147043            2 
 4718000   0.48675485   -8.8377616    596.98429  0.010544445 0.0089116936            2 
 4719000   0.49111296   -8.8474522    598.26156  0.010564766 0.0089086835            3 
 4720000   0.49023457   -8.8246252    597.94111   0.01055687 0.0089056793            2 
 4721000   0.50052409   -8.8454674    597.00519  0.010538113 0.0089026724            2 
 4722000    0.4988632   -8.8416437    597.50059  0.010544624 0.0088996723            2 
 4723000   0.49754303   -8.8251011    597.43012  0.010541148 0.0088966709            2 
 4724000   0.48677498   -8.8332742    597.76902  0.010544895 0.0088936699            2 
 4725000   0.49630499   -8.8310178      597.171  0.010532116 0.0088906704            3 
 4726000   0.49073279   -8.8266985    598.33141  0.010550349 0.0088876707            3 
 4727000    0.5018079   -8.8273981    597.48223  0.010533147 0.0088846742            1 
 4728000    0.4978682   -8.8428954    597.47419  0.010530777 0.0088816812            2 
 4729000   0.49669341   -8.8280717    598.78877  0.010551716 0.0088786898            1 
 4730000    0.4955595   -8.8274501    598.08216  0.010537036 0.0088756972            1 
 4731000   0.49440684   -8.8520497    597.43263  0.010523368 0.0088727079            3 
 4732000   0.50040831   -8.8433854    597.93039   0.01052991 0.0088697178            2 
 4733000   0.49453732   -8.8327131    597.12582  0.010513519 0.0088667305            2 
 4734000   0.50149732   -8.8382292    598.65023  0.010538133 0.0088637437            1 
 4735000   0.48885163   -8.8329504    598.17199   0.01052749  0.008860759            3 
 4736000   0.51036056   -8.8346096    597.74178  0.010517697 0.0088577765            2 
 4737000   0.50522223   -8.8482829    597.08701  0.010503958 0.0088547944            1 
 4738000   0.50052862   -8.8191151    597.46156  0.010508329 0.0088518135            3 
 4739000   0.49840494   -8.8323665    598.27971  0.010520499 0.0088488334            1 
 4740000   0.48746021   -8.8492167    598.16489   0.01051626 0.0088458538            2 
 4741000   0.49706458     -8.83949    597.48891   0.01050216 0.0088428752            2 
 4742000   0.49224633   -8.8412942    598.00513  0.010509017 0.0088398969            2 
 4743000   0.49345948   -8.8295015    597.34889  0.010495272 0.0088369231            2 
 4744000   0.48917621   -8.8521011    597.62496  0.010497909 0.0088339532            2 
 4745000   0.50601282   -8.8298466    597.63403  0.010495856 0.0088309814            1 
 4746000   0.49532326   -8.8221661    597.41849   0.01048986 0.0088280089            1 
 4747000   0.48835418   -8.8220716    597.17785  0.010483425 0.0088250421            2 
 4748000   0.50045866   -8.8364439    597.77181  0.010491642 0.0088220707            1 
 4749000   0.50158839   -8.8286853    597.34489  0.010481942 0.0088191008            2 
 4750000   0.50491137   -8.8568687    596.62218  0.010467056 0.0088161333            2 
 4751000   0.48494841   -8.8373063    596.73718   0.01046687 0.0088131678            1 
 4752000   0.48881623   -8.8211575    596.75913  0.010465052 0.0088102041            1 
 4753000    0.4854964   -8.8463273    597.63334  0.010478178 0.0088072413            3 
 4754000   0.49112932   -8.8372395    597.96076  0.010481713 0.0088042791            2 
 4755000   0.49914504   -8.8405045    597.50469  0.010471516 0.0088013184            1 
 4756000   0.50100465   -8.8444241    596.91338  0.010458953 0.0087983579            2 
 4757000   0.48329801   -8.8383422    596.80257  0.010454813    0.0087954            2 
 4758000   0.49043934    -8.847327    597.02216  0.010456462 0.0087924441            2 
 4759000   0.47637451   -8.8204836    597.61953  0.010464725 0.0087894885            1 
 4760000   0.48296644   -8.8520883    597.63405  0.010462781 0.0087865331            1 
 4761000   0.49624374    -8.834821    597.56266  0.010459334   0.00878358            1 
 4762000   0.49122615   -8.8275866    598.11596   0.01046682 0.0087806264            2 
 4763000   0.49656474   -8.8332937    597.68917  0.010457155 0.0087776755            2 
 4764000   0.48743759     -8.86051    597.16706  0.010445827 0.0087747254            1 
 4765000   0.48948742   -8.8231064    598.52311  0.010467351 0.0087717753            2 
 4766000   0.49445681   -8.8351892    597.80106  0.010452529 0.0087688288            1 
 4767000    0.4778412   -8.8399771    597.40591  0.010443429 0.0087658796            1 
 4768000   0.49275951    -8.849233    597.02979  0.010434665 0.0087629335            2 
 4769000    0.4857384   -8.8378995    597.86244  0.010447027 0.0087599894            4 
 4770000   0.48656708   -8.8414377    597.40837  0.010436904  0.008757046            2 
 4771000   0.49915491    -8.835357    598.54953  0.010454648 0.0087541046            2 
 4772000    0.4936791     -8.83175    598.20349  0.010446415 0.0087511666            1 
 4773000   0.49242407   -8.8512024    597.74932  0.010436297 0.0087482275            3 
 4774000   0.49533428   -8.8403999    597.10549  0.010422872 0.0087452923            1 
 4775000   0.48865747   -8.8257284    597.33435  0.010424683  0.008742355            2 
 4776000   0.48774896   -8.8436172     597.4304  0.010424176 0.0087394212            2 
 4777000   0.48647998   -8.8600405    597.19391  0.010417869 0.0087364873            2 
 4778000   0.49053672   -8.8523926    597.50188   0.01042106 0.0087335573            2 
 4779000   0.48921174   -8.8445316    596.87134  0.010407884 0.0087306263            2 
 4780000   0.47918138   -8.8403056    597.44304  0.010415674 0.0087276977            2 
 4781000   0.49243816   -8.8575616    596.76227  0.010401629 0.0087247674            3 
 4782000   0.49281521   -8.8334704    598.64055  0.010432186 0.0087218431            4 
 4783000   0.48369929    -8.846605    597.18976  0.010404728 0.0087189174            1 
 4784000   0.49610952   -8.8644671    597.23552   0.01040335 0.0087159898            2 
 4785000    0.4862031   -8.8413708    597.52942  0.010406294 0.0087130677            1 
 4786000   0.47748656   -8.8462308    597.29333  0.010400009 0.0087101458            2 
 4787000   0.48499478     -8.85856     596.8093   0.01038941 0.0087072217            2 
 4788000   0.48750519   -8.8476984    597.38268   0.01039722 0.0087043001            3 
 4789000   0.48147925   -8.8574276    597.72961  0.010401086 0.0087013803            2 
 4790000   0.48799221   -8.8385847    597.80756  0.010400271 0.0086984634            2 
 4791000   0.48929868   -8.8392276    596.36537  0.010373015 0.0086955479            2 
 4792000   0.47430962   -8.8511497    597.27236  0.010386623  0.008692634            2 
 4793000   0.47100137   -8.8356842    597.22496  0.010383632 0.0086897205            1 
 4794000   0.48621885   -8.8504717    598.07811  0.010396296 0.0086868071            3 
 4795000    0.4957601   -8.8393714    597.50749  0.010384211  0.008683897            2 
 4796000   0.48570124   -8.8551044    597.19699   0.01037665 0.0086809883            3 
 4797000   0.48731069   -8.8432183    596.99219   0.01037093 0.0086780755            2 
 4798000   0.48593997   -8.8439543    597.65693  0.010380314 0.0086751684            2 
 4799000   0.48462032   -8.8697905    597.19101   0.01037006 0.0086722599            2 
 4800000   0.48753322   -8.8531735    596.43221  0.010354726 0.0086693534            1 
 4801000   0.49109637    -8.845994    596.68246  0.010356913 0.0086664473            2 
 4802000   0.47263293    -8.841224    596.80057  0.010356806 0.0086635434            2 
 4803000   0.48866446   -8.8568715    596.99992  0.010358108 0.0086606406            2 
 4804000   0.49087487   -8.8441285    596.62311  0.010349416 0.0086577403            1 
 4805000     0.467224   -8.8478723    598.03451   0.01037174 0.0086548408            2 
 4806000   0.48633536   -8.8515988    596.98997   0.01035147 0.0086519404            2 
 4807000   0.48035835   -8.8522165    597.95897  0.010366115 0.0086490406            3 
 4808000   0.48328868     -8.84522    596.85487  0.010344822 0.0086461447            2 
 4809000   0.49694512   -8.8550817    596.67802  0.010339607 0.0086432507            2 
 4810000   0.49161495   -8.8610648    597.22138  0.010346871 0.0086403587            3 
 4811000   0.47183511   -8.8476904    597.20948  0.010344514 0.0086374649            2 
 4812000   0.48142872   -8.8575457    597.50569  0.010347494  0.008634573            2 
 4813000   0.48624804   -8.8650209    596.43778  0.010326854 0.0086316831            2 
 4814000   0.48685692   -8.8586525     596.1713  0.010320096  0.008628792            2 
 4815000   0.48273154   -8.8574148     596.8356   0.01032945 0.0086259051            2 
 4816000   0.48396798    -8.854807    596.74434  0.010325726  0.008623017            3 
 4817000    0.4791482   -8.8542849    596.95336  0.010327198 0.0086201339            1 
 4818000   0.47452695   -8.8562256     596.5105  0.010317395 0.0086172483            1 
 4819000   0.47564727   -8.8399119    597.65728  0.010335085 0.0086143651            1 
 4820000   0.48698066   -8.8565541    597.86844  0.010336591 0.0086114828            1 
 4821000   0.46940532   -8.8495619    596.96024  0.010318749 0.0086086022            2 
 4822000   0.47999762   -8.8480967    597.57059  0.010327157 0.0086057232            2 
 4823000    0.4784952   -8.8465794    596.53076  0.010307049 0.0086028472            1 
 4824000   0.47872463   -8.8682855    596.78961  0.010309384 0.0085999687            1 
 4825000   0.47771219   -8.8636282    597.62006   0.01032159   0.00859709            1 
 4826000   0.48877676   -8.8686491    597.35844  0.010314934 0.0085942157            1 
 4827000   0.48111375   -8.8515801    597.34164  0.010312507 0.0085913414            1 
 4828000   0.46790731   -8.8559442    597.34767  0.010310475   0.00858847            1 
 4829000   0.47862944   -8.8562749    597.76392  0.010315523 0.0085856038            1 
 4830000   0.47977362   -8.8572985    596.95118  0.010299365 0.0085827351            3 
 4831000   0.48251656   -8.8553746    596.60346  0.010291235 0.0085798676            1 
 4832000   0.47426248   -8.8459567    597.50853  0.010304714 0.0085769996            2 
 4833000   0.47497445     -8.84778     596.7818  0.010290051 0.0085741336            1 
 4834000   0.48415724   -8.8574646    596.21843   0.01027821 0.0085712692            1 
 4835000   0.47616578   -8.8520666    596.68416  0.010284112 0.0085684045            2 
 4836000   0.48658087   -8.8600338    596.17715  0.010273248 0.0085655445            2 
 4837000   0.47166842   -8.8436215    596.75006  0.010280995 0.0085626831            3 
 4838000   0.47489561   -8.8572718    596.49757  0.010274521 0.0085598243            2 
 4839000   0.48753332   -8.8609574    596.87356  0.010278872 0.0085569642            2 
 4840000   0.48330071   -8.8469149    597.02883  0.010279422 0.0085541056            3 
 4841000   0.47514547   -8.8494844    595.88889  0.010257676 0.0085512466            1 
 4842000   0.47600211   -8.8598206    596.42679  0.010264815 0.0085483919            3 
 4843000   0.48447403   -8.8589324    597.02181  0.010272934 0.0085455371            2 
 4844000   0.48346302   -8.8504757    597.04623  0.010271233 0.0085426846            3 
 4845000   0.47127247   -8.8404864    596.51447  0.010259967  0.008539835            3 
 4846000   0.48749964   -8.8667542    597.06704  0.010267352  0.008536985            3 
 4847000   0.48655893   -8.8617253    596.41738  0.010254064 0.0085341334            1 
 4848000   0.47262163   -8.8602144    596.97763  0.010261579 0.0085312856            2 
 4849000    0.4865322   -8.8641417    596.89493  0.010258042 0.0085284381            2 
 4850000   0.47804026   -8.8573417    596.17537  0.010243563 0.0085255935            3 
 4851000   0.47592028   -8.8670231    596.62659  0.010249203 0.0085227481            1 
 4852000   0.47673848   -8.8671151    597.00867  0.010253653 0.0085199043            3 
 4853000   0.45781254   -8.8681585    596.89043  0.010249509 0.0085170635            3 
 4854000   0.48519658   -8.8601789    596.29039  0.010237096 0.0085142213            3 
 4855000    0.4747151   -8.8613867    596.68452  0.010241753 0.0085113803            2 
 4856000   0.47133679   -8.8625216     596.3733  0.010234303 0.0085085417            3 
 4857000   0.48221251   -8.8631403    597.16977  0.010245861 0.0085057043            1 
 4858000   0.48257254    -8.864005    596.93596  0.010239741 0.0085028678            4 
 4859000   0.47119993   -8.8819739    596.90276  0.010237065  0.008500034            2 
 4860000   0.47057113   -8.8605022    596.26478  0.010224019 0.0084972011            2 
 4861000    0.4654837   -8.8492146    596.42821  0.010224717 0.0084943685            1 
 4862000   0.46926853   -8.8539802    597.78494  0.010245868 0.0084915397            1 
 4863000   0.46885931     -8.87015    596.23354  0.010217176 0.0084887076            1 
 4864000   0.48349201   -8.8678512    596.82966  0.010225289 0.0084858774            3 
 4865000   0.48210515   -8.8687178    597.07077  0.010227317 0.0084830494            2 
 4866000   0.48896368   -8.8673911    596.03974  0.010207558 0.0084802239            2 
 4867000   0.47199626   -8.8680435    597.38419  0.010228481 0.0084773998            3 
 4868000   0.48304603    -8.854136     597.4282  0.010227133 0.0084745749            1 
 4869000   0.48375228   -8.8640667    596.67913  0.010212212 0.0084717532            1 
 4870000   0.47566223   -8.8564193    595.95543  0.010197731 0.0084689308            3 
 4871000   0.47004088   -8.8632871    596.71455  0.010208625 0.0084661103            1 
 4872000   0.47064212   -8.8508964    596.26873  0.010198904 0.0084632928            1 
 4873000   0.46481944   -8.8483209    596.39667  0.010198999 0.0084604737            2 
 4874000   0.47558785     -8.86213    596.77092  0.010203305 0.0084576554            1 
 4875000   0.47428396   -8.8719196    596.23375   0.01019203 0.0084548366            2 
 4876000   0.46985394   -8.8567513     596.2447  0.010190127  0.008452019            2 
 4877000   0.45355675   -8.8629743    596.12372   0.01018597 0.0084492031            2 
 4878000   0.47332389   -8.8731165    596.45824  0.010189597 0.0084463883            2 
 4879000    0.4779128   -8.8681209    597.21527  0.010200438 0.0084435741            3 
 4880000   0.46531731   -8.8670166    596.65584  0.010188795 0.0084407597            1 
 4881000   0.46225397   -8.8626609      597.509  0.010201274 0.0084379473            3 
 4882000    0.4714264   -8.8760543    596.06008  0.010174452 0.0084351345            1 
 4883000   0.46672895    -8.879559    596.14695  0.010173851 0.0084323267            2 
 4884000   0.46359959    -8.863024    595.79891  0.010165829  0.008429518            2 
 4885000   0.47104335   -8.8797528    595.82861  0.010164255 0.0084267103            1 
 4886000   0.46403417   -8.8751297    597.01643  0.010182433  0.008423905            1 
 4887000   0.48144094   -8.8582025    596.69361  0.010174845  0.008421101            2 
 4888000   0.47350986   -8.8705355    596.87438  0.010175845 0.0084182983            2 
 4889000   0.47550327    -8.858889    595.44006  0.010149316 0.0084154952            2 
 4890000   0.47006255   -8.8700356    596.46757  0.010164751 0.0084126928            2 
 4891000   0.47569195   -8.8753897    596.04449  0.010155464 0.0084098947            2 
 4892000   0.46549498   -8.8678947    596.54009   0.01016183 0.0084070937            3 
 4893000   0.46479415   -8.8615335    596.30963  0.010155829 0.0084042962            1 
 4894000   0.45650976   -8.8807336    596.45785  0.010156277 0.0084014993            3 
 4895000   0.47091575   -8.8789186    595.52659  0.010138348 0.0083987029            2 
 4896000   0.47058189   -8.8795265    596.02515  0.010144764 0.0083959083            3 
 4897000   0.45818883   -8.8781676    596.14042  0.010144653 0.0083931172            2 
 4898000   0.46637696   -8.8555991    596.64605  0.010151185  0.008390326            1 
 4899000   0.46519099   -8.8825773    596.40073   0.01014494 0.0083875361            4 
 4900000   0.46073279   -8.8629497    596.10194  0.010137788 0.0083847443            3 
 4901000   0.46286502   -8.8779222    596.10492   0.01013577 0.0083819563            3 
 4902000    0.4626662   -8.8598004    596.60956  0.010142281 0.0083791703            2 
 4903000   0.46609294   -8.8737118    596.53747  0.010138988 0.0083763836            3 
 4904000    0.4655726   -8.8742169    595.68227  0.010122388 0.0083735975            2 
 4905000   0.47149762   -8.8659371    596.38424   0.01013225  0.008370814            2 
 4906000   0.47385583    -8.872953    595.49423  0.010115067 0.0083680325            2 
 4907000   0.46225696   -8.8675495    596.26686  0.010126127 0.0083652516            2 
 4908000   0.45841072   -8.8674586    596.06393  0.010120618 0.0083624718            4 
 4909000   0.46159079   -8.8745957    596.51922  0.010126285 0.0083596948            2 
 4910000   0.46405434   -8.8770431      596.201  0.010118822 0.0083569165            3 
 4911000   0.46189599   -8.8795093     596.3168  0.010118727 0.0083541423            2 
 4912000   0.46392588   -8.8672612    595.45007  0.010101962 0.0083513686            3 
 4913000   0.46640552   -8.8654543    596.13688  0.010111556 0.0083485946            4 
 4914000   0.46310066   -8.8884661    596.43344  0.010114527 0.0083458233            3 
 4915000   0.46538539   -8.8720163    595.43695  0.010095574 0.0083430527            4 
 4916000   0.46163936   -8.8606205      595.939  0.010102031 0.0083402822            2 
 4917000   0.46253563   -8.8750585      596.053  0.010101908 0.0083375138            1 
 4918000   0.47087868   -8.8802109    596.24619  0.010103128 0.0083347458            1 
 4919000   0.46819494   -8.8780301    596.61243  0.010107278 0.0083319783            2 
 4920000   0.47388753   -8.8838965    595.90019   0.01009316 0.0083292116            2 
 4921000   0.47211551   -8.8568838    596.58893  0.010102773 0.0083264506            2 
 4922000   0.46127238   -8.8730784    596.33913  0.010096491 0.0083236872            1 
 4923000   0.46124479   -8.8820285    596.29761  0.010093737 0.0083209245            1 
 4924000    0.4580993   -8.8821922     596.5382  0.010095759 0.0083181613            1 
 4925000    0.4678173   -8.8774772    596.52746  0.010093527 0.0083154019            2 
 4926000   0.45990571   -8.8783556    596.54556  0.010091784 0.0083126432            2 
 4927000   0.46662574   -8.8847031    596.02046  0.010080855 0.0083098878            1 
 4928000   0.46441119   -8.8776256    596.30658  0.010083647 0.0083071333            1 
 4929000   0.46602798   -8.8796365    596.39138  0.010083035 0.0083043795            4 
 4930000    0.4646805   -8.8938471    596.54032  0.010083508 0.0083016265            2 
 4931000   0.46129632   -8.8928459    595.24916  0.010059642  0.008298872            2 
 4932000   0.45518704   -8.9021691    595.11961  0.010055414  0.008296119            3 
 4933000   0.45879578   -8.8822379     596.5144  0.010076938 0.0082933695            2 
 4934000   0.46988414   -8.8802402    595.89349  0.010064408 0.0082906207            3 
 4935000   0.46602047   -8.8818525    596.51928  0.010072936 0.0082878724            3 
 4936000   0.45933905   -8.9097427    596.05252  0.010063015 0.0082851239            2 
 4937000    0.4577701   -8.8897107    595.32001  0.010048613  0.008282378            4 
 4938000   0.45973573   -8.8849632    595.93717  0.010056993 0.0082796333            1 
 4939000   0.46632742   -8.8849959    595.92365  0.010054729 0.0082768912            2 
 4940000   0.46469149   -8.8748028     596.4575  0.010061699 0.0082741492            1 
 4941000   0.45446847   -8.8853077    595.16083  0.010037793 0.0082714081            2 
 4942000   0.47055831   -8.8810632    596.17947  0.010052939 0.0082686694            2 
 4943000   0.45554003   -8.8815366    596.47898  0.010055954 0.0082659309            2 
 4944000   0.46218414   -8.8695792    596.83976  0.010060001 0.0082631931            2 
 4945000   0.45042828   -8.8830536     596.0873  0.010045286  0.008260457            2 
 4946000   0.45648396   -8.8790274    596.06677   0.01004291 0.0082577201            3 
 4947000   0.45519873    -8.888092    596.26643  0.010044243 0.0082549876            1 
 4948000   0.46613412   -8.8802145    595.73385  0.010033243 0.0082522572            3 
 4949000   0.46094575   -8.8855679    595.91447  0.010034257 0.0082495259            2 
 4950000   0.47061376   -8.8823369    595.36751  0.010023022 0.0082467941            1 
 4951000   0.46398016   -8.8669591    595.71471  0.010026841 0.0082440628            1 
 4952000   0.45916937   -8.8922479    596.50997    0.0100382 0.0082413326            3 
 4953000    0.4592346   -8.8800077    595.10191  0.010012482  0.008238604            2 
 4954000   0.46643309   -8.8808453    596.63902  0.010036318 0.0082358763            2 
 4955000   0.45142977   -8.8997836    595.38615  0.010013222 0.0082331504            2 
 4956000   0.45643797   -8.8789211     596.0642  0.010022602 0.0082304251            2 
 4957000   0.44876026   -8.8997602    595.56633  0.010012211 0.0082277014            3 
 4958000   0.44890878   -8.8902856    595.47564  0.010008667 0.0082249773            1 
 4959000   0.45354381    -8.899481    596.38802  0.010021981 0.0082222566            3 
 4960000   0.46137064   -8.8964125    595.71428   0.01000864 0.0082195355            2 
 4961000    0.4632897   -8.8955081    595.94346  0.010010473 0.0082168167            4 
 4962000   0.45749401   -8.8893209    595.67947  0.010004022 0.0082140983            1 
 4963000   0.45232233   -8.8881831    597.20509  0.010027623 0.0082113828            1 
 4964000   0.44782279   -8.8878077     595.4572 0.0099962597 0.0082086653            1 
 4965000   0.46118133   -8.8899685    595.97728  0.010002976 0.0082059507            2 
 4966000   0.44502436   -8.8828137    595.55188 0.0099938227 0.0082032374            3 
 4967000   0.44702104   -8.9017173     595.8228 0.0099963559 0.0082005244            4 
 4968000   0.45475135   -8.8816902     595.6777 0.0099919099 0.0081978128            1 
 4969000   0.45417473    -8.881737    595.98842   0.00999511 0.0081951026            3 
 4970000   0.45157813    -8.888273    595.32452 0.0099819671 0.0081923934            1 
 4971000   0.46223526   -8.8957025    596.12514 0.0099933805  0.008189684            3 
 4972000    0.4524001   -8.8989021    596.03666 0.0099898878  0.008186977            3 
 4973000   0.46084964   -8.8985958    595.53766  0.009979517 0.0081842697            4 
 4974000    0.4550181   -8.8873536    595.09769 0.0099701396 0.0081815649            2 
 4975000   0.45017758   -8.8943381     595.3208 0.0099718727 0.0081788626            2 
 4976000   0.45270204   -8.8951713    596.88913 0.0099961335  0.008176161            1 
 4977000   0.45607832   -8.8803383    596.41173 0.0099861318 0.0081734604            1 
 4978000   0.45446252   -8.9015058    596.09574 0.0099788358 0.0081707602            1 
 4979000   0.45857895   -8.8876731     595.9039 0.0099736209 0.0081680639            1 
 4980000   0.45345593   -8.8927781    595.81154 0.0099700726 0.0081653676            2 
 4981000   0.45102327   -8.8897444    595.72436 0.0099666125 0.0081626704            3 
 4982000   0.45565295   -8.8916344    595.49824 0.0099608296 0.0081599737            1 
 4983000   0.45553734   -8.9105256    595.08106  0.009951854 0.0081572784            1 
 4984000   0.45197849    -8.898257    595.68194  0.009959904 0.0081545826            2 
 4985000   0.44994226   -8.8955288    595.70377 0.0099582709 0.0081518922            2 
 4986000   0.44823641   -8.8948336    594.84939 0.0099419941 0.0081492007            2 
 4987000   0.46184529   -8.9093771     596.7041 0.0099709929  0.008146507            2 
 4988000   0.45819875   -8.8894707    594.82874 0.0099376628 0.0081438162            2 
 4989000   0.44751207   -8.8850181    595.37418 0.0099447815 0.0081411293            3 
 4990000   0.46373548   -8.8921243    595.53353 0.0099454498 0.0081384413            4 
 4991000   0.45080767   -8.9185865    595.30773 0.0099396869 0.0081357561            2 
 4992000   0.45682854   -8.8972288    596.06725 0.0099503748 0.0081330703            2 
 4993000   0.44528367   -8.8902702    595.90988 0.0099457553 0.0081303871            4 
 4994000   0.44708365   -8.8980403    595.89492 0.0099435142 0.0081277043            2 
 4995000   0.45208326   -8.9034334    595.37889 0.0099329144 0.0081250219            3 
 4996000   0.45697184   -8.8973812    595.87319 0.0099391712 0.0081223414            2 
 4997000   0.45690822   -8.8911206    596.26043 0.0099436401 0.0081196627            1 
 4998000   0.45216212   -8.9007357    595.21378 0.0099241994 0.0081169839            2 
 4999000   0.45162151   -8.9068472    595.65551 0.0099295778 0.0081143077            2 
 5000000      0.44362   -8.9064957    595.76624 0.0099294373 0.0081116343            2 
 5001000   0.45321054   -8.8963512    596.01353 0.0099315726 0.0081089608            2 
 5002000   0.45908796   -8.8967193     595.1963 0.0099159719 0.0081062856            1 
 5003000   0.44051417   -8.9022997    594.72923 0.0099062101 0.0081036146            2 
 5004000   0.44441301   -8.9047101    596.03884 0.0099260399  0.008100941            3 
 5005000   0.45458898   -8.8998819    595.25061 0.0099109325 0.0080982723            2 
 5006000   0.45350479   -8.8978491    595.78006 0.0099177664 0.0080956021            2 
 5007000    0.4510612   -8.9044634    596.15871 0.0099220875 0.0080929354            2 
 5008000   0.44118743   -8.9141774    594.95829 0.0099001314 0.0080902687            2 
 5009000   0.43929056   -8.9020703    595.95893 0.0099148022  0.008087604            2 
 5010000   0.44233623   -8.9008793     594.9236 0.0098956021 0.0080849412            5 
 5011000   0.45380066   -8.9019034     595.7338  0.009907101 0.0080822785            2 
 5012000   0.44398132   -8.8912745    596.46246 0.0099172395 0.0080796169            2 
Loop time of 12260.9 on 48 procs for 5000000 steps with 4000 atoms

Performance: 70467.946 tau/day, 407.801 timesteps/s
99.4% CPU use with 48 MPI tasks x no OpenMP threads

MPI task timing breakdown:
Section |  min time  |  avg time  |  max time  |%varavg| %total
---------------------------------------------------------------
Pair    | 792.97     | 862.28     | 928.61     | 103.0 |  7.03
Neigh   | 80.697     | 83.558     | 86.659     |  17.9 |  0.68
Comm    | 767.88     | 838.69     | 911.51     | 106.2 |  6.84
Output  | 13.787     | 13.792     | 13.871     |   0.3 |  0.11
Modify  | 10326      | 10348      | 10371      |  10.6 | 84.40
Other   |            | 114.2      |            |       |  0.93

Nlocal:        83.3333 ave          89 max          75 min
Histogram: 1 1 2 5 3 16 4 6 4 6
Nghost:        2135.29 ave        2155 max        2111 min
Histogram: 1 2 3 5 8 9 4 11 3 2
Neighs:        14067.2 ave       15333 max       12748 min
Histogram: 2 3 7 4 8 6 6 6 4 2
FullNghs:      28134.4 ave       30161 max       25340 min
Histogram: 1 1 2 5 8 11 7 3 6 4

Total # of neighbors = 1350451
Ave neighs/atom = 337.61275
Neighbor list builds = 267253
Dangerous builds = 1

#clear
#
#next RN
#
#jump SELF
Total wall time: 3:24:24
