
units lj                  # Use reduced LJ style units
atom_style atomic         # Uncharged point particles
atom_modify map hash      # Needed for indexing of clusters etc
                          # Used to be able to find where atoms are in relation to each other.

lattice fcc 1.0 spacing 1 1 1
Lattice spacing in x,y,z = 1.5874011 1.5874011 1.5874011
region box block 0 10 0 10 0 10 units lattice
create_box 2 box
Created orthogonal box = (0.0000000 0.0000000 0.0000000) to (15.874011 15.874011 15.874011)
  3 by 4 by 4 MPI processor grid
create_atoms 1 box
Created 4000 atoms
  using lattice units in orthogonal box = (0.0000000 0.0000000 0.0000000) to (15.874011 15.874011 15.874011)
  create_atoms CPU = 0.019 seconds
set type 1 type/fraction 2 0.82 78393
Setting atom values ...
  3266 settings made for type/fraction
mass 1 1.0
mass 2 1.0
pair_style lj/cut  3.5
pair_modify tail  yes
pair_coeff 1  1  1.0  1.0   # Intearaction between 1 and 1 set with epsilon = 1 and sigma = 1
pair_coeff 1  2  1.5  0.8
pair_coeff 2  2  0.5  0.88

write_data data.0
System init for write_data ...
Neighbor list info ...
  update every 1 steps, delay 10 steps, check yes
  max neighbors/atom: 2000, page size: 100000
  master list distance cutoff = 3.8
  ghost atom cutoff = 3.8
  binsize = 1.9, bins = 9 9 9
  1 neighbor lists, perpetual/occasional/extra = 1 0 0
  (1) pair lj/cut, perpetual
      attributes: half, newton on
      pair build: half/bin/atomonly/newton
      stencil: half/bin/3d
      bin: standard
WARNING: Not all mixed pair coeffs generated from mixing. Use write_data with 'pair ij' option to store all pair coeffs. (../write_data.cpp:312)


#############################
#   M E L T   S Y S T E M   #
#############################

velocity all create 2.4 3143649 mom yes dist gaussian # Assign velocities
                                                    # Temperature 2.4, random number seed, zero linear momentum
                                                                                # Gaussian distribution

timestep 0.002   # simulation timestep
thermo 1000       # output thermodynamic data every 1000 steps bf 100

# Define a fix  in this case with index 1 applied to all
# particles in the simulation. This fix is for simulations
# in the anisotropic NPT ensemble. Note that we use the MTK
# correction.
fix 1 all npt temp 2.4 2.4 0.1 iso 5.68 5.68 0.5 mtk yes tchain 5 pchain 5 # Use NPT ensemble
                                                                         # Set temperature and pressure and damping
                                                                         # Numbers of thermostats in chain and in barostat
run 10000          # run for 10000 steps
Per MPI rank memory allocation (min/avg/max) = 3.642 | 3.644 | 3.648 Mbytes
Step Temp E_pair E_mol TotEng Press Volume 
       0          2.4    -3.598932            0 0.00016796869   -3.1561227         4000 
    1000    2.4045689   -2.8787877            0   0.72716392    5.7746081    3828.7998 
    2000    2.3888091   -2.9005262            0   0.68179157     5.505091    3839.1421 
    3000    2.4144002   -2.9496245            0    0.6710704    5.5956461    3802.1888 
    4000     2.434074   -2.9339705            0   0.71622771    5.5363966     3820.718 
    5000    2.3725267   -2.8741315            0   0.68376884    5.5326525    3870.3955 
    6000    2.4279223   -2.9298987            0   0.71107424    5.4512936    3844.2587 
    7000    2.3879389   -2.8749058            0   0.70610709    5.9105767    3815.0399 
    8000    2.3998596    -2.900206            0   0.69868337    5.6990379    3825.0532 
    9000    2.4399953   -2.9038321            0   0.75524581    5.8468815    3822.7083 
   10000    2.4257471   -2.9115681            0   0.72614289    5.7755591    3805.0782 
Loop time of 2.52423 on 48 procs for 10000 steps with 4000 atoms

Performance: 684565.665 tau/day, 3961.607 timesteps/s
99.6% CPU use with 48 MPI tasks x no OpenMP threads

MPI task timing breakdown:
Section |  min time  |  avg time  |  max time  |%varavg| %total
---------------------------------------------------------------
Pair    | 1.1292     | 1.2022     | 1.2722     |   3.1 | 47.63
Neigh   | 0.21121    | 0.21937    | 0.23772    |   0.9 |  8.69
Comm    | 0.75705    | 0.85111    | 0.92496    |   4.4 | 33.72
Output  | 0.0002416  | 0.00024703 | 0.00031264 |   0.0 |  0.01
Modify  | 0.20758    | 0.23613    | 0.26552    |   2.6 |  9.35
Other   |            | 0.01516    |            |       |  0.60

Nlocal:        83.3333 ave          97 max          73 min
Histogram: 2 1 11 8 7 11 3 2 1 2
Nghost:        1702.77 ave        1720 max        1683 min
Histogram: 2 4 4 7 6 5 4 8 5 3
Neighs:        10032.8 ave       12033 max        8479 min
Histogram: 2 6 4 9 8 11 3 2 2 1

Total # of neighbors = 481575
Ave neighs/atom = 120.39375
Neighbor list builds = 909
Dangerous builds = 206

# Equilibrate just above the melting temperature to avoid step fn in T

fix 1 all npt temp 1.25 1.25 0.1 iso 5.68 5.68 0.5 mtk yes tchain 5 pchain 5
run 2000
Per MPI rank memory allocation (min/avg/max) = 3.643 | 3.645 | 3.649 Mbytes
Step Temp E_pair E_mol TotEng Press Volume 
   10000    2.4257471   -2.9115681            0   0.72614289    5.7755591    3805.0782 
   11000    1.2357578   -4.2898569            0   -2.4366836    5.5039613    2951.1217 
   12000    1.2815634   -4.3172175            0   -2.3953529    5.6902276    2933.5115 
Loop time of 0.626739 on 48 procs for 2000 steps with 4000 atoms

Performance: 551425.575 tau/day, 3191.120 timesteps/s
99.7% CPU use with 48 MPI tasks x no OpenMP threads

MPI task timing breakdown:
Section |  min time  |  avg time  |  max time  |%varavg| %total
---------------------------------------------------------------
Pair    | 0.27991    | 0.30712    | 0.33925    |   2.3 | 49.00
Neigh   | 0.040353   | 0.042504   | 0.045958   |   0.6 |  6.78
Comm    | 0.19569    | 0.22841    | 0.2622     |   3.1 | 36.44
Output  | 5.2534e-05 | 5.4203e-05 | 7.609e-05  |   0.0 |  0.01
Modify  | 0.038996   | 0.043764   | 0.047841   |   1.3 |  6.98
Other   |            | 0.00489    |            |       |  0.78

Nlocal:        83.3333 ave          92 max          76 min
Histogram: 3 2 6 13 2 8 7 3 2 2
Nghost:        2023.19 ave        2042 max        2005 min
Histogram: 1 1 9 9 6 10 2 3 6 1
Neighs:        13016.9 ave       14845 max       11241 min
Histogram: 1 5 3 8 8 9 4 5 3 2

Total # of neighbors = 624811
Ave neighs/atom = 156.20275
Neighbor list builds = 143
Dangerous builds = 10

#############################
# L I N E A R  Q U E N C H  #
#############################

# Define solid atoms. This closely follows ten Wolde  Ruiz-Montero and Frenkel  Faraday Discuss  1996  104  93-110
# Compute components of the per-atom q6 vector
compute q6 all orientorder/atom degrees 1 6 components 6 nnn NULL cutoff 1.3 # compute the Q6 parameter.
                                                                             # Use all neighbours within 1.3 unit cell.

# get number of connections
compute coord_number all coord/atom orientorder q6 0.5

# An atom is solid if it has 8 or more connections (of a possible 14)
variable is_solid atom c_coord_number>=8
group solid dynamic all var is_solid    # Must be dynamic to update
dynamic group solid defined

# do clustering
compute cluster solid cluster/atom 1.3 # Create a cluster where all atoms within are solid and max 1.3 units from another member

# define chunks one chunk per cluster
compute clus_chunks solid chunk/atom c_cluster nchunk every compress yes  # Says which atoms are in which chunk

# count the size of each chunk
compute size_chunks solid property/chunk clus_chunks count


# Find the maximum entry in the vector of chunk sizes
variable max_n equal max(c_size_chunks)


# Thermo style which includes this variable
# thermo_style custom step temp pe vol v_max_n

thermo ${N}  # Print the thermo information every 100 steps
thermo 1000  

# Reset the npt fix at a lower temperature (below freezing)
fix 1  all npt temp  ${temp} ${temp}  0.1  iso  5.68  5.68  0.5  mtk yes tchain  5  pchain  5
fix 1  all npt temp  0.45 ${temp}  0.1  iso  5.68  5.68  0.5  mtk yes tchain  5  pchain  5
fix 1  all npt temp  0.45 0.45  0.1  iso  5.68  5.68  0.5  mtk yes tchain  5  pchain  5

dump dmp2 all dcd ${N} traj.dcd
dump dmp2 all dcd 1000 traj.dcd


compute msd all msd com yes
variable twopoint equal c_msd[4]/6/(step*dt+1.0e-6)
fix 9 all vector 10 c_msd[4]
variable fit equal slope(f_9)/6/(10*dt)
thermo_style custom step temp pe c_msd[4] v_twopoint v_fit v_max_n

fix 1 all npt temp 1.25 ${temp} 0.1 iso 5.68 5.68 0.5 mtk yes tchain 5 pchain 5
fix 1 all npt temp 1.25 0.45 0.1 iso 5.68 5.68 0.5 mtk yes tchain 5 pchain 5
run 5000000 # 5000000  # Run for this many steps
Neighbor list info ...
  update every 1 steps, delay 10 steps, check yes
  max neighbors/atom: 2000, page size: 100000
  master list distance cutoff = 3.8
  ghost atom cutoff = 3.8
  binsize = 1.9, bins = 8 8 8
  4 neighbor lists, perpetual/occasional/extra = 1 3 0
  (1) pair lj/cut, perpetual
      attributes: half, newton on
      pair build: half/bin/atomonly/newton
      stencil: half/bin/3d
      bin: standard
  (2) compute orientorder/atom, occasional
      attributes: full, newton on
      pair build: full/bin/atomonly
      stencil: full/bin/3d
      bin: standard
  (3) compute coord/atom, occasional
      attributes: full, newton on
      pair build: full/bin/atomonly
      stencil: full/bin/3d
      bin: standard
  (4) compute cluster/atom, occasional
      attributes: full, newton on
      pair build: full/bin/atomonly
      stencil: full/bin/3d
      bin: standard
Per MPI rank memory allocation (min/avg/max) = 9.834 | 9.840 | 9.845 Mbytes
Step Temp PotEng c_msd[4] v_twopoint v_fit v_max_n 
   12000    1.2815634   -4.3172175 7.1040869e-30 4.9333935e-32 8.3333333e+20            1 
   13000    1.2527073   -4.3374581   0.82548846 0.0052915925  0.068576733            3 
   14000    1.2327965   -4.2647062    1.7885493  0.010646126  0.074972374            1 
   15000    1.2518086    -4.314315    2.7208967  0.015116092  0.076492081            1 
   16000    1.2637262   -4.3019221    3.6238677   0.01887431  0.076581766            2 
   17000      1.23304   -4.2971798     4.552339  0.022315387   0.07724411            3 
   18000    1.2229814   -4.3072642    5.4359988   0.02516666  0.076816338            1 
   19000    1.2658517   -4.3050295     6.266872   0.02748628  0.076196656            3 
   20000    1.2455293   -4.3340053    7.1146513   0.02964438  0.075441083            3 
   21000    1.2280037    -4.298797    8.0909124  0.032106794  0.074963545            2 
   22000    1.2442426   -4.3111451    9.0178981  0.034158704  0.075001737            3 
   23000    1.2634409   -4.3210044    9.8546425  0.035705226  0.075079568            1 
   24000    1.2257282   -4.2746282    10.664301  0.037028823   0.07484453            2 
   25000    1.2420513   -4.3269761    11.458571  0.038195235  0.074436203            2 
   26000    1.2247878   -4.3040062    12.311688  0.039460537  0.074016413            6 
   27000    1.2744617   -4.2926362    13.121372   0.04049806  0.073734768            2 
   28000    1.2486543   -4.3037126    14.013142   0.04170578  0.073369537            2 
   29000    1.2755782   -4.2810008    14.895013   0.04280176  0.073103243            2 
   30000    1.2483013   -4.2752336    15.661772  0.043504922  0.072752172            1 
   31000    1.2412524   -4.3016754    16.533746  0.044445552  0.072462507            3 
   32000    1.2465071   -4.2828755     17.33326  0.045138698  0.072275667            2 
   33000    1.2489745   -4.2734955    18.268759  0.046133229  0.072118497            2 
   34000    1.2705438   -4.2694757    19.067347  0.046733693  0.071981122            2 
   35000     1.248739   -4.2893505    19.957954  0.047518938  0.071830746            2 
   36000    1.2493261    -4.308623    20.898913  0.048377112  0.071769102            2 
   37000    1.2587667   -4.3028998    21.720762  0.048920634  0.071756446            4 
   38000    1.2538307   -4.3167062    22.694274  0.049768144  0.071776796            1 
   39000     1.240331   -4.2958767    23.606734  0.050441739  0.071821705            3 
   40000    1.2261535   -4.3455124    24.253544  0.050528215  0.071867801            2 
   41000    1.2139123   -4.3429526    24.982669  0.050777782   0.07177288            2 
   42000    1.2514472   -4.3254849    25.807388  0.051205134  0.071682294            1 
   43000    1.2565687   -4.3170735    26.646591  0.051640679  0.071605075            2 
   44000    1.2381053   -4.2904149    27.529339  0.052138899  0.071507452            3 
   45000    1.2326825   -4.3058362    28.415616  0.052621511  0.071473814            1 
   46000    1.2590832   -4.3122909    29.181604  0.052865224   0.07138728            2 
   47000    1.2294373   -4.3250975    29.731873  0.052716086  0.071266984            5 
   48000    1.2563066   -4.3031351    30.597327  0.053120359  0.071109903            2 
   49000    1.2545476   -4.3216635    31.523258  0.053610983  0.070969129            2 
   50000    1.2260654   -4.3214494    32.059224   0.05343204  0.070798642            1 
   51000    1.2349243   -4.3098987    32.723549  0.053469851  0.070604851            2 
   52000    1.2325974   -4.3173829    33.642857  0.053914834  0.070425967            2 
   53000    1.2383221   -4.3507569    34.403454  0.054093481  0.070261187            5 
   54000    1.2435331   -4.3026609    35.488899  0.054766819  0.070127477            2 
   55000    1.2611704   -4.2888941    36.402249  0.055154922  0.070044192            1 
   56000    1.2432567   -4.3131226    37.051791  0.055136593  0.069944008            3 
   57000    1.2459625   -4.3330989    37.838101   0.05531886  0.069857883            2 
   58000    1.2466228   -4.3083954    38.774304  0.055710207  0.069768214            2 
   59000    1.2204335   -4.3221423     39.66678  0.056026525  0.069710769            4 
   60000    1.2353653   -4.3271587    40.417071   0.05613482  0.069674437            1 
   61000    1.2592667   -4.3171548    41.538726  0.056746892  0.069665179            6 
   62000    1.2559529   -4.3273442    42.365528  0.056942913  0.069664813            2 
   63000    1.2503128   -4.3365748    43.362019  0.057357168  0.069695962            2 
   64000    1.2490501   -4.3376708    43.812587  0.057047639  0.069706693            3 
   65000    1.2281477   -4.2946998    44.982158  0.057669433  0.069703258            2 
   66000    1.2364578   -4.3017571    45.882053  0.057931885  0.069725229            5 
   67000    1.2310635   -4.3191348    46.779725  0.058183737  0.069781467            1 
   68000    1.2346456   -4.3040772    48.066638  0.058905194   0.06983518            1 
   69000    1.2443145   -4.3074244    48.106443  0.058099569  0.069857482            3 
   70000    1.2337572   -4.2812696    48.981645  0.058311481  0.069839743            1 
   71000    1.2292657   -4.3076128    49.804977  0.058456545  0.069824434            4 
   72000     1.241146   -4.2773793    50.838245  0.058840561  0.069822505            1 
   73000    1.2499817   -4.3249679    51.532261  0.058826782  0.069838626            1 
   74000      1.20109   -4.3125333    52.890808   0.05956172  0.069851009            3 
   75000    1.2427227    -4.292486    53.438467  0.059376074  0.069874287            2 
   76000    1.2434499   -4.3187538    54.286269  0.059524417   0.06989694            2 
   77000     1.252011   -4.2726092    55.245922  0.059789959  0.069916194            2 
   78000    1.2309239   -4.3232454    55.830777  0.059648266  0.069920783            1 
   79000     1.243585   -4.2961312    56.551735  0.059653728  0.069895287            2 
   80000    1.2345238   -4.3004899    57.514111  0.059910532  0.069883082            2 
   81000     1.245977   -4.3042946    58.236896  0.059914502  0.069871991            4 
   82000    1.2517602   -4.3017901    59.070611  0.060031109  0.069859927            4 
   83000    1.2704649   -4.2837688    59.396174  0.059634712  0.069820173            2 
   84000     1.240316   -4.3452603    60.068481  0.059591747  0.069768735            2 
   85000    1.2254784   -4.3031365     61.24667  0.060045754  0.069720691            2 
   86000    1.2601633   -4.3072544    61.952418  0.060031412    0.0696741            3 
   87000    1.2360143   -4.2973197    62.985779  0.060331205  0.069638132            1 
   88000     1.241784   -4.3112387       63.984  0.060590909  0.069626957            1 
   89000    1.2652023   -4.3352326    64.412339  0.060311179  0.069598336            1 
   90000    1.2462295   -4.3105789    65.252405  0.060418893  0.069569973            3 
   91000    1.1912519   -4.3198077    66.132801  0.060561173  0.069541481            1 
   92000    1.2253552   -4.3341385    66.608369  0.060333667  0.069499823            3 
   93000    1.2138691   -4.3059222    67.697105  0.060660488  0.069466214            1 
   94000    1.2581786   -4.3012332    68.353677  0.060597231  0.069429546            3 
   95000    1.2068177   -4.2968602    69.287289  0.060778323  0.069391353            3 
   96000    1.2406443   -4.2893266    70.174333  0.060915219  0.069360904            3 
   97000     1.216933     -4.31554    71.117814  0.061097778  0.069350463            2 
   98000    1.2456213   -4.2893782    71.951582  0.061183318  0.069332013            3 
   99000    1.2274917   -4.3064296    72.618725  0.061126873  0.069303178            2 
  100000    1.2072153   -4.3427611    73.202613  0.061002177  0.069260447            1 
  101000    1.2327605   -4.3266824    74.300133   0.06130374  0.069227945            5 
  102000    1.2421977   -4.3439689     75.08046  0.061340245  0.069203528            1 
  103000    1.2050021    -4.366947    75.755975  0.061291242  0.069183418            2 
  104000    1.2428349   -4.3525847    76.329219  0.061161233  0.069156402            5 
  105000     1.244662   -4.3059785    77.093629   0.06118542  0.069135064            4 
  106000    1.2128723    -4.326736    78.433284  0.061661387  0.069100831            3 
  107000    1.2118122   -4.3097272    78.706548  0.061297934  0.069062009            1 
  108000    1.2098913   -4.3097767    79.551854  0.061382603   0.06902129            2 
  109000    1.2349086   -4.3168773    80.030696  0.061185547  0.068976017            3 
  110000    1.2514348   -4.3157542    81.258313  0.061559328  0.068918691            1 
  111000    1.2143321   -4.3409977    81.519087  0.061200516  0.068869289            1 
  112000    1.2423529    -4.351903     82.30681  0.061240185  0.068815601            4 
  113000     1.225796     -4.34094    83.036784  0.061236566   0.06876859            2 
  114000    1.2496201   -4.3002665    84.354444  0.061662605   0.06871647            2 
  115000    1.2177664   -4.3031209    85.228369  0.061759688  0.068681576            3 
  116000    1.2426056   -4.2904247    86.034144  0.061806137  0.068652166            2 
  117000    1.2740419   -4.3223494    86.713667  0.061761871  0.068629274            1 
  118000    1.2418218   -4.3529338     87.87406  0.062057952  0.068603557            3 
  119000    1.2281534   -4.3059499    88.817899  0.062197408  0.068576842            2 
  120000    1.2455102   -4.3043817    89.569292  0.062200897  0.068558557            2 
  121000    1.2075995    -4.336174    90.595571  0.062393644  0.068545425            3 
  122000     1.232563   -4.3211102     91.75452  0.062673852  0.068547344            1 
  123000    1.2453608   -4.3294591    92.457816  0.062640796  0.068543204            2 
  124000    1.2660716   -4.3699786    92.627828  0.062249884  0.068544489            2 
  125000    1.2281955   -4.3166416    93.918728  0.062612485  0.068547279            2 
  126000    1.2320538   -4.3015563    95.105637  0.062900553  0.068555597            2 
  127000    1.2047008    -4.344882    95.716653  0.062806202  0.068561688            2 
  128000     1.245433   -4.3741313    96.543194  0.062853642  0.068567183            1 
  129000    1.2224124   -4.3335036     97.51009  0.062991014  0.068586954            5 
  130000    1.2316716   -4.3352732     98.80673  0.063337647  0.068604455            3 
  131000    1.2475459   -4.3092267     99.46671  0.063273988  0.068628109            3 
  132000    1.2467419   -4.3347795    100.42785  0.063401421  0.068650552            1 
  133000    1.2252051    -4.325637    101.03288   0.06330381  0.068673212            1 
  134000    1.2091776   -4.3306665    102.18469  0.063547695  0.068688346            2 
  135000    1.2387028   -4.3593364     102.4589  0.063246235  0.068700803            1 
  136000    1.2377722   -4.3576145    103.02593  0.063128631  0.068709681            2 
  137000    1.2268743    -4.316529    103.95775  0.063234641  0.068721427            1 
  138000    1.2443754    -4.323865    105.07503  0.063451102  0.068732798            5 
  139000    1.2289006   -4.3563475    105.76066   0.06340567  0.068740701            2 
  140000    1.2540805   -4.3310873    106.87645  0.063616934  0.068752883            3 
  141000    1.2483649   -4.3539977    107.31039  0.063422216  0.068765839            1 
  142000    1.2418486   -4.3556513    108.65995  0.063767574   0.06878041            3 
  143000    1.2162053   -4.3130908    109.59704  0.063867737  0.068786654            2 
  144000    1.2093381   -4.3166446    109.85337   0.06357255  0.068796128            1 
  145000    1.2115139   -4.3491046    110.96439  0.063772635  0.068801887            4 
  146000    1.2225883   -4.3126364    111.61334  0.063706243  0.068798675            2 
  147000    1.2283794   -4.3366804     111.9712  0.063475736  0.068792937            2 
  148000    1.2485907   -4.3133524    113.13782  0.063703725  0.068786713            2 
  149000    1.2220677   -4.3319161    113.81402  0.063654376  0.068793408            1 
  150000    1.2291978   -4.3508915    115.39355  0.064107528  0.068803785            3 
  151000    1.2614959   -4.2426182    116.93862  0.064535661    0.0688177            1 
  152000    1.2458974   -4.3474071    117.01095  0.064150737  0.068836262            2 
  153000    1.2399543   -4.3361299     118.1679  0.064361603  0.068852456            2 
  154000    1.2522833   -4.3174411    118.68477   0.06422336   0.06887465            1 
  155000    1.1976328   -4.3302979    119.91286  0.064469278  0.068891847            2 
  156000     1.238606    -4.358447    120.13813  0.064176349  0.068902817            2 
  157000    1.2146029   -4.3316481    121.13182  0.064295019  0.068914041            3 
  158000    1.2192148   -4.3332111    121.19201  0.063919838  0.068920601            2 
  159000    1.2423643   -4.3323227    122.29454  0.064095671  0.068929974            1 
  160000    1.2149344   -4.3418845    122.73374  0.063923822  0.068937223            2 
  161000    1.2213462   -4.3427533     124.0004  0.064182401  0.068940494            1 
  162000    1.2185218   -4.3268706     125.3042   0.06445689  0.068945368            2 
  163000    1.2428725   -4.3130498    125.83865  0.064334686  0.068943893            3 
  164000    1.2275742   -4.3491451     126.7095   0.06438491  0.068937889            3 
  165000    1.2150397   -4.3640847    126.56673   0.06392259  0.068934751            4 
  166000    1.2293084   -4.3379147    128.26515  0.064390136  0.068932055            1 
  167000    1.2248382   -4.3673697    129.37964  0.064560699  0.068936093            2 
  168000    1.2349627   -4.3298726    130.08988   0.06452871  0.068935658            2 
  169000    1.2196738   -4.3144271     131.3737  0.064779932  0.068936242            2 
  170000    1.2422955   -4.3543176     131.5864  0.064503135  0.068940912            2 
  171000    1.2062191   -4.3350693     131.8568  0.064257699  0.068942942            1 
  172000    1.2353685   -4.3283068    134.07756  0.064960059  0.068949797            2 
  173000    1.2468772   -4.3439754    134.00702  0.064550589  0.068955315            1 
  174000    1.2021204   -4.3479501    135.29162  0.064794837  0.068968041            1 
  175000    1.2160915   -4.3327856      136.166  0.064840952  0.068980405            1 
  176000    1.2191053   -4.3422746    136.75724   0.06475248   0.06899316            1 
  177000    1.2240838   -4.3357979    138.46144  0.065189001  0.069002002            1 
  178000    1.2025587    -4.288766    138.71586  0.064941881  0.069009552            3 
  179000    1.2473349   -4.3027063    139.64149  0.065010006  0.069018339            2 
  180000    1.2245443   -4.3273251    139.99792  0.064813853  0.069025711            1 
  181000     1.214756   -4.3203787    141.13012  0.064977035  0.069033515            3 
  182000     1.225322   -4.3332036     142.0742  0.065052289  0.069040545            4 
  183000    1.2183877   -4.3510198    142.36695  0.064830121  0.069045744            4 
  184000    1.2360323   -4.3408886    143.26265  0.064883445  0.069051683            2 
  185000    1.2162628   -4.3612904    144.13121  0.064923968  0.069057579            3 
  186000     1.220808    -4.348405    145.09488  0.065006669  0.069060401            1 
  187000    1.2202772    -4.343601    145.10165  0.064662055    0.0690545            1 
  188000    1.2275729   -4.3485235    145.92651  0.064683737  0.069049528            1 
  189000    1.2462344   -4.3610944    147.20093  0.064903407  0.069047437            3 
  190000    1.2154834   -4.3337224    148.60409  0.065177231  0.069047324            3 
  191000    1.2102155   -4.3455438    149.02029  0.065017578   0.06905153            2 
  192000     1.214919   -4.3338345    150.18366  0.065183881  0.069057358            3 
  193000    1.2054812   -4.3070254    150.93979  0.065172622  0.069065985            2 
  194000    1.2208136   -4.3298096    152.42882  0.065476297  0.069071787            1 
  195000    1.1894844   -4.3457041    152.73415  0.065271005  0.069077658            2 
  196000    1.2486732   -4.3644393    153.03211  0.065064671  0.069081245            1 
  197000    1.2379686   -4.3757884     153.3589  0.064872633  0.069084127            2 
  198000    1.2161527   -4.3912119    155.13072  0.065290708  0.069083937            5 
  199000    1.2293407   -4.3078399    156.59151  0.065574335  0.069084845            2 
  200000    1.2444725   -4.3258195    156.63751   0.06526563   0.06909074            3 
  201000    1.2106527   -4.3109022    157.56601  0.065325874  0.069093946            3 
  202000    1.1986772   -4.3726635    158.31519  0.065311547  0.069095888            5 
  203000    1.2069542   -4.3256049    159.50762  0.065479318  0.069102903            2 
  204000    1.2388985   -4.3481028    160.82966  0.065698391  0.069111096            2 
  205000    1.2215425    -4.366555    160.74291  0.065342646  0.069120655            3 
  206000    1.2034349   -4.3436845    162.79696  0.065856376  0.069129364            4 
  207000    1.2341767   -4.3483178    162.99928  0.065619679   0.06913756            2 
  208000    1.2097511   -4.3413831    164.04294  0.065722332  0.069147182            1 
  209000    1.2182414   -4.3838603    163.66799  0.065258369  0.069153021            2 
  210000    1.2138285   -4.3546945    164.71773   0.06536418  0.069158472            1 
  211000    1.2069115   -4.3426533    166.42311  0.065727924  0.069162151            2 
  212000    1.2182134   -4.3683678    165.83152  0.065185347  0.069167189            3 
  213000    1.2040165   -4.3473056    167.50773  0.065535104  0.069171587            1 
  214000    1.2209897   -4.4082464    168.63803  0.065669013  0.069180219            2 
  215000    1.2316991   -4.3373482    169.94748  0.065871117  0.069189781            2 
  216000    1.2455253   -4.3573672    170.31745  0.065708894  0.069194885            1 
  217000    1.2293527   -4.3445164    171.25853  0.065767484  0.069203343            2 
  218000    1.2144276   -4.3374519    171.34238  0.065497853  0.069207649            3 
  219000    1.2075664   -4.3607961    172.04505  0.065466155  0.069204794            2 
  220000    1.2168299   -4.3638608    172.52663  0.065350998   0.06920555            2 
  221000    1.2159982   -4.3956781    174.57405  0.065827319  0.069205995            3 
  222000    1.1875954   -4.3884366    174.64212  0.065556352  0.069207735            3 
  223000     1.205705   -4.3379859    175.97987  0.065762282  0.069210829            2 
  224000    1.2075506   -4.3294355    176.47379  0.065652452   0.06921187            2 
  225000    1.2304589   -4.3414634    177.19675  0.065628424  0.069214924            3 
  226000    1.2387164   -4.3667671    178.75539  0.065912755  0.069214405            3 
  227000    1.2269308   -4.3532337     179.5216  0.065903671   0.06921675            1 
  228000    1.2262118   -4.3411786    179.87448  0.065743596  0.069218643            5 
  229000    1.1952874   -4.3876787    181.23977  0.065953337  0.069222518            1 
  230000    1.2456819    -4.339008    182.35689  0.066071337  0.069227853            5 
  231000    1.2155023     -4.37696     182.1733  0.065719085  0.069230267            3 
  232000    1.2187083   -4.3272079    183.97396    0.0660826  0.069229914            3 
  233000     1.247233   -4.3568634    183.96914  0.065797259  0.069229364            1 
  234000    1.2312752   -4.2964016    186.31915  0.066352974  0.069232173            1 
  235000    1.2098053   -4.3409008    187.05818  0.066332687  0.069240553            3 
  236000    1.2161612   -4.3580756    187.91413  0.066353859  0.069246908            2 
  237000    1.2042116   -4.3216509    188.44286  0.066259795  0.069254474            1 
  238000    1.2180931   -4.3811049    188.76807  0.066095263  0.069259969            2 
  239000    1.2239909   -4.3275798     188.9878  0.065895327  0.069263447            2 
  240000    1.2555625   -4.3792438    189.68152  0.065861639  0.069265125            2 
  241000    1.2025034   -4.3493965    190.05749  0.065718358  0.069265045            1 
  242000     1.218235   -4.3266117    192.08834  0.066146124  0.069267533            2 
  243000    1.2184056   -4.3488094    192.67045  0.066073542  0.069266256            3 
  244000    1.2225245   -4.3476929    193.17561  0.065975278  0.069267612            3 
  245000    1.1929298   -4.3770132    194.40409  0.066123841   0.06926572            1 
  246000     1.225233   -4.3874177     195.0526  0.066074728  0.069267983            5 
  247000    1.2156321   -4.3591252    196.79651  0.066395584  0.069274674            2 
  248000    1.2171357   -4.3488513    197.48662  0.066359752  0.069281781            2 
  249000    1.2056781   -4.3651593    198.54766  0.066448347  0.069293555            1 
  250000    1.2137425   -4.3602087    199.33087  0.066443622  0.069304127            2 
  251000    1.2164695    -4.354372    200.44724   0.06654955  0.069313308            2 
  252000     1.238257   -4.3294501     201.5984  0.066666138  0.069320546            3 
  253000    1.2101863   -4.3339869    202.05014  0.066551429  0.069326507            2 
  254000    1.2325884     -4.37826    201.93965  0.066253165  0.069328475            2 
  255000    1.2334867   -4.3704356    203.18814  0.066401354  0.069331629            3 
  256000     1.215792   -4.3147205    203.80792  0.066343725  0.069336608            1 
  257000     1.221973   -4.3993234     204.2785  0.066238164  0.069339722            2 
  258000    1.1975691   -4.3456811    205.88226  0.066499438  0.069343591            5 
  259000    1.2296625   -4.3285491    207.15516  0.066652241  0.069346667            4 
  260000    1.1881928   -4.3819952    207.32578  0.066450571  0.069350558            3 
  261000    1.2465388   -4.3497962    208.07748  0.066435976  0.069353737            2 
  262000    1.2069187    -4.386168    208.32721  0.066261836  0.069355941            3 
  263000    1.1924617   -4.3548553    210.73341   0.06677231  0.069358215            1 
  264000    1.2035079   -4.3749784    210.16591  0.066340249  0.069360112            1 
  265000     1.209229   -4.3659938    210.75996  0.066276716  0.069358135            2 
  266000    1.2126338   -4.3877311    210.06127  0.065808668  0.069353552            2 
  267000    1.1914984   -4.3589052    212.76707  0.066406701  0.069345681            1 
  268000    1.1936723   -4.3774641    212.83258  0.066179286  0.069340671            1 
  269000    1.2138034   -4.3639138    213.27296  0.066069692  0.069335776            1 
  270000    1.2035101   -4.3765092    213.62795  0.065934552  0.069328048            1 
  271000     1.200197   -4.3585065    214.46694  0.065949243  0.069323339            2 
  272000    1.2157323   -4.3576434    214.87227  0.065830965    0.0693152            4 
  273000    1.2016608   -4.3506741    216.46885  0.066077183  0.069303814            1 
  274000    1.1991435   -4.3602138    217.27241  0.066080418  0.069293442            4 
  275000     1.215469    -4.379359    216.63349  0.065646513  0.069280326            3 
  276000     1.206541   -4.3599861    217.80288  0.065761739  0.069266236            4 
  277000    1.2120442   -4.3499446    219.16319   0.06593357  0.069251068            1 
  278000    1.2050041   -4.3954527    218.64744  0.065541798  0.069234671            2 
  279000     1.196814   -4.3683424    219.92684  0.065689021  0.069217175            1 
  280000    1.2002461   -4.3782401    219.96124  0.065464654  0.069199307            3 
  281000    1.2039385   -4.3532245    222.83031  0.066082535  0.069182822            3 
  282000    1.1943069   -4.3627798    222.60984   0.06578305  0.069169633            5 
  283000    1.2122678   -4.4052876    222.81696   0.06561159  0.069153266            4 
  284000    1.2024254   -4.3932946    223.73249  0.065649206  0.069135493            3 
  285000    1.2266275   -4.3675058    225.37491  0.065899096  0.069121199            1 
  286000    1.2135664   -4.3658885    225.83274  0.065802082   0.06910724            4 
  287000    1.1893528   -4.3941685    226.33424   0.06571842  0.069093698            4 
  288000    1.2326756   -4.3747551    228.71059  0.066177831  0.069081675            2 
  289000    1.1806517   -4.3543517    228.76388   0.06596421  0.069071006            1 
  290000    1.1956441   -4.3913799    228.99936  0.065804414  0.069058183            2 
  291000    1.1745687   -4.3848641    229.38682  0.065689239  0.069045681            1 
  292000    1.2133585   -4.4015415    229.91787  0.065615829  0.069031068            2 
  293000    1.1846996   -4.3381375    231.56108  0.065859238  0.069016362            2 
  294000    1.2261927   -4.3875097     231.0448  0.065488888  0.069002703            2 
  295000    1.2057563   -4.3543298    232.48915  0.065674902  0.068986191            3 
  296000    1.1884103   -4.3356467    234.59664  0.066046352  0.068973791            2 
  297000    1.2009433   -4.3896537    234.54552   0.06580963  0.068960769            2 
  298000    1.1964534   -4.3591711    235.46754  0.065846628  0.068948221            2 
  299000    1.2167292   -4.3397417    236.29428  0.065856822  0.068932428            1 
  300000    1.2064994   -4.3906478    236.52779  0.065702163  0.068916971            5 
  301000    1.2042929   -4.3877565    236.42028  0.065454121  0.068901658            2 
  302000    1.2178041   -4.3451968    238.11305  0.065704484  0.068885561            2 
  303000    1.2060836   -4.3673773    238.39958  0.065566442  0.068868165            1 
  304000    1.1759453   -4.3784216    239.64786  0.065692945  0.068852102            1 
  305000    1.2216089   -4.3527995     240.6685  0.065756421  0.068834052            1 
  306000    1.1951215   -4.3852136    240.62183   0.06552882  0.068816892            2 
  307000    1.2026132   -4.3961908     240.5928   0.06530749  0.068799028            3 
  308000    1.2217738   -4.3915017     242.5398   0.06562224  0.068782095            2 
  309000    1.2191604   -4.4041742     243.3081   0.06561707  0.068765939            3 
  310000    1.1943975   -4.3896865    243.31872  0.065408258   0.06874837            4 
  311000    1.1962149    -4.402874    244.43259  0.065496406  0.068727107            1 
  312000    1.2328447   -4.3599046    245.01965  0.065443282  0.068705314            5 
  313000    1.2195289   -4.3795068    245.02181  0.065234774  0.068682726            3 
  314000    1.1657145   -4.3758624    245.05272  0.065035223  0.068657789            1 
  315000    1.2164802   -4.3780752    245.95846  0.065068375  0.068631358            2 
  316000    1.1993388   -4.3856393    246.98548    0.0651333  0.068608579            3 
  317000    1.2137137   -4.3828261    247.66121  0.065105471  0.068586346            5 
  318000    1.1809174   -4.4143085    249.58466  0.065404785   0.06856535            1 
  319000    1.1931526   -4.3809318    249.33148  0.065133615  0.068545032            2 
  320000     1.213731   -4.4080689    250.43712     0.065218  0.068524284            3 
  321000    1.1958873   -4.3854931    252.34895  0.065511151  0.068503392            2 
  322000    1.2064826   -4.3677127    253.03535  0.065485339  0.068485002            3 
  323000    1.2279404   -4.3714398    253.17349  0.065318239  0.068464607            2 
  324000    1.2092688   -4.3709612    253.56155  0.065216447  0.068445817            3 
  325000    1.1759144   -4.3495459     255.2419  0.065446641  0.068426879            8 
  326000    1.1780253   -4.4041798    254.42054  0.065035926  0.068404794            3 
  327000    1.2188456    -4.383142    255.24439  0.065046991  0.068383729            2 
  328000    1.1742907   -4.4298113     256.4087  0.065144487  0.068363198            2 
  329000    1.1986589   -4.3851212    257.80319  0.065299694  0.068342546            4 
  330000    1.2121036   -4.3694822    259.47239  0.065523331  0.068324782            2 
  331000    1.1968894   -4.3613762    259.36564  0.065298499  0.068307803            2 
  332000    1.1744084   -4.3985242     260.4279  0.065368448  0.068290185            2 
  333000    1.1991938   -4.3895314     261.0698  0.065332783   0.06827358            1 
  334000    1.1846413   -4.3744444    261.96056   0.06535942  0.068254364            2 
  335000    1.2103953   -4.4125173    261.88495  0.065145509  0.068235912            2 
  336000    1.2114839   -4.3728222    264.00255  0.065476824  0.068219925            3 
  337000     1.197816   -4.3643751    264.08137  0.065302019  0.068203428            1 
  338000    1.2136209   -4.3785149    264.55734  0.065226168  0.068184228            3 
  339000    1.1804824   -4.3668975    265.24186  0.065202031  0.068164828            1 
  340000    1.1929925   -4.3882095     265.5322  0.065081421  0.068146403            2 
  341000     1.207799   -4.3862595    267.84414  0.065455558  0.068127951            3 
  342000    1.2025475   -4.3735548    267.95826  0.065291973  0.068109955            2 
  343000    1.1700317   -4.3966136    269.45209  0.065464549   0.06809278            3 
  344000    1.1932711   -4.3791792    269.46612  0.065277644  0.068075409            2 
  345000    1.1872161   -4.3581913    270.52624  0.065344502  0.068058021            1 
  346000    1.2257523   -4.3937851    270.88879  0.065242964  0.068041965            2 
  347000    1.1948665   -4.3788951    270.35401  0.064926516  0.068022565            1 
  348000    1.1857465   -4.4086409    271.86925  0.065102791  0.068003849            2 
  349000    1.2195126   -4.3917015    272.43836   0.06505214  0.067984016            1 
  350000    1.2126575   -4.3897796    273.20259  0.065048235  0.067962603            3 
  351000    1.2089569   -4.4276699    272.88266  0.064786956  0.067943662            1 
  352000    1.1795847   -4.3862132    275.72449  0.065275685  0.067921827            7 
  353000    1.2039934   -4.4227111    274.25581  0.064744052  0.067900761            2 
  354000    1.1916602   -4.3585814    275.90507  0.064949405  0.067876842            3 
  355000     1.215843   -4.4103234    275.58463  0.064691227  0.067853075            2 
  356000    1.1914252   -4.3954544    275.93973  0.064592634  0.067827743            2 
  357000     1.207641   -4.3852915    277.30073  0.064729396  0.067805247            3 
  358000     1.218802   -4.3850101    277.58061  0.064613736  0.067779249            2 
  359000     1.214932   -4.3990271    277.70001  0.064461469  0.067754301            2 
  360000    1.1752277   -4.3788629    280.03805  0.064823623  0.067729507            2 
  361000    1.1844162   -4.4179685    278.91607  0.064385057  0.067704797            2 
  362000    1.2280835   -4.3953445    280.74706  0.064628696  0.067680814            3 
  363000     1.168001    -4.408296    282.06398   0.06475298  0.067656906            4 
  364000    1.1740643   -4.3565137    282.27243  0.064622808  0.067631551            2 
  365000    1.2115784   -4.3912061    282.23961  0.064438267  0.067605148            2 
  366000    1.1923546   -4.3820831    284.51217  0.064779637  0.067579871            1 
  367000    1.1835168   -4.3787819    284.36017  0.064568612  0.067556805            2 
  368000     1.194894   -4.3954648    285.02657  0.064544061  0.067532228            2 
  369000    1.2074677   -4.3376359     286.3577   0.06466976  0.067507137            1 
  370000    1.1924295   -4.3947986    287.08529  0.064658849  0.067482764            6 
  371000    1.2031411   -4.4436119    286.41014  0.064332914  0.067458651            1 
  372000    1.2008187   -4.3728214    289.12577  0.064768318  0.067436331            2 
  373000    1.1607803   -4.4196491    290.24767  0.064845324  0.067413352            5 
  374000    1.1954322   -4.3937642    290.17615  0.064656005  0.067392582            3 
  375000    1.1739583   -4.4107906    289.81637  0.064403638  0.067370697            1 
  376000    1.2017071   -4.3884381    290.19953  0.064317271  0.067348386            2 
  377000    1.2204861   -4.3827577    292.68466   0.06469599  0.067326691            2 
  378000    1.2053404   -4.3835522    292.59676  0.064505458  0.067304333            2 
  379000    1.1776268   -4.3898089    293.33519  0.064497623  0.067284026            2 
  380000    1.1983202   -4.4450261    294.33698  0.064547583  0.067263962            2 
  381000    1.2159444   -4.3636306    295.66514  0.064668666  0.067244465            2 
  382000    1.1787772   -4.3947961    295.29359  0.064418322  0.067223708            2 
  383000    1.2020364   -4.4205675    295.94899  0.064392731  0.067202606            2 
  384000    1.2043408   -4.3849604     297.3907  0.064537913  0.067179804            3 
  385000    1.1786592   -4.3667498    298.84579  0.064685237  0.067160063            5 
  386000    1.1866962   -4.3636749    299.65725  0.064692844  0.067142036            1 
  387000    1.2118615   -4.4118534    299.05514  0.064396026  0.067121777            2 
  388000    1.1714648   -4.4364828    299.75065  0.064379436  0.067102244            2 
  389000    1.1807827   -4.4063175    300.96828   0.06447478  0.067083002            2 
  390000    1.1793633    -4.404333    300.79344  0.064272103  0.067062933            2 
  391000    1.2159636   -4.3988048    301.69905  0.064300736  0.067040032            2 
  392000    1.2003125   -4.4160513    302.04338  0.064209902  0.067017659            6 
  393000    1.1981209   -4.3645996    304.94151  0.064661049  0.066995207            2 
  394000    1.1819755   -4.4050756    304.55968  0.064416176   0.06697375            1 
  395000    1.1708896   -4.4095944    304.83573  0.064311336  0.066951061            4 
  396000    1.1930174   -4.4467611    304.20058  0.064015273  0.066927027            1 
  397000    1.1993555   -4.3793397    306.29819  0.064294331  0.066905643            2 
  398000    1.1644313    -4.409718    306.83551  0.064245292  0.066884616            3 
  399000    1.1925346   -4.4080249    307.01713  0.064122207     0.066864            2 
  400000    1.2027486   -4.4103387    309.83737  0.064549452  0.066846197            2 
  401000     1.163941   -4.4115145     310.9387  0.064617353  0.066830898            3 
  402000     1.200237    -4.366597    313.02404  0.064888897  0.066816074            2 
  403000    1.1966722   -4.4202565    312.17268  0.064551835  0.066801293            1 
  404000    1.2194133   -4.3820389    313.50196  0.064666246  0.066788605            4 
  405000    1.2224292   -4.3626744    314.24183  0.064658812  0.066773757            4 
  406000    1.1859497   -4.4039787    314.68151    0.0645898  0.066760298            1 
  407000    1.1894365   -4.3901462    315.13892  0.064524758  0.066743565            1 
  408000    1.2090507   -4.4075511    315.39664  0.064419248  0.066728388            2 
  409000    1.1698207   -4.3896369    317.10606  0.064610037  0.066715318            3 
  410000    1.2040217   -4.4075615     316.3979  0.064308516  0.066697394            1 
  411000    1.1899268   -4.4004066    318.97651   0.06467488  0.066680142            1 
  412000    1.1765345   -4.4030764     319.0107  0.064524817  0.066663405            3 
  413000    1.2074559   -4.3891674    320.92181  0.064754198  0.066646798            2 
  414000     1.164802   -4.4010845    320.09081  0.064430518  0.066628561            2 
  415000    1.1699049   -4.4033904    320.34791  0.064326889  0.066613066            2 
  416000     1.206317   -4.4107018    321.60974  0.064425029  0.066596985            2 
  417000    1.1726992   -4.4283181    322.03181  0.064354877  0.066580018            2 
  418000    1.1433664   -4.3710505    322.87826  0.064369669  0.066563546            2 
  419000    1.2034088   -4.4086102     324.3142   0.06450163  0.066547075            1 
  420000     1.170454   -4.3953552    323.80944  0.064247904  0.066529885            3 
  421000    1.1606274   -4.4194383    324.37068  0.064206389  0.066511817            2 
  422000    1.2054718   -4.3878855    325.85948  0.064348238  0.066494527            2 
  423000    1.1649944   -4.3869878    327.49968  0.064519243  0.066477962            3 
  424000    1.1628678   -4.4233487    326.92547  0.064254221  0.066460016            2 
  425000    1.1708778   -4.4068284    326.98221  0.064114159  0.066442303            2 
  426000    1.1858418   -4.4005329    328.85273  0.064329564  0.066425894            3 
  427000      1.19355   -4.4063618    329.28688  0.064263637  0.066407316            2 
  428000    1.1693822   -4.4150518    328.17446  0.063896895  0.066387201            2 
  429000    1.2078302   -4.3861984    329.96722  0.064096197  0.066368966            2 
  430000    1.1723357   -4.4117147      331.414   0.06422752   0.06635143            2 
  431000    1.1855329   -4.4243924     332.2822  0.064246364  0.066332556            1 
  432000    1.1872807   -4.3805839    332.07105  0.064056915   0.06631337            2 
  433000    1.1765536   -4.3916013     333.4722  0.064178636  0.066294951            4 
  434000     1.176631   -4.4425078    333.56748  0.064049055  0.066275433            4 
  435000    1.1831615   -4.4249029    334.00863  0.063986328  0.066256405            5 
  436000    1.1862584   -4.3949057    335.24617  0.064076103  0.066237126            1 
  437000    1.1325916   -4.4480036    334.70572  0.063826416   0.06621909            2 
  438000     1.172817   -4.4225714    336.81768  0.064082511  0.066199519            3 
  439000    1.2089516   -4.4188792    335.68972  0.063722422  0.066179871            2 
  440000     1.177925   -4.4501957    337.36485  0.063894859  0.066161189            2 
  441000     1.164277   -4.4179932    336.99901  0.063680842  0.066142814            2 
  442000    1.1515576   -4.4004532    338.65638  0.063849241  0.066124445            3 
  443000    1.1686492   -4.4328903    339.36018  0.063837505  0.066105713            2 
  444000    1.1644448   -4.4272706    340.14189  0.063840444  0.066088378            1 
  445000    1.2049225   -4.3842406    342.25132  0.064092007  0.066069981            2 
  446000    1.1780014   -4.4111566    342.83334  0.064057052  0.066051112            2 
  447000    1.1769039   -4.4228614    342.50928  0.063853334  0.066033693            2 
  448000    1.1779803   -4.3878368    344.52254  0.064085293  0.066015999            2 
  449000    1.1878717    -4.394089    345.35329  0.064096749  0.065997808            3 
  450000    1.1723767    -4.410604    345.21004  0.063927785  0.065982352            2 
  451000    1.1954381    -4.430164    345.39506  0.063820225  0.065965556            1 
  452000    1.1738223   -4.4056146    346.07994  0.063805299  0.065947639            3 
  453000    1.1737033   -4.4068985    348.83802  0.064171822  0.065930245            2 
  454000    1.1838271   -4.3937478    350.55201  0.064345082  0.065914386            2 
  455000    1.1874222   -4.4247276    349.71602  0.064050553  0.065901096            3 
  456000      1.16369    -4.405597    350.80397  0.064108913  0.065886148            1 
  457000    1.1789957   -4.3974382     353.7749  0.064510375  0.065872251            4 
  458000    1.1698205   -4.4040314    352.30468  0.064102015  0.065861339            5 
  459000    1.1689798   -4.4128427    353.90039  0.064252068  0.065847645            3 
  460000    1.1677399    -4.455609    355.26298  0.064359235  0.065835316            1 
  461000    1.1670632    -4.400228    353.45433  0.063892685  0.065822735            2 
  462000    1.1680293   -4.4355124    354.46825  0.063937274  0.065810094            2 
  463000    1.1875954   -4.4249869    354.60416  0.063823642   0.06579801            1 
  464000    1.1945803   -4.4381507    357.48675  0.064203799  0.065785253            4 
  465000    1.1434251   -4.4093921     357.8618  0.064132939  0.065772019            2 
  466000    1.1998541   -4.4535395    358.05671   0.06403017  0.065760461            2 
  467000    1.1925807   -4.4148305    359.61046  0.064170318  0.065751149            3 
  468000    1.1879408   -4.3870029    360.80082  0.064245161  0.065740672            1 
  469000    1.1697949   -4.4325754    363.23566  0.064540806  0.065729119            2 
  470000    1.1495596   -4.4175114    362.14366  0.064209869  0.065718934            2 
  471000    1.2112021   -4.4386447    363.11909  0.064246123  0.065709186            2 
  472000    1.1867315   -4.4266637    361.93498   0.06390095  0.065698291            3 
  473000    1.1928042   -4.4211842    363.05933  0.063963941  0.065687498            3 
  474000     1.153651   -4.4019308    366.18011  0.064377656  0.065677115            1 
  475000    1.1737385   -4.4228206     364.7084   0.06398393  0.065665832            2 
  476000    1.1668179   -4.4463634    366.08821  0.064091072  0.065652628            2 
  477000    1.1828167   -4.4159627    366.44418  0.064018899  0.065639293            2 
  478000    1.1577685   -4.4204498    366.56604  0.063906213   0.06562494            2 
  479000    1.1883216   -4.4277221    367.67835   0.06396631  0.065611086            1 
  480000    1.1732102   -4.4172188     370.4163  0.064308385  0.065596897            1 
  481000      1.17581   -4.4029651    369.22431  0.063968176  0.065584217            2 
  482000    1.1819949   -4.4240021    370.56292  0.064066895  0.065571695            2 
  483000    1.1764673   -4.4326537    369.00148  0.063664852  0.065559227            3 
  484000    1.1855181   -4.3969477    373.49491  0.064306974  0.065546599            4 
  485000    1.1702242   -4.4396862    371.07453   0.06375851  0.065532744            2 
  486000    1.1694445   -4.4478182    371.93241  0.063774419  0.065518744            6 
  487000    1.1767247   -4.4128177     373.5477  0.063919866  0.065504805            2 
  488000    1.1629306   -4.4311406    372.77555  0.063657026     0.065491            1 
  489000    1.1887051   -4.4660049    373.52313  0.063654249  0.065476882            2 
  490000    1.1651431   -4.5150299    375.08401  0.063789798  0.065462945            3 
  491000    1.1709002   -4.4102095    375.81748  0.063784365  0.065450337            1 
  492000     1.162101   -4.4308616    376.97705  0.063851126  0.065436678            1 
  493000    1.1541474   -4.3924302    378.02344  0.063898486  0.065422824            2 
  494000    1.1810244   -4.4447847    377.38622  0.063661643   0.06540875            2 
  495000    1.1668365   -4.4123096    378.88534  0.063785411  0.065394834            2 
  496000    1.1787386   -4.3807211     380.3969   0.06391077  0.065382647            3 
  497000    1.1613006   -4.4209548    378.89827  0.063530898  0.065369108            4 
  498000    1.1797858   -4.4359371    378.56043  0.063346792  0.065354753            3 
  499000     1.200872    -4.436286    381.59728     0.063727  0.065340542            2 
  500000    1.1791137   -4.3985275    383.80689  0.063967814  0.065326416            5 
  501000    1.1426177   -4.4101885    383.77057  0.063834093  0.065313335            3 
  502000    1.1657116   -4.3985543    383.71783  0.063698179  0.065299492            2 
  503000    1.1792404   -4.4298389    384.13986  0.063641462  0.065285097            1 
  504000    1.1851432   -4.4163439    384.38163  0.063555164  0.065271834            1 
  505000    1.1791867   -4.4429872    383.71989  0.063320113  0.065258226            3 
  506000    1.1463817   -4.4145285    387.33744  0.063790752  0.065244862            5 
  507000    1.1528131   -4.4207317    386.30205  0.063494748   0.06523043            2 
  508000    1.1661245    -4.448869    387.25661  0.063526347   0.06521489            2 
  509000    1.1852005   -4.4375055    388.93707  0.063676665  0.065200397            2 
  510000    1.1732622   -4.4507812    387.69438  0.063348754  0.065187289            2 
  511000    1.1911324   -4.4172269    391.11845  0.063783178  0.065174114            2 
  512000     1.154223   -4.4220777    391.09592  0.063654935  0.065161355            2 
  513000    1.1966894   -4.4362223    392.00392   0.06367835  0.065149688            2 
  514000    1.1889977   -4.4525533     394.1789  0.063907085  0.065136415            2 
  515000    1.1804224   -4.4411036    393.38389  0.063654352  0.065125504            4 
  516000    1.1914735    -4.410065    395.05828  0.063801401  0.065115198            1 
  517000    1.1838446   -4.4287229    395.08595  0.063682455  0.065104551            3 
  518000    1.1675246   -4.4291303    396.62252  0.063806712  0.065092437            3 
  519000    1.1605278    -4.463636    396.79166  0.063710928  0.065080684            2 
  520000    1.1919926    -4.463509    396.07333   0.06347329  0.065068863            2 
  521000    1.1476096   -4.4600497    398.29686  0.063707112  0.065057294            4 
  522000    1.1690007   -4.4612788    398.93448  0.063686859   0.06504724            2 
  523000    1.1823346   -4.4102147    400.59387  0.063829488  0.065037427            3 
  524000    1.1988544   -4.4190295    402.73193  0.064047699  0.065027715            2 
  525000    1.1554171   -4.4296301    403.07181  0.063979653  0.065019057            1 
  526000    1.1464963   -4.4474722    403.89628  0.063988637  0.065010393            3 
  527000    1.1707203   -4.4295018    405.04061  0.064048168  0.065001559            2 
  528000    1.1597303   -4.4406857    403.87263  0.063742523  0.064993138            4 
  529000    1.1651944   -4.4844199    403.75686   0.06360379  0.064983684            3 
  530000    1.1643499   -4.4316823     406.4875  0.063913129  0.064975334            3 
  531000    1.1613653   -4.4452514    406.40007  0.063779044  0.064966647            4 
  532000    1.1558629   -4.4015356    410.18539  0.064252097  0.064958726            2 
  533000    1.1575828   -4.4262146    410.65442  0.064204881  0.064951545            2 
  534000    1.1635601   -4.4628332      409.352  0.063881397  0.064944188            4 
  535000    1.1699358   -4.4202467    411.21155  0.064051644  0.064936793            2 
  536000    1.1649671   -4.4392878    411.04538  0.063906308   0.06492994            2 
  537000    1.1807064   -4.4010139    414.01531  0.064248186  0.064922581            4 
  538000    1.1632849   -4.4156867    412.89574   0.06395535  0.064915054            1 
  539000    1.1866696   -4.4689052    414.01208  0.064009289  0.064908641            2 
  540000     1.141893   -4.4464283    415.58239  0.064133085  0.064902344            4 
  541000    1.1532391   -4.4095342    415.91224  0.064065349  0.064896843            2 
  542000    1.1704834   -4.4583728    416.43605  0.064027683  0.064890658            1 
  543000    1.1600599   -4.4221432    417.04901  0.064003839  0.064884618            2 
  544000    1.2055617   -4.4602603    416.54569  0.063809083  0.064878228            3 
  545000    1.1628386   -4.4422727    417.28897  0.063805653  0.064869895            4 
  546000    1.1457445   -4.4406883    419.89436   0.06408644  0.064861753            1 
  547000    1.1710324   -4.4525721    417.53538  0.063609899  0.064852793            3 
  548000    1.1668354   -4.4722412    418.55164  0.063648363  0.064844428            4 
  549000    1.1647991   -4.4224792    422.41429  0.064118744  0.064836022            1 
  550000    1.1813522    -4.445886    419.60737  0.063576874  0.064828966            2 
  551000    1.1663067   -4.4362373    422.14148  0.063844749  0.064820899            2 
  552000    1.1753285   -4.4212995    422.76624  0.063823406  0.064813886            2 
  553000    1.1645907   -4.4056949    425.28983  0.064088281  0.064806249            3 
  554000    1.1418949   -4.4422781      424.248  0.063815884   0.06479806            2 
  555000    1.1829822   -4.4615506    425.31934  0.063861763  0.064790081            3 
  556000     1.128293   -4.4073428    426.57048  0.063934424  0.064782122            2 
  557000    1.1773906    -4.445438    424.82326  0.063558238  0.064773818            2 
  558000    1.1644484   -4.4090513    426.89515  0.063753756  0.064765216            4 
  559000    1.1812672   -4.4685529    428.55915  0.063887768  0.064757833            2 
  560000    1.1457263   -4.4239966    428.51098  0.063766515  0.064750016            2 
  561000    1.1729687   -4.4720739    427.16009  0.063452183  0.064741707            3 
  562000    1.1489412   -4.4357148    429.63411  0.063706125  0.064731554            3 
  563000    1.1519633    -4.486439    429.84251  0.063623817  0.064722366            3 
  564000    1.1741648   -4.4147689    431.53877  0.063761639  0.064713397            1 
  565000    1.1445255   -4.4446875    433.86036  0.063991204  0.064705841            2 
  566000    1.1711099   -4.4565343    433.58901  0.063838194  0.064698306            1 
  567000    1.1944831    -4.468636    431.53032  0.063423033  0.064691004            2 
  568000    1.1561124   -4.4845271    433.91362  0.063661036  0.064682906            2 
  569000    1.1545033    -4.384186    436.87376  0.063982683  0.064676196            4 
  570000    1.1700181   -4.4305873    435.89903  0.063727929  0.064668183            2 
  571000    1.1584752   -4.4114214    437.16572  0.063801184  0.064659813            4 
  572000    1.1496547    -4.470819     436.0444  0.063526282  0.064650857            2 
  573000     1.137621   -4.4556633    437.13065  0.063573393  0.064642037            2 
  574000    1.1499167   -4.4210747    439.69865   0.06383546  0.064633036            1 
  575000     1.145653   -4.4580749    437.70556  0.063435588  0.064623813            2 
  576000    1.1534214   -4.4336564    439.23222  0.063546328  0.064613661            2 
  577000    1.1515178   -4.4688541    439.84259  0.063524348  0.064605014            3 
  578000    1.1636897   -4.4479176    441.48829  0.063651714  0.064596499            2 
  579000    1.1811831   -4.4859163    443.07605  0.063770301  0.064589108            4 
  580000     1.175362   -4.4329551     445.3795  0.063991307   0.06458219            3 
  581000    1.1732429   -4.4324413    444.12348  0.063701015   0.06457524            6 
  582000    1.1552882   -4.4609883    443.92332  0.063562904  0.064568024            2 
  583000    1.1279599    -4.487635    445.76135  0.063716603  0.064560122            2 
  584000    1.1346879   -4.4519976    447.90188  0.063912939  0.064552763            2 
  585000    1.1857112   -4.4626178    446.13435  0.063551901  0.064545321            4 
  586000    1.1396728   -4.4933305    445.50809  0.063354393   0.06453707            2 
  587000     1.154542   -4.4494248    447.90132  0.063586219  0.064528597            2 
  588000     1.155628   -4.4968241    447.31069  0.063394373   0.06452027            2 
  589000     1.152275   -4.4560774      450.197  0.063695104  0.064511436            1 
  590000    1.1634066   -4.5015909    448.74701  0.063382346  0.064503796            2 
  591000    1.1356353   -4.4362408    451.62937  0.063681525  0.064497323            2 
  592000    1.1611465   -4.4694269    451.53379    0.0635605  0.064490372           10 
  593000     1.163129   -4.4337506    452.91771  0.063647796   0.06448304            2 
  594000    1.1608147    -4.470656    452.78119  0.063521492  0.064476454            4 
  595000    1.1713439   -4.4509857    454.17291  0.063609651  0.064470271            2 
  596000    1.1487395   -4.4278671    456.46059  0.063822789  0.064465139            2 
  597000      1.17088     -4.46147     456.6746  0.063745757  0.064459825            4 
  598000    1.1569502   -4.4670136    454.11425  0.063282365  0.064453797            2 
  599000    1.1470467   -4.4472538    458.18056  0.063742426  0.064446899            1 
  600000    1.1594499   -4.4514661    458.61467  0.063696482  0.064441246            1 
  601000    1.1721394   -4.4603683      460.437  0.063843178  0.064435526            3 
  602000    1.1592737   -4.4471551    460.21009  0.063705716  0.064429373            3 
  603000    1.1373294   -4.4302415    459.70503  0.063530269  0.064423286            3 
  604000    1.1416717   -4.4573697    459.97886  0.063462867  0.064416402            3 
  605000    1.1697793   -4.4541578     461.1906  0.063524877  0.064410343            3 
  606000    1.1469505   -4.4790755    462.65831   0.06362188  0.064403361            6 
  607000    1.1309477   -4.4196733    464.68437  0.063795218  0.064396584            3 
  608000    1.1567195   -4.4521433    465.66087  0.063824132  0.064390567            1 
  609000    1.1500242   -4.4560954    464.84763   0.06360805  0.064385143            3 
  610000    1.1607744    -4.465211    464.97442  0.063521096  0.064378613            4 
  611000    1.1422601   -4.4408617     468.2281  0.063860898    0.0643737            2 
  612000    1.1458461   -4.4877847    467.30377  0.063630687  0.064368026            4 
  613000    1.1386642    -4.461348    467.88518  0.063605924  0.064362361            2 
  614000    1.1540197   -4.4888552    468.26689  0.063554138  0.064356258            1 
  615000      1.15276   -4.4454625    470.37547  0.063736514  0.064349589            3 
  616000    1.1597091   -4.4547271     471.8095  0.063827043  0.064344167            2 
  617000    1.1350851   -4.4798779    469.59584  0.063424614  0.064338484            2 
  618000    1.1284681   -4.4453944    473.14498  0.063800563  0.064332541            6 
  619000    1.1289466   -4.4199797     474.7036  0.063907323  0.064326702            3 
  620000    1.1903798   -4.4528671    473.98523  0.063707692  0.064321887            1 
  621000    1.1208248   -4.4936551    473.76497  0.063575546  0.064316695            2 
  622000    1.1459506   -4.4568546    474.50405  0.063572354  0.064311674            7 
  623000    1.1697211   -4.4763558    475.54524  0.063609582  0.064304335            2 
  624000    1.1660651   -4.4665197    475.87622  0.063551845  0.064297049            3 
  625000    1.1493536   -4.4552209    475.48586  0.063398115  0.064290119            2 
  626000    1.1558337   -4.4748585    476.31475  0.063407182  0.064283361            3 
  627000     1.155219   -4.4672556    475.70218  0.063224639  0.064276226            2 
  628000    1.1740233   -4.4824042    478.53784  0.063500244  0.064269818            5 
  629000     1.150577   -4.4585163    479.16935  0.063482956  0.064262476            2 
  630000    1.1205681   -4.4499411    479.53405   0.06343043  0.064255633            3 
  631000    1.1324537   -4.4889622    478.50726  0.063194303  0.064248242            3 
  632000    1.1394295   -4.4912814    481.98959  0.063553479  0.064240042            1 
  633000    1.1760077   -4.4980495    480.77203   0.06329279  0.064231669            3 
  634000    1.1475657   -4.4593779     483.0311  0.063489892  0.064225429            2 
  635000    1.1351548   -4.4891431    482.02094  0.063257341  0.064218486            2 
  636000     1.137113   -4.4462021    485.06911  0.063557274  0.064211066            2 
  637000    1.1607193   -4.4398398    485.58999  0.063525639  0.064204395            2 
  638000    1.1513258   -4.4543468    484.72305  0.063312833  0.064197785            2 
  639000    1.1506441   -4.4590216     486.0521  0.063387077  0.064190357            3 
  640000     1.136078   -4.4648436    486.23409  0.063311731  0.064183451            2 
  641000    1.1700858   -4.4693701    487.07464  0.063322236  0.064175987            2 
  642000    1.1556376    -4.452953    487.74503  0.063310622  0.064168321            2 
  643000    1.1506612   -4.4695966    487.47831  0.063177593  0.064161212            2 
  644000    1.1340801   -4.4576592    490.17757  0.063428775  0.064153588            1 
  645000    1.1344156   -4.4305371    490.04403  0.063313182  0.064145488            3 
  646000    1.1411862    -4.452026    491.09087  0.063350216  0.064137888            5 
  647000    1.1484187   -4.4700397    491.23057  0.063270295  0.064129678            4 
  648000    1.1513263    -4.446974    491.82336  0.063248889  0.064120705            4 
  649000     1.141607    -4.442524    492.81724  0.063279049  0.064111907            2 
  650000    1.1612543   -4.4822331    491.38627   0.06299824   0.06410332            3 
  651000    1.1593633   -4.4537906     491.8926  0.062966283  0.064094153            4 
  652000    1.1711111   -4.4522591    494.84138  0.063246598   0.06408517            1 
  653000     1.141943   -4.4508033     495.1919  0.063194474  0.064076529            1 
  654000    1.1692398   -4.4504325     495.6816  0.063160244  0.064068247            2 
  655000    1.1565128   -4.4674243    496.52658   0.06317132  0.064060196            2 
  656000    1.1436877    -4.465357    497.59844  0.063211184  0.064052034            3 
  657000    1.1533363   -4.4506389     499.1024  0.063305733   0.06404501            3 
  658000    1.1575418   -4.4503761    500.49026  0.063385291  0.064037752            4 
  659000    1.1608599   -4.4533497    501.68258  0.063439881  0.064030745            1 
  660000    1.1436685   -4.4516593    503.01314   0.06351176  0.064023291            2 
  661000     1.113385   -4.4680369    500.58964  0.063110141  0.064016017            3 
  662000    1.1486286   -4.4494076    503.23683   0.06334804  0.064008496            4 
  663000    1.1559678   -4.4664005    503.72252  0.063313539  0.064002544            5 
  664000    1.1054955   -4.5005924    503.22134  0.063155289  0.063995217            5 
  665000    1.1486213   -4.4802057    504.05174  0.063164378  0.063986642            4 
  666000    1.1520418   -4.5070952     502.6846  0.062898473  0.063979067            3 
  667000    1.1456787   -4.4953054    504.50265  0.063031316  0.063971502            2 
  668000    1.1260347   -4.4598178    508.61703  0.063450228  0.063962852            1 
  669000    1.1402338   -4.5102403    506.50738  0.063092598   0.06395483            3 
  670000    1.1482098   -4.4667884    508.39265  0.063232917  0.063946644            1 
  671000    1.1249118   -4.4458831    508.73256  0.063180894  0.063938814            1 
  672000    1.1271119   -4.4768092    508.62402  0.063073415  0.063930172            4 
  673000    1.1635523   -4.4574405    510.03175  0.063154005  0.063922026            5 
  674000    1.1530398   -4.4690308    510.93086  0.063171471  0.063914221            2 
  675000    1.1228926   -4.4464202    511.16537  0.063106835  0.063906556            3 
  676000    1.1441941   -4.4981244    510.16781  0.062890509  0.063898556            2 
  677000     1.151987   -4.4916393    512.20317   0.06304815  0.063890525            2 
  678000    1.1670859   -4.4784927    511.97173  0.062926712  0.063882021            2 
  679000    1.1531709    -4.496284    513.67629  0.063043237  0.063873937            3 
  680000    1.1676617   -4.4865993     513.1055  0.062880576  0.063866395            1 
  681000    1.1495975   -4.4798231    513.46488  0.062832217  0.063857544            4 
  682000    1.1549075   -4.4620542    514.92966  0.062919069  0.063848537            3 
  683000     1.145949   -4.4852671    514.16288  0.062733392  0.063839445            3 
  684000     1.132484   -4.4829837    513.42746  0.062552078  0.063829505            3 
  685000    1.1488117   -4.4675107    517.38346  0.062942027  0.063819895            1 
  686000     1.145875   -4.4824846    516.94491  0.062797001  0.063810385            3 
  687000    1.1300924   -4.4787441    517.35177  0.062754945  0.063800257            4 
  688000    1.1626998   -4.5165849    517.45983   0.06267682  0.063789778            1 
  689000    1.1701367   -4.4876378    517.93392  0.062643192  0.063780381            4 
  690000    1.1566717   -4.4794032    519.14828  0.062699068  0.063770997            2 
  691000    1.1584133   -4.4960824    519.26417  0.062622307  0.063761614            1 
  692000    1.1281814   -4.4914738    518.56788  0.062447962  0.063750936            2 
  693000    1.1425723   -4.4681426    521.01366  0.062651956  0.063740631            2 
  694000    1.1590751   -4.4667209    523.94617  0.062913806   0.06373055            3 
  695000    1.1204778   -4.4961338    522.30434   0.06262642  0.063720555            2 
  696000    1.1241164   -4.4790427    521.23412    0.0624083  0.063709165            4 
  697000    1.1118879   -4.4781176    523.61098  0.062602939  0.063697556            2 
  698000    1.1321131   -4.5100313    524.81898  0.062657471  0.063687255            3 
  699000    1.1509522   -4.4836133     525.9289  0.062700155   0.06367693            4 
  700000    1.1391937   -4.4690833    525.46736  0.062555638  0.063665512            4 
  701000    1.1231394   -4.5078804    523.96806  0.062288166  0.063654937            3 
  702000    1.1394938    -4.473256    527.85878  0.062661299  0.063643798            4 
  703000    1.1236081   -4.4686115    530.20891  0.062850748  0.063633843            2 
  704000    1.1423205   -4.4738018     529.2311  0.062645726  0.063623658            2 
  705000     1.139733   -4.4766537    528.41283  0.062460145  0.063613848            2 
  706000    1.1464594   -4.4859252    529.45647  0.062494862  0.063604124            2 
  707000    1.1192785   -4.4982154    530.26478  0.062501742   0.06359406            3 
  708000    1.1271908   -4.5192172    529.09222   0.06227545  0.063583311            3 
  709000    1.1297275   -4.4753551    532.25456  0.062559304  0.063573034            2 
  710000    1.1174141   -4.4924026    533.75293  0.062647057  0.063563094            3 
  711000    1.1309152   -4.4992168    532.54669  0.062417567  0.063553228            3 
  712000    1.1611976   -4.4593471    536.07108  0.062742402  0.063544055            3 
  713000    1.1261012   -4.4773817    536.19123  0.062668446  0.063534259            2 
  714000    1.1299162   -4.4928471    535.52837  0.062503311   0.06352399            2 
  715000    1.1499864   -4.5100585    534.48158   0.06229389  0.063512673            1 
  716000    1.1320188   -4.4509969    534.59832  0.062220475  0.063500782            2 
  717000    1.1509512   -4.5382214    534.13855  0.062080259  0.063488263            7 
  718000     1.146593   -4.4886003    538.52634  0.062503057  0.063475231            3 
  719000    1.1316423   -4.4617973     538.1111  0.062367999  0.063462937            4 
  720000    1.1183193   -4.4993289    536.68203  0.062115976  0.063450718            2 
  721000    1.1300478   -4.4800194    540.21236   0.06243786   0.06343845            2 
  722000    1.1183352   -4.5229077    535.83249  0.061845855  0.063425395            3 
  723000    1.1348903   -4.5263091    537.26357  0.061925261  0.063412874            3 
  724000    1.1448393   -4.4905249    541.28551   0.06230266   0.06340088            1 
  725000    1.1226542   -4.4661976    541.29872  0.062218243  0.063388993            4 
  726000    1.1326601   -4.5141974    540.90579  0.062087441  0.063377801            3 
  727000    1.1260644   -4.4816914     542.9337  0.062234492  0.063366545            1 
  728000    1.1610987   -4.4777302    541.67323  0.062004719  0.063354887            2 
  729000    1.1078203    -4.507589    545.27454  0.062331337  0.063343499            3 
  730000    1.1390302   -4.5039875    544.74989  0.062186061  0.063331753            3 
  731000    1.1564502   -4.4661638    546.54298  0.062305401  0.063320237            2 
  732000    1.1267504   -4.4864311    545.84177  0.062140457  0.063308798            1 
  733000    1.1240083   -4.4911841    545.30018  0.061994109  0.063296641            2 
  734000     1.150848   -4.4670198     547.6414  0.062175454  0.063284356            3 
  735000     1.124428    -4.491909    548.46286  0.062183997  0.063272041            3 
  736000    1.1374621   -4.4745046    551.09983  0.062398079  0.063260641            1 
  737000    1.1503553   -4.5153133     548.5442  0.062024446  0.063248445            2 
  738000    1.1318172   -4.5092626    548.73475  0.061961918  0.063236785            2 
  739000    1.1515948   -4.4792699    551.79019   0.06222262  0.063226168            6 
  740000    1.1359363   -4.4899103    553.38471  0.062318098  0.063215739            2 
  741000    1.1406692   -4.5177461    551.51384  0.062023598  0.063204097            2 
  742000    1.1436702    -4.503132    553.47154  0.062159877  0.063193357            2 
  743000    1.1153429   -4.4685255    555.54015  0.062308226  0.063183075            2 
  744000    1.1044997   -4.4873474    556.14826  0.062292592  0.063172581            4 
  745000    1.1342327   -4.5239831     555.6794  0.062156532  0.063162294            3 
  746000    1.1504385   -4.4454141    559.36909  0.062485377  0.063152693            3 
  747000    1.1388095   -4.5032867    557.88846  0.062236552  0.063143885            1 
  748000    1.1183286   -4.5425822    559.36429  0.062317769  0.063135009            2 
  749000    1.1374132   -4.5309524    558.03332  0.062086484  0.063126148            2 
  750000    1.1117577   -4.4783161    563.41027  0.062601141  0.063117607            4 
  751000    1.1238782   -4.4750377     563.1859  0.062492887  0.063108971            1 
  752000    1.0990558   -4.4996673     561.7713  0.062253025  0.063100378            2 
  753000    1.1209028   -4.4684094    564.31941  0.062452348  0.063091234            4 
  754000    1.1058413   -4.5128833    562.26716  0.062142702  0.063081573            4 
  755000     1.109533   -4.5052523     563.7758   0.06222691   0.06307248            3 
  756000     1.153414   -4.5002559    565.72647   0.06235962  0.063062674            4 
  757000    1.1438296   -4.4787686     565.8089  0.062286317  0.063053674            2 
  758000     1.145641   -4.5076434    564.36541   0.06204545  0.063044059            3 
  759000     1.130572   -4.5193066     567.0799  0.062261737  0.063034443            2 
  760000    1.1349342   -4.4859768    567.58967   0.06223571  0.063024969            4 
  761000    1.1431888   -4.4822144    568.16545  0.062216978  0.063015388            5 
  762000    1.1474548   -4.4733848    568.52325  0.062174459  0.063005706            5 
  763000    1.1526004   -4.4736305    571.46773  0.062414562  0.062996568            3 
  764000    1.1008914   -4.4798921    569.56965  0.062125834  0.062986786            2 
  765000    1.1079056   -4.4623108    572.49801  0.062363618  0.062977122            3 
  766000    1.1007141   -4.5292262    572.75171  0.062309803  0.062968325            3 
  767000    1.1322981   -4.5113599    571.42842  0.062084791  0.062959387            2 
  768000     1.140813   -4.4948929    573.19918  0.062196091  0.062950967            2 
  769000    1.1285449   -4.4754197    575.19558  0.062331554  0.062943103            2 
  770000    1.1088553   -4.5576867    572.38358  0.061946275  0.062933887            5 
  771000    1.1315009   -4.5123126    577.75763  0.062446782  0.062924855            1 
  772000    1.1373327   -4.4905146    578.06011  0.062398543  0.062915787            3 
  773000    1.1416039   -4.4909039    578.82955  0.062400771  0.062907752            3 
  774000    1.1493027    -4.493191    578.39361  0.062273214  0.062900143            3 
  775000    1.1156085   -4.4733498    579.71481  0.062334926  0.062892385            6 
  776000    1.1091185   -4.4919577     578.9106  0.062168234  0.062885258            2 
  777000    1.1375765   -4.4680276    580.97859  0.062310016   0.06287795            3 
  778000    1.1339845   -4.5125344     582.1851  0.062359159  0.062871094            9 
  779000    1.1043974   -4.5031029    582.97921  0.062364058  0.062863381            1 
  780000    1.1317487   -4.5156667    582.62261  0.062246005  0.062855911            3 
  781000    1.1311195    -4.494416    585.00166  0.062420151  0.062848638            2 
  782000    1.1082969   -4.5123559     586.8415  0.062536392  0.062841281            3 
  783000    1.1325151   -4.5075809    584.12223  0.062167116  0.062833155            3 
  784000    1.1176767   -4.5090574    585.70529  0.062256089  0.062824915            5 
  785000    1.1381538   -4.5002847     586.2359   0.06223311  0.062816854            2 
  786000    1.1436217   -4.5338335    585.74059  0.062101419  0.062809054            3 
  787000    1.1226414   -4.5052858     587.0131  0.062157254  0.062801169            3 
  788000    1.1340544   -4.4964758    589.97718  0.062391834  0.062793045            2 
  789000    1.1253326   -4.5118207    587.83377  0.062086372  0.062785012            4 
  790000    1.1336181   -4.5000682    590.80419  0.062321117  0.062777153            3 
  791000    1.1142889     -4.53224    588.93702   0.06204562  0.062769247            2 
  792000    1.1265013   -4.4992687    590.71728  0.062154596  0.062761595            7 
  793000    1.1404835   -4.4966447    592.96837  0.062312775  0.062753472            4 
  794000    1.1197513   -4.4980159     593.8483  0.062326648  0.062746007            2 
  795000    1.1345488   -4.4967116    593.58297  0.062220437  0.062738461            2 
  796000    1.1351321   -4.4728817    595.47005  0.062339829  0.062731461            2 
  797000    1.1235085   -4.5077972    595.55786  0.062270793  0.062723186            4 
  798000    1.1205429   -4.4809204    597.54354  0.062400119  0.062716038            2 
  799000     1.107968   -4.5482946      593.603  0.061911034   0.06270836            3 
  800000     1.166344   -4.5153355    597.29884  0.062218629  0.062700805            2 
  801000    1.1501187   -4.4893623    597.35687  0.062146991   0.06269301            2 
  802000    1.1040193   -4.5342991    597.26452  0.062059904  0.062685362            4 
  803000    1.1244837   -4.4933594    599.37246  0.062201376  0.062676993            2 
  804000    1.1189942   -4.4925784    602.72578  0.062471577    0.0626693            2 
  805000    1.1099702   -4.4780441    597.41852  0.061844567  0.062662054            3 
  806000    1.0998057   -4.5218355    597.77009  0.061804186  0.062653417            3 
  807000    1.0973489   -4.5265126     600.8647   0.06204716  0.062644385            4 
  808000    1.1236981   -4.4925116    600.57727  0.061940725  0.062636226            2 
  809000    1.1329943   -4.5120893     603.0721  0.062121147  0.062627905            3 
  810000    1.1357384   -4.5124908    601.06092  0.061837543  0.062620468            2 
  811000    1.0990118   -4.5377147    603.59808  0.062021997  0.062612242            2 
  812000    1.1166275   -4.4903839    605.25783  0.062115951  0.062603855            2 
  813000     1.090534   -4.5189888    602.37871  0.061744435  0.062595305            3 
  814000    1.1280447    -4.444534    607.48707  0.062191551  0.062587316            3 
  815000    1.1086635   -4.5300901    609.55007  0.062326183  0.062579495            5 
  816000     1.110854   -4.4897867    608.84572  0.062177872  0.062572192            3 
  817000    1.1080585   -4.5144982    610.45888  0.062266308  0.062564717            2 
  818000    1.0989984    -4.484119    609.48796  0.062091275  0.062556798            2 
  819000    1.1055258   -4.5130253    611.33106  0.062202998  0.062549382            4 
  820000    1.1397276   -4.5229757    609.40979  0.061931889  0.062541314            4 
  821000    1.0988411   -4.5549596    610.35168  0.061952058  0.062533142            3 
  822000    1.1330928   -4.5275615    612.20524  0.062064602  0.062526034            3 
  823000    1.1235233   -4.5117549    611.52343  0.061920153  0.062519273            3 
  824000    1.1220487   -4.5122726     611.9657  0.061889735  0.062512818            1 
  825000     1.098916   -4.5508984    610.50897  0.061667572   0.06250606            4 
  826000    1.1266367   -4.5057657    614.35024  0.061980452  0.062499274            1 
  827000    1.1110804   -4.5230878    616.77143  0.062149479  0.062492072            2 
  828000    1.1203396   -4.5550852    617.01284  0.062098716  0.062485812            6 
  829000    1.1340809   -4.5115772    616.33196  0.061955364  0.062478748            2 
  830000    1.1234554   -4.4891523    617.05181  0.061952993  0.062472258            1 
  831000    1.1257365   -4.5175653    618.52519  0.062026192  0.062465192            2 
  832000     1.130455   -4.5090276    618.84537  0.061983711  0.062458867            3 
  833000    1.1273181   -4.4972793    622.39249  0.062264154  0.062451862            3 
  834000    1.1295661   -4.5490108    617.08238  0.061658911  0.062444688            1 
  835000    1.1276796    -4.491584    620.28559  0.061904749  0.062437349            3 
  836000    1.1047494   -4.5489119    614.98299  0.061302132  0.062428778            2 
  837000    1.0938017   -4.5163778    620.19541  0.061747851  0.062420284            3 
  838000    1.1166824   -4.5343359    622.36026  0.061889445  0.062411714            3 
  839000    1.1086486   -4.5211851    622.09422  0.061789255  0.062403318            2 
  840000    1.1221406   -4.5145312    623.74103   0.06187907  0.062394851            3 
  841000    1.1353952   -4.5243815    620.71672  0.061505819  0.062386053            3 
  842000    1.1209164   -4.5037017    624.68162   0.06182518  0.062377954            4 
  843000    1.1387025   -4.4915255    627.18375  0.061999185  0.062369538            2 
  844000    1.1105651   -4.5100844    626.88136  0.061895869  0.062360919            4 
  845000    1.1064475   -4.5252571    626.85354  0.061819876  0.062352652            4 
  846000    1.1289401   -4.5069043     627.8375  0.061843725  0.062345296            2 
  847000    1.1466447   -4.5082913    629.80301   0.06196409  0.062338147            1 
  848000     1.129403   -4.5448564    629.66508  0.061877465  0.062331414            2 
  849000    1.1274386   -4.5195378    630.60219  0.061896564  0.062323932            3 
  850000    1.1113218   -4.5156306     632.8303  0.062042186  0.062317002            4 
  851000    1.1243184   -4.5202963    631.34764  0.061824093  0.062309969            2 
  852000    1.1212342   -4.5176365    632.97394  0.061910596  0.062303119            1 
  853000    1.1020794    -4.528817    635.00382  0.062036324  0.062295819            3 
  854000    1.0967318   -4.5360065    632.54701  0.061723947  0.062288645            6 
  855000    1.1103992   -4.5679216    633.37954  0.061732899  0.062281586            1 
  856000    1.1183628   -4.5167797    636.48782  0.061963378   0.06227452            5 
  857000    1.1121079   -4.5355832    632.98766  0.061550726  0.062266808            3 
  858000    1.1147503   -4.5058873    637.57339  0.061924378  0.062259786            1 
  859000    1.1313496   -4.5123672    635.36062  0.061637623  0.062252134            3 
  860000    1.1248226   -4.5228202     638.2578  0.061846686  0.062244647            3 
  861000    1.0991785   -4.5177746    637.93654  0.061743761  0.062236707            3 
  862000    1.0925972     -4.53717    636.71095   0.06155365  0.062228626            3 
  863000    1.1052763   -4.5467906    638.55874  0.061660752  0.062221235            3 
  864000    1.1220195   -4.5422117    638.69878  0.061602892  0.062213554            1 
  865000    1.1307333   -4.5144848    640.90184  0.061743915  0.062206195            2 
  866000    1.1029122   -4.4921597    641.92411  0.061770988  0.062199139            2 
  867000    1.1123997   -4.5434521    642.28771  0.061734689  0.062191927            1 
  868000    1.1266392   -4.5356407    647.18532  0.062133767  0.062185114            2 
  869000    1.1175662   -4.5486406    641.11926  0.061480558  0.062177945            3 
  870000    1.1110452   -4.5285889    643.15874  0.061605243  0.062170791            1 
  871000    1.1078573   -4.5198021    644.74718  0.061686489  0.062163482            2 
  872000    1.1236486   -4.5659478    643.85176  0.061530176   0.06215608            4 
  873000     1.133313   -4.5270989    645.51563  0.061618521  0.062147797            4 
  874000    1.1106328   -4.5349879    645.11715  0.061510026  0.062139965            7 
  875000    1.1181627   -4.5055263    646.27307  0.061549816   0.06213147            2 
  876000    1.1360366   -4.5584778     643.0076  0.061168912  0.062122844            3 
  877000    1.1283376    -4.554047    645.90742  0.061374708  0.062113891            3 
  878000    1.1277176   -4.5434237    647.45879  0.061452049  0.062105374            1 
  879000    1.1102275   -4.5338876    648.56399  0.061486916  0.062095879            4 
  880000    1.0919929   -4.5038349    647.80669   0.06134533  0.062086681            4 
  881000    1.1037066   -4.5236771    650.30337  0.061511859  0.062077454            3 
  882000    1.1094756   -4.5324037    650.18825  0.061431241  0.062069018            1 
  883000    1.1272119   -4.5413305    651.44318  0.061480104  0.062060977            3 
  884000    1.1265206   -4.5164269      653.336   0.06158899  0.062052676            2 
  885000    1.1090773    -4.538766    652.21425  0.061413771  0.062044524            3 
  886000    1.1057178   -4.4972798    655.23836   0.06162889  0.062036299            5 
  887000    1.1367609   -4.5076294    657.27442  0.061750697  0.062028628            2 
  888000    1.0859729   -4.5271582    655.72326  0.061535591  0.062020468            2 
  889000    1.0857695    -4.566155    653.91907   0.06129725  0.062012669            3 
  890000    1.1115029   -4.5455562    656.50574  0.061470575  0.062005223            4 
  891000    1.0947703   -4.5156578    659.48748   0.06168046  0.061998209            2 
  892000    1.1025789   -4.5387528    659.53608  0.061615852  0.061991163            4 
  893000      1.09829   -4.5309158    659.81166   0.06157257  0.061984762            3 
  894000    1.1162321   -4.5472319    660.59379  0.061576602  0.061977953            2 
  895000    1.0967244   -4.5169567    660.78476  0.061525583  0.061970866            3 
  896000    1.1063797   -4.5580915    659.62461  0.061349015  0.061963723            3 
  897000     1.116141    -4.534308    664.08531   0.06169503  0.061956604            2 
  898000    1.1149002   -4.5269071    662.82302  0.061509189  0.061949587            2 
  899000    1.1057751   -4.4944382    663.96057  0.061546215  0.061942554            1 
  900000    1.1266388   -4.5336352    664.96944  0.061571244  0.061935644            4 
  901000    1.1055947   -4.5510633     664.7272  0.061480503  0.061928489            2 
  902000    1.1068713   -4.4547264    671.76886  0.062062903  0.061922027            3 
  903000    1.1114714   -4.5439397    668.19189  0.061664072  0.061915901            3 
  904000    1.1088363   -4.5283833    667.79481  0.061559256  0.061909223            1 
  905000    1.1054572   -4.5676511    668.54251  0.061560084  0.061902393            4 
  906000     1.110397   -4.5674242    668.81453  0.061517157  0.061895436            6 
  907000    1.1408469   -4.5202657    669.11377  0.061476825  0.061889089            3 
  908000    1.1208314    -4.529778    668.99061  0.061397817  0.061882215            2 
  909000    1.1120184   -4.5652615    671.01377  0.061515747  0.061875652            2 
  910000    1.1072065   -4.5172924    674.00436  0.061722011  0.061868764            2 
  911000    1.1283276   -4.5339141    670.83757  0.061364578  0.061861887            2 
  912000    1.0881981   -4.5130574    672.90353  0.061486069  0.061854929            2 
  913000    1.1088274    -4.548887     672.2787  0.061361692  0.061847516            5 
  914000    1.0785683   -4.5383121    674.52784   0.06149962  0.061840689            1 
  915000    1.1092131   -4.5669754     670.2017  0.061038406  0.061833137            4 
  916000     1.099873    -4.540217    674.58632  0.061370663  0.061825491            2 
  917000    1.1014393   -4.5500198    675.83809  0.061417493  0.061818113            3 
  918000    1.1089703   -4.5579278    674.56692  0.061235196  0.061809343            3 
  919000    1.1105694   -4.5485599    675.55001  0.061257709  0.061801407            4 
  920000    1.1069057   -4.5618561     674.1489  0.061064212  0.061792672            3 
  921000    1.0937566   -4.5417965    674.87539  0.061063644  0.061783807            2 
  922000    1.0930044   -4.5191274    675.06833  0.061014853  0.061774717            2 
  923000    1.0984855   -4.5421715    676.35263  0.061064701  0.061764999            2 
  924000    1.1335333    -4.519784    676.02192  0.060968788  0.061755307            5 
  925000    1.1007364   -4.5603607    674.40876  0.060757546  0.061745413            2 
  926000    1.0921525    -4.548971    676.42759  0.060873613   0.06173534            2 
  927000    1.1077914   -4.5343591    677.28539  0.060885059  0.061725671            3 
  928000    1.1104148   -4.5216625    679.63984  0.061030877  0.061715834            2 
  929000    1.0836078    -4.558215    677.51595  0.060774663  0.061705802            2 
  930000    1.1256093   -4.5447858    680.42008  0.060969541  0.061695231            3 
  931000    1.1008824   -4.5263953    680.60914  0.060920976  0.061685152            4 
  932000    1.1112799   -4.5218061     680.6827  0.060862187  0.061675375            3 
  933000     1.085027   -4.5422633    681.90655  0.060906266  0.061666232            3 
  934000    1.1125747   -4.5647019    682.09199  0.060857601  0.061656689            2 
  935000    1.0920795   -4.5082729    682.60328  0.060838082  0.061646566            2 
  936000     1.112548    -4.557852    681.39231   0.06066527  0.061636968            4 
  937000    1.0803849   -4.5630608    682.63697  0.060711221  0.061626066            5 
  938000     1.124356   -4.5458459    683.73362  0.060743925  0.061615371            3 
  939000    1.1093805   -4.5793241    682.88149  0.060603611  0.061604831            4 
  940000    1.0966511   -4.5610335    686.08461  0.060823104  0.061594811            5 
  941000     1.122887   -4.5902475    685.03515  0.060665528  0.061585371            3 
  942000    1.0841031   -4.5555949    684.29713  0.060535839  0.061575511            3 
  943000    1.0982782   -4.5389402    687.47971  0.060752891  0.061565812            4 
  944000    1.1022403   -4.5493489    689.00866  0.060823504  0.061555616            4 
  945000    1.1067747   -4.5771099    688.66642  0.060728962  0.061545669            1 
  946000    1.0871991   -4.5567841    688.17335  0.060621331  0.061535203            2 
  947000    1.1117951   -4.5486601    689.47124  0.060671528  0.061525106            2 
  948000    1.0890193   -4.5439747    691.47095  0.060783311  0.061514569            3 
  949000    1.1110749   -4.5498189    687.66407  0.060384973  0.061504119            3 
  950000    1.1133884   -4.5640953    690.10587  0.060535603  0.061493879            2 
  951000    1.1234077    -4.582246    695.30372   0.06092742  0.061483399            3 
  952000      1.10424   -4.5262727    694.91235  0.060829162   0.06147324            3 
  953000    1.1190871   -4.5244096    694.46498  0.060726214  0.061463418            2 
  954000    1.0972229   -4.5131742    693.63516  0.060590073  0.061453328            6 
  955000    1.0885494   -4.5500193    696.34077   0.06076272  0.061442848            1 
  956000    1.1099162   -4.5331865    694.39395  0.060529459  0.061431971            2 
  957000    1.1043338   -4.5240241    697.60529  0.060745846  0.061421037            4 
  958000    1.0673097   -4.5471974    694.50699  0.060412926  0.061410701            5 
  959000     1.098423   -4.5448703    699.04561  0.060744318  0.061400435            5 
  960000    1.0919126   -4.5592874    697.83827  0.060576239  0.061390579            3 
  961000    1.1506104    -4.546482    702.36625  0.060905849  0.061380165            1 
  962000    1.1084325    -4.557147    702.38509  0.060844169  0.061370742            2 
  963000    1.0827837   -4.5219305    702.54691   0.06079499  0.061361343            2 
  964000    1.1053159   -4.5593944    703.86612  0.060845965  0.061352238            2 
  965000    1.0744726   -4.5648049    702.88963  0.060698586  0.061342776            3 
  966000    1.0906848   -4.5472805    703.34398  0.060674946  0.061332355            2 
  967000    1.1113293   -4.5609733    703.12808  0.060593595  0.061322429            3 
  968000    1.0838542   -4.5704139    703.72226  0.060582151  0.061312306            2 
  969000    1.1043006   -4.5445683    706.92744  0.060795274  0.061302322            2 
  970000    1.0885881   -4.5324708    703.87084  0.060470003   0.06129271            2 
  971000    1.0962388   -4.6014389    704.88128  0.060494445   0.06128321            2 
  972000    1.1042362   -4.5394714    704.49464   0.06039906   0.06127301            1 
  973000    1.1043508   -4.5544148    706.80429  0.060534797  0.061262659            5 
  974000    1.1123176   -4.5721727    705.02627  0.060320523  0.061252693            4 
  975000    1.1030069   -4.5640342    706.37764  0.060374157  0.061243061            3 
  976000    1.1122954   -4.5745604    708.66014  0.060507184  0.061232992            3 
  977000    1.0696701   -4.5399739    707.62475  0.060356939  0.061223647            2 
  978000    1.1032205   -4.5944766      708.612  0.060379346  0.061213659            2 
  979000    1.1072619   -4.5435279    711.26051  0.060543114  0.061204601            4 
  980000     1.083153   -4.5961892    711.02202  0.060461056  0.061195044            2 
  981000    1.0892795   -4.5578586    713.95542  0.060648609  0.061185841            2 
  982000    1.1075112   -4.5532701    713.41112  0.060540659  0.061176439            2 
  983000    1.1135977   -4.5571798    713.62514  0.060497214  0.061167075            2 
  984000    1.1177483   -4.5968654    711.65698  0.060269053  0.061157973            3 
  985000    1.1034636   -4.5619081    713.28154  0.060345308  0.061148137            1 
  986000    1.1128149   -4.5813162    714.27274  0.060367879  0.061138481            5 
  987000    1.0898204   -4.5513827     716.4653  0.060491836   0.06112844            5 
  988000    1.0919057   -4.5636904     714.5194  0.060266481  0.061118621            1 
  989000    1.0757832   -4.5354025    718.31785  0.060525603   0.06110843            1 
  990000    1.0969204   -4.5599696    716.34615  0.060298498  0.061098296            4 
  991000    1.1272275   -4.5738586    716.29193  0.060233092  0.061088835            2 
  992000    1.0819885   -4.5481992    719.72154  0.060460479  0.061078748            3 
  993000    1.0816474   -4.5667606    718.63755  0.060308622  0.061069206            2 
  994000    1.0803384   -4.5477368    719.68838  0.060336048  0.061059278            3 
  995000     1.081657   -4.5735938    719.35624  0.060247591  0.061050138            2 
  996000    1.0947288   -4.5733068    719.42888  0.060193179  0.061040157            3 
  997000    1.0751766   -4.5589614    721.36012  0.060294226  0.061030163            3 
  998000     1.097868   -4.5483471    721.30937  0.060229574  0.061019939            2 
  999000    1.0936015   -4.5908733    721.03718  0.060146578  0.061009817            2 
 1000000     1.085705   -4.5805072    721.06748  0.060088957  0.060999869            2 
 1001000    1.0953635   -4.5784002    723.49713  0.060231197  0.060989627            3 
 1002000    1.1046553   -4.5700438    726.87598  0.060452094  0.060979325            4 
 1003000    1.0929563   -4.5465929    726.00431  0.060319401   0.06096937            2 
 1004000    1.0734785   -4.5959551    723.40894  0.060043903  0.060959294            3 
 1005000    1.1059818   -4.5603328    727.76553  0.060345401   0.06094943            4 
 1006000    1.0809145   -4.5751443     725.0624  0.060061497  0.060939526            2 
 1007000    1.0906267   -4.5797093    727.62593  0.060213996  0.060929253            2 
 1008000    1.0893579    -4.610969    726.69656  0.060077428  0.060919099            4 
 1009000    1.0709025   -4.5740623    730.35802  0.060320285  0.060909397            2 
 1010000    1.0899446   -4.5566815    730.47736  0.060270409  0.060900081            1 
 1011000     1.095833   -4.5363471     730.9431  0.060249184  0.060890612            2 
 1012000    1.0892238   -4.5602333    730.75567  0.060174215  0.060880681            3 
 1013000    1.1012334   -4.5868202    729.18635  0.059985715  0.060870419            4 
 1014000    1.1042083   -4.6021852    729.46591  0.059949532  0.060859454            2 
 1015000    1.0900873    -4.590898    728.60289  0.059819613  0.060848203            2 
 1016000     1.102729   -4.5638754    729.73977  0.059853984  0.060837107            2 
 1017000    1.0905468   -4.5791171    732.88446  0.060052807  0.060825831            2 
 1018000    1.0816518   -4.5562464    731.15667  0.059852379  0.060814887            4 
 1019000    1.0439871    -4.575759     732.9878  0.059943392  0.060804148            2 
 1020000    1.0865093   -4.5186087    734.77215  0.060030405  0.060793495            5 
 1021000    1.0674961   -4.6061681    734.59617  0.059957245  0.060782445            3 
 1022000    1.0896493   -4.5844035    731.75557  0.059666958  0.060771557            1 
 1023000    1.0845997   -4.5729341    734.68716  0.059847438  0.060760336            4 
 1024000    1.0948279   -4.5589952    736.59579  0.059944319  0.060749887            3 
 1025000    1.0973914   -4.5865647    735.99765  0.059837207  0.060739114            3 
 1026000    1.0945138   -4.5526614    735.62286  0.059748445  0.060728145            3 
 1027000     1.085906   -4.5814071    740.10898  0.060054283  0.060718023            2 
 1028000    1.0913623   -4.5793135    738.33208  0.059851822  0.060707226            2 
 1029000    1.0885653   -4.6145234    739.68003  0.059902821  0.060696885            3 
 1030000    1.0723366   -4.5777622    739.39113  0.059821289  0.060686593            2 
 1031000    1.0885618   -4.5611173    740.31032  0.059837562  0.060676617            5 
 1032000    1.0897792   -4.5664958    742.84318  0.059984107  0.060666566            3 
 1033000    1.0711867   -4.5796879    743.81238  0.060004226  0.060656963            7 
 1034000    1.0919837   -4.5351124    742.43285  0.059835014  0.060646834            2 
 1035000    1.1010278   -4.5805541    744.38241  0.059934172  0.060637033            3 
 1036000    1.0784116   -4.5728681    746.38883  0.060037711  0.060626634            1 
 1037000    1.1088481   -4.5714822    744.75347  0.059848398  0.060616338            5 
 1038000    1.0876789   -4.5676724    747.19952  0.059987116  0.060606135            5 
 1039000    1.0791121   -4.5782391    744.70535  0.059729335  0.060596156            2 
 1040000    1.0944703   -4.5686208    746.13712  0.059786628  0.060585944            2 
 1041000    1.0737387   -4.5644339    746.74154  0.059777581  0.060576039            3 
 1042000    1.0944996   -4.6110779    745.76465  0.059642087  0.060565868            3 
 1043000    1.0596835   -4.5395233    750.40187  0.059955407  0.060556068            4 
 1044000     1.084415   -4.5498268    748.57006  0.059751761  0.060545613            2 
 1045000    1.1159999   -4.5860224    749.07642  0.059734962  0.060535345            2 
 1046000    1.0886233   -4.5684861    749.18823  0.059686762  0.060524683            2 
 1047000    1.1076771   -4.5918914     750.0949  0.059701918  0.060514191            3 
 1048000    1.0724308   -4.5986393    748.80095   0.05954206  0.060503258            1 
 1049000    1.0850588   -4.5736312    755.01221  0.059978726   0.06049284            4 
 1050000        1.106   -4.5616334     752.8293  0.059748357  0.060483085            3 
 1051000    1.0952029   -4.5888709     755.6327  0.059913788  0.060472429            3 
 1052000    1.0936983   -4.5994318    753.19812  0.059663983   0.06046254            2 
 1053000    1.1020043   -4.5877177    754.73983  0.059729331  0.060452031            4 
 1054000     1.084426   -4.5864777    756.05664  0.059776774  0.060441916            5 
 1055000    1.0738619   -4.6015688    751.85465  0.059388203  0.060431199            2 
 1056000    1.0867571   -4.5661382     757.3753  0.059767621  0.060420883            2 
 1057000    1.0800562   -4.5803749    754.67155  0.059497914  0.060410424            5 
 1058000    1.0999459   -4.5892935      754.594   0.05943557  0.060400044            4 
 1059000    1.0649039   -4.5553629    756.83896  0.059556103  0.060389028            4 
 1060000     1.089658   -4.5799134    755.64391  0.059405967  0.060378187            3 
 1061000    1.0921437   -4.5537738    756.77723   0.05943899  0.060367301            2 
 1062000    1.0842275   -4.5638773    757.37079  0.059429598  0.060356034            1 
 1063000    1.1034817   -4.5528209    759.80167  0.059564258  0.060345305            4 
 1064000    1.0902932   -4.6029467    758.94727  0.059441359  0.060334535            2 
 1065000     1.053695   -4.5610425    762.01206  0.059625357  0.060323841            5 
 1066000    1.0605074    -4.590387    761.03607  0.059493126  0.060312976            3 
 1067000     1.088315   -4.5681595    762.60756  0.059560103  0.060302333            2 
 1068000    1.0725932   -4.5912312    759.67856  0.059275793  0.060291975            2 
 1069000    1.0717452   -4.5874678    764.07043  0.059562709  0.060281344            2 
 1070000    1.0858338   -4.6059938    762.78245  0.059406732  0.060271333            3 
 1071000    1.0714052   -4.6038472    764.55951  0.059489535   0.06026067            1 
 1072000    1.0852917   -4.5727328    767.87105  0.059691469  0.060250814            4 
 1073000    1.0620975   -4.5903034    769.00814  0.059724149  0.060240805            2 
 1074000    1.0501812   -4.5922622    767.43453  0.059546441  0.060230578            1 
 1075000    1.0683881    -4.613851    764.76688  0.059284254  0.060220263            3 
 1076000    1.0526468   -4.5882282    769.66105  0.059608198  0.060209865            2 
 1077000    1.0852063   -4.6035915    769.25604  0.059521513  0.060199508            2 
 1078000    1.0639044   -4.5813534    764.59635  0.059106088  0.060189429            2 
 1079000    1.0741376   -4.5974332    770.70981  0.059523463  0.060179046            1 
 1080000    1.0892898   -4.6046983    771.63905  0.059540051  0.060168711            5 
 1081000    1.0636159   -4.5831328    771.31404  0.059459917  0.060158432            1 
 1082000    1.0887199   -4.5993012    772.53709  0.059499159  0.060148454            4 
 1083000    1.0796007     -4.54995    772.29411  0.059425524  0.060138871            2 
 1084000    1.0891203   -4.5665862    773.40185  0.059455862  0.060129116            4 
 1085000    1.0696721   -4.5897711    772.83658  0.059357648  0.060118495            2 
 1086000    1.0817284   -4.6072136     774.1103  0.059400729  0.060108228            3 
 1087000    1.0772906   -4.6401777    771.23846  0.059125917   0.06009746            2 
 1088000    1.0599083   -4.5647997    777.58183  0.059557432  0.060087198            2 
 1089000    1.0631864   -4.5744274    778.65513  0.059584874  0.060077413            4 
 1090000    1.0862066   -4.6082375    775.75629  0.059308584  0.060067013            2 
 1091000    1.0870594   -4.6053331    776.67123  0.059324109  0.060056785            2 
 1092000     1.080793   -4.6083181    778.65091  0.059420857  0.060046841            4 
 1093000    1.0477315   -4.6142752    780.38258  0.059498519  0.060037013            2 
 1094000    1.1083501   -4.5766089    784.08488  0.059726148  0.060027373            1 
 1095000    1.0952678   -4.5967756    779.21102  0.059300686  0.060017529            2 
 1096000    1.0896623   -4.5838617    781.51059  0.059421426   0.06000779            4 
 1097000    1.0769664   -4.5895642    782.89391  0.059472342   0.05999856            4 
 1098000    1.0738403   -4.5936429    780.42986  0.059231167  0.059989115            4 
 1099000    1.0531646   -4.5784734    781.86338  0.059285971  0.059979244            4 
 1100000    1.0598084   -4.5714771    782.64657  0.059291407  0.059969503            5 
 1101000    1.0727085   -4.5977912    785.08282  0.059421951  0.059959173            3 
 1102000    1.0858961   -4.5909016    782.16519  0.059147398  0.059949275            3 
 1103000    1.0821667    -4.616681    781.20936  0.059021559  0.059938848            9 
 1104000    1.0846097   -4.6002024    782.55721  0.059069838  0.059928512            3 
 1105000    1.0631437   -4.5965093    787.36455  0.059378925  0.059918383            2 
 1106000    1.0805133   -4.5989581    785.80364  0.059207628  0.059908948            3 
 1107000    1.0498581   -4.5807798    786.98019  0.059242712  0.059899139            7 
 1108000    1.0738094    -4.595742    789.06716  0.059346207  0.059888865            3 
 1109000    1.0925119   -4.6162119    786.11533  0.059070885  0.059878952            5 
 1110000    1.0780345   -4.6032761    789.29358  0.059256275  0.059868967            1 
 1111000    1.0630038   -4.5860117    790.43001   0.05928818  0.059859073            1 
 1112000    1.0498001   -4.6087561    789.93466  0.059197741  0.059848885            4 
 1113000    1.0794712   -4.6027877    789.85755   0.05913878  0.059838395            2 
 1114000     1.076992   -4.6115596    789.31583   0.05904517  0.059828109            3 
 1115000    1.0399482   -4.5803492    791.83809  0.059180725  0.059817982            2 
 1116000    1.0599919   -4.6177107    789.09962  0.058923209  0.059807863            2 
 1117000    1.0942894   -4.6291947    792.11436  0.059095371  0.059797505            2 
 1118000    1.0521663   -4.6102433    791.83765  0.059021888  0.059787098            2 
 1119000     1.055548   -4.5997448    793.33255   0.05908047  0.059776571            3 
 1120000    1.0671253   -4.6088331    791.63299  0.058901264  0.059766111            5 
 1121000    1.0559701   -4.5897825    795.22631  0.059115842  0.059755972            6 
 1122000    1.0729954   -4.5913343    794.89998  0.059038917  0.059745693            5 
 1123000    1.0618582   -4.6038077    793.19232  0.058859626  0.059735739            3 
 1124000    1.0736125   -4.5892448    795.06406   0.05894603  0.059725461            4 
 1125000    1.0833793   -4.6191328    797.04613  0.059040454  0.059715111            1 
 1126000    1.0734964   -4.5700143    801.62335  0.059326772  0.059705022            1 
 1127000    1.0601713    -4.600694     796.9623  0.058929481  0.059694999            2 
 1128000    1.0497213   -4.5989617    797.78446  0.058937977  0.059684187            2 
 1129000    1.0630258    -4.576988    799.07795  0.058981248  0.059674262            1 
 1130000    1.0957858   -4.5719401    800.49597  0.059033626  0.059664392            2 
 1131000     1.077617   -4.6003016    800.74521  0.058999794  0.059654493            3 
 1132000    1.0604572   -4.5993489    802.34557  0.059065486  0.059644545            1 
 1133000    1.0705897   -4.5878452     801.1898  0.058928347  0.059634881            2 
 1134000     1.053091   -4.6074042    801.56667  0.058904076  0.059624826            2 
 1135000    1.0741748   -4.6041191    804.29498  0.059052495  0.059615131            4 
 1136000    1.0553217   -4.6075246    804.69266  0.059029685  0.059605618            4 
 1137000    1.0687075   -4.5796387    803.54149  0.058893395  0.059595694            2 
 1138000    1.0726641   -4.6007833    805.40133  0.058977836   0.05958536            3 
 1139000    1.0593083    -4.611177    806.35074  0.058995518  0.059575621            2 
 1140000    1.0723833   -4.5897128    806.96772  0.058988868  0.059565493            3 
 1141000     1.091672   -4.6005228    808.26119  0.059031638  0.059555487            2 
 1142000    1.0684554   -4.5903229    807.74434  0.058942232  0.059546054            3 
 1143000    1.0658001    -4.619787    806.84634  0.058825193  0.059536211            5 
 1144000    1.0699043    -4.597329    809.00156  0.058930766  0.059526297            3 
 1145000    1.0550745   -4.5943243    807.91599   0.05880029  0.059516316            4 
 1146000    1.0691158   -4.6122274    811.13444  0.058983016   0.05950609            5 
 1147000    1.0709908   -4.5908938    812.25158  0.059012756  0.059495849            2 
 1148000    1.0978107   -4.6214786    810.91444  0.058864288  0.059485739            2 
 1149000    1.0662567   -4.5851303    811.77078  0.058875166  0.059475868            2 
 1150000    1.0874722   -4.6171281    809.61024  0.058667408  0.059465757            2 
 1151000    1.0702282   -4.6046632    811.38132  0.058744666  0.059455893            2 
 1152000    1.0603929   -4.5992399    814.21875  0.058898926   0.05944556            7 
 1153000    1.0711528   -4.6063395    815.51427  0.058941477  0.059435197            2 
 1154000    1.0688898   -4.5923475    816.80651  0.058983717  0.059424999            3 
 1155000    1.0746678   -4.6168762    813.54025  0.058696988  0.059414949            3 
 1156000    1.0537591   -4.6156316    816.22101  0.058839462   0.05940526            2 
 1157000    1.0450246   -4.5967926     814.0626  0.058633146  0.059394981            2 
 1158000    1.0538207   -4.6177682    815.65788  0.058697314  0.059384983            3 
 1159000    1.0744797   -4.5666483     818.4752  0.058849238  0.059374898            4 
 1160000    1.0625898   -4.5821358    819.72511  0.058888298  0.059365383            2 
 1161000    1.0945664   -4.6354404    816.59413  0.058612843  0.059355824            5 
 1162000    1.0403186   -4.6052535    821.87621  0.058941208  0.059346174            3 
 1163000    1.0536499   -4.6648068    816.99401    0.0585407     0.059336            1 
 1164000    1.0413339    -4.634389    819.14493  0.058644396  0.059325876            6 
 1165000     1.070148   -4.6105619    822.86991  0.058860509  0.059316239            2 
 1166000    1.0743736   -4.5970699    821.21102  0.058691468  0.059305879            2 
 1167000    1.0805182   -4.6189027    818.24634  0.058429473   0.05929563            5 
 1168000    1.0729161   -4.5884536    824.83191  0.058849309  0.059285536            2 
 1169000    1.0345707   -4.6184089     819.4315  0.058413993  0.059275016            3 
 1170000    1.0890552   -4.6210415    821.08478  0.058481822  0.059264456            5 
 1171000     1.088214   -4.6064133    822.37172  0.058523464  0.059254326            2 
 1172000    1.0632321   -4.6030955    822.87007  0.058508964  0.059244488            3 
 1173000    1.0872067   -4.6172734    824.09348  0.058545999  0.059233904            6 
 1174000    1.0459882   -4.6233549     823.4175  0.058448147  0.059224048            2 
 1175000    1.0875102   -4.6422296     826.8291  0.058640362  0.059213809            2 
 1176000    1.0875626   -4.6104077    826.58265  0.058573034  0.059203834            3 
 1177000    1.0656445   -4.6197848    827.14688  0.058563217  0.059193578            4 
 1178000    1.0475498   -4.6392468    825.85486  0.058422104  0.059183115            7 
 1179000    1.0629581   -4.6214281    828.21799  0.058539581  0.059173053            2 
 1180000    1.0527518   -4.6106416    829.31363  0.058567347  0.059162768            3 
 1181000    1.0569089    -4.652107    825.89639   0.05827663   0.05915258            3 
 1182000    1.0761211   -4.6478822    830.92116  0.058581582  0.059142404            3 
 1183000    1.0779942   -4.5991397    831.57207  0.058577914  0.059132406            2 
 1184000     1.063212   -4.6085854    833.30878  0.058650674  0.059122623            3 
 1185000    1.0784039   -4.6406796    831.39828  0.058466827  0.059112998            2 
 1186000     1.069459     -4.59862    832.82563  0.058517821  0.059103332            3 
 1187000    1.0580306   -4.6115377    833.86441  0.058541449  0.059093318            6 
 1188000    1.0626318   -4.6272245    832.91403  0.058425507  0.059083072            5 
 1189000    1.0710644    -4.595787    835.44094  0.058553472  0.059072911            1 
 1190000    1.0795995   -4.6346719    830.96323  0.058190702  0.059062847            1 
 1191000     1.051415   -4.6212987    833.68395   0.05833221  0.059052389            3 
 1192000    1.0532096   -4.6061525    833.59317  0.058276927  0.059041614            5 
 1193000    1.0689662   -4.6289078    833.97071   0.05825445  0.059031168            3 
 1194000    1.0646811   -4.6087227    836.07747  0.058352699  0.059020678            4 
 1195000    1.0685825   -4.6106888     836.8289  0.058356269  0.059010132            2 
 1196000      1.05801   -4.6360589    833.05434  0.058044477  0.058999456            5 
 1197000    1.0498266   -4.6240676    835.01607  0.058132559  0.058988661            3 
 1198000    1.0517073   -4.5761643    840.98542  0.058499264  0.058978408            3 
 1199000    1.0538499     -4.63127    838.08442  0.058248848  0.058967915            2 
 1200000    1.0551078   -4.6127473    839.38991  0.058290966  0.058957126            4 
 1201000    1.0574724   -4.6151583    837.64634   0.05812145  0.058946589            5 
 1202000    1.0698604    -4.636003     840.5628  0.058275291  0.058936126            3 
 1203000    1.0610009   -4.6274593    838.21509  0.058064221  0.058925284            2 
 1204000    1.0830328   -4.6262496    843.61307  0.058389609  0.058914838            4 
 1205000    1.0551819   -4.6211162     843.5454  0.058336473   0.05890458            3 
 1206000    1.0521235   -4.6135106    842.75389  0.058233409  0.058894491            4 
 1207000    1.0471315   -4.6207872    842.42761  0.058162635  0.058884287            5 
 1208000    1.0496713   -4.5849868    844.92723  0.058286923  0.058873864            2 
 1209000    1.0535873   -4.6189515    846.86236  0.058372096  0.058864037            2 
 1210000    1.0640373   -4.6144063    846.97937  0.058331913  0.058854397            4 
 1211000    1.0578443   -4.6353624    845.06622  0.058152093  0.058844321            7 
 1212000    1.0316599   -4.6278255    846.50371  0.058202951  0.058834343            2 
 1213000    1.0593283   -4.6094287    847.81285  0.058244906  0.058823958            2 
 1214000    1.0420682   -4.6019349    849.51248  0.058313597  0.058813631            3 
 1215000    1.0519772   -4.5802012    853.20038  0.058518545  0.058803533            2 
 1216000    1.0833467   -4.5985697    849.70938   0.05823118  0.058793551            5 
 1217000    1.0591647   -4.6255616    849.45818  0.058166131  0.058783529            1 
 1218000    1.0411143   -4.5977071    850.95325  0.058220666  0.058773029            3 
 1219000    1.0478538   -4.5988276    852.14645  0.058254474  0.058762984            2 
 1220000    1.0762154   -4.6327207    849.73442  0.058041969  0.058753022            4 
 1221000    1.0642966   -4.6454773    852.50241  0.058183348  0.058742792            5 
 1222000    1.0477262   -4.6231444    853.56128  0.058207943  0.058732572            4 
 1223000    1.0503269   -4.6294644    852.48386  0.058086935  0.058722311            5 
 1224000    1.0525728    -4.626551    854.14149  0.058152335  0.058712404            4 
 1225000    1.0817768   -4.6471082    850.36649  0.057848061  0.058702087            2 
 1226000     1.034739   -4.6336953    854.96546  0.058113476  0.058691846            4 
 1227000    1.0654292       -4.615    855.76122  0.058120159  0.058681885            4 
 1228000    1.0587315   -4.6438642    855.49879  0.058055021  0.058671694            2 
 1229000    1.0861773   -4.6193596    857.54769   0.05814671  0.058662093            5 
 1230000    1.0576772   -4.6146665    854.92726  0.057921901  0.058652483            5 
 1231000    1.0966597   -4.6574463    855.86905  0.057938604  0.058642699            3 
 1232000    1.0569769   -4.6251017    858.87654  0.058095004  0.058632863            4 
 1233000    1.0569594   -4.6261202    857.96957  0.057986589  0.058622863            4 
 1234000     1.069093    -4.611698     858.1434  0.057951337  0.058612526            2 
 1235000    1.0637769   -4.6307919     858.6986  0.057941876   0.05860242            2 
 1236000    1.0372145   -4.6317386    861.39039  0.058076483  0.058592126            4 
 1237000    1.0787555   -4.6512093    858.05455  0.057804807  0.058581959            2 
 1238000    1.0449599   -4.6834629    859.52141  0.057856853  0.058572073            6 
 1239000    1.0489744   -4.6369075    862.33083  0.057999114  0.058562092            2 
 1240000    1.0590026   -4.6372099    862.89871  0.057990505  0.058552751            4 
 1241000    1.0671385   -4.6159898    866.14611  0.058161839   0.05854317            1 
 1242000    1.0876862   -4.6485263    862.71297   0.05788466  0.058533649            4 
 1243000    1.0544077   -4.6655462    864.97946  0.057990042  0.058523739            2 
 1244000    1.0239756   -4.5823909    868.54014   0.05818195  0.058514565            2 
 1245000    1.0685604   -4.6277137    867.24444   0.05804849  0.058505241            6 
 1246000    1.0521046   -4.6103935    866.59954  0.057958771  0.058495674            3 
 1247000    1.0553973   -4.6212006     867.7232  0.057987383  0.058486189            2 
 1248000    1.0520546   -4.6116079    865.97114  0.057823928   0.05847606            4 
 1249000    1.0466385   -4.6215612    868.86518  0.057970722   0.05846628            2 
 1250000     1.058006   -4.6334715     869.1767  0.057945114  0.058456048            2 
 1251000    1.0626431   -4.6308987    867.71336  0.057801317  0.058446143            3 
 1252000    1.0421834   -4.6658899    867.31856  0.057728871  0.058436267            4 
 1253000    1.0722595   -4.6524633    868.94351  0.057790869  0.058426098            2 
 1254000    1.0432927   -4.6424545    871.15737  0.057891904  0.058415968            7 
 1255000    1.0538653   -4.6419325    868.91391  0.057696807  0.058406327            2 
 1256000    1.0542015    -4.654724    870.25575  0.057739899  0.058396921            3 
 1257000    1.0263925   -4.6318131     873.6247   0.05791731  0.058387268            3 
 1258000    1.0510803    -4.618879    873.17454  0.057841451  0.058377338            4 
 1259000    1.0521143   -4.6516325    871.53524  0.057687003  0.058367555            5 
 1260000     1.044059   -4.6564115    870.80078  0.057592644  0.058356997            3 
 1261000    1.0472737   -4.6178843     872.1394  0.057635435  0.058346989            2 
 1262000    1.0678199   -4.6746562      870.597  0.057487916  0.058336728            3 
 1263000    1.0460322   -4.6231597    872.75998  0.057585114  0.058326482            2 
 1264000    1.0433829   -4.6421982    879.36606  0.057975083  0.058316286            3 
 1265000    1.0559283   -4.6280664    871.81378  0.057431738  0.058305899            8 
 1266000    1.0444958   -4.6415103    878.08035  0.057798865   0.05829569            3 
 1267000    1.0565082   -4.6224712    878.57123  0.057785532  0.058285185            3 
 1268000     1.050641   -4.6697454    875.97019  0.057569019  0.058274308            4 
 1269000    1.0462493   -4.6625925    875.70591  0.057506298  0.058264249            3 
 1270000    1.0561353   -4.6272033    880.42342  0.057770566   0.05825435            2 
 1271000    1.0605473   -4.6393774    878.41604  0.057593498  0.058244309            2 
 1272000    1.0435796   -4.6402975    881.26901  0.057735129  0.058234319            3 
 1273000    1.0507709   -4.6238025    880.86785  0.057663514  0.058224725            2 
 1274000    1.0525018    -4.661381    882.72572  0.057739778  0.058214764            4 
 1275000    1.0342175   -4.6254105    883.61881  0.057752863   0.05820525            2 
 1276000    1.0502254   -4.6307055      885.592  0.057836468  0.058195746            3 
 1277000    1.0488858   -4.6314445    881.21401  0.057505482  0.058186279            2 
 1278000    1.0356857   -4.6685616    884.62748  0.057683065  0.058176372            4 
 1279000    1.0466921   -4.6285866    886.07037  0.057731976  0.058166081            4 
 1280000    1.0583016   -4.6396071    882.77957  0.057472628  0.058156101            3 
 1281000     1.057971   -4.6395086    886.64142  0.057678989  0.058145991            6 
 1282000    1.0582768   -4.6691969    882.80339  0.057384516  0.058135488            3 
 1283000    1.0537105   -4.6619418    886.37549  0.057571804  0.058125411            2 
 1284000    1.0348859   -4.6580464    884.50865  0.057405805  0.058115006            3 
 1285000    1.0435218   -4.6494945    884.79269  0.057379552  0.058104475            3 
 1286000     1.035052   -4.6425658    883.25446  0.057235255  0.058093961            4 
 1287000    1.0530967   -4.6451768    885.06943  0.057308303  0.058083696            6 
 1288000    1.0380312   -4.6530133    888.08456  0.057458887  0.058073154            6 
 1289000    1.0230206   -4.6647484    888.22754  0.057423554  0.058062803            4 
 1290000    1.0160292   -4.6615257    888.75141  0.057412882  0.058052718            5 
 1291000     1.024501   -4.6271139    886.92018  0.057250205  0.058041796            6 
 1292000     1.024843   -4.6618878    887.27864  0.057229014   0.05803092            2 
 1293000    1.0611065   -4.6531266    888.07289  0.057235943  0.058020284            5 
 1294000    1.0457042   -4.5973365    890.50576  0.057348388  0.058009081            4 
 1295000    1.0431303   -4.6297324    893.72364  0.057511174  0.057997964            4 
 1296000    1.0527376    -4.677774     888.5384  0.057133385  0.057986653            3 
 1297000    1.0505974   -4.6312072    889.23333  0.057133984  0.057975127            3 
 1298000    1.0067744   -4.6551745    889.38245  0.057099541  0.057963887            3 
 1299000    1.0676055   -4.6596314    892.92672  0.057282956  0.057952925            2 
 1300000    1.0295292   -4.6295874    891.32399  0.057136153  0.057942043            1 
 1301000    1.0239076   -4.6774006    891.57115  0.057108067   0.05793085            2 
 1302000    1.0440926   -4.6211906    897.43411  0.057439459  0.057919504            2 
 1303000    1.0356602   -4.6146624    893.20102  0.057124649  0.057908755            3 
 1304000    1.0287372   -4.6528581     894.6303  0.057172182  0.057897921            3 
 1305000    1.0393633   -4.6549867    894.75918  0.057136602  0.057887235            1 
 1306000    1.0478475   -4.6424809    898.24568  0.057315319   0.05787685            3 
 1307000    1.0266975   -4.6723344    897.28516  0.057210224  0.057866385            5 
 1308000    1.0412676   -4.6537686     897.5692  0.057184582  0.057855508            3 
 1309000     1.046187   -4.6574275    901.25114  0.057375295  0.057845494            2 
 1310000    1.0535057   -4.6614896     901.1037  0.057322118  0.057835393            4 
 1311000    1.0238117   -4.6699694    901.33289  0.057292963  0.057825422            2 
 1312000    1.0532039   -4.6629762    905.52452  0.057515531   0.05781522            6 
 1313000    1.0520824   -4.6573476    903.10386  0.057318092  0.057805042            6 
 1314000    1.0459246   -4.6865404     902.3831  0.057228761  0.057794901            7 
 1315000    1.0434507   -4.6590431    903.93247  0.057283427  0.057784761            3 
 1316000    1.0564821   -4.6193953    902.10985  0.057124484  0.057774491            2 
 1317000    1.0466744   -4.6457518    906.61802  0.057366364  0.057764453            5 
 1318000    1.0349677   -4.6402988    904.23504   0.05717217  0.057754476            4 
 1319000    1.0638752   -4.6670672    902.87259  0.057042746  0.057744427            3 
 1320000    1.0479447   -4.6219082    904.26214  0.057087256  0.057734361            5 
 1321000     1.056027   -4.6822524    903.29239  0.056982866  0.057723818            6 
 1322000    1.0488557   -4.6416484     908.0062  0.057236901  0.057713141            5 
 1323000     1.049491   -4.6388637    905.64377  0.057044833  0.057702505            4 
 1324000    1.0465188   -4.6833447    906.23487  0.057038952  0.057692116            2 
 1325000    1.0377081   -4.6356994    910.05503  0.057236165  0.057681972            2 
 1326000    1.0480853   -4.6525206    906.19729  0.056950559  0.057671585            1 
 1327000    1.0446441   -4.6236698     910.9202  0.057204232  0.057661437            2 
 1328000    1.0508463   -4.6651821    910.22314  0.057117416  0.057650941            2 
 1329000    1.0610069   -4.6702318    908.56312  0.056970349  0.057640699            3 
 1330000    1.0646912   -4.6696026     908.9259  0.056950244  0.057630409            5 
 1331000    1.0451164   -4.6482217    910.29461  0.056993151   0.05761998            2 
 1332000    1.0430835   -4.6534777    909.35976  0.056891877  0.057609255            4 
 1333000    1.0383104   -4.6824676    909.79231  0.056876239  0.057598636            5 
 1334000    1.0267684   -4.6435968    912.49144  0.057002214   0.05758747            1 
 1335000    1.0334299   -4.6262277    912.43931  0.056956262  0.057576781            3 
 1336000    1.0486301    -4.669374    912.17046   0.05689686  0.057565877            4 
 1337000    1.0351377   -4.6578666    913.36567    0.0569288  0.057554963            2 
 1338000    1.0551884   -4.6604608    911.91397  0.056795838  0.057543837            2 
 1339000    1.0145459   -4.6404408    911.53149  0.056729617  0.057532875            2 
 1340000    1.0466114   -4.6733167    912.92041  0.056773658  0.057521764            3 
 1341000    1.0283291    -4.684707    915.88657  0.056915646  0.057510991            4 
 1342000    1.0138191    -4.663969    916.53467  0.056913479  0.057500064            2 
 1343000    1.0605411   -4.6641036    914.28562  0.056731548  0.057489133            1 
 1344000    1.0225281   -4.6608026    916.97714  0.056856221  0.057478228            2 
 1345000    1.0366797   -4.6488445    918.05351  0.056880639   0.05746743            2 
 1346000    1.0387865   -4.6482902    914.78063   0.05663575  0.057456656            2 
 1347000    1.0294205   -4.6670044    915.68431  0.056649611  0.057446091            2 
 1348000    1.0520399   -4.6379408    916.83364  0.056678638  0.057435164            5 
 1349000     1.025894    -4.669145    916.12295   0.05659272  0.057424196            3 
 1350000    1.0143725   -4.6286624    919.04206  0.056730991  0.057413287            9 
 1351000    1.0363204    -4.685116    917.30835   0.05658206  0.057402195            4 
 1352000    1.0329174   -4.6923342    917.08104  0.056526198  0.057391344            4 
 1353000    1.0018508   -4.6826204    915.96808  0.056415871   0.05738026            4 
 1354000    1.0393743   -4.6517187    922.19766  0.056757611  0.057369459            4 
 1355000    1.0368218   -4.6862825    919.15052  0.056528323  0.057358325            2 
 1356000    1.0352196   -4.6716464    925.29739  0.056864392  0.057347173            3 
 1357000    1.0213464   -4.6597445    920.49922  0.056527832  0.057336273            2 
 1358000    1.0418675   -4.6818566    921.54288   0.05655025  0.057325265            3 
 1359000    1.0139227   -4.7101659    920.19565  0.056426027  0.057314192            3 
 1360000    1.0256491    -4.657052    922.87281  0.056548579   0.05730292            2 
 1361000    1.0366834   -4.6639915    924.23919  0.056590692  0.057291545            5 
 1362000    1.0475561   -4.7075143    923.58209  0.056508939  0.057280364            2 
 1363000    1.0426868   -4.6517634    921.76107  0.056356143  0.057269201            2 
 1364000    1.0063958   -4.6621767    924.76727  0.056498489  0.057258322            3 
 1365000    1.0336193    -4.673633    922.27819   0.05630514  0.057247099            3 
 1366000    1.0245814   -4.6619282    927.72668  0.056596308  0.057236052            6 
 1367000    1.0393369   -4.6490448    929.09178  0.056638123  0.057224585            3 
 1368000     1.020915   -4.6689305    923.58188  0.056261079  0.057213338            5 
 1369000    1.0204833   -4.6351953    927.31243  0.056447068  0.057201932            4 
 1370000     1.005402    -4.677691    926.63215  0.056364486  0.057190609            2 
 1371000    1.0229282   -4.6939012    928.71776  0.056450143  0.057178847            6 
 1372000    1.0193691   -4.6688711    927.67094  0.056345417  0.057167173            3 
 1373000    1.0197664   -4.6388621    927.18356  0.056274797  0.057155298            4 
 1374000    1.0364417   -4.6816144    927.42993  0.056248783   0.05714362            2 
 1375000    1.0205323   -4.6881367    927.11025    0.0561885  0.057131914            3 
 1376000    1.0139309   -4.6535497    928.50517  0.056232145  0.057120042            2 
 1377000    1.0375982   -4.6500719    928.61327   0.05619785  0.057108106            1 
 1378000    1.0028518   -4.6693392    931.40311  0.056325781  0.057096031            5 
 1379000    1.0204593   -4.6714476    929.30545  0.056158173  0.057083463            3 
 1380000    1.0263233   -4.6340139    932.72921  0.056324228  0.057071806            3 
 1381000    1.0394326   -4.6305851     935.1336   0.05642853  0.057060422            2 
 1382000    1.0350507   -4.6528015    931.09941  0.056144441  0.057049022            4 
 1383000    1.0325535   -4.6403638    934.65351  0.056317999  0.057037342            2 
 1384000    1.0334537   -4.6909807    932.72953   0.05616146  0.057025564            4 
 1385000     1.017646    -4.663186    934.63535   0.05623558  0.057013674            3 
 1386000    1.0289153   -4.6580132    936.76999  0.056323352   0.05700214            2 
 1387000    1.0320508   -4.6617806    936.36039  0.056258134  0.056990396            2 
 1388000    0.9996147   -4.7057522    934.27783  0.056092569  0.056978865            1 
 1389000     1.015184   -4.6850318    936.53068  0.056187346  0.056967162            4 
 1390000     1.033422   -4.6974254    935.94589  0.056111864  0.056955603            5 
 1391000    1.0159026   -4.6849641     934.0886  0.055960257  0.056943998            1 
 1392000    1.0267122   -4.6927503    936.33508  0.056054543  0.056932153            5 
 1393000    1.0737516   -4.6850844    937.74935  0.056098908  0.056920287            2 
 1394000    1.0208051   -4.6943745    937.60296  0.056049914  0.056908626            4 
 1395000    1.0448767   -4.6989774    933.21658  0.055747705  0.056896881            4 
 1396000    1.0212422   -4.7063035     936.6388  0.055912058  0.056884779            7 
 1397000    1.0447797   -4.6489862    940.52061  0.056103591  0.056872552            3 
 1398000    1.0095895   -4.7006017    938.30186  0.055931203  0.056860638            8 
 1399000    1.0487688   -4.7001645    935.98074  0.055752963  0.056848477            4 
 1400000    1.0133168   -4.6909725    939.36846  0.055914789  0.056836274            2 
 1401000    1.0000231   -4.6550974    941.86726  0.056023511  0.056824259            3 
 1402000    1.0194627   -4.6640504    939.02653  0.055814701   0.05681213            3 
 1403000      1.04248   -4.6672619    941.11598  0.055899025  0.056799955            3 
 1404000     1.030818   -4.6760055    940.74802   0.05583737  0.056787914            3 
 1405000    1.0266974    -4.687092    941.58794  0.055847446  0.056775523            2 
 1406000    1.0160197   -4.7128072    939.43835  0.055680319  0.056763182            2 
 1407000    1.0475095   -4.6831122    940.09357  0.055679553  0.056750956            3 
 1408000    1.0080326   -4.6953595    942.47439  0.055780918  0.056738879            3 
 1409000    1.0268252   -4.6608856    943.67923  0.055812587  0.056727007            2 
 1410000    1.0262242   -4.6855681    944.97047  0.055849319  0.056714854            2 
 1411000    1.0482184   -4.6866831    943.74681  0.055737468  0.056702771            5 
 1412000    1.0174008   -4.6747458    945.88093  0.055823945  0.056690672            4 
 1413000    1.0187163   -4.6901184    944.75959  0.055718305  0.056678643            6 
 1414000    1.0135826   -4.7123932    942.74663  0.055560268  0.056666435            4 
 1415000    1.0258206    -4.721851    945.73666  0.055697094   0.05665461            3 
 1416000    1.0213562   -4.6472915    950.68689  0.055949087  0.056642803            3 
 1417000    1.0110624   -4.7007177     946.3936  0.055657116  0.056630775            3 
 1418000    1.0207052    -4.683065    951.89855  0.055941382  0.056619092            2 
 1419000    1.0290028   -4.6824969    946.79721  0.055602373  0.056607865            3 
 1420000    1.0208157   -4.6723144    949.70462  0.055733839   0.05659606            5 
 1421000    1.0260444   -4.6973843    946.69644  0.055518206  0.056584631            2 
 1422000    1.0456557   -4.6927642    949.61997   0.05565049  0.056572593            2 
 1423000    1.0050792   -4.6782838    950.39334  0.055656673  0.056561282            3 
 1424000    1.0406813   -4.7225332    947.88605   0.05547086  0.056549022            3 
 1425000    1.0381926    -4.695892    950.77036  0.055600606   0.05653723            4 
 1426000    1.0285896   -4.6778321    951.56172  0.055607861  0.056525222            5 
 1427000    1.0350652   -4.6867556    950.87388  0.055528725  0.056513013            5 
 1428000    1.0429576   -4.6898893    948.45125  0.055348463  0.056500736            5 
 1429000     1.039256   -4.7115931    951.78911   0.05550438  0.056488736            5 
 1430000    1.0181664   -4.6948408    950.43637  0.055386735  0.056476614            2 
 1431000    1.0434638   -4.6806417    954.76304  0.055599991  0.056464496            3 
 1432000    1.0131868   -4.6608639    956.66617  0.055671914  0.056452593            2 
 1433000    1.0172719   -4.6890563    955.80819   0.05558317  0.056440476            2 
 1434000     1.024239   -4.6836912    954.79313  0.055485422  0.056428339            2 
 1435000    1.0234443   -4.6978839    955.61438  0.055494447  0.056416415            3 
 1436000    1.0353418   -4.6868181    956.76944  0.055522832  0.056404184            3 
 1437000   0.99697456   -4.6484713    956.59176   0.05547389  0.056392277            3 
 1438000    1.0128463   -4.6781108    958.07873  0.055521484  0.056380659            3 
 1439000    1.0288203   -4.7287675    959.10035  0.055542063  0.056369134            1 
 1440000   0.99915372   -4.6671193    958.30011  0.055457182  0.056357325            6 
 1441000    1.0077085   -4.6677304    959.31874  0.055477605  0.056345943            5 
 1442000    1.0430437   -4.6891326    960.46241  0.055505225  0.056334298            4 
 1443000    1.0235836   -4.7101248     958.2942  0.055341545  0.056322681            1 
 1444000    1.0234196   -4.7203134    958.75567  0.055329852  0.056311002            5 
 1445000    1.0290471   -4.6945682    964.18764  0.055604824  0.056299409            3 
 1446000    1.0041694   -4.7180095    962.51786  0.055470139  0.056287802            3 
 1447000    1.0071321   -4.6977464    964.41312  0.055540954  0.056276739            3 
 1448000    1.0159892   -4.6633685    969.26597  0.055781881  0.056265357            3 
 1449000    1.0198672   -4.6975043    967.14522  0.055621418  0.056254048            2 
 1450000    1.0252617   -4.7044366    964.75442  0.055445657  0.056242706            4 
 1451000    1.0308876   -4.7058301    964.71661  0.055405273    0.0562314            3 
 1452000    1.0103219   -4.6922493    964.44977    0.0553518  0.056219962            5 
 1453000    1.0242504    -4.677675    974.34249  0.055881079  0.056208461            3 
 1454000   0.99746143   -4.7042802    968.22212  0.055491868  0.056197434            2 
 1455000    1.0249199   -4.6860725    971.52431  0.055642859  0.056186387            3 
 1456000    1.0296394   -4.7001894     967.2156  0.055358036  0.056175047            5 
 1457000    1.0122763   -4.7216236    968.77488  0.055409225  0.056163859            3 
 1458000    1.0167123   -4.7102523    969.92258  0.055436819  0.056152258            6 
 1459000    1.0014311     -4.68312    968.62797  0.055324879  0.056140817            3 
 1460000    1.0091734   -4.7177455     971.2788  0.055438288  0.056129485            3 
 1461000   0.98876944   -4.7053505    972.86626  0.055490889  0.056118208            2 
 1462000    1.0107576   -4.7184455    968.00339  0.055175752  0.056106768            4 
 1463000    1.0140282   -4.6986627    975.55107  0.055567958  0.056095183            3 
 1464000    1.0185678   -4.6851383     971.8966  0.055321983  0.056083649            3 
 1465000    1.0027192   -4.6985638    971.81357  0.055279498   0.05607224            5 
 1466000    1.0330673   -4.7089038    974.77777  0.055410287   0.05606077            3 
 1467000    1.0127133   -4.7153905    972.85204  0.055263124  0.056049346            2 
 1468000    1.0316081    -4.704753    971.20082  0.055131745   0.05603793            1 
 1469000      1.03551   -4.6740785    975.79143  0.055354631  0.056026367            2 
 1470000    1.0296286   -4.7160798    977.00399  0.055385714  0.056014724            5 
 1471000    1.0344176   -4.6711081    978.67199  0.055442555  0.056003233            3 
 1472000    1.0099571   -4.7298624     973.8626   0.05513262  0.055991725            3 
 1473000     1.018279   -4.6914645    976.57667  0.055248737  0.055980113            4 
 1474000    1.0158092   -4.7049025     974.9725  0.055120562  0.055968404            3 
 1475000    1.0348737   -4.7068404    974.72523  0.055069222  0.055957067            4 
 1476000    1.0282434   -4.7003755    979.12516  0.055280327  0.055945656            7 
 1477000    1.0239213   -4.7005995    977.23872  0.055136466  0.055934247            2 
 1478000    1.0300261   -4.7063768    981.89063  0.055361447  0.055923004            2 
 1479000    1.0008233   -4.7063383    980.98368  0.055272914  0.055911594            6 
 1480000    1.0099612   -4.7097338    979.93212  0.055176358  0.055900419            8 
 1481000     1.023236   -4.6949781    977.00999  0.054974679  0.055889006            2 
 1482000    1.0214775   -4.6888419     982.4098  0.055241217  0.055877984            4 
 1483000    1.0464232   -4.7196646    983.97842  0.055292112  0.055866827            3 
 1484000     1.017004   -4.6852553    981.92427  0.055139503   0.05585566            2 
 1485000    1.0060549   -4.6870983    981.86934  0.055099289  0.055844728            3 
 1486000     1.028546   -4.6866293    987.56456  0.055381592   0.05583377            3 
 1487000    1.0072763   -4.7097668    982.71008  0.055072298  0.055822615            2 
 1488000   0.99804156   -4.6729851    985.79077  0.055207816  0.055811486            7 
 1489000    1.0244406   -4.7425412    982.59554  0.054991915  0.055799876            5 
 1490000     1.012446   -4.7412159    983.03783  0.054979745  0.055788579            3 
 1491000   0.98789985   -4.7054379    986.59938  0.055141928  0.055777141            4 
 1492000    1.0017606   -4.7188862    986.71273  0.055111301  0.055765898            4 
 1493000    1.0033339   -4.6648284    988.21217  0.055158081  0.055754531            3 
 1494000    1.0071299   -4.7218558    982.88481  0.054824008  0.055743001            2 
 1495000    1.0120459   -4.7367215    984.18881  0.054860023  0.055731763            4 
 1496000    1.0084496    -4.687734    992.01582  0.055259348  0.055720515            3 
 1497000     1.006834   -4.7055153    989.07024  0.055058464  0.055709006            5 
 1498000    1.0144388   -4.6986288    989.29446  0.055034182  0.055697786            4 
 1499000    1.0145855   -4.7077025    987.68165  0.054907808  0.055686403            2 
 1500000    1.0100677   -4.7096564     989.7025  0.054983472  0.055675176            4 
 1501000    1.0056935   -4.7101868    986.25319   0.05475534   0.05566377            3 
 1502000    1.0115473   -4.7276147    989.26604  0.054886043  0.055652143            2 
 1503000     1.003208   -4.6867401    990.67069  0.054927405  0.055640881            4 
 1504000    1.0132258   -4.6963047    990.59279  0.054886569  0.055629576            4 
 1505000    1.0101777   -4.7259677    990.00695   0.05481766   0.05561788            4 
 1506000   0.98797473   -4.6997536    991.35096  0.054855631  0.055606211            3 
 1507000    1.0175253   -4.7259269    992.04341  0.054857521  0.055594556            3 
 1508000   0.98857536   -4.6775411    990.45076  0.054733132  0.055583085            6 
 1509000    1.0192283   -4.6990165    994.26869  0.054907703  0.055571375            2 
 1510000    1.0304258   -4.7262828     994.1793  0.054866407  0.055559849            3 
 1511000      1.01445   -4.7188793    994.90478  0.054870107   0.05554824            3 
 1512000   0.99776305   -4.7133315    993.29702  0.054745206  0.055536811            4 
 1513000    1.0152908   -4.7008572    994.66483   0.05478436  0.055525094            3 
 1514000     1.011112   -4.6789276    996.07378  0.054825726  0.055513447            2 
 1515000   0.98699434   -4.7424791    992.04986  0.054568199  0.055501993            1 
 1516000    1.0027955   -4.7106022    997.90429  0.054854018  0.055490401            2 
 1517000    1.0184272   -4.7166496    994.21812  0.054615366  0.055478819            3 
 1518000    1.0184834   -4.7155466    995.29162  0.054638319  0.055467463            5 
 1519000    1.0162873   -4.7015298    998.75581  0.054792397  0.055455812            4 
 1520000   0.97075564   -4.7417897    995.65067  0.054586111  0.055444332            3 
 1521000    1.0319813   -4.7074507    996.69591   0.05460749  0.055432815            7 
 1522000   0.98502388   -4.7273816    999.60965  0.054731146  0.055421292            5 
 1523000    1.0192651   -4.7160957    996.91021  0.054547506  0.055409766            4 
 1524000    1.0397931   -4.7119086    1000.5376  0.054710062  0.055398375            1 
 1525000   0.99845537   -4.6905578    1002.0244   0.05475543  0.055387184            5 
 1526000   0.99334364   -4.6614812    1005.7654   0.05492384  0.055375794            2 
 1527000    1.0140597   -4.7491109     1002.424  0.054705524  0.055364243            8 
 1528000   0.99064203    -4.715205    998.85992  0.054475345  0.055352551            8 
 1529000    1.0160366   -4.7158844    998.97028  0.054445731  0.055340627            2 
 1530000   0.99744003   -4.7234872     1003.396  0.054651197  0.055329191            4 
 1531000   0.99677269   -4.7403965    1000.5324  0.054459633   0.05531767            3 
 1532000    1.0045762   -4.7387539    1003.0091  0.054558806  0.055305832            3 
 1533000    1.0030057   -4.7173899    1006.6213  0.054719577  0.055294133            4 
 1534000    1.0149035   -4.7468403    1002.7323  0.054472637  0.055282759            2 
 1535000    1.0179831   -4.7174504     1000.712  0.054327468  0.055271308            3 
 1536000    1.0159139   -4.7029548    1004.8716  0.054517773  0.055259925            3 
 1537000   0.98153821   -4.7544245    1002.1297   0.05433364  0.055248026            1 
 1538000    1.0231137   -4.7525374    1003.5519  0.054375374  0.055236346            4 
 1539000    1.0170768   -4.7095814     1008.612  0.054614032  0.055224564            2 
 1540000     1.003439   -4.7342882    1009.4906  0.054626115  0.055213144            1 
 1541000    1.0423486   -4.7167681    1010.4311  0.054641525  0.055201604            4 
 1542000    1.0175262   -4.7242266    1004.7199  0.054297446  0.055190426            2 
 1543000    1.0248191   -4.7179406    1006.9599  0.054383233  0.055178967            3 
 1544000     1.001553   -4.7204074    1011.2718  0.054580732  0.055167502            2 
 1545000    1.0264418   -4.7339131    1007.8838  0.054362665   0.05515574            4 
 1546000    1.0043346   -4.7279079    1007.0467   0.05428238  0.055144505            1 
 1547000    1.0105997    -4.724451    1006.1023  0.054196416  0.055133084            6 
 1548000   0.99452873   -4.7416695    1008.4141  0.054285858    0.0551217            4 
 1549000    1.0020581   -4.7136744     1013.032  0.054499247  0.055110194            4 
 1550000    1.0198159   -4.6949819    1017.3606  0.054696806  0.055098894            3 
 1551000    1.0002822   -4.7199036    1012.5548  0.054403329  0.055087665            6 
 1552000    1.0017511   -4.7098643    1012.5727   0.05436924  0.055076126            5 
 1553000     1.006842   -4.7170753    1013.0411  0.054359366  0.055064497            4 
 1554000    1.0000251   -4.6966426     1013.111  0.054328129  0.055052847            5 
 1555000   0.99700323   -4.7407258    1013.7953  0.054329865   0.05504153            2 
 1556000   0.98117399     -4.71773     1012.233  0.054211276  0.055030279            4 
 1557000   0.99154977    -4.709982    1019.7133  0.054576821  0.055018993            6 
 1558000     1.012853   -4.7592296     1019.178  0.054513156  0.055007312            3 
 1559000   0.99823824   -4.7505639    1014.4763  0.054226871  0.054995882            5 
 1560000   0.99534973   -4.7269807    1019.1604  0.054442327  0.054984648            3 
 1561000    1.0275197   -4.7126652    1015.9675  0.054237003  0.054973496            4 
 1562000    1.0031147   -4.6771871    1023.1223  0.054583992  0.054962314            4 
 1563000   0.98711781    -4.745937    1016.9309  0.054218966  0.054951279            2 
 1564000    1.0054118     -4.70988    1019.4071  0.054316238  0.054939976            5 
 1565000    1.0140958   -4.7552164    1019.9784  0.054311948  0.054928587            3 
 1566000   0.99879197   -4.7143405    1019.3774  0.054245285  0.054917655            4 
 1567000    1.0029348    -4.732409    1020.6759  0.054279725  0.054906109            4 
 1568000    1.0066076   -4.7058554    1020.8939  0.054256689  0.054894793            2 
 1569000    0.9855569   -4.7127391    1019.7314   0.05416037  0.054883125            3 
 1570000   0.98725836   -4.7349224    1021.2433  0.054206118  0.054871657            2 
 1571000    1.0111545   -4.7501511    1020.7208  0.054143901  0.054860246            3 
 1572000   0.98076454   -4.7620812    1020.1002  0.054076558  0.054848716            4 
 1573000    1.0139024   -4.7246147    1023.3013  0.054211766  0.054837619            4 
 1574000     1.022371   -4.7141811    1025.8535  0.054312448  0.054826367            3 
 1575000   0.99453821   -4.7597243    1025.9049  0.054280682  0.054815267            7 
 1576000   0.98089122   -4.7433058    1026.8374  0.054295546   0.05480402            5 
 1577000   0.99661955   -4.7173254    1025.0052  0.054164298  0.054792763            2 
 1578000    1.0010229   -4.6893186    1025.1898  0.054139722  0.054781434            2 
 1579000    1.0104496    -4.714993    1026.1395   0.05415556  0.054770123            2 
 1580000   0.99868392   -4.7249363    1030.2376  0.054337424  0.054759022            2 
 1581000   0.99934799   -4.7537761    1026.2201    0.0540913  0.054747729            5 
 1582000   0.98373005   -4.7455995     1026.892    0.0540925  0.054736189            3 
 1583000   0.99936047   -4.7488689    1026.4969  0.054037526   0.05472463            4 
 1584000    1.0076199      -4.7173    1031.6601  0.054275045  0.054713281            3 
 1585000    1.0065983   -4.7297014    1028.3913  0.054068943  0.054702094            8 
 1586000    1.0078746    -4.745369    1028.0713  0.054018038  0.054690792            2 
 1587000    1.0018425   -4.7486828    1025.8622  0.053867998  0.054679377            7 
 1588000    1.0137257    -4.753008    1028.1609  0.053954709  0.054668004            3 
 1589000   0.99840766   -4.7316083    1031.4697  0.054094276  0.054656837            2 
 1590000   0.98162828   -4.7187036    1032.7675  0.054128276  0.054645916            3 
 1591000    0.9995656   -4.7368957    1028.5704  0.053874418  0.054634617            1 
 1592000    1.0003023   -4.7393214    1030.9272  0.053963947  0.054623223            2 
 1593000   0.99480841   -4.7365444     1030.819  0.053924407  0.054611823            5 
 1594000   0.99129661   -4.7333522    1027.2397  0.053703457  0.054600443            2 
 1595000    1.0075234    -4.735184    1031.0499  0.053868854  0.054589037            3 
 1596000    1.0110646   -4.7473206    1032.9291  0.053933224   0.05457752            2 
 1597000    1.0062967   -4.7320999    1033.3558  0.053921717   0.05456579            4 
 1598000   0.99299688   -4.7139835    1033.3547  0.053887917   0.05455383            4 
 1599000   0.99752815   -4.7184327    1033.1298  0.053842496  0.054542089            4 
 1600000    1.0126708   -4.7382058    1032.9206  0.053797947  0.054530294            7 
 1601000    1.0235537    -4.722669    1032.9197    0.0537643  0.054518432            2 
 1602000   0.98862845   -4.7584822    1032.2391  0.053695334  0.054506364            3 
 1603000   0.97370171   -4.7149257    1031.9399  0.053646283  0.054494589            3 
 1604000   0.99735458   -4.7396399    1033.1256  0.053674439  0.054482668            2 
 1605000    1.0015811   -4.7194631    1030.4398  0.053501546  0.054470679            2 
 1606000    1.0017393   -4.7473852    1036.0895  0.053761389  0.054458742            5 
 1607000   0.99584074    -4.726276    1032.3683  0.053534969  0.054446884            2 
 1608000   0.99905362   -4.7322807    1034.5823  0.053616414  0.054435181            2 
 1609000   0.99476029   -4.7480246    1037.1682  0.053717021  0.054423476            2 
 1610000    0.9826924   -4.7695701    1030.1585  0.053320835  0.054411401            4 
 1611000   0.98212337    -4.779572    1032.1282  0.053389621  0.054399156            5 
 1612000   0.98760234   -4.7672737    1031.5972  0.053329051  0.054387114            5 
 1613000   0.99501839   -4.7339194    1040.8993   0.05377657  0.054375274            2 
 1614000    1.0038891   -4.6998205     1040.699  0.053732912  0.054363608            3 
 1615000   0.99060915   -4.7369478    1036.4828  0.053482082  0.054352006            4 
 1616000   0.98710834   -4.7164663    1038.1349  0.053534182  0.054339978            3 
 1617000   0.99870396   -4.7688134    1039.1818   0.05355503  0.054327787            2 
 1618000   0.98178438   -4.7648489    1038.8798  0.053506378  0.054315941            4 
 1619000   0.97309869    -4.743551    1040.3841  0.053550758  0.054304054            4 
 1620000   0.99179516   -4.7345425    1042.6828  0.053635946  0.054292192            4 
 1621000    1.0019778   -4.7167974    1041.3861  0.053536195  0.054279957            5 
 1622000    1.0109416    -4.719371     1040.222  0.053443383  0.054267949            5 
 1623000   0.99874523   -4.7217938    1040.3715  0.053418131  0.054256053            3 
 1624000   0.99402662   -4.7703066    1037.5113  0.053238472  0.054243817            2 
 1625000   0.98933641   -4.7329155    1043.1461  0.053494672  0.054231853            2 
 1626000   0.99795439   -4.7889645    1034.5548  0.053021465  0.054219341            4 
 1627000    1.0110544   -4.7389902    1041.4188  0.053340441  0.054207169            4 
 1628000    1.0041463   -4.7358985    1040.3807  0.053254539  0.054194967            3 
 1629000   0.97710791   -4.7689113    1041.9861  0.053303973   0.05418281            5 
 1630000    0.9800279    -4.736656    1042.3184   0.05328826  0.054170488            1 
 1631000   0.99719683   -4.7200745    1042.5288  0.053266341  0.054158339            3 
 1632000   0.98549372   -4.7471387    1039.2278  0.053065143  0.054146168            5 
 1633000   0.98265663   -4.7695396    1040.2408  0.053084342  0.054133719            2 
 1634000   0.96667241   -4.7812255    1041.1315   0.05309728  0.054121009            4 
 1635000    1.0102346   -4.7715618    1041.7166  0.053094629  0.054108367            2 
 1636000    1.0015987   -4.7560082    1045.1282  0.053235952   0.05409565            3 
 1637000   0.99153837   -4.7510539    1044.3027  0.053161406  0.054083195            2 
 1638000    1.0074379   -4.7526864    1039.9583  0.052907933  0.054070421            5 
 1639000   0.99260801   -4.7456065    1041.9375  0.052976281   0.05405798            3 
 1640000   0.98379828   -4.7727954    1044.6385  0.053081226  0.054045266            3 
 1641000    1.0122923    -4.769257    1044.0737  0.053020194  0.054032545            3 
 1642000   0.99064785   -4.7606754    1044.9728  0.053033538   0.05401984            2 
 1643000   0.98003837   -4.7819444    1042.9471  0.052898511  0.054006977            2 
 1644000     1.005697   -4.7741462    1046.6976  0.053056445  0.053994323           12 
 1645000    0.9850958   -4.7210861    1046.8288  0.053030839  0.053981681            4 
 1646000   0.99297006   -4.7302419    1045.1896  0.052915632  0.053968762            4 
 1647000    0.9973735   -4.7276186    1050.8079  0.053167774  0.053956016            7 
 1648000   0.98475521   -4.7567364     1048.505  0.053019062  0.053943617            8 
 1649000    0.9715706   -4.7652253     1045.605  0.052840359  0.053930906            3 
 1650000    1.0087225   -4.7608831    1049.3773  0.052998853  0.053918227            4 
 1651000    1.0002016    -4.736232    1047.5427  0.052874151  0.053905415            8 
 1652000   0.98673623   -4.7760916    1046.4649  0.052787777  0.053892665            9 
 1653000   0.98418287   -4.7560864    1050.0062  0.052934371   0.05387972            1 
 1654000    1.0062049   -4.7661717    1053.1643  0.053061481  0.053867137            4 
 1655000   0.98583747   -4.7420468    1053.0976   0.05302606   0.05385452            4 
 1656000   0.98158807   -4.7415352    1052.6103  0.052969522  0.053841899            2 
 1657000   0.97989233   -4.7500518    1052.1574  0.052914776  0.053829664            3 
 1658000   0.97929461   -4.7426783    1053.8359  0.052967222  0.053817276            2 
 1659000   0.98221896   -4.7672118     1049.174  0.052701124  0.053804698            3 
 1660000    0.9691265   -4.7525136    1049.2731  0.052674353  0.053791816            5 
 1661000     1.000686    -4.743838    1053.2867  0.052844005  0.053779256            2 
 1662000   0.97948951   -4.7265894    1053.0832  0.052802003  0.053766455            2 
 1663000   0.99379916   -4.7430309    1051.1835  0.052675061  0.053753711            5 
 1664000   0.97199352   -4.7492595    1052.0949  0.052689048  0.053741107            3 
 1665000   0.96291268   -4.7665589    1054.3099  0.052768261  0.053728456            2 
 1666000    0.9917635   -4.7274152    1056.4615  0.052844215  0.053715898            2 
 1667000   0.97972947   -4.7348092    1056.4627  0.052812572   0.05370336            3 
 1668000   0.99613812   -4.7645851    1056.9034  0.052802926   0.05369081            3 
 1669000    1.0166112   -4.7696839    1056.0421  0.052728286  0.053677957            4 
 1670000   0.98629802   -4.7644631    1055.6876  0.052679022  0.053665304            4 
 1671000    1.0098733   -4.7507153    1059.3242  0.052828855  0.053652445            2 
 1672000   0.97081632   -4.7956593    1054.9253  0.052578016   0.05363945            4 
 1673000    1.0064119   -4.7418364    1057.8569  0.052692612  0.053626672            3 
 1674000   0.98805838   -4.7580267     1056.956  0.052616291  0.053614003            5 
 1675000   0.99445746   -4.7801036    1057.8538  0.052629543  0.053601211            3 
 1676000    1.0029341   -4.7624705     1058.744  0.052642401  0.053588407            1 
 1677000    1.0016056   -4.7499368    1058.5349  0.052600624  0.053575537            3 
 1678000    0.9711791   -4.7827544    1054.5222  0.052369993   0.05356274            9 
 1679000   0.99210001   -4.7552414    1060.6368  0.052642286   0.05355012            1 
 1680000   0.98494429   -4.7392207    1059.4967  0.052554398  0.053537442            3 
 1681000   0.99587929   -4.7483459    1059.6258  0.052529534  0.053524901            3 
 1682000   0.96139952   -4.7567559    1061.7088  0.052601506  0.053512104            9 
 1683000   0.99014136   -4.7569461    1059.6459  0.052468106  0.053499069            3 
 1684000   0.97837553   -4.7422714    1059.8319  0.052446156  0.053485801            3 
 1685000    0.9917869   -4.7602265    1061.3122  0.052488237  0.053472789            4 
 1686000    0.9985061   -4.7917015    1060.1219  0.052398273  0.053459714            3 
 1687000   0.97571164   -4.7308859    1065.2388  0.052619976  0.053446927            3 
 1688000   0.95331032   -4.7639669    1061.6903  0.052413621  0.053434143            2 
 1689000   0.97721438   -4.7427265    1059.4294  0.052271038  0.053421203            3 
 1690000   0.98888145   -4.7524519    1061.8489  0.052359412  0.053408159            5 
 1691000   0.97381444   -4.8020627    1058.3596  0.052156496  0.053394959            2 
 1692000   0.99554582   -4.7406899    1063.3564  0.052371769  0.053382007            4 
 1693000   0.96691692     -4.79461    1059.4443  0.052148273  0.053369103            4 
 1694000    0.9795851   -4.7835028    1063.3532  0.052309779  0.053356183            2 
 1695000   0.96722815   -4.7766564     1061.273  0.052176646  0.053343033            2 
 1696000   0.98057961   -4.7718669    1065.1006  0.052333951  0.053330211            2 
 1697000   0.98977545    -4.773195    1065.0057  0.052298454  0.053317042            1 
 1698000   0.99404793   -4.7535399    1066.0565  0.052319222  0.053304006            2 
 1699000   0.98163236   -4.7720093     1068.391  0.052402935  0.053291138            3 
 1700000    1.0033007   -4.8045518    1064.0865  0.052161102  0.053278005            3 
 1701000   0.95914792   -4.7631747    1064.8141  0.052166085  0.053265016            3 
 1702000   0.97387686   -4.7566401    1070.2127   0.05239976  0.053251923            5 
 1703000    1.0058146   -4.7419733    1068.2529  0.052273091  0.053239005            5 
 1704000   0.97526768   -4.7681388    1073.3739  0.052492855   0.05322619            2 
 1705000   0.97735425   -4.7679925    1068.4474  0.052221279  0.053213337            5 
 1706000   0.95841186    -4.759907    1070.7909  0.052305143  0.053200487            3 
 1707000    0.9911954   -4.7766413    1065.8115  0.052031415  0.053187575            2 
 1708000   0.96355552   -4.7808905       1068.8  0.052146759  0.053174886            4 
 1709000   0.97855422    -4.778147    1070.5492  0.052201539  0.053162127            2 
 1710000   0.97792229   -4.7561288    1074.8553  0.052380862  0.053149758            4 
 1711000   0.97271076    -4.772756    1071.8642  0.052204569  0.053136983            4 
 1712000   0.96450013   -4.7362861    1076.7923  0.052413954  0.053124215            2 
 1713000   0.96787934   -4.7579923    1076.1051  0.052349927  0.053111608            4 
 1714000   0.95712493   -4.7421291    1075.1829  0.052274547  0.053099131            4 
 1715000   0.97353573   -4.7414439    1074.6762  0.052219445  0.053086612            3 
 1716000   0.98872953   -4.7654062    1070.9256  0.052006875  0.053073704            9 
 1717000   0.98184668   -4.7831992    1071.9886  0.052028177  0.053061086            2 
 1718000   0.97483967   -4.7643312    1070.7309  0.051936891  0.053048432            3 
 1719000   0.95215243   -4.7600907    1076.2607  0.052174746  0.053035855            3 
 1720000    0.9957896    -4.778258    1075.9718  0.052130418  0.053023282            3 
 1721000   0.99122261    -4.776875    1079.7699  0.052284035  0.053010531            6 
 1722000   0.97803504   -4.8139656    1072.6881   0.05191096  0.052997826            7 
 1723000   0.95951038   -4.7761528     1076.473  0.052063891  0.052985021            3 
 1724000   0.96250937    -4.764301    1076.2267  0.052021784  0.052972072            5 
 1725000   0.97880076   -4.7913808    1078.6449  0.052108449  0.052959468            2 
 1726000   0.99067436   -4.7596086     1084.132  0.052343181  0.052946914            2 
 1727000   0.98118751    -4.770896    1076.9434  0.051965999  0.052934687            3 
 1728000   0.99714416   -4.7678672    1079.6025  0.052064163  0.052922412            2 
 1729000   0.97398076   -4.7404579     1077.982  0.051955948  0.052910058            2 
 1730000   0.99037305    -4.772311    1080.6895  0.052056332  0.052897517            4 
 1731000   0.97130032   -4.7609595    1085.1116  0.052239147  0.052885228            2 
 1732000   0.97686368   -4.7740892    1080.3978  0.051982189  0.052872725            3 
 1733000   0.96678111   -4.7613275     1082.585  0.052057366  0.052860217            3 
 1734000   0.97709204   -4.8104141    1079.6198  0.051884844  0.052847741            3 
 1735000   0.97260495   -4.7660103    1080.5134  0.051897859  0.052834927            3 
 1736000   0.96814015   -4.7735413    1082.0088  0.051939747  0.052822369            4 
 1737000    1.0084388   -4.7353569    1083.1572  0.051964939  0.052809919            4 
 1738000   0.98178307   -4.8050719    1081.2003  0.051841212  0.052797426            2 
 1739000   0.97563181   -4.7953162    1085.4423  0.052014677  0.052784678            4 
 1740000   0.98029718   -4.8170643    1082.8618  0.051861196  0.052771884            3 
 1741000   0.99820258   -4.7900715    1082.1263  0.051796204  0.052759338            4 
 1742000   0.97235908   -4.8008439    1082.8713  0.051802108  0.052746573            6 
 1743000   0.99282264   -4.8078828    1084.5279  0.051851594  0.052733787            7 
 1744000   0.98598207   -4.8054437    1082.4197  0.051721125  0.052721273            7 
 1745000   0.98277919    -4.763942    1088.5958  0.051986428  0.052708712            3 
 1746000   0.96703176   -4.7775568    1084.9162  0.051781033  0.052696102            7 
 1747000   0.97703421   -4.7851527    1082.7483  0.051647984  0.052683425            5 
 1748000   0.96806761   -4.7868196    1088.2128  0.051878949  0.052670653            2 
 1749000    0.9771175   -4.7993865    1090.1801   0.05194302  0.052657947            5 
 1750000   0.97876772   -4.7858229    1088.0585  0.051812308  0.052645584            8 
 1751000   0.97559649   -4.7580259    1088.2493    0.0517918  0.052633095            3 
 1752000   0.98725808   -4.7862215    1089.4455  0.051819137  0.052620774            3 
 1753000   0.95306053   -4.7848589    1086.4717  0.051648208  0.052608347            2 
 1754000   0.96014778   -4.7718565    1088.8778  0.051733079  0.052595923            5 
 1755000   0.95508738   -4.8163676     1084.722  0.051506269   0.05258329            2 
 1756000   0.97266568   -4.7604275    1092.5946  0.051850539  0.052570799            2 
 1757000    0.9703436   -4.7584806     1093.581  0.051867813  0.052558277            2 
 1758000    0.9643281   -4.7865259    1094.3762  0.051876006  0.052545972            5 
 1759000   0.95927061   -4.7946084    1094.5161  0.051853141  0.052533693            5 
 1760000   0.98351858   -4.7984402    1091.6124  0.051686194  0.052521254            2 
 1761000   0.97156572   -4.7793114    1090.8532  0.051620914  0.052509179            2 
 1762000   0.96514636   -4.7853915    1094.2232  0.051751001  0.052496971            2 
 1763000   0.95759844   -4.7683786    1092.8405  0.051656292  0.052484914            2 
 1764000   0.97100966   -4.7906484    1093.6633  0.051665879  0.052472695            3 
 1765000   0.97348549   -4.7797793    1095.2103  0.051709648  0.052460359            2 
 1766000   0.97421337   -4.7805124    1098.7798  0.051848799  0.052448195            4 
 1767000   0.96508211   -4.7878538    1097.0366  0.051737246  0.052436102            4 
 1768000   0.96097337   -4.7617903    1101.5691  0.051921621  0.052424153            6 
 1769000   0.96917924    -4.803903    1094.8136  0.051574036  0.052412288            6 
 1770000    0.9743972   -4.7631497    1100.9919  0.051835776  0.052400436            3 
 1771000   0.96566024   -4.7665981    1096.8684   0.05161248  0.052388568            3 
 1772000   0.99473072   -4.7777443    1101.0014  0.051777716  0.052376633            2 
 1773000   0.96628104    -4.787814    1099.7264  0.051688588  0.052364551            3 
 1774000   0.97513188   -4.8028564    1101.2331   0.05173023  0.052352406            3 
 1775000   0.96170876   -4.7577408    1099.8082  0.051634188  0.052340293            2 
 1776000    0.9764487   -4.7782696    1103.7847    0.0517917  0.052328081            4 
 1777000   0.97360017   -4.8197662    1100.0095  0.051585514  0.052316007            4 
 1778000   0.98443948   -4.8001073     1099.556  0.051535246  0.052303802            3 
 1779000   0.98736377   -4.8155873    1100.8943  0.051568968  0.052291676            3 
 1780000   0.97618518   -4.7956388     1100.809  0.051536002  0.052279379            3 
 1781000   0.97508612   -4.8205199    1099.2178  0.051432611  0.052267273           12 
 1782000   0.94530075    -4.792689    1096.7558  0.051288619  0.052255203            4 
 1783000   0.97444327   -4.7988857    1104.8347  0.051637442  0.052243095            2 
 1784000   0.98054885    -4.793919    1100.8156   0.05142076  0.052231055            4 
 1785000   0.95833647   -4.7868945    1106.9473  0.051678213  0.052218922            5 
 1786000   0.99230334   -4.7895599    1104.9921   0.05155805  0.052206795            3 
 1787000   0.96044877    -4.806098    1101.7356  0.051377335  0.052194683            3 
 1788000   0.94751703    -4.782842    1102.6624  0.051391795  0.052182387            8 
 1789000   0.98289101   -4.7975726    1107.5757  0.051591936  0.052170357            2 
 1790000   0.95508733   -4.7602449     1108.033  0.051584405  0.052158212            2 
 1791000   0.94858499   -4.7944929      1103.42  0.051340965  0.052146325            5 
 1792000   0.95494491   -4.8074129    1103.2612  0.051304927  0.052134125            4 
 1793000   0.99036119   -4.7981231    1105.5626  0.051383279  0.052121991            4 
 1794000   0.97001571   -4.7558158    1106.1516  0.051381994   0.05210981            7 
 1795000   0.94954986   -4.7812788    1108.2788  0.051452127  0.052097911            3 
 1796000   0.96549777    -4.819376    1109.5659  0.051483198  0.052085795            4 
 1797000   0.98343216   -4.8238601    1108.8795  0.051422716  0.052073857            3 
 1798000   0.97174951   -4.7782598    1109.9545   0.05144394  0.052062162            4 
 1799000   0.96974663   -4.7821014    1109.6297  0.051400302  0.052050292            2 
 1800000   0.96012318   -4.7786149    1109.4475  0.051363312  0.052038356            3 
 1801000   0.96480494   -4.7793775    1112.5709  0.051479314  0.052026492            2 
 1802000   0.94803609   -4.8280368    1106.5848  0.051173919  0.052014286            4 
 1803000   0.94163267   -4.8223388    1110.7793  0.051339401  0.052002129            5 
 1804000   0.94375545   -4.7837393    1114.8756  0.051500168  0.051990186            2 
 1805000   0.98155562   -4.7798391    1116.7575  0.051558517  0.051978601            2 
 1806000   0.95595604    -4.844884    1115.9128  0.051490992  0.051966867            4 
 1807000   0.96082362    -4.799723      1116.99  0.051512177  0.051955138            4 
 1808000   0.96127628   -4.7985231    1115.6677  0.051422735  0.051943763            4 
 1809000   0.96705324   -4.7704362    1113.8203  0.051309209  0.051931887            3 
 1810000    0.9610439   -4.7946011    1114.6541  0.051319249  0.051920325            4 
 1811000    0.9481869   -4.8037731    1116.8975  0.051394144  0.051908781            2 
 1812000   0.96282497   -4.7855209    1114.8083  0.051269696  0.051897055            5 
 1813000   0.96909088   -4.7835811    1118.8895   0.05142901  0.051885275            3 
 1814000   0.96918755   -4.7703446    1113.9306  0.051172851  0.051873684            3 
 1815000   0.96424228   -4.7707126    1117.8014  0.051322379  0.051861975            2 
 1816000   0.96520331   -4.8224943    1115.6953   0.05119747  0.051850244            2 
 1817000   0.96251541   -4.8179511    1116.1057  0.051188118  0.051838626            6 
 1818000   0.96904166   -4.8020544    1119.6884  0.051324186  0.051826882            4 
 1819000   0.95060737   -4.8302197    1119.6008  0.051291956   0.05181516            8 
 1820000   0.96651202   -4.7722937    1121.7919  0.051364099  0.051803534            4 
 1821000   0.95278157   -4.7826507    1120.6907  0.051285496  0.051792162            3 
 1822000   0.94879928   -4.8020332    1120.7802  0.051261443  0.051780591            4 
 1823000   0.94438227   -4.8107483    1121.9667  0.051287564  0.051769258            3 
 1824000   0.95756758   -4.8064124    1120.9176  0.051211515  0.051757961            8 
 1825000   0.97442678   -4.8057096     1125.165  0.051377399  0.051746476            2 
 1826000   0.96937837   -4.8091756    1123.8061  0.051287244  0.051735223            2 
 1827000   0.95202427   -4.8129361    1124.3757  0.051285152   0.05172385            4 
 1828000   0.97341628   -4.8348321    1121.9137  0.051144864  0.051712738            3 
 1829000   0.95344835   -4.8341743    1118.7435  0.050972458  0.051701324            3 
 1830000   0.97041103   -4.8453929    1122.8354  0.051130936  0.051689813            3 
 1831000   0.96601508    -4.787599    1124.0705  0.051159227  0.051678363            2 
 1832000   0.95721393   -4.8110307    1122.2811  0.051049906  0.051666776            4 
 1833000   0.96010435   -4.8320394    1122.6463  0.051038658  0.051655286            3 
 1834000   0.96202176   -4.7975183    1127.2853  0.051221613  0.051643913            2 
 1835000   0.95897349   -4.8313325    1126.0444  0.051137346  0.051632618            2 
 1836000   0.98447176   -4.7959772    1127.8957  0.051193523  0.051621295            3 
 1837000   0.95630292   -4.8159427    1126.4633  0.051100674  0.051609841            3 
 1838000   0.96680331     -4.82197    1128.0979  0.051146987   0.05159814            2 
 1839000   0.95307161    -4.821465     1129.008  0.051160414  0.051586844            4 
 1840000    0.9815496   -4.8343491    1128.3171  0.051101319  0.051575438            9 
 1841000   0.96261346   -4.7993468     1127.694  0.051045354    0.0515641            2 
 1842000   0.96743582   -4.7866221    1131.1364  0.051173381   0.05155281            4 
 1843000   0.95978464    -4.819181    1130.3018  0.051107875  0.051541491            3 
 1844000   0.97860908   -4.8123987    1131.4672  0.051132827  0.051530176            3 
 1845000   0.95561929   -4.8308442    1129.7588  0.051027951  0.051518854            2 
 1846000   0.96028943   -4.8137135    1129.9698  0.051009831  0.051507362            5 
 1847000   0.96671362    -4.796482    1135.1554  0.051216181  0.051496297            3 
 1848000   0.93918636   -4.8276728     1132.231  0.051056594  0.051484744            2 
 1849000   0.94628758   -4.7984353    1130.2582  0.050940066  0.051473225            3 
 1850000   0.96338263   -4.7967451    1135.1456  0.051132687  0.051461883            3 
 1851000    0.9535916   -4.8319919    1136.0467  0.051145628  0.051450482            3 
 1852000   0.91950011   -4.8478473    1130.9162  0.050887159   0.05143928            6 
 1853000   0.92904906   -4.8478289    1129.6513  0.050802813  0.051427745            3 
 1854000    0.9373106   -4.8064767    1136.9612  0.051103973  0.051416304            4 
 1855000   0.94298066   -4.8203028    1130.9924  0.050808282  0.051404997            4 
 1856000   0.96250763   -4.8498924    1135.0342  0.050962385  0.051393666            3 
 1857000    0.9557149   -4.8056342    1139.4908  0.051134931  0.051382426            3 
 1858000   0.96892761   -4.7879906    1142.6062  0.051247141   0.05137148            3 
 1859000   0.95550456   -4.8328799    1138.4126  0.051031585  0.051360671            3 
 1860000   0.94624539   -4.8002594    1138.7328  0.051018493  0.051349742            3 
 1861000   0.95859012   -4.8107999    1140.0987  0.051052243  0.051338869            3 
 1862000    0.9478755   -4.8263078    1140.0341  0.051021932  0.051327794            6 
 1863000   0.94205951   -4.8253347    1141.7453  0.051071089  0.051316804            5 
 1864000   0.94298766   -4.8123455     1137.856  0.050869815  0.051305919            4 
 1865000   0.98437378   -4.8362457    1139.0279  0.050894902  0.051294859            3 
 1866000   0.95883016   -4.7961294    1141.6217  0.050983463  0.051283818            5 
 1867000   0.93534513   -4.8471493     1140.186  0.050892071  0.051272684            5 
 1868000   0.94542031   -4.8335161    1138.7368  0.050800177  0.051261681            2 
 1869000   0.94977732   -4.8252836     1139.521  0.050807965  0.051250546            4 
 1870000     0.957722   -4.7939808    1144.8248  0.051017146   0.05123982            6 
 1871000   0.94901742   -4.8162601    1143.6705   0.05093847  0.051229059            5 
 1872000   0.96529758   -4.8280272    1145.3097  0.050984227  0.051218271            4 
 1873000   0.94887121   -4.8351151    1137.8039  0.050623058  0.051207396            7 
 1874000   0.96577959   -4.7947495    1144.9489   0.05091377  0.051196275            3 
 1875000   0.93607504   -4.8082966    1147.3491  0.050993294  0.051185027            2 
 1876000   0.94530027   -4.8383445    1143.8704  0.050811586  0.051174019            3 
 1877000   0.95256155   -4.8441613    1145.6181  0.050862105  0.051162969            2 
 1878000   0.95878696   -4.8285353    1143.5445  0.050743009   0.05115211            5 
 1879000   0.95146722   -4.8103573    1146.0023   0.05082501  0.051140945            3 
 1880000   0.93571703   -4.7734159    1145.9505  0.050795679  0.051129926            2 
 1881000   0.93051659   -4.7708288    1149.8024  0.050939323   0.05111875            3 
 1882000   0.97210834   -4.8091583    1141.8783  0.050561386  0.051107446            3 
 1883000   0.93243915   -4.8091711    1143.8824  0.050623225  0.051096112            4 
 1884000   0.94637024     -4.84169    1141.0997  0.050473271   0.05108479            5 
 1885000   0.94336465   -4.8238211    1145.2029  0.050627892  0.051073262            4 
 1886000   0.97078554   -4.8466758    1145.0216  0.050593037  0.051061981            3 
 1887000   0.95101606   -4.8428902     1147.819  0.050689761  0.051050555            2 
 1888000   0.93558415   -4.8296199    1145.5198  0.050561431  0.051039301           12 
 1889000   0.94676642     -4.79876    1148.0881  0.050647965  0.051028082            5 
 1890000   0.93476434   -4.8311725    1146.9821  0.050572401  0.051016594            5 
 1891000   0.95941103   -4.8197248    1146.6484  0.050530952  0.051005196            7 
 1892000   0.94812949   -4.7950052    1149.3785  0.050624494  0.050993925            2 
 1893000    0.9595159   -4.7833247     1148.603   0.05056361   0.05098254            2 
 1894000   0.94664845   -4.8445704    1144.8097  0.050370016  0.050971308            5 
 1895000   0.94858037   -4.8226459    1147.9009  0.050479373  0.050960044            5 
 1896000   0.94140494   -4.8473717    1148.5804  0.050482611  0.050948716            1 
 1897000   0.93929461   -4.8020335    1152.5145  0.050628822  0.050937408            2 
 1898000   0.95537658   -4.8354846    1149.0242  0.050448902  0.050926015            5 
 1899000    0.9607196   -4.8390216    1150.0133  0.050465741   0.05091439            7 
 1900000   0.94096819   -4.8605304    1145.7278  0.050251219  0.050902774            3 
 1901000   0.94294094   -4.8523396    1145.6685  0.050222184  0.050891145            2 
 1902000   0.93316762   -4.8609199    1152.0089  0.050473575  0.050879526            3 
 1903000   0.94552484   -4.8290446    1147.9424  0.050268978  0.050868064            3 
 1904000   0.94420152    -4.826263     1148.512  0.050267507   0.05085655            2 
 1905000   0.94795592   -4.8216078    1153.3593  0.050453161  0.050845152            5 
 1906000   0.96103205   -4.8485539    1150.8584  0.050317348  0.050833976            4 
 1907000   0.94829817   -4.8428711    1153.2475  0.050395362  0.050822771            4 
 1908000   0.93608848   -4.8660665     1152.781  0.050348576  0.050811591            8 
 1909000   0.94947534   -4.8501447    1158.8063  0.050585224   0.05080027            4 
 1910000   0.94733828   -4.8426837    1150.8154  0.050210095  0.050788956            2 
 1911000   0.96600973   -4.8426607    1157.9576  0.050495274  0.050777731            2 
 1912000   0.95499347   -4.8557259    1156.8273  0.050419601  0.050766863            2 
 1913000   0.95295423   -4.8244355    1157.0774  0.050404138  0.050755606            4 
 1914000   0.94891974   -4.8610995    1153.0554  0.050202689  0.050744494            6 
 1915000   0.95266859   -4.8489634    1154.5633  0.050242094  0.050733248            2 
 1916000   0.94516152   -4.8150852    1154.9074  0.050230838  0.050721994            6 
 1917000   0.95343744   -4.8339562    1155.8452  0.050245401  0.050711057            3 
 1918000   0.95688332   -4.8240155    1158.2178  0.050322288  0.050700042            5 
 1919000   0.96225973    -4.852894    1159.2219  0.050339667  0.050688937            2 
 1920000   0.93609986   -4.8102118    1159.2281  0.050313721  0.050677931            2 
 1921000   0.94577313   -4.8383615    1158.1633  0.050241337  0.050666841            3 
 1922000   0.92902655   -4.8069345     1164.511  0.050490419  0.050655914            3 
 1923000   0.93508285   -4.8827385    1157.6417   0.05016648  0.050644876            3 
 1924000   0.94235786   -4.8315766    1160.1479  0.050248957  0.050633686            3 
 1925000   0.95471718   -4.8473538    1161.2124  0.050268935  0.050622608            5 
 1926000   0.94811306   -4.8515727    1159.0269  0.050148275  0.050611536            4 
 1927000   0.96545343   -4.8093251     1162.633  0.050278198  0.050600572            3 
 1928000    0.9405773   -4.8513997    1162.7405  0.050256764  0.050589685            6 
 1929000   0.96828343   -4.8387897    1163.0416  0.050243718  0.050578964            3 
 1930000    0.9474241    -4.838244    1164.5186  0.050281459  0.050568059            3 
 1931000     0.925436   -4.8387633    1166.7312  0.050350905  0.050557135            5 
 1932000   0.95461788   -4.8363138    1166.2235  0.050302945  0.050546295            3 
 1933000   0.93049956   -4.8600379    1166.1671   0.05027449  0.050535451            2 
 1934000   0.93452662   -4.8507193     1161.489  0.050046923   0.05052446            3 
 1935000   0.93542502   -4.8377821    1163.2934  0.050098769  0.050513492            3 
 1936000    0.9297616   -4.8639481     1163.806  0.050094955  0.050502496            3 
 1937000    0.9400292     -4.86139    1162.8711  0.050028874  0.050491388            4 
 1938000   0.94597956   -4.8585442     1161.761  0.049955323  0.050480173            2 
 1939000   0.96077566   -4.8499521    1165.8043  0.050103331  0.050468931           10 
 1940000   0.93708463   -4.8429115    1166.1401  0.050091929  0.050457967            5 
 1941000   0.94438748   -4.8435813    1166.4727  0.050080399  0.050446921            4 
 1942000   0.95144924   -4.8219184      1165.99  0.050033898  0.050435952            3 
 1943000   0.94593057   -4.8458992     1168.025   0.05009543  0.050424809            7 
 1944000   0.95041671    -4.859358    1166.2417  0.049993213  0.050413561            5 
 1945000   0.94112491   -4.8521855    1167.4893  0.050020962  0.050402279            3 
 1946000   0.94056571   -4.8087197    1175.0821  0.050320407  0.050391265           10 
 1947000   0.93382434   -4.8373386    1169.1629  0.050041215  0.050380386            5 
 1948000   0.96256457   -4.8387021    1171.9169  0.050133336  0.050369313            6 
 1949000   0.95908577    -4.816988    1170.8614  0.050062487  0.050358282            4 
 1950000   0.95070406   -4.8511512    1167.9573  0.049912704  0.050347203            4 
 1951000   0.93621945   -4.8321288    1166.9071  0.049842267  0.050335885            3 
 1952000    0.9048953   -4.8825772    1166.4745  0.049798264  0.050324653            4 
 1953000   0.93343044   -4.8663697    1167.6483  0.049822851   0.05031339            4 
 1954000   0.95107489   -4.8281163    1170.5305  0.049920269  0.050302428            4 
 1955000   0.92652169   -4.8642383     1168.505  0.049808398   0.05029135            3 
 1956000   0.95003777   -4.8440369    1172.7817  0.049965136  0.050280096            3 
 1957000   0.95385357   -4.8685336    1169.4478  0.049797639  0.050269072            4 
 1958000   0.93548353   -4.8690448    1173.5532  0.049946934  0.050258058            3 
 1959000   0.95349757   -4.8771642    1168.6787  0.049714083  0.050246898            6 
 1960000   0.95568508   -4.8472668    1174.1234  0.049920212  0.050235774            4 
 1961000   0.96173234   -4.8519007    1174.8466  0.049925488  0.050224757            4 
 1962000   0.94242328    -4.821726    1176.1304  0.049954569  0.050213972            4 
 1963000   0.94122696   -4.8484152     1175.387  0.049897564   0.05020303            2 
 1964000   0.93182858   -4.8343252    1178.5485  0.050006301  0.050192279            9 
 1965000   0.93672962   -4.8391687    1177.1083  0.049919777  0.050181548            6 
 1966000   0.96500054   -4.8690556    1175.5675  0.049829073  0.050170524            6 
 1967000   0.94898779   -4.8565792    1177.5585  0.049888091  0.050159695            2 
 1968000   0.93352679   -4.8292528    1180.0187  0.049966915  0.050148698            3 
 1969000   0.93322972   -4.8752728    1176.7851  0.049804687  0.050137757            6 
 1970000   0.94174104   -4.8578224    1179.5838  0.049897791  0.050126649            4 
 1971000   0.93846558   -4.8565784    1176.9706  0.049761992  0.050115674            2 
 1972000   0.93268365   -4.8963141    1172.9804  0.049568138  0.050104619            2 
 1973000   0.93639512   -4.8411138    1179.7559  0.049829191  0.050093542            3 
 1974000   0.93812614   -4.8450191    1178.4344  0.049748159  0.050082549            4 
 1975000   0.95324143   -4.8305251    1181.1423  0.049837229  0.050071627            4 
 1976000   0.93381485   -4.8582361    1178.4211  0.049697245  0.050060797            5 
 1977000   0.92622474   -4.8424163     1178.557  0.049677837  0.050049828            3 
 1978000    0.9388521    -4.861208    1179.9856   0.04971291  0.050038979            5 
 1979000   0.96523905    -4.871827    1176.5376  0.049542599  0.050027843            3 
 1980000   0.93771097   -4.8512385    1181.3112  0.049718485  0.050016877            2 
 1981000   0.93381064   -4.8719005    1180.9755  0.049679266  0.050005868            2 
 1982000   0.94120181   -4.8556987    1181.6281  0.049681641  0.049994959            4 
 1983000   0.94242262     -4.83831    1182.7548  0.049703932  0.049984058           10 
 1984000   0.95616828   -4.8750239    1179.5265  0.049543282  0.049973263            5 
 1985000   0.92170183   -4.8640103    1181.2444  0.049590446  0.049962483            5 
 1986000   0.94303072   -4.8710663    1181.4738  0.049575102  0.049951506            7 
 1987000   0.91712627   -4.8333976    1185.7946  0.049731363  0.049940661            4 
 1988000    0.9673578   -4.8602083    1187.7407  0.049787924  0.049929845            3 
 1989000   0.92633307   -4.8502099    1185.4592  0.049667302  0.049919075            5 
 1990000    0.9500147   -4.8909056    1187.4929  0.049727507  0.049908384            3 
 1991000   0.94072195   -4.8550261    1186.0344  0.049641486  0.049897672            2 
 1992000   0.93495576   -4.8688721     1188.858   0.04973469  0.049887141            3 
 1993000   0.92699423   -4.8624277    1185.6705  0.049576455  0.049876548            3 
 1994000   0.93145251   -4.8479676    1190.5923  0.049757286  0.049865844            6 
 1995000   0.92443397    -4.869957    1188.1911  0.049632042  0.049855101            4 
 1996000   0.93006847   -4.8746394    1188.9281  0.049637945  0.049844383            4 
 1997000   0.91386612   -4.8648558    1190.6459  0.049684774  0.049833787            5 
 1998000   0.94015892   -4.8610264    1189.7123  0.049620967  0.049823161            4 
 1999000   0.93824363   -4.8632797    1191.2062  0.049658421  0.049812781            4 
 2000000   0.92614043   -4.8232086    1193.8576  0.049744068  0.049802252            2 
 2001000   0.95352241   -4.8226579    1192.3156  0.049654991  0.049791799            5 
 2002000   0.96718851   -4.8521582    1189.1923  0.049500178  0.049781244            4 
 2003000   0.92652041   -4.8836621    1188.6113  0.049451294  0.049770751            7 
 2004000   0.93213502   -4.8594419    1190.2394  0.049494321  0.049759975            4 
 2005000   0.92122286   -4.8752931    1194.7786  0.049658294  0.049749499            5 
 2006000   0.92242153   -4.8638481     1196.527  0.049706175  0.049739173            7 
 2007000   0.92864498    -4.848811      1197.86  0.049736756  0.049728722            5 
 2008000   0.95234682   -4.8651916    1192.7098  0.049498248  0.049718323            5 
 2009000   0.94229144   -4.8591992    1197.7573   0.04968298  0.049707782            5 
 2010000    0.9180527   -4.8591026    1201.6834  0.049821036   0.04969737            4 
 2011000   0.93231064   -4.8821194    1195.4311  0.049537175   0.04968701            4 
 2012000   0.94557798   -4.8583878    1198.0084    0.0496193   0.04967671            5 
 2013000   0.93387626   -4.8611845    1198.1231  0.049599398  0.049666389            3 
 2014000   0.91487353     -4.88146    1197.8721  0.049564385  0.049656192            4 
 2015000   0.94008173    -4.875862    1198.8377  0.049579721  0.049645997            4 
 2016000   0.93726661   -4.8172055    1200.9399  0.049642024  0.049635737            4 
 2017000   0.91664222   -4.8347616    1200.1684  0.049585541  0.049625698           10 
 2018000   0.93097141   -4.8676427    1196.9774  0.049429196  0.049615486            6 
 2019000   0.92412097   -4.8263557    1205.8337  0.049770255  0.049605303            4 
 2020000   0.92407271   -4.8599168    1197.6856  0.049409471  0.049595021            6 
 2021000   0.93122692   -4.8663936    1203.1137  0.049608846  0.049584549            3 
 2022000   0.92093251   -4.8608048    1201.5457  0.049519689  0.049574243            3 
 2023000    0.9193341   -4.8619685    1198.1304  0.049354523  0.049563889            3 
 2024000   0.92761413   -4.8379345    1202.0377  0.049491011  0.049553617            5 
 2025000   0.92157682   -4.8570254    1201.2487  0.049434102  0.049543349            4 
 2026000   0.92482635   -4.8559308     1204.214   0.04953167  0.049533055            4 
 2027000   0.93016811   -4.8591852    1201.8079  0.049408317  0.049522817            3 
 2028000   0.92280747   -4.8785787    1197.9364   0.04922487  0.049512615            5 
 2029000   0.91605745   -4.8414444    1205.7687   0.04952229  0.049502356            4 
 2030000   0.93254135   -4.8704029    1203.0131  0.049384775  0.049492185            3 
 2031000   0.92297408   -4.8513188    1208.4368  0.049582998  0.049481902            5 
 2032000   0.92956005   -4.9349488    1201.8906  0.049290134  0.049471662            3 
 2033000   0.92448771   -4.8623195    1207.2908  0.049487244  0.049461379            2 
 2034000   0.92976237   -4.8728477    1202.0121  0.049246646  0.049451061            5 
 2035000    0.9238822   -4.8692182    1204.8588  0.049339018  0.049440717            6 
 2036000   0.91530877   -4.8727582    1204.6879   0.04930779  0.049430476            7 
 2037000   0.90196666   -4.8693489    1206.0264  0.049338343  0.049420188            3 
 2038000   0.93227815    -4.875514    1207.5804  0.049377676  0.049409968            3 
 2039000   0.93806463   -4.8542002    1208.5969  0.049395003   0.04939985            6 
 2040000   0.90854106   -4.8607464    1210.6114   0.04945308  0.049389902            3 
 2041000   0.93097253   -4.8567069    1210.6515  0.049430488  0.049379879            7 
 2042000   0.92830401   -4.8802522    1206.3215  0.049229577  0.049369609            3 
 2043000   0.93143306   -4.8521362    1207.8014  0.049265844  0.049359381            4 
 2044000   0.91723265   -4.8587883    1208.6934  0.049278106  0.049349286            3 
 2045000   0.94782173   -4.8723342    1211.8747  0.049383647  0.049339262            2 
 2046000   0.92070509   -4.8779803    1215.2097  0.049495343  0.049329144            2 
 2047000   0.91088124   -4.8867002    1212.5357  0.049362306  0.049319053            5 
 2048000   0.92712675   -4.8664482    1208.7351  0.049183557  0.049308923            6 
 2049000     0.931905   -4.8864337    1213.2089  0.049341504  0.049298719            3 
 2050000     0.925031   -4.8547422    1211.4144  0.049244489  0.049288787            5 
 2051000   0.90964245   -4.8683605    1212.7836   0.04927611  0.049278707            5 
 2052000   0.93288841   -4.8789217      1208.93  0.049095597    0.0492686            7 
 2053000   0.92044453   -4.8786224    1213.1687  0.049243735  0.049258437            3 
 2054000   0.92535516   -4.8969306    1215.8477  0.049328453  0.049248262            6 
 2055000   0.93439842   -4.8541099    1217.7799  0.049382803    0.0492381            6 
 2056000   0.91256772    -4.908612    1211.6462  0.049110174  0.049228021            4 
 2057000   0.93618925   -4.8826097    1214.0109  0.049182097  0.049217982            7 
 2058000   0.92195763   -4.9074803    1212.9067   0.04911349  0.049207972           12 
 2059000   0.91647205    -4.919379     1210.393  0.048987898  0.049197869            4 
 2060000   0.92038616    -4.870309     1214.336  0.049123625  0.049187682            8 
 2061000   0.93070189    -4.869412    1218.6985  0.049276181  0.049177547            5 
 2062000   0.91890971   -4.8784622    1214.6806  0.049089903  0.049167502            4 
 2063000   0.91228287   -4.8792983    1218.4926  0.049220093  0.049157326            2 
 2064000   0.93275885   -4.8625598    1221.5165  0.049318333  0.049147066            4 
 2065000   0.90776629   -4.8872987    1218.6436  0.049178515  0.049137023            3 
 2066000   0.92781876   -4.8897453    1219.8565  0.049203636  0.049126991            4 
 2067000   0.90776485   -4.8870171     1215.602  0.049008307  0.049116802            9 
 2068000   0.91212188   -4.8790837    1222.1586  0.049248814  0.049106864            3 
 2069000   0.93779932    -4.912929    1218.6577  0.049084004  0.049096819            8 
 2070000   0.91052938    -4.897841    1218.4333  0.049051258  0.049086667            5 
 2071000   0.92433226   -4.8767096    1222.2141   0.04917971  0.049076322            8 
 2072000   0.91118424   -4.8763699    1218.8249  0.049019664  0.049066115            2 
 2073000   0.89876984    -4.867864    1218.4015  0.048978997  0.049055806            3 
 2074000   0.93268084   -4.9025471    1216.3836  0.048874302  0.049045395            8 
 2075000   0.92732087   -4.9084409    1215.3351   0.04880864  0.049034861            4 
 2076000   0.91180576   -4.8819205    1217.9545  0.048890273  0.049024622            7 
 2077000   0.93336001   -4.8625614    1221.9865  0.049028506  0.049014328            4 
 2078000   0.91680623   -4.8429035    1222.5995  0.049029494  0.049004248            5 
 2079000   0.90257715   -4.8682125    1218.7827  0.048852922  0.048994172            5 
 2080000     0.937116   -4.9012158     1218.531  0.048819351  0.048983875            8 
 2081000   0.91871112   -4.8991517    1224.3647  0.049029502  0.048973822            4 
 2082000   0.90983969    -4.882573    1224.0771  0.048994439  0.048963564            6 
 2083000   0.91127314   -4.8706016     1220.726  0.048836856  0.048953424            3 
 2084000   0.91676418   -4.8983338    1225.1836  0.048991665  0.048943186            4 
 2085000    0.9253585   -4.8879759    1222.8739  0.048875855  0.048932996            2 
 2086000    0.8926477   -4.8960376    1222.7782  0.048848603  0.048922829            9 
 2087000   0.90884184   -4.8791415    1225.5427  0.048935582  0.048912453            3 
 2088000   0.92027568   -4.9168237    1225.3367  0.048903924  0.048902206            2 
 2089000   0.90531291   -4.8629581    1223.0946  0.048791073  0.048891993            4 
 2090000   0.92759446   -4.8793337    1222.8536   0.04875812  0.048881754            2 
 2091000   0.93296683   -4.9049778      1223.56  0.048762954  0.048871459            5 
 2092000   0.91355746   -4.9026794    1228.0013  0.048916558   0.04886116            3 
 2093000   0.91886687   -4.9323656     1221.839  0.048647835  0.048850713            5 
 2094000   0.91314624   -4.8389774    1233.2299  0.049077917  0.048840407            5 
 2095000   0.89416005   -4.9043505    1222.7818  0.048638894  0.048830107            3 
 2096000    0.9123008   -4.8951966    1228.6351  0.048848406  0.048819907            4 
 2097000   0.92751656   -4.9008379     1227.194  0.048767843  0.048809604            4 
 2098000   0.91609894   -4.8980816    1227.0512  0.048738925  0.048799483            4 
 2099000   0.92771784   -4.8804423    1229.7201  0.048821667  0.048789329            4 
 2100000   0.93474109   -4.8771093    1231.9736  0.048887842  0.048779262            3 
 2101000   0.92348381   -4.8761531    1230.5632  0.048808633  0.048769121            6 
 2102000   0.89394976   -4.8873804    1229.5965  0.048747085  0.048759139            4 
 2103000   0.91215214   -4.8878579    1230.9744  0.048778506   0.04874917            3 
 2104000   0.90591667   -4.8724638    1233.8283  0.048868359  0.048739008            4 
 2105000   0.91214145   -4.8558999    1233.8109  0.048844452   0.04872908            6 
 2106000    0.9054175   -4.9079483    1234.5425  0.048850209   0.04871901            4 
 2107000   0.90943353   -4.9001951    1231.5794  0.048709833  0.048709082            6 
 2108000    0.9177666   -4.8812248    1231.9738  0.048702316  0.048699095            3 
 2109000   0.92504416   -4.8938038    1232.9155  0.048716432  0.048689103            4 
 2110000   0.91728699   -4.9030464    1234.1508  0.048742133  0.048678983            4 
 2111000   0.89967315   -4.8873683    1232.6077  0.048658126  0.048668918            2 
 2112000   0.91357498   -4.8756416    1235.7149  0.048757692  0.048658883            3 
 2113000   0.93259969   -4.8847828    1238.2299  0.048833804   0.04864891            2 
 2114000   0.92665587   -4.9086718    1233.2061  0.048612665  0.048638962            8 
 2115000   0.93027714   -4.8793674    1238.1849  0.048785849  0.048628922            4 
 2116000   0.92554591   -4.8978156    1234.8617  0.048631921  0.048618731            4 
 2117000   0.91949114   -4.8714667    1235.9676  0.048652478  0.048608652            6 
 2118000   0.89667149   -4.8910836    1233.2757  0.048523593  0.048598525            3 
 2119000    0.9243005   -4.8815998    1232.1086  0.048454798  0.048588276            2 
 2120000   0.90027735   -4.8800939    1234.2417  0.048515789  0.048578236            3 
 2121000   0.92760631   -4.8839335    1235.6302  0.048547471  0.048568008            3 
 2122000   0.92139244   -4.8923266      1235.55  0.048521444  0.048557839            2 
 2123000   0.88546713   -4.9217017    1232.7932  0.048390374  0.048547604            4 
 2124000   0.91443492   -4.8944166    1233.2184  0.048384273   0.04853731            3 
 2125000   0.94085762   -4.8679113    1237.6552  0.048535498  0.048527026            5 
 2126000   0.90654172   -4.9101204    1238.6469  0.048551541   0.04851693            7 
 2127000   0.90995866   -4.8437338     1242.671  0.048686374  0.048506995            4 
 2128000   0.92392954   -4.9226253    1233.9904  0.048323558  0.048496859            8 
 2129000   0.91021596   -4.8935188    1236.6285  0.048404121  0.048486626            4 
 2130000   0.92392684   -4.8923276    1239.0668  0.048476793  0.048476442            4 
 2131000   0.90113496   -4.8890827    1236.4747   0.04835268  0.048466274            4 
 2132000    0.9193941   -4.8978571    1238.2753  0.048400378  0.048456014            2 
 2133000   0.89109417   -4.8945787    1238.8979  0.048402013  0.048445916            4 
 2134000   0.91995265   -4.9133936    1239.6151  0.048407338  0.048435573            2 
 2135000   0.91536133   -4.8729044    1240.7128  0.048427512  0.048425117            4 
 2136000    0.9073849   -4.8870611    1239.7762  0.048368299  0.048415005            3 
 2137000   0.91133672   -4.8947308    1239.0713  0.048318175   0.04840463            2 
 2138000   0.89325406   -4.9050252    1243.5716  0.048470987  0.048394477            3 
 2139000   0.89421141   -4.8834362    1242.6047  0.048410654  0.048384321            4 
 2140000   0.89844205   -4.9048257    1237.9873  0.048208228  0.048374226            5 
 2141000   0.91922863   -4.8893628    1242.1458   0.04834757  0.048363807            2 
 2142000   0.90975022   -4.8974242    1241.1047  0.048284496   0.04835358            4 
 2143000   0.92772028   -4.9064433    1244.0222  0.048375415  0.048343159            2 
 2144000   0.89948212   -4.8987425    1237.8102  0.048111405  0.048332865            5 
 2145000   0.91260246   -4.9293364    1239.9175  0.048170842   0.04832239            6 
 2146000   0.91802901   -4.9190272    1240.3463  0.048165048  0.048312022            3 
 2147000    0.8974767   -4.8950166    1244.8564   0.04831767  0.048301796            2 
 2148000   0.91822439   -4.8882423    1239.8845  0.048102286  0.048291427            5 
 2149000    0.9157239    -4.925956    1238.6864  0.048033441  0.048281067            3 
 2150000   0.88959231   -4.9013715    1242.7204  0.048167457  0.048270621            3 
 2151000   0.92345107   -4.8891631    1243.2179  0.048164338  0.048260246            4 
 2152000   0.89323035    -4.910689    1245.3517  0.048224586  0.048249858            4 
 2153000    0.9138427   -4.8903907     1244.101  0.048153778  0.048239555            5 
 2154000    0.9135501   -4.9393852    1239.3593  0.047947978  0.048229088            7 
 2155000   0.92446729   -4.8931544    1240.4746  0.047968854  0.048218456            7 
 2156000   0.90475375   -4.9167315    1243.0142  0.048044768   0.04820778            8 
 2157000   0.90481597   -4.8885679    1245.9863  0.048137318  0.048197331            4 
 2158000   0.92532181   -4.9036249    1242.8036  0.047992108  0.048186969            3 
 2159000   0.90335838   -4.9129519    1245.9474  0.048091224  0.048176387           10 
 2160000   0.87226348   -4.9009662    1241.7938  0.047908712  0.048165876            4 
 2161000   0.88874846   -4.9128334    1249.1394  0.048169805  0.048155364            7 
 2162000   0.89645854   -4.8914814     1244.743  0.047978067  0.048145014            5 
 2163000   0.88975082   -4.8991492    1247.6058  0.048066179  0.048134747            9 
 2164000   0.89940368   -4.9070784    1249.1477  0.048103345  0.048124308            2 
 2165000   0.87600369   -4.9190641    1245.8988  0.047956072  0.048113947            4 
 2166000   0.90041623   -4.9113565    1244.1905  0.047868208  0.048103588            3 
 2167000    0.9092498   -4.9073707    1247.7394  0.047982594  0.048093078            3 
 2168000    0.9273573   -4.9297113    1245.4193  0.047871283   0.04808273            5 
 2169000   0.88696666   -4.9353028    1248.8247  0.047980049  0.048072343            5 
 2170000   0.87784241   -4.9254845    1249.4528  0.047982057  0.048062019            7 
 2171000   0.89887748   -4.8909398    1250.2843  0.047991873  0.048051596            2 
 2172000   0.90068544   -4.9123436    1245.7245   0.04779483  0.048041165            3 
 2173000   0.91532574   -4.9092044    1247.5756  0.047843826  0.048030574            4 
 2174000   0.89634819   -4.9118397    1246.0578  0.047763638  0.048020045            5 
 2175000   0.90012429   -4.9150079     1249.941  0.047890459  0.048009538            3 
 2176000   0.91088839   -4.8589817     1252.836  0.047979321  0.047999164           17 
 2177000   0.92667359   -4.9092533    1252.0307  0.047926454  0.047988719            3 
 2178000   0.88997473   -4.9379424    1248.0235  0.047751129  0.047978278            5 
 2179000   0.89292319   -4.9018485    1246.9259  0.047687238  0.047967883            4 
 2180000   0.90528511   -4.9261711    1252.4635  0.047877044  0.047957524            7 
 2181000   0.91102724    -4.883475     1251.623  0.047822978  0.047947105            2 
 2182000   0.89050679   -4.8859504    1254.2206  0.047900268  0.047936706           15 
 2183000   0.92084789   -4.9472079    1249.4192  0.047695036  0.047926419            2 
 2184000   0.91235989   -4.8933476      1255.11  0.047890339  0.047916103            5 
 2185000   0.88554253   -4.9108601    1251.3661  0.047725632   0.04790576            5 
 2186000   0.92553413   -4.9329556    1253.2011  0.047773755  0.047895248            9 
 2187000   0.90441114   -4.9129345    1252.7157  0.047733414  0.047884886           10 
 2188000   0.88901739   -4.9426335    1253.6449  0.047746989   0.04787458            4 
 2189000   0.90755046   -4.9090765    1255.9374   0.04781245  0.047864266            3 
 2190000   0.90417896   -4.8891517     1254.108  0.047721006  0.047853873            5 
 2191000   0.92015456   -4.9357393    1254.9956  0.047732983  0.047843541            3 
 2192000   0.91571598   -4.9302699    1253.6397  0.047659662  0.047833126            4 
 2193000     0.894459   -4.9081837    1255.5525  0.047710614  0.047822722            3 
 2194000   0.89300808   -4.9184725    1251.8979  0.047550059  0.047812365            3 
 2195000   0.89288271   -4.9132753    1252.8752  0.047565499  0.047801964            8 
 2196000   0.89238421   -4.8942845    1258.7233  0.047765761  0.047791561            4 
 2197000   0.91056242   -4.9289963    1258.7943  0.047746712  0.047781334            4 
 2198000   0.91871948   -4.9089791    1255.9806  0.047618313  0.047771047            3 
 2199000   0.87435092   -4.9140469    1259.7593  0.047739855  0.047760671            7 
 2200000   0.89043526   -4.8959214    1260.3368   0.04774003   0.04775031            4 
 2201000   0.91619576   -4.9158268     1258.065  0.047632326  0.047740116            6 
 2202000   0.93260132   -4.9141545    1259.7478   0.04767438  0.047729852            4 
 2203000   0.90816628   -4.9278059    1263.7278   0.04780329  0.047719563            3 
 2204000   0.89174342   -4.9201191    1257.7421  0.047555281  0.047709271            3 
 2205000   0.89882787   -4.8866489    1260.0097  0.047619415  0.047699051            5 
 2206000   0.90179592   -4.9273855    1262.1348  0.047678106  0.047688852            6 
 2207000   0.90545397   -4.9325194    1258.6656  0.047525511  0.047678536            3 
 2208000    0.8979839   -4.9403327     1260.237  0.047563291  0.047668028            3 
 2209000   0.89878981   -4.9720744    1259.0955    0.0474987  0.047657612            4 
 2210000   0.88807561   -4.9546221    1256.6525  0.047385086  0.047647058            5 
 2211000   0.89197652   -4.8897909    1258.0223  0.047415282  0.047636482            8 
 2212000   0.88478996   -4.9454354    1258.1533  0.047398781  0.047626124            4 
 2213000   0.89890212   -4.9413761    1259.2939  0.047420314  0.047615397            4 
 2214000   0.89017398   -4.9199697    1259.1463   0.04739334  0.047604874            4 
 2215000   0.88520485   -4.9288294    1259.0944  0.047369994  0.047594283            4 
 2216000   0.90049112   -4.9151134    1261.6044  0.047443006   0.04758388            9 
 2217000   0.89310517   -4.9382879    1266.5906  0.047609027  0.047573319            8 
 2218000   0.89526721    -4.929366    1258.4941  0.047283368  0.047562886            4 
 2219000   0.89508962   -4.9293644    1264.1171  0.047473226  0.047552347            3 
 2220000   0.90390904   -4.8977371    1264.2632  0.047457327  0.047541985            8 
 2221000   0.89683566   -4.9451191    1264.1357  0.047431174   0.04753155            4 
 2222000   0.90038888   -4.9437645    1264.3023  0.047416078  0.047521106            7 
 2223000   0.87336283   -4.9497498    1264.5498  0.047404025  0.047510578            8 
 2224000   0.89510169   -4.9021027    1261.8314  0.047280853   0.04749997            3 
 2225000   0.88624224   -4.9380736     1267.498  0.047471837  0.047489403            3 
 2226000   0.91057625    -4.916031    1265.5057  0.047375926  0.047479071            4 
 2227000   0.90313757   -4.9476289    1264.9636  0.047334367   0.04746855            3 
 2228000   0.88385939   -4.9099681    1270.0649  0.047503922  0.047458022            8 
 2229000   0.91765184   -4.8785289    1270.8469  0.047511848  0.047447575            2 
 2230000   0.89829486   -4.9074194    1268.9699  0.047420398  0.047437195            6 
 2231000   0.87152749   -4.9368794    1268.9145  0.047397076  0.047426684            2 
 2232000   0.88605513   -4.9228256    1271.6206  0.047476874  0.047416314            9 
 2233000   0.90490567   -4.9295356    1265.9173  0.047242771  0.047405862            3 
 2234000   0.89947791   -4.9383409    1263.1795  0.047119497  0.047395315            4 
 2235000   0.87926768   -4.9410091    1268.8049  0.047308161  0.047385025            3 
 2236000   0.90091594   -4.8934863    1268.3245  0.047269099  0.047374698            4 
 2237000   0.88950862   -4.9435749    1272.3216  0.047396869  0.047364322            3 
 2238000    0.8766971   -4.9392106    1272.3814  0.047377919   0.04735387            4 
 2239000   0.87841157   -4.9446024    1266.5603  0.047140103  0.047343565            6 
 2240000   0.88876751    -4.908423    1268.1146  0.047176882  0.047333129            5 
 2241000   0.91027682   -4.9385998    1271.8568  0.047294988  0.047322827            7 
 2242000   0.89252564   -4.9299613    1270.9398  0.047239808  0.047312613            4 
 2243000   0.87595809   -4.8884964     1273.861  0.047327278  0.047302465            5 
 2244000   0.88469958   -4.9477246    1271.1221  0.047204474  0.047292199            4 
 2245000   0.89081676   -4.9623566    1277.3786  0.047415687  0.047281861            4 
 2246000   0.88100888   -4.9806868    1268.2719   0.04705669  0.047271565            7 
 2247000   0.89249496   -4.9652762    1272.0023  0.047174094  0.047261168            4 
 2248000   0.88504166   -4.9507332    1273.3763  0.047204045   0.04725094            6 
 2249000   0.86600708   -4.9469126    1274.6733  0.047231114  0.047240734            6 
 2250000   0.90395236   -4.9361993    1268.6363   0.04698653  0.047230541            4 
 2251000   0.89505197   -4.9267429    1275.3745  0.047215109  0.047220402            6 
 2252000   0.88244887   -4.9108288     1274.783  0.047172253  0.047210167            4 
 2253000   0.89706825   -4.9291716    1271.3929  0.047025926  0.047199969            4 
 2254000   0.90217214    -4.947312    1277.4656  0.047229578  0.047189579            3 
 2255000   0.90106598   -4.9326007    1273.9809  0.047079857  0.047179525            3 
 2256000   0.89535705   -4.9197176    1276.0803  0.047136536  0.047169222            4 
 2257000    0.8951735    -4.956006    1278.1492  0.047192039  0.047159151            3 
 2258000    0.8779162   -4.9311648    1277.7253  0.047155497  0.047149012            5 
 2259000   0.87911523    -4.939458    1280.5316  0.047238142  0.047138874            6 
 2260000   0.87968511   -4.9467897    1278.2116  0.047131695  0.047128644            7 
 2261000   0.89454931   -4.9454401    1272.9002  0.046915088  0.047118469            3 
 2262000   0.90308821   -4.9222058    1278.7668  0.047110479  0.047108209            4 
 2263000   0.88789147   -4.9905728    1273.9503  0.046912296  0.047097858           10 
 2264000   0.88280222   -4.9148593    1280.2817  0.047124621  0.047087713            4 
 2265000   0.88848402   -4.9395176    1281.0795  0.047133169  0.047077679           10 
 2266000     0.883515   -4.9522742    1277.6956  0.046987922  0.047067423            4 
 2267000   0.90472703   -4.9420661    1276.4012  0.046919615  0.047057203           13 
 2268000   0.90201209   -4.9424593    1277.8238  0.046951197  0.047047116           24 
 2269000   0.89792098   -4.9393101    1276.6831  0.046888612  0.047037046            5 
 2270000   0.88115473    -4.926482     1280.037  0.046991081  0.047026808            4 
 2271000   0.87906715   -4.9562304    1280.7169  0.046995334  0.047016633            4 
 2272000   0.86770669   -4.9621877    1278.2607  0.046884561  0.047006402            4 
 2273000   0.90788333   -4.9674597    1280.5523  0.046947952  0.046996284            3 
 2274000   0.88547506   -4.9549709    1276.5647  0.046781175  0.046986106            7 
 2275000   0.89398851   -4.9367617    1284.3872  0.047047152  0.046976008            3 
 2276000   0.86824355   -4.9660892    1281.7504  0.046929936  0.046965816            5 
 2277000   0.89869977   -4.9477737    1280.8301  0.046875642  0.046955574            3 
 2278000   0.86465581   -4.9429464    1279.9632  0.046823354  0.046945348            6 
 2279000   0.89436741    -4.980725    1284.5265  0.046969669  0.046935003            3 
 2280000   0.86269411    -4.909521     1286.805  0.047032348  0.046924777           11 
 2281000   0.89906521   -4.9721551    1285.1393  0.046950872  0.046914557            5 
 2282000   0.87721064   -4.9494577    1280.3721  0.046756213  0.046904377            4 
 2283000   0.88833913   -4.9556554    1282.2318  0.046803615  0.046894085            2 
 2284000   0.89059786   -4.9339679    1287.4002  0.046971695  0.046883843            5 
 2285000   0.87841659    -4.937397    1285.7412  0.046890636  0.046873598            3 
 2286000   0.89907729   -4.9603234    1284.1521  0.046812194  0.046863229            6 
 2287000   0.87783787   -4.9537915    1283.8793  0.046781786  0.046852926            2 
 2288000   0.87921652   -4.9304817    1282.5181  0.046711761  0.046842572            4 
 2289000   0.88531106   -4.9543284    1284.8834  0.046777464  0.046832078            2 
 2290000    0.8884908   -4.9473627    1285.8801  0.046793308  0.046821708            3 
 2291000   0.88387879   -4.9632303     1284.092  0.046707842  0.046811375            2 
 2292000   0.90010794   -4.9295398    1286.0033  0.046756954  0.046801125            3 
 2293000   0.89847022   -4.9710262     1288.615   0.04683148  0.046790959            6 
 2294000   0.90616288    -4.974567    1285.5008  0.046697936  0.046780688            6 
 2295000    0.8794015   -4.9828627      1283.36  0.046599855  0.046770467            6 
 2296000   0.89659955   -4.9660408    1288.4015  0.046762541  0.046760418            5 
 2297000   0.87831216   -4.9457471    1284.7246  0.046608787  0.046750261            7 
 2298000   0.88682439   -4.9474816    1293.1201  0.046892956  0.046740188            3 
 2299000   0.89654332    -4.967041    1287.5143  0.046669359   0.04673004            5 
 2300000     0.879649   -4.9620352    1288.9473   0.04670099  0.046719875            5 
 2301000   0.85916566   -4.9352235    1289.8596  0.046713733  0.046709734            7 
 2302000   0.89567377   -4.9575649    1291.3418  0.046747098  0.046699613            7 
 2303000   0.86888715    -4.992539    1286.8211  0.046563218  0.046689452            3 
 2304000   0.88506781   -4.9261967    1296.1669  0.046881035  0.046679504            8 
 2305000    0.8822278   -4.9625798    1290.7132  0.046663528  0.046669698            4 
 2306000   0.88401973   -4.9561261    1288.8887  0.046577359  0.046659682            6 
 2307000   0.88329721   -4.9710789    1290.1755  0.046603652  0.046649572            6 
 2308000   0.88888043   -4.9297912    1295.7346  0.046784178  0.046639629            5 
 2309000   0.88706194   -4.9773683    1292.4308  0.046644681  0.046629621            4 
 2310000   0.88702075   -4.9547608     1293.435  0.046660713  0.046619648            8 
 2311000    0.8796883   -4.9879764    1295.3297  0.046708844  0.046609747            5 
 2312000   0.88617041   -4.9641828    1292.8492  0.046599237  0.046599857            5 
 2313000    0.8883822   -4.9790764    1299.4987  0.046818661  0.046589955            7 
 2314000   0.87762947   -4.9736604    1293.5932  0.046585754  0.046580025            4 
 2315000   0.87556891   -4.9867929    1301.8512  0.046862895  0.046570146            7 
 2316000   0.88550381   -4.9569208     1298.548  0.046723805  0.046560279            3 
 2317000   0.89443874   -4.9611085    1300.3197  0.046767361  0.046550538            3 
 2318000   0.88890036   -4.9484564    1301.2417  0.046780331  0.046540843            5 
 2319000   0.88347632   -4.9670724    1300.0031  0.046715651  0.046531009            2 
 2320000   0.88841586   -4.9815038    1297.9374  0.046621316  0.046521204            4 
 2321000   0.87404247   -4.9798201    1298.6002  0.046625027  0.046511357            2 
 2322000   0.88088154   -4.9770102     1299.186  0.046625969  0.046501527            5 
 2323000   0.87595733   -4.9512949    1294.3389  0.046432016   0.04649175            4 
 2324000   0.86927322   -4.9668576    1295.9443  0.046469602  0.046481916            5 
 2325000   0.88406256   -4.9890083    1296.6409  0.046474585  0.046472051            5 
 2326000   0.88283247   -4.9593133    1300.8613  0.046605808  0.046462143            5 
 2327000   0.89630841   -4.9848226    1299.8793  0.046550611  0.046452096            4 
 2328000   0.87429495   -4.9680922    1298.5888  0.046484421  0.046442037            7 
 2329000   0.89433398   -4.9541032    1295.7339  0.046362314  0.046432158            8 
 2330000   0.88878097   -4.9420044    1300.5254  0.046513782  0.046422116            3 
 2331000   0.87108777   -4.9627959    1295.0102  0.046296661  0.046412182            6 
 2332000   0.87261798   -4.9857265    1297.2402  0.046356495   0.04640212            4 
 2333000   0.86749475   -4.9605627    1295.5071   0.04627472  0.046392032            3 
 2334000   0.88534009   -4.9564002    1300.9616  0.046449642   0.04638195            8 
 2335000   0.87745068   -4.9687514    1298.9316  0.046357301  0.046371945            4 
 2336000   0.89825561   -4.9711138    1298.8277  0.046333752  0.046361952            6 
 2337000   0.89454739   -4.9880084    1297.9484   0.04628257  0.046351902            2 
 2338000   0.87518585   -4.9678288    1305.4287  0.046529396  0.046341839            5 
 2339000   0.88947167   -4.9551998     1303.955  0.046456996  0.046331933            9 
 2340000    0.8891626   -5.0005739    1296.0682  0.046156274  0.046321905            4 
 2341000   0.89999991   -4.9684626    1301.1409  0.046317133  0.046311691            5 
 2342000   0.86845998   -4.9935297    1300.4335  0.046272185   0.04630151            5 
 2343000   0.87067843   -4.9891771    1299.6101  0.046223152  0.046291472            2 
 2344000   0.86534406   -4.9643697    1302.9953   0.04632378  0.046281359            5 
 2345000   0.84637005   -4.9696697    1302.4538  0.046284783  0.046271252            6 
 2346000   0.88409931   -4.9736182    1298.3756  0.046120189    0.0462612            3 
 2347000   0.88504033   -4.9559107    1303.6131  0.046286505   0.04625119            7 
 2348000   0.88641864   -4.9589517    1307.7067  0.046412078  0.046241157            3 
 2349000   0.85184315    -4.964931    1300.7332  0.046144927  0.046231087            9 
 2350000    0.8783885   -4.9534401    1303.5209  0.046224145  0.046220948            5 
 2351000   0.86715428   -4.9794218    1303.6558  0.046209265  0.046210863            2 
 2352000   0.87118543   -4.9621278    1304.8891  0.046233315  0.046200778            6 
 2353000   0.89148815   -4.9928209    1302.2839    0.0461214   0.04619061            5 
 2354000   0.84400715   -4.9877676    1302.8545   0.04612201  0.046180519            4 
 2355000    0.8648538   -4.9692333    1304.6776  0.046166937  0.046170419            5 
 2356000   0.87924483   -4.9785444    1302.0684  0.046055052  0.046160304            4 
 2357000   0.86446913   -4.9540977    1310.4058  0.046330287  0.046150263            3 
 2358000   0.90133561   -4.9729069    1305.6055  0.046140993  0.046140264            4 
 2359000    0.8673159   -4.9769711    1306.0333  0.046136546  0.046130242            3 
 2360000   0.85651611   -4.9401429    1309.5184  0.046240055  0.046120217            3 
 2361000   0.88386625   -4.9846839    1303.6652  0.046013877  0.046110043            8 
 2362000   0.87530772   -5.0016573     1305.062  0.046043679   0.04609991            6 
 2363000   0.89899899   -4.9885378    1306.7538  0.046083854  0.046089885            3 
 2364000   0.89207698   -4.9876442     1309.931  0.046176359  0.046079799            7 
 2365000   0.86293118   -4.9978239    1306.8956   0.04604988  0.046069599            3 
 2366000   0.87578826   -4.9846279    1309.3509  0.046116894  0.046059535            5 
 2367000   0.87047397   -4.9662909    1310.9535  0.046153835  0.046049556            4 
 2368000   0.85839375   -4.9978014    1309.0739  0.046068196  0.046039591            4 
 2369000   0.87051366   -4.9799376    1309.6557  0.046069217  0.046029532            8 
 2370000   0.87566397    -5.010887    1309.6389  0.046049189  0.046019572            6 
 2371000   0.87353025   -4.9710529    1307.5191   0.04595526  0.046009511            4 
 2372000   0.86608344   -4.9547644    1316.0319  0.046234961  0.045999533            4 
 2373000   0.88635851   -4.9835024    1311.6968  0.046063238  0.045989602            3 
 2374000   0.85413763   -4.9907975    1307.3132  0.045889962  0.045979747            5 
 2375000   0.86111646   -4.9950499    1309.9835  0.045964334  0.045969772            6 
 2376000   0.88718004   -4.9821935    1314.3202  0.046097089  0.045959811            6 
 2377000   0.87086241   -4.9458248    1316.7026  0.046161219  0.045950079            5 
 2378000   0.87347942   -5.0043665    1312.9259  0.046009458  0.045940289            4 
 2379000   0.87366333   -4.9814289     1311.489  0.045939787  0.045930593            6 
 2380000    0.8737619   -4.9729462    1319.0985  0.046186923  0.045920821            3 
 2381000   0.87372418   -4.9728648    1312.4241  0.045933924  0.045910944            5 
 2382000   0.86198625   -4.9801477    1316.3868  0.046053276  0.045901146           11 
 2383000   0.87115583   -4.9626511     1317.277  0.046065078   0.04589135            2 
 2384000   0.86213652   -4.9666364    1314.0507  0.045932979   0.04588153            3 
 2385000   0.85209299   -5.0065308    1317.4127   0.04603119  0.045871592            5 
 2386000   0.87244642   -4.9902184    1314.1196  0.045896884  0.045861552           10 
 2387000   0.88235123   -4.9703966    1312.5867   0.04582414  0.045851659            8 
 2388000   0.87635546   -4.9644303    1317.9564  0.045992337  0.045841949            6 
 2389000    0.8851606   -5.0021669    1317.0829  0.045942617  0.045832208            4 
 2390000   0.85799688   -5.0086572    1317.2307  0.045928546   0.04582247            5 
 2391000   0.86205784   -4.9763363    1322.1448  0.046080607  0.045812654            3 
 2392000   0.86790562   -4.9982199    1317.8734  0.045912535  0.045802864            6 
 2393000   0.88043578   -4.9886969    1323.4213  0.046086547  0.045793114            2 
 2394000    0.8755337   -4.9903827    1323.0757  0.046055266  0.045783422            5 
 2395000   0.86614243    -4.971769    1321.9719   0.04599763  0.045773862            6 
 2396000   0.85639983   -5.0036724    1324.2733  0.046058475   0.04576423            4 
 2397000   0.88009302   -4.9736524    1323.0087  0.045995297  0.045754574            6 
 2398000   0.85056827   -5.0069885    1320.8122  0.045899784  0.045744901            6 
 2399000   0.88341646   -5.0063981    1320.8992  0.045883674  0.045735219            5 
 2400000   0.86329417   -4.9569908    1325.6386  0.046029117  0.045725615            4 
 2401000   0.86810193    -4.977335    1323.8957  0.045949456  0.045715873           12 
 2402000   0.87392583   -5.0211556    1316.2811  0.045666149  0.045706074            6 
 2403000   0.89618041   -4.9965588    1320.0987  0.045779536   0.04569638            4 
 2404000   0.85421823   -4.9992441    1321.8793  0.045822218   0.04568673            3 
 2405000   0.86237538   -5.0013223     1328.542  0.046034026  0.045677158            7 
 2406000   0.86987794   -4.9899609    1324.2016   0.04586456  0.045667628            4 
 2407000   0.87801867   -5.0045417    1324.5871  0.045858854  0.045658039            4 
 2408000    0.8624406   -4.9918261     1328.324  0.045969132  0.045648502            3 
 2409000   0.87069028   -4.9813676     1325.021  0.045835788   0.04563885            4 
 2410000   0.86169428   -4.9928944    1324.6265  0.045803128  0.045629338            7 
 2411000   0.84817475   -5.0042689    1325.7376  0.045822536   0.04561967            4 
 2412000   0.86933914   -4.9652703    1326.7898  0.045839892  0.045609992            8 
 2413000   0.85175195   -4.9572145    1327.9859  0.045862201  0.045600503            4 
 2414000   0.86373281   -4.9747888    1327.5765  0.045829069  0.045590856            5 
 2415000     0.887668    -4.994224     1326.393  0.045769255  0.045581287            4 
 2416000    0.8876032   -4.9722047    1325.5039  0.045719645  0.045571708            2 
 2417000   0.86364433   -4.9873968    1328.3079  0.045797405   0.04556222            5 
 2418000   0.86151401   -4.9850487    1325.8404  0.045693423  0.045552658           12 
 2419000   0.86570656   -4.9730736    1329.7404  0.045808888   0.04554313            5 
 2420000   0.86381048    -5.002619     1326.368  0.045673831  0.045533407            5 
 2421000   0.85514885   -4.9989985     1331.267  0.045823592  0.045523767            8 
 2422000    0.8596137    -5.021882    1325.1125  0.045592915   0.04551404            6 
 2423000   0.88064655   -4.9993749    1329.1906  0.045714357  0.045504346            4 
 2424000   0.85748259   -4.9845974    1333.1552  0.045831794  0.045494868            3 
 2425000   0.86380114    -4.978996    1331.1968  0.045745595  0.045485396            4 
 2426000    0.8520219   -5.0137013    1326.8092  0.045576024  0.045475673            3 
 2427000   0.87938719   -4.9782564    1333.2434  0.045778168  0.045466041           12 
 2428000   0.84976732   -5.0127197    1334.5991  0.045805845  0.045456522            3 
 2429000   0.87184252   -4.9941142    1331.7808  0.045690298  0.045446874            6 
 2430000   0.85472304   -4.9978774    1330.1065  0.045614077  0.045437133            9 
 2431000    0.8461534   -4.9771364    1327.3828  0.045501949  0.045427337            5 
 2432000   0.88327045   -5.0352153    1329.4918  0.045555503  0.045417532           10 
 2433000   0.84381988   -5.0072056    1331.3166   0.04559928  0.045407693            5 
 2434000   0.84729939   -4.9949543    1327.6444   0.04545482   0.04539803            3 
 2435000    0.8737086   -5.0043942    1334.5565  0.045672706  0.045388305           10 
 2436000   0.86665287   -5.0169874    1329.2899  0.045473792  0.045378698            5 
 2437000   0.85748971    -4.989568    1329.6411  0.045467143  0.045369014            4 
 2438000   0.87263863   -5.0044592    1327.9731  0.045391479  0.045359131            6 
 2439000   0.84892636   -4.9951232    1327.3774  0.045352514  0.045349399            5 
 2440000   0.85235799    -4.987789    1334.7087  0.045584312   0.04533976            6 
 2441000   0.86746726   -5.0092304    1332.9204  0.045504587  0.045330108            8 
 2442000   0.87885284   -4.9889962    1334.2009  0.045529652  0.045320307            3 
 2443000   0.87278997   -5.0000431    1338.8948  0.045671128   0.04531067            3 
 2444000   0.85543438   -4.9714231    1334.2291  0.045493353   0.04530094            4 
 2445000   0.84058808   -4.9955564    1334.1081  0.045470625  0.045291371            6 
 2446000   0.85135842   -4.9858408    1336.5026  0.045533614  0.045281628            6 
 2447000   0.86679008   -5.0057193    1332.2815  0.045371253  0.045271879            2 
 2448000   0.86362538    -5.004942     1332.755   0.04536884  0.045262203            2 
 2449000   0.85783795   -5.0052677    1336.6608  0.045483216  0.045252585            3 
 2450000   0.87079525   -4.9937316    1332.9672  0.045339021    0.0452429            6 
 2451000   0.84511495   -5.0303261    1332.1603  0.045293088  0.045233159            5 
 2452000   0.85377824    -5.021475    1334.0377  0.045338422  0.045223513            3 
 2453000   0.84211215   -4.9838807    1338.8688  0.045484061  0.045213913            8 
 2454000    0.8523701   -5.0284628    1335.9754  0.045367272  0.045204347            7 
 2455000   0.84580713   -4.9946223    1339.1675  0.045457144  0.045194718            6 
 2456000   0.86442151   -4.9766428    1336.7784  0.045357574   0.04518515            9 
 2457000   0.86664141   -4.9869453    1335.8657  0.045308155  0.045175587            4 
 2458000   0.85099626   -5.0161288    1340.1203  0.045433966  0.045166104           11 
 2459000   0.86742982   -5.0125599     1337.196  0.045316388  0.045156715            3 
 2460000   0.84126715   -5.0017141    1340.1839  0.045399185  0.045147188            6 
 2461000   0.86297435    -4.989991    1335.9314  0.045236739  0.045137658            5 
 2462000   0.86586998   -4.9958524    1338.8632  0.045317601  0.045128016            3 
 2463000   0.85223136   -4.9976532    1344.2348  0.045480944  0.045118536            3 
 2464000    0.8479091   -5.0175127     1337.396  0.045231197  0.045108913            5 
 2465000   0.85161149    -5.008873    1340.8909  0.045330996  0.045099423            5 
 2466000   0.86276617   -4.9729685    1343.7847  0.045410404  0.045089911            9 
 2467000   0.85189426     -4.99504    1344.2126  0.045406452  0.045080408            3 
 2468000     0.861476   -5.0305413    1338.6789  0.045201206  0.045070799            4 
 2469000   0.84730303   -5.0240955    1339.1951   0.04520032  0.045061145            4 
 2470000   0.87386799   -5.0229231    1341.4018  0.045256472  0.045051616            3 
 2471000   0.83015493   -5.0197545    1339.7644  0.045182935  0.045042092            6 
 2472000   0.84410102   -4.9614865    1346.3698  0.045387333  0.045032507            4 
 2473000   0.84908381   -5.0251123     1341.274  0.045197263  0.045022892            5 
 2474000   0.85277471   -4.9958859    1341.1088  0.045173429  0.045013193            3 
 2475000   0.85209731   -5.0388722    1340.2323  0.045125668  0.045003618            4 
 2476000   0.85684154   -5.0112762     1343.892  0.045230615  0.044994082            2 
 2477000   0.85308166   -5.0065846    1346.8539  0.045312002  0.044984505           14 
 2478000   0.85742147   -5.0155976    1342.1798  0.045136528  0.044974961            3 
 2479000   0.84725186   -4.9875435    1344.1495  0.045184532  0.044965542            4 
 2480000   0.85567566   -4.9910545    1343.7186  0.045151835  0.044956066            2 
 2481000   0.84212196   -5.0360227    1342.4326  0.045090441  0.044946502            4 
 2482000   0.88005162   -5.0230547    1347.6929  0.045248889  0.044936999           10 
 2483000   0.86878493   -5.0029416    1342.9106  0.045070162  0.044927554            8 
 2484000   0.85279686   -5.0224252    1345.7078  0.045145859  0.044918225            4 
 2485000   0.86076822   -5.0102088    1349.7248  0.045262401  0.044908618            3 
 2486000   0.85290787   -5.0261178    1347.8742  0.045182161  0.044899272            5 
 2487000   0.86383682   -5.0089068    1347.0062  0.045134909  0.044889983            3 
 2488000    0.8536532   -5.0266762    1349.3943  0.045196753  0.044880561            4 
 2489000   0.84600593   -5.0121737     1352.999  0.045299284  0.044871139            6 
 2490000   0.86690484   -5.0098599    1349.7813  0.045173405  0.044861785            7 
 2491000   0.84890968   -5.0494857    1344.9178  0.044992567    0.0448523            6 
 2492000    0.8667014   -5.0142838    1349.2686  0.045120002  0.044842903            7 
 2493000   0.86303374   -5.0166308    1351.2047  0.045166623  0.044833525            4 
 2494000   0.85349965   -4.9990122    1352.7085  0.045198761   0.04482421            4 
 2495000   0.85206764   -5.0074969    1351.1005  0.045126938  0.044814884            6 
 2496000   0.85247781   -5.0257569    1348.6099  0.045025705  0.044805447            7 
 2497000   0.84628972   -5.0050243    1348.3054  0.044997511  0.044796163            6 
 2498000   0.85038164   -5.0201946     1349.346  0.045014211  0.044786736            5 
 2499000   0.84267712   -5.0092505    1352.3491  0.045096342  0.044777443            4 
 2500000   0.85960613   -5.0311138    1353.3368  0.045111226  0.044768051            4 
 2501000   0.85433991   -5.0299307    1351.4472  0.045030228  0.044758679           13 
 2502000   0.87143495   -5.0122285    1353.2657  0.045072799  0.044749326            3 
 2503000   0.85101789   -5.0222533    1351.4185   0.04499329  0.044740013            9 
 2504000     0.850148   -5.0388819    1353.8868  0.045057468   0.04473084            7 
 2505000   0.85978609   -5.0089919    1357.8595  0.045171642  0.044721617            3 
 2506000   0.84698698   -5.0306977    1353.9218  0.045022673  0.044712293            6 
 2507000    0.8537018    -5.039154    1355.5597  0.045059159  0.044703069            8 
 2508000   0.84258543   -5.0173359    1353.7486  0.044981014  0.044693876            3 
 2509000   0.85138168   -5.0130678     1357.022  0.045071807  0.044684741            3 
 2510000   0.86450423   -5.0075577     1353.343  0.044931706    0.0446755            5 
 2511000   0.86370504   -5.0086365    1355.0043  0.044968947  0.044666236            4 
 2512000   0.86283534   -5.0052157    1357.1476  0.045022147  0.044656836            4 
 2513000   0.84113298   -4.9908031    1354.7378  0.044924321    0.0446474            9 
 2514000   0.85807574   -5.0491173    1351.0009  0.044782581  0.044637973            7 
 2515000   0.84330187   -4.9967563    1355.4983  0.044913794  0.044628531            5 
 2516000   0.84477569   -5.0514085    1357.6119   0.04496595  0.044619139            4 
 2517000   0.83616212   -5.0059483    1353.5147  0.044812434   0.04460974            6 
 2518000   0.86050774   -4.9820986    1356.5264  0.044894307  0.044600575            5 
 2519000   0.85142738    -5.012492    1358.3623  0.044937221  0.044591317            2 
 2520000   0.85101745   -5.0205579    1360.4177  0.044987358  0.044581916            3 
 2521000   0.84167295   -5.0407894    1353.7428   0.04474887  0.044572403            5 
 2522000   0.83930068   -5.0197359     1356.744  0.044830292  0.044562982            5 
 2523000   0.86647042     -5.02931    1356.3909  0.044800863  0.044553516            8 
 2524000   0.85841129   -5.0435061    1354.6067  0.044724203  0.044544047            4 
 2525000   0.86958524   -5.0278476    1360.9666  0.044916388  0.044534629           10 
 2526000   0.86212733   -5.0375867    1356.1963  0.044741234   0.04452519            6 
 2527000   0.85048002   -5.0249912    1361.6191  0.044902359  0.044515675           13 
 2528000    0.8660567   -5.0393394     1359.703  0.044821432  0.044506207            3 
 2529000   0.82643232    -5.017081      1359.27  0.044789443  0.044496757            7 
 2530000   0.86807404   -5.0249464    1354.0348  0.044599302  0.044487381            2 
 2531000   0.85482387   -5.0497892    1362.4441  0.044858556  0.044477879            7 
 2532000   0.83510355   -5.0791644     1351.603  0.044484039  0.044468378            9 
 2533000   0.82423403   -5.0432169    1355.0081  0.044578501  0.044458827            6 
 2534000   0.84824824   -5.0013172    1362.2128  0.044797841  0.044449294            3 
 2535000   0.82343891   -5.0339087    1356.7606  0.044600939  0.044439729            3 
 2536000   0.85638587   -5.0465755    1355.4215  0.044539349  0.044430145            4 
 2537000   0.82999391   -5.0257765    1361.4799  0.044720795  0.044420549            7 
 2538000   0.84220802   -5.0348305    1357.9235  0.044586404  0.044410957            3 
 2539000   0.85941233   -5.0362773    1363.4932  0.044751647   0.04440142            4 
 2540000   0.84981967   -5.0416074    1356.8082  0.044514704  0.044391912            9 
 2541000   0.87632744   -4.9895198     1363.964  0.044731863  0.044382528           10 
 2542000    0.8336191   -5.0208915    1363.5179  0.044699641  0.044373085            4 
 2543000   0.84135399   -5.0218578    1360.6065  0.044586659  0.044363533            3 
 2544000   0.83399679   -4.9908091    1363.9397  0.044678318  0.044354053            6 
 2545000    0.8493903   -5.0192248    1361.1304  0.044568776  0.044344605            4 
 2546000   0.84169284   -5.0171698    1361.8957  0.044576319  0.044335125            4 
 2547000   0.83679329   -5.0590929     1360.795  0.044522805  0.044325566            5 
 2548000   0.83001943   -5.0033585    1361.1719  0.044517659  0.044316016            7 
 2549000   0.83480997    -5.025976    1362.2272  0.044534692  0.044306413            4 
 2550000   0.82836272   -5.0203455     1361.984   0.04450928   0.04429688            4 
 2551000   0.83869683   -5.0115742    1364.3896  0.044570416  0.044287366            9 
 2552000   0.84685454   -5.0664987    1359.8595  0.044405025  0.044277827            7 
 2553000    0.8364694   -5.0354538    1365.0434  0.044556841  0.044268244            7 
 2554000   0.85997617   -5.0148261    1362.8968  0.044469356  0.044258771            3 
 2555000   0.83198925    -5.064644    1357.6165  0.044279729  0.044249237            7 
 2556000   0.82765111   -5.0686795    1362.2474  0.044413388  0.044239602            8 
 2557000   0.83188694    -5.037991     1365.379  0.044498077  0.044230009            2 
 2558000   0.82694193   -5.0349858    1362.6213  0.044390844  0.044220394            8 
 2559000   0.82929906   -5.0362728    1361.7116  0.044343873  0.044210734           11 
 2560000   0.84260474   -5.0144339    1364.8108  0.044427435  0.044201101            3 
 2561000   0.84930721   -5.0139842    1364.6147  0.044403706   0.04419135            5 
 2562000   0.85332589   -5.0287119    1366.0845  0.044434181  0.044181835            3 
 2563000   0.83615823   -5.0351872    1364.5558  0.044367141   0.04417224           11 
 2564000   0.83825115   -5.0268494    1368.9716  0.044493358  0.044162719            5 
 2565000    0.8432839   -5.0338326    1367.8813  0.044440588  0.044153233            6 
 2566000   0.85044535   -5.0817949     1362.078  0.044234801  0.044143704            4 
 2567000   0.85490981   -5.0415574    1368.6017   0.04442935  0.044134059            2 
 2568000   0.84150806   -5.0445351    1366.7495  0.044351945  0.044124549            4 
 2569000   0.83365419   -5.0385384    1368.0178  0.044375821  0.044115052            6 
 2570000   0.84236364   -5.0362445    1365.2699  0.044269452  0.044105532            4 
 2571000   0.85166573   -5.0383471     1371.308  0.044447945  0.044095957            5 
 2572000   0.84590809   -5.0551397    1363.7028  0.044184253  0.044086397            5 
 2573000   0.83757338   -5.0551949    1368.9782  0.044337938  0.044076836            7 
 2574000   0.83859558   -5.0360786    1367.6774  0.044278601  0.044067451            8 
 2575000   0.85035975   -5.0614152    1367.0023  0.044239558  0.044057984            7 
 2576000   0.83749443   -5.0781512    1367.6054  0.044241891  0.044048435            5 
 2577000   0.83030668   -5.0296779    1370.0668  0.044304322  0.044038939            4 
 2578000   0.83651287   -5.0193335    1374.0739  0.044416664  0.044029589            6 
 2579000   0.83010687   -5.0019366    1376.0265  0.044462534  0.044020292            8 
 2580000   0.84332666   -5.0395719    1369.7118  0.044241337   0.04401101            5 
 2581000   0.82623488   -5.0315137    1371.0829  0.044268464  0.044001638            4 
 2582000   0.84161718    -5.021363    1374.5974   0.04436475  0.043992222            7 
 2583000   0.85115672   -5.0395763    1373.9016  0.044325125   0.04398294            3 
 2584000   0.83699569   -5.0480906    1374.1952  0.044317441  0.043973728            4 
 2585000   0.84891379    -5.055198    1377.0198  0.044391355  0.043964416            4 
 2586000   0.83637868   -5.0485942    1370.4549  0.044162635   0.04395505           12 
 2587000   0.83469536   -5.0359731    1374.2629  0.044268229  0.043945673            4 
 2588000   0.83225295   -5.0413272    1371.2237  0.044153261   0.04393635            3 
 2589000   0.85520909   -5.0504571     1370.059  0.044098718  0.043927009            5 
 2590000   0.83505785   -5.0662357    1371.2514  0.044120059   0.04391769            5 
 2591000   0.84603589   -5.0454717    1376.7522  0.044279951  0.043908325            6 
 2592000   0.83209844    -5.041111    1375.1372  0.044210944  0.043899022            4 
 2593000   0.84056914    -5.040459    1377.8065  0.044279678  0.043889673            7 
 2594000   0.82631449   -5.0400275    1375.5969  0.044191625  0.043880294            4 
 2595000   0.82744978   -5.0349796    1382.3458  0.044391323  0.043870927            6 
 2596000   0.82927045   -5.0374038    1374.5588  0.044124254  0.043861534            4 
 2597000   0.84175586   -5.0715949    1376.0937  0.044156517  0.043852101            4 
 2598000   0.84541149   -5.0662096    1379.6679  0.044254168   0.04384286            3 
 2599000   0.82156904   -5.0487064    1382.3447  0.044322969   0.04383348            5 
 2600000   0.84009735   -5.0654635    1374.6989  0.044060861   0.04382412            5 
 2601000   0.83976712   -5.0516267    1379.4015  0.044194587  0.043814797            6 
 2602000   0.84612859   -5.0674524    1376.8358  0.044095434  0.043805425            4 
 2603000   0.82726925   -5.0619632    1375.4333  0.044033593   0.04379606            4 
 2604000   0.83263866   -5.0573767    1378.7097  0.044121534  0.043786772            3 
 2605000   0.84365684   -5.0630825    1375.4299  0.043999678  0.043777463            4 
 2606000   0.83626375   -5.0556977    1378.6762  0.044086603  0.043768088            3 
 2607000   0.83888213   -5.0300561    1379.5265  0.044096872  0.043758757            4 
 2608000   0.83962834   -5.0394217    1382.9217  0.044188448   0.04374963            5 
 2609000   0.83394597   -5.0589232    1379.4967  0.044062116   0.04374031            2 
 2610000   0.83409962   -5.0535738    1377.0046  0.043965663  0.043730866            6 
 2611000   0.82912072   -5.0719464    1379.9542  0.044042965  0.043721642            4 
 2612000   0.82397461   -5.0735549      1379.74  0.044019269  0.043712272           10 
 2613000   0.81443003   -5.0396995    1381.2641   0.04405103  0.043702981            6 
 2614000   0.80918909   -5.0546456    1381.0293  0.044026693  0.043693756            7 
 2615000   0.82379099   -5.0630571      1379.39  0.043957615  0.043684474            4 
 2616000    0.8111524   -5.0759668    1378.3417   0.04390742  0.043675081            4 
 2617000   0.82645756   -5.0496349    1382.5989  0.044026202  0.043665732            7 
 2618000   0.82643919   -5.0756073    1380.9998  0.043958488  0.043656494            3 
 2619000   0.81849068   -5.0493732     1384.417  0.044050434  0.043647268            7 
 2620000   0.82772125   -5.0528248    1383.0461  0.043990015  0.043637844            4 
 2621000   0.82393158   -5.0741625    1379.1849  0.043850468  0.043628525            6 
 2622000   0.82177687   -5.0409973    1386.5755  0.044068634  0.043619276            5 
 2623000   0.82586345   -5.0233286    1383.4452  0.043952384  0.043609936            3 
 2624000    0.8235464   -5.0575445    1380.5673  0.043844236  0.043600671            4 
 2625000   0.81766728   -5.0421866    1385.3971   0.04398086  0.043591337            5 
 2626000   0.82055526   -5.0492229    1386.1175  0.043986972  0.043581967            6 
 2627000   0.84407839   -5.0637042     1382.503  0.043855571  0.043572634            8 
 2628000   0.83659645    -5.048189    1384.4741  0.043901386  0.043563237           12 
 2629000   0.83156003   -5.0621908    1382.2129  0.043813013  0.043553714            4 
 2630000   0.81127214   -5.0573117     1385.427  0.043898193  0.043544371            4 
 2631000   0.83791794   -5.0511186    1385.8588  0.043895186  0.043534993            7 
 2632000    0.8199278   -5.0535911    1386.0201  0.043883614  0.043525813            5 
 2633000   0.84805086   -5.0594399    1384.9365  0.043832654  0.043516535            5 
 2634000   0.82250196   -5.0724651     1382.589  0.043741741  0.043507238           10 
 2635000   0.83442876   -5.0649307    1384.8233  0.043795803  0.043497935            3 
 2636000   0.82730382   -5.0619979    1383.6823  0.043743116  0.043488572            5 
 2637000   0.82861059   -5.0567802    1386.1912  0.043805814   0.04347923            8 
 2638000   0.81640378   -5.0254916    1387.1272  0.043818778  0.043469903            4 
 2639000   0.82925998   -5.0568477    1386.7285  0.043789581  0.043460638            8 
 2640000   0.83220869   -5.0485032    1386.6043  0.043769076  0.043451278            7 
 2641000    0.8445223   -5.0876994    1389.8071  0.043853564  0.043442091            4 
 2642000   0.80836484   -5.0872038     1386.847  0.043743596  0.043432842            6 
 2643000   0.82567821   -5.0801123     1389.907  0.043823527  0.043423533            6 
 2644000   0.85031126   -5.0885319    1384.6492  0.043641239  0.043414291            5 
 2645000   0.82970686   -5.0523156    1389.4241  0.043775177  0.043405107            3 
 2646000   0.81880068   -5.0421143    1384.3278   0.04359813  0.043395928            5 
 2647000   0.83654902   -5.0727939    1391.4568  0.043806095  0.043386726            4 
 2648000   0.80349819   -5.0840408    1391.0901   0.04377801   0.04337746           10 
 2649000   0.84658816   -5.0344125    1395.5084  0.043900477  0.043368299            4 
 2650000   0.82174906   -5.0675587    1389.2301   0.04368648  0.043359125            7 
 2651000   0.83896209   -5.0573842    1392.9908  0.043788219  0.043350073            3 
 2652000    0.8450731   -5.0640112    1393.7211  0.043794654  0.043340982            5 
 2653000   0.81133404   -5.1101428    1388.3293  0.043608786  0.043331864            6 
 2654000   0.81564314   -5.0522726    1390.4277  0.043658243  0.043322748            7 
 2655000    0.8217566   -5.0497666    1394.8173  0.043779576   0.04331364            7 
 2656000   0.83889256   -5.0592131     1396.191  0.043806193  0.043304599            6 
 2657000   0.83680214   -5.0466775    1393.6538  0.043710131  0.043295623            8 
 2658000   0.82482907   -5.0606979    1394.4876  0.043719828  0.043286597            3 
 2659000   0.83828858   -5.0747029    1394.4515  0.043702252  0.043277478            4 
 2660000    0.8278643   -5.0701151    1395.2356  0.043710387  0.043268367            4 
 2661000   0.82652719   -5.0821095    1393.4901    0.0436393   0.04325924            3 
 2662000   0.82856873    -5.083728    1395.2273  0.043677289  0.043250143            8 
 2663000   0.82271536   -5.0629177    1396.7915  0.043709835   0.04324092            7 
 2664000   0.82008975    -5.082522    1394.2895  0.043615161  0.043231704            5 
 2665000    0.8093002   -5.0635855    1396.2142  0.043658981  0.043222579            3 
 2666000   0.83274502   -5.0395823    1398.0488  0.043699949  0.043213413            4 
 2667000   0.82208477   -5.0796935    1393.9964  0.043556943  0.043204345            6 
 2668000   0.83545217   -5.0727891    1390.7034  0.043437763  0.043195067            9 
 2669000   0.80961053   -5.0889873    1393.8377  0.043519348  0.043185813            4 
 2670000   0.81131031   -5.1109202    1393.5549  0.043494224  0.043176467            9 
 2671000   0.82741904   -5.0872967    1392.7973  0.043454302  0.043167152            2 
 2672000   0.81065752   -5.0759356    1394.7182  0.043497949  0.043157834            3 
 2673000   0.82716137   -5.0818729    1393.8907  0.043455876  0.043148597            6 
 2674000   0.83752753   -5.0517116    1398.8679  0.043594737  0.043139455           12 
 2675000   0.81849657   -5.0889828    1392.9865  0.043395217  0.043130256            8 
 2676000   0.83200263   -5.0646621    1397.3976  0.043516366  0.043120983            3 
 2677000    0.8031472   -5.0715938    1395.4411  0.043439207  0.043111772            8 
 2678000   0.83291192   -5.0349287     1403.755  0.043681696  0.043102573            4 
 2679000   0.81118694   -5.0854932    1394.6253  0.043381403  0.043093483            3 
 2680000   0.82740814   -5.0235359    1405.2389   0.04369524  0.043084408            4 
 2681000   0.82367079   -5.0973431    1399.2451  0.043492635  0.043075418            5 
 2682000   0.83464792   -5.0612701    1397.3654  0.043418014   0.04306637            4 
 2683000   0.81473413   -5.0431473    1399.9603  0.043482431  0.043057248            5 
 2684000   0.81278242   -5.0577412    1401.4399  0.043512167  0.043048059            5 
 2685000   0.81113564    -5.068359    1398.7895  0.043413703  0.043038845            3 
 2686000   0.83409261   -5.0850407    1396.3377  0.043321473   0.04302966            5 
 2687000   0.80572306   -5.1096051    1394.2215  0.043239718  0.043020421            6 
 2688000   0.83491355    -5.089591    1398.9176  0.043369222  0.043011072            9 
 2689000   0.81631492   -5.0666721    1404.0578   0.04351239  0.043001944           10 
 2690000   0.82673544   -5.0760058    1401.6069  0.043420288  0.042992689            5 
 2691000   0.81464453   -5.0809626    1395.7592  0.043223064  0.042983455            4 
 2692000   0.82259714   -5.0918379    1398.9497  0.043305772  0.042974176            4 
 2693000    0.8335538   -5.0698172     1402.748  0.043407228   0.04296498            4 
 2694000   0.82531022   -5.0750449    1401.0038  0.043337163  0.042955713            5 
 2695000   0.81099515   -5.0749316    1405.5945  0.043463034  0.042946516            8 
 2696000    0.8065131   -5.0639486    1400.9774  0.043304199  0.042937279            4 
 2697000   0.80300691   -5.0840504    1397.1227  0.043169038  0.042928007            6 
 2698000   0.83561441   -5.0839344    1400.7822  0.043266068  0.042918745            8 
 2699000   0.83713217   -5.0691285    1403.1613  0.043323493  0.042909489            5 
 2700000   0.81956289   -5.0988277    1404.7887  0.043357674  0.042900286            7 
 2701000    0.8347411   -5.0597158    1400.3482  0.043204622  0.042891131            5 
 2702000   0.80983735   -5.0688564    1397.3278   0.04309548  0.042881793            4 
 2703000    0.8163154   -5.1298483    1396.2501  0.043046309  0.042872389           12 
 2704000    0.8263932   -5.0689912    1400.4218  0.043158955  0.042862995            5 
 2705000   0.82968584   -5.0923724    1395.7439  0.042998889  0.042853549            8 
 2706000   0.81774882   -5.1077049    1398.9087  0.043080459  0.042844157            3 
 2707000   0.82091407   -5.0790834    1401.9044  0.043156768   0.04283484            4 
 2708000   0.82304172   -5.0745177    1400.9318  0.043110899  0.042825561            6 
 2709000   0.81249908   -5.1094503    1398.9589  0.043034298  0.042816222            4 
 2710000   0.81989375    -5.103888    1397.0789  0.042960607  0.042806908            7 
 2711000   0.81884652    -5.085187    1403.0205  0.043127396  0.042797642           14 
 2712000   0.82949482   -5.0891763    1402.9387   0.04310898  0.042788396            5 
 2713000   0.80513353   -5.0725484    1408.8308  0.043274077  0.042779204           13 
 2714000   0.81350253   -5.0664521    1403.1799   0.04308462  0.042770059            3 
 2715000   0.83353539   -5.0920917     1404.591  0.043112062  0.042760832            8 
 2716000   0.81912937    -5.083767    1405.5204  0.043124707  0.042751613            4 
 2717000    0.8374163   -5.0997262    1402.5885   0.04301891  0.042742367            4 
 2718000   0.82271746   -5.0995515    1404.9177  0.043074495  0.042733087            6 
 2719000   0.82659139   -5.1056594    1405.1328  0.043065244  0.042723779            8 
 2720000   0.84673013   -5.0723172    1405.7727  0.043069018   0.04271463            4 
 2721000   0.84056153   -5.0880007     1403.696  0.042989588  0.042705468            7 
 2722000   0.80677526   -5.1062284    1406.9121  0.043072253  0.042696257            5 
 2723000   0.81285387   -5.1174425    1404.0344  0.042968368  0.042686937            8 
 2724000   0.78984832   -5.0702361    1407.7771  0.043067093  0.042677713            3 
 2725000   0.80634765   -5.0854623    1409.5208  0.043104613  0.042668488            4 
 2726000   0.80888474   -5.0955132    1408.9114  0.043070171  0.042659345            5 
 2727000   0.81578467   -5.1005396    1407.5945  0.043014133  0.042650172            7 
 2728000   0.81657597   -5.0438225    1410.2002  0.043077964  0.042641076            5 
 2729000   0.83270368   -5.0671476    1412.7753   0.04314081  0.042632002            5 
 2730000   0.81304906   -5.1169345    1407.3269  0.042958695  0.042622922           10 
 2731000   0.80711112   -5.1285784    1404.1659  0.042846513  0.042613779            7 
 2732000   0.82929971   -5.0799924    1412.1029  0.043072928  0.042604701            9 
 2733000   0.80774406   -5.0948128    1410.6975  0.043014315  0.042595562            2 
 2734000   0.82008427   -5.1037271    1406.8988  0.042882796  0.042586388            5 
 2735000   0.83006389   -5.1094807    1409.5986  0.042949379  0.042577121            5 
 2736000   0.80330445   -5.0975135     1404.999  0.042793585   0.04256785            6 
 2737000   0.81604873   -5.0793271    1409.1356  0.042903897  0.042558556            4 
 2738000   0.81196291   -5.1081545    1409.6577  0.042904117  0.042549391            5 
 2739000   0.80359363   -5.1228613    1404.6529  0.042736184  0.042540173            4 
 2740000   0.81540121   -5.1334732    1405.3384  0.042741436  0.042530876           11 
 2741000   0.82086014   -5.0704918    1414.1702   0.04299435  0.042521662            3 
 2742000   0.82888211   -5.1202618    1409.1764  0.042826903  0.042512507            6 
 2743000   0.80945832   -5.0848784    1417.2687  0.043057136  0.042503313            3 
 2744000   0.83050428   -5.0929535    1409.6034  0.042808655  0.042494268            5 
 2745000   0.80915514    -5.090177    1412.0764  0.042868137  0.042485209            8 
 2746000    0.8145427   -5.1243734    1412.5255  0.042866154  0.042476071            5 
 2747000   0.80659894   -5.0809862    1416.1135  0.042959394  0.042466879           10 
 2748000   0.82399596   -5.0991895    1410.4234   0.04277121  0.042457709            6 
 2749000   0.81448984   -5.0907612    1414.5276  0.042880065  0.042448639            9 
 2750000    0.8157178   -5.1085681    1412.6939  0.042808906  0.042439566            9 
 2751000   0.82563835   -5.0950271     1414.523  0.042848753   0.04243055            5 
 2752000    0.8216449   -5.1107336    1413.1255  0.042790863  0.042421452            5 
 2753000   0.81495395   -5.1014883    1416.3004  0.042871425  0.042412369            3 
 2754000   0.79605565   -5.0898252    1414.4607  0.042800191  0.042403254            8 
 2755000   0.81860716   -5.1108837    1417.8963  0.042888576   0.04239425           11 
 2756000   0.80384627   -5.0900388    1417.9099  0.042873423  0.042385313            6 
 2757000   0.79820993   -5.0749378    1419.6085  0.042909217  0.042376376            2 
 2758000   0.80462392   -5.0867425    1417.5072  0.042830166  0.042367427            5 
 2759000   0.82278956    -5.134567    1417.7675  0.042822504  0.042358607            9 
 2760000   0.80835763   -5.0925345    1418.4841  0.042828626  0.042349613            4 
 2761000   0.81797235   -5.0884105    1418.2904  0.042807269  0.042340799            6 
 2762000   0.80110045   -5.0811605    1421.3519  0.042884139  0.042331959            4 
 2763000   0.80948134   -5.1151773    1416.4653  0.042721235  0.042323062            6 
 2764000   0.81356851   -5.1264668    1420.5091  0.042827699  0.042314107            3 
 2765000   0.80636343   -5.1077832    1420.1447  0.042801227  0.042305197            9 
 2766000   0.82018511   -5.1260953    1418.2984  0.042730128  0.042296189            5 
 2767000     0.818834    -5.111359    1420.8573  0.042791751  0.042287212            8 
 2768000   0.81833389   -5.0994457    1419.6962  0.042741335  0.042278187            7 
 2769000   0.81992942   -5.0958522    1419.5391  0.042721173   0.04226916            9 
 2770000   0.83077731   -5.1203064    1418.7185  0.042681062  0.042260186            5 
 2771000   0.82183271   -5.1329673    1416.2196  0.042590509  0.042251112            5 
 2772000   0.79847934    -5.111001    1416.9912   0.04259834  0.042242025            7 
 2773000   0.80878121   -5.1001269    1420.4307  0.042686343  0.042233015            7 
 2774000   0.80193038   -5.1143311    1420.6094  0.042676322  0.042224006            8 
 2775000   0.81529334    -5.123021    1416.3805  0.042533949  0.042214955           10 
 2776000   0.81531642   -5.1433227    1417.0481  0.042538666  0.042205946            9 
 2777000   0.79868193   -5.1232172    1417.9812   0.04255135  0.042196825            4 
 2778000   0.79418016   -5.0916262     1419.084  0.042569116  0.042187666           10 
 2779000   0.81924171   -5.1229424    1417.5874  0.042508919  0.042178465            4 
 2780000   0.80539657   -5.1121347    1417.7875  0.042499626  0.042169312            4 
 2781000     0.793684   -5.1044756    1417.2088  0.042467001  0.042160246            6 
 2782000   0.79623758   -5.1100353    1420.3746  0.042546568  0.042151053           12 
 2783000   0.81467497   -5.0969541    1419.0994  0.042493096  0.042141917            6 
 2784000    0.8125593   -5.1269475    1417.7889  0.042438606  0.042132842           10 
 2785000   0.79839499   -5.1208863     1418.267  0.042437673  0.042123579            6 
 2786000   0.81094092   -5.1209342    1420.3176  0.042483776  0.042114326            4 
 2787000   0.81390425   -5.1037942    1419.3908  0.042440822    0.0421051            4 
 2788000   0.79595201   -5.1139355    1420.9664  0.042472691  0.042095881            7 
 2789000   0.80547208    -5.082404    1421.0452   0.04245982  0.042086705            3 
 2790000   0.79916555   -5.1150669    1424.6893  0.042553444    0.0420776            6 
 2791000   0.80091077   -5.1200097    1423.2868  0.042496323  0.042068477            8 
 2792000   0.80037832   -5.1333335    1417.6225  0.042312038  0.042059242            7 
 2793000   0.80740394    -5.122265    1421.4102  0.042409898  0.042049988           13 
 2794000   0.79268945   -5.1235337    1420.1765  0.042357924    0.0420408            4 
 2795000   0.80731419   -5.1252825    1421.1542  0.042371919  0.042031644            7 
 2796000   0.80370712   -5.1085812    1425.4981  0.042486235   0.04202253            8 
 2797000    0.8091255   -5.1042753    1422.7332  0.042388665  0.042013404            5 
 2798000   0.83124004   -5.1106805    1425.9342  0.042468853  0.042004328            4 
 2799000   0.81313617   -5.1182374    1421.8381  0.042331728  0.041995267            7 
 2800000   0.80824322   -5.1088064    1424.3207  0.042390496  0.041986102            7 
 2801000    0.8053989   -5.1405543    1422.8993  0.042333074  0.041976947           12 
 2802000   0.78294427   -5.1414493    1420.1461  0.042236086  0.041967669           17 
 2803000   0.80168299   -5.1100191    1420.3704  0.042227684  0.041958371            3 
 2804000   0.80744009   -5.1053187    1422.6797  0.042281255   0.04194913            3 
 2805000   0.78938928    -5.105003    1423.3167  0.042285108   0.04193988            6 
 2806000   0.81271478   -5.1054024    1421.8682  0.042227019  0.041930607            5 
 2807000   0.81977777   -5.0987837    1423.8381  0.042270459   0.04192145            6 
 2808000   0.81222466   -5.1161588    1424.5269  0.042275847  0.041912209            4 
 2809000   0.80091316    -5.111831    1424.4105  0.042257342  0.041902985            5 
 2810000   0.82472081   -5.0725239    1429.6413   0.04239743  0.041893857            7 
 2811000   0.82097687   -5.0860983    1429.6985  0.042384043    0.0418847            4 
 2812000   0.80871109   -5.1481448    1422.3101  0.042150015  0.041875452           14 
 2813000   0.80975287   -5.1130376    1426.6072  0.042262329  0.041866223            4 
 2814000   0.78428255    -5.111825    1422.7948   0.04213441  0.041857041            4 
 2815000   0.80037064   -5.1164673    1421.6427  0.042085338  0.041847796            4 
 2816000   0.81271086   -5.1011324    1423.3376   0.04212055  0.041838563           25 
 2817000   0.79760219   -5.1197575     1423.305  0.042104633  0.041829433            6 
 2818000    0.8124533   -5.1044546    1426.4153  0.042181668  0.041820302            7 
 2819000   0.79670462   -5.1455552    1421.4941  0.042021227  0.041811116            5 
 2820000   0.79783087   -5.1380427    1423.8676  0.042076467  0.041801861            6 
 2821000   0.79097587    -5.141856    1421.5624  0.041993453   0.04179263            6 
 2822000   0.79023638   -5.1293466    1426.3879   0.04212107  0.041783362            4 
 2823000   0.79195871   -5.1257854     1427.057  0.042125901  0.041774092            8 
 2824000   0.79911226   -5.1274053    1427.8484  0.042134337  0.041764886            4 
 2825000   0.78888519   -5.1277265    1423.4611  0.041990002  0.041755596           10 
 2826000   0.77941535   -5.1098475    1423.7182  0.041982725  0.041746197           10 
 2827000   0.79011544   -5.1092394    1425.3878  0.042017092  0.041736921            8 
 2828000   0.80006544   -5.1343185    1424.9736  0.041990029  0.041727578            9 
 2829000   0.79588877   -5.1049064    1425.9089  0.042002736  0.041718235            6 
 2830000   0.80413902   -5.1126435    1426.9081  0.042017318  0.041708971            7 
 2831000   0.80398987   -5.1581486    1423.5855  0.041904673  0.041699731            7 
 2832000   0.81633461   -5.1403834    1425.6652  0.041951072   0.04169051            6 
 2833000   0.79156654   -5.1233841    1432.1175  0.042126058  0.041681273            8 
 2834000   0.78914951   -5.1452602    1425.9518  0.041929894   0.04167205            8 
 2835000   0.79683095   -5.1316633    1431.2973  0.042072232   0.04166284            6 
 2836000    0.7879876   -5.1198253    1430.2523  0.042026689  0.041653602           15 
 2837000   0.78298215    -5.154414    1425.3637  0.041868279  0.041644354            3 
 2838000   0.79080793   -5.1475226    1425.7553  0.041865025  0.041635085            7 
 2839000   0.79648178    -5.104094    1433.0266  0.042063714  0.041625797            3 
 2840000    0.8075288   -5.1250086    1428.7245  0.041922668  0.041616573            4 
 2841000    0.8169665   -5.1691383    1423.4055  0.041751892  0.041607249           11 
 2842000   0.78017611   -5.1129147    1433.2875   0.04202696  0.041598016            5 
 2843000    0.8030929   -5.1157818    1432.3336  0.041984219  0.041588855            9 
 2844000   0.79299514   -5.1435553    1428.6145  0.041860481  0.041579513           10 
 2845000   0.79309686   -5.1344493    1429.7213  0.041878188  0.041570328            6 
 2846000   0.80805292   -5.1388629    1430.2853  0.041879988  0.041561023            5 
 2847000   0.80185617   -5.1577155    1430.3396  0.041866865  0.041551758            4 
 2848000   0.79658343   -5.1201798    1432.9519  0.041928601  0.041542631            5 
 2849000   0.78711733    -5.151744    1429.8113  0.041822021  0.041533353            9 
 2850000   0.78184842   -5.1245944    1432.2441  0.041878482  0.041524111            4 
 2851000   0.79185737   -5.1068589    1432.7409  0.041878316  0.041514864           14 
 2852000   0.80697029   -5.1237261    1433.5926  0.041888518  0.041505644            8 
 2853000   0.79526335   -5.1162241     1432.414  0.041839408  0.041496367           15 
 2854000   0.79283069   -5.1550147    1431.0591  0.041785187  0.041487041           10 
 2855000   0.79982078   -5.1649431    1430.9429   0.04176716  0.041477705            3 
 2856000   0.82010032   -5.1446166    1429.9844  0.041724567  0.041468405           19 
 2857000   0.78285182   -5.1171074     1432.709  0.041789435  0.041459268            5 
 2858000   0.80234447   -5.1196038     1438.337  0.041938914   0.04145018            8 
 2859000   0.78820477   -5.1436338    1431.6022  0.041727941   0.04144104            6 
 2860000   0.79466471   -5.1300529    1434.6003  0.041800707  0.041431866            5 
 2861000   0.79098402   -5.1477527    1436.0966  0.041829681  0.041422624            5 
 2862000   0.79033087   -5.1332981    1437.5075  0.041856147  0.041413544            4 
 2863000   0.79610023   -5.1309713    1440.1121  0.041917338  0.041404492            6 
 2864000   0.79032159   -5.1331568    1435.0397  0.041755112  0.041395393            9 
 2865000   0.79037585    -5.161113    1437.1067  0.041800662  0.041386266           10 
 2866000    0.7887687   -5.1269307    1439.8546  0.041865975  0.041377171            6 
 2867000   0.79713635   -5.1478045    1435.1014  0.041713214  0.041368103           10 
 2868000   0.79158511    -5.134761     1433.898  0.041663703  0.041358964            8 
 2869000   0.77340835   -5.1667933    1433.1252  0.041626735  0.041349813            4 
 2870000   0.79046667   -5.1751598    1438.1882  0.041759238  0.041340729            9 
 2871000   0.79801773   -5.1294324    1440.1503  0.041801646  0.041331615            5 
 2872000   0.78031155   -5.1688484    1440.9548  0.041810433  0.041322537            9 
 2873000   0.80501902   -5.1437527    1436.2392  0.041659101  0.041313497            3 
 2874000   0.79948852   -5.1404177    1438.8104  0.041719159  0.041304504            6 
 2875000   0.78306289   -5.1249543    1443.5049  0.041840721  0.041295443            3 
 2876000   0.80417571   -5.1367286    1440.7764  0.041747113  0.041286437            6 
 2877000   0.76728959   -5.1514295    1437.5707  0.041639748  0.041277332            2 
 2878000    0.7882261   -5.1512999    1440.6683  0.041714973   0.04126826            9 
 2879000   0.79096527   -5.1221272      1437.91  0.041620644   0.04125925            4 
 2880000   0.78859869   -5.1768022    1435.8897  0.041547734  0.041250099            3 
 2881000    0.8002167   -5.1227091    1440.8537  0.041676897  0.041240947            5 
 2882000   0.79989524   -5.1346125    1432.6992  0.041426648  0.041231867            5 
 2883000   0.79609147   -5.1418239    1439.9631  0.041622242  0.041222597            6 
 2884000   0.78695305   -5.1522251    1438.3808  0.041562089  0.041213428            4 
 2885000   0.80871724   -5.1537977    1444.0251  0.041710719  0.041204419            3 
 2886000   0.78687535   -5.1561886    1437.8545   0.04151809  0.041195367            4 
 2887000   0.80260601   -5.1149063     1441.139  0.041598518  0.041186311            9 
 2888000   0.78299584   -5.1171847    1444.1177  0.041670062  0.041177326            5 
 2889000   0.78381234    -5.146484    1443.8791  0.041648757  0.041168202            3 
 2890000   0.78935145   -5.1421894    1441.5094  0.041566016  0.041159122            6 
 2891000    0.7928559   -5.1395721    1441.7222   0.04155777  0.041150104            6 
 2892000   0.78611638   -5.1500695     1441.675   0.04154204  0.041141088            2 
 2893000    0.7843284   -5.1237088    1440.7835  0.041502003  0.041131994            5 
 2894000   0.79331435   -5.1516424    1442.7242  0.041543544  0.041122928            9 
 2895000   0.80822083   -5.1478881    1442.4659  0.041521758  0.041113831            5 
 2896000   0.78682378   -5.1800746    1439.6201  0.041425532  0.041104697            9 
 2897000   0.77930483   -5.1627753    1440.4237  0.041434348   0.04109553            4 
 2898000   0.78967061    -5.154434    1441.1633  0.041441318  0.041086394            5 
 2899000   0.80143633   -5.1232113    1442.0531  0.041452601  0.041077222            3 
 2900000    0.7813448   -5.1342438    1440.0541  0.041380864  0.041068126            4 
 2901000   0.77817942   -5.1595143    1449.1101  0.041626741  0.041059061            4 
 2902000   0.78486148   -5.1577755    1442.5387  0.041423693  0.041049878            4 
 2903000   0.78002961   -5.1785538      1442.96  0.041421519   0.04104079            8 
 2904000   0.76874939   -5.1414001    1448.5161  0.041566693  0.041031726           11 
 2905000   0.77783154   -5.1449075    1443.3256  0.041403488  0.041022637            5 
 2906000   0.79587802   -5.1638367     1442.067  0.041353147  0.041013573            7 
 2907000   0.78452104   -5.1171132    1449.7286  0.041558553  0.041004567            6 
 2908000   0.77534762   -5.1455434    1444.2623  0.041387618  0.040995599            7 
 2909000   0.76309994   -5.1622413      1445.67  0.041413716  0.040986579            9 
 2910000   0.79751294   -5.1681771    1443.1056  0.041326049  0.040977628            6 
 2911000   0.79899216   -5.1442982    1449.0741  0.041482711  0.040968639            5 
 2912000   0.76904917   -5.1607992    1444.5651  0.041339432  0.040959603           10 
 2913000    0.7798143   -5.1520056    1443.7305  0.041301364  0.040950575            3 
 2914000   0.79396894   -5.1714596    1447.8885  0.041406099  0.040941692            4 
 2915000   0.80925121   -5.1818467    1443.1874  0.041257501  0.040932838            5 
 2916000   0.78537368   -5.1682691    1443.0891  0.041240544  0.040923827            2 
 2917000   0.79306106   -5.1498169    1449.6951  0.041415127  0.040914887            8 
 2918000   0.80544151   -5.1680042    1449.0898  0.041383647  0.040905934            4 
 2919000   0.77405757    -5.155521    1451.6243  0.041441827  0.040897016            4 
 2920000   0.79258946   -5.1310162    1453.1178  0.041470256  0.040888139            4 
 2921000   0.78378909   -5.1901302    1445.9127  0.041250506  0.040879221            7 
 2922000   0.78884984    -5.147115    1445.8532   0.04123469   0.04087031            6 
 2923000   0.79389699   -5.1791081     1448.489  0.041295729  0.040861334            4 
 2924000   0.75858194   -5.1657672    1448.7571  0.041289246  0.040852374            5 
 2925000   0.78563243    -5.135529    1450.9613   0.04133793  0.040843316            9 
 2926000   0.76945122   -5.1571997    1450.7901  0.041318925  0.040834301            7 
 2927000   0.80265553   -5.1515183    1451.1255  0.041314359  0.040825375            6 
 2928000   0.76968183   -5.1469331     1452.631  0.041343096  0.040816424            4 
 2929000   0.75733336    -5.166912     1447.359  0.041178985  0.040807466            6 
 2930000   0.77727862   -5.1611662    1450.7156  0.041260399  0.040798538            5 
 2931000   0.78543308   -5.1653568    1450.1964  0.041231558  0.040789581            6 
 2932000   0.78260573   -5.1931352    1450.9938  0.041240161  0.040780719            4 
 2933000   0.77635562   -5.1623688    1450.3371  0.041207443  0.040771804           10 
 2934000   0.78064438   -5.1673294     1447.645  0.041116935  0.040762759            5 
 2935000   0.77666258   -5.1451712    1456.2642  0.041347649  0.040753821            9 
 2936000   0.76860473   -5.1528845    1451.5536  0.041199865  0.040744917            3 
 2937000   0.78497108   -5.1751322    1449.4285  0.041125538  0.040735973            5 
 2938000    0.7789561   -5.1544976    1454.9981  0.041269517  0.040727061            7 
 2939000   0.77928021   -5.1411897      1454.14  0.041231143  0.040718117            5 
 2940000   0.78783732   -5.1740105    1451.8641  0.041152612  0.040709212           11 
 2941000   0.80835172   -5.1668935    1454.7146  0.041219386  0.040700235            6 
 2942000   0.76378978   -5.1330976    1453.5935  0.041173621  0.040691304            5 
 2943000   0.78076809   -5.1431776    1450.8735  0.041082611  0.040682381            8 
 2944000   0.78854844   -5.1730644    1450.2036  0.041049693  0.040673414            4 
 2945000   0.78614784   -5.1698593    1454.3788  0.041153899  0.040664437            5 
 2946000   0.78317682   -5.1423733    1450.3525  0.041026038  0.040655527            3 
 2947000   0.77611185   -5.1761639    1452.7679  0.041080418  0.040646606            8 
 2948000   0.77771077   -5.1748932    1456.9747    0.0411854  0.040637628            6 
 2949000   0.81066129    -5.164661    1455.1987  0.041121247  0.040628676            9 
 2950000   0.78279536   -5.1570555    1453.5488  0.041060701  0.040619759            4 
 2951000   0.78143246   -5.1373249    1457.4294   0.04115637  0.040610878            4 
 2952000   0.78524842    -5.186375    1452.2703  0.040996789  0.040601876            6 
 2953000   0.78686459   -5.1811071    1451.4809  0.040960631   0.04059279            5 
 2954000    0.7904065   -5.1789193    1450.9378  0.040931442  0.040583836            8 
 2955000   0.77523541   -5.1648705     1458.511  0.041131162  0.040574867            4 
 2956000   0.77795231   -5.1405804    1451.7143   0.04092564  0.040565849           13 
 2957000   0.76705626   -5.1586542    1453.6214  0.040965545    0.0405568            4 
 2958000   0.79401691   -5.1565466    1453.5069  0.040948471  0.040547848            8 
 2959000   0.77574888    -5.196558    1453.8822    0.0409452  0.040538768            7 
 2960000   0.77826445   -5.1549488    1454.4737  0.040948021  0.040529707           10 
 2961000   0.76753271   -5.1645756    1455.4331  0.040961191  0.040520722           10 
 2962000   0.77856424   -5.1556017    1453.9551  0.040905781  0.040511708            6 
 2963000   0.77292803   -5.1792836     1452.522   0.04085167  0.040502694            5 
 2964000   0.76829463    -5.182438    1450.5634  0.040782821  0.040493613            5 
 2965000   0.79322785   -5.1616841    1458.6409  0.040996089  0.040484627            7 
 2966000   0.78996915   -5.1667036     1453.475  0.040837126  0.040475621            4 
 2967000   0.79237225   -5.1541185    1457.9477  0.040948985  0.040466609            9 
 2968000   0.78771556    -5.163524    1456.7939  0.040902793  0.040457698            4 
 2969000    0.7644299   -5.1729195    1453.7116  0.040802502    0.0404487            6 
 2970000   0.78567912   -5.1591842    1460.0159  0.040965654  0.040439746            3 
 2971000   0.76835094   -5.1726999    1458.6991   0.04091493  0.040430801            4 
 2972000   0.78187294   -5.1889794    1456.0487  0.040826849  0.040421896            6 
 2973000   0.78693913   -5.1758483    1458.0375  0.040868862  0.040412985            5 
 2974000   0.76991751   -5.1888439    1456.3753  0.040808544  0.040404035            3 
 2975000   0.78787239    -5.164762    1457.5068  0.040826522  0.040395118            3 
 2976000   0.77017183   -5.1632967    1458.8057  0.040849174  0.040386245            5 
 2977000   0.78538027   -5.1896317    1460.5945  0.040885526  0.040377324           13 
 2978000   0.75416245   -5.1519732    1458.0258  0.040799916  0.040368425            7 
 2979000   0.77290663   -5.1549636    1461.4177  0.040881103  0.040359515            3 
 2980000   0.77904454   -5.1759206    1462.1788  0.040888669  0.040350583            4 
 2981000   0.75972154   -5.1937775    1457.4691  0.040743294  0.040341652           11 
 2982000   0.77642718   -5.1573102    1462.4718  0.040869434   0.04033275            8 
 2983000   0.77670517   -5.2117185    1460.9976   0.04081455  0.040323875            5 
 2984000   0.78078187   -5.1976338    1459.2063  0.040750847  0.040314912            7 
 2985000   0.77289334   -5.1767856    1460.0777   0.04076152  0.040305905            4 
 2986000   0.78058259   -5.1926587    1457.4737  0.040675197  0.040296948            6 
 2987000   0.77710717    -5.180988    1458.9146  0.040701779  0.040288007            6 
 2988000   0.77599027   -5.2021859    1457.2606  0.040642029  0.040279062            4 
 2989000   0.75821612   -5.1757171    1461.5986  0.040749376  0.040270146            3 
 2990000   0.78175721   -5.2033427    1461.7359  0.040739574  0.040261278            3 
 2991000   0.76756119   -5.1709982    1466.0232  0.040845404  0.040252502           11 
 2992000   0.76718953   -5.1773177    1461.0569  0.040693431  0.040243664            4 
 2993000   0.77195838   -5.1847529    1459.7796  0.040644269  0.040234805            4 
 2994000   0.78560187   -5.1874775    1459.5679  0.040624802  0.040226041            8 
 2995000   0.78492149   -5.1784872    1464.3183  0.040743413  0.040217174            9 
 2996000   0.75800844   -5.1534411     1467.927  0.040830191  0.040208393            6 
 2997000   0.76699905   -5.1827563    1462.6477  0.040669774  0.040199528            6 
 2998000   0.76578948   -5.1827288    1462.2445     0.040645   0.04019067            9 
 2999000   0.76926603   -5.1358785    1471.6848  0.040893764  0.040181903            6 
 3000000   0.76986393   -5.1668711    1469.5646  0.040821239  0.040173181           17 
 3001000    0.7671143   -5.1805568    1467.9269  0.040762159  0.040164405            7 
 3002000   0.76248254   -5.1719226     1464.136  0.040643348  0.040155734            4 
 3003000   0.76302253   -5.2059601    1464.5527  0.040641377  0.040146938            6 
 3004000   0.78009155   -5.1565399    1468.0692    0.0407254  0.040138056            5 
 3005000   0.77764612   -5.1927722    1465.2086  0.040632517  0.040129302            5 
 3006000   0.77422142   -5.2319667    1460.7765  0.040496132  0.040120472            9 
 3007000   0.77375291   -5.1892165    1467.3115   0.04066377  0.040111652            8 
 3008000   0.76323238   -5.1946069    1467.4938  0.040655302  0.040102753            9 
 3009000   0.77945416   -5.1854165    1465.2607  0.040579946  0.040093864            7 
 3010000   0.77684762   -5.1573731     1466.701  0.040606341  0.040085084            5 
 3011000   0.76810777   -5.1705767    1465.2515  0.040552738   0.04007631            6 
 3012000   0.77119203   -5.1883842    1464.4815  0.040517969    0.0400676            6 
 3013000   0.76226246   -5.2005532    1469.4284  0.040641344  0.040058782            4 
 3014000   0.76804351   -5.1691235    1468.8142  0.040610878  0.040050027           10 
 3015000   0.77051497   -5.1872351    1467.2505  0.040554189  0.040041278            7 
 3016000   0.75395678   -5.1999817    1466.9223  0.040531672  0.040032512            6 
 3017000   0.76197731    -5.177729    1470.3455   0.04061279  0.040023736           13 
 3018000   0.78325275   -5.1972439    1466.9697  0.040506122  0.040014927            9 
 3019000   0.75293569   -5.1943013    1470.5399  0.040591253  0.040006068            5 
 3020000   0.79779958   -5.2083027    1468.2714  0.040515215  0.039997188            5 
 3021000   0.77341018   -5.1767592    1470.1399  0.040553346  0.039988343            4 
 3022000   0.75480945   -5.1814274    1468.4291  0.040492751  0.039979478            6 
 3023000   0.76295516   -5.1908922    1470.5723  0.040538436   0.03997059            5 
 3024000   0.75668429   -5.1970494    1468.5246  0.040468602  0.039961725            5 
 3025000   0.77603639    -5.185446    1470.4842  0.040509206  0.039952897            3 
 3026000   0.76857186   -5.1893543    1467.8404  0.040423011  0.039944127            4 
 3027000   0.75796934   -5.2282314    1467.2907  0.040394525  0.039935351            4 
 3028000   0.76848864   -5.1776161     1470.805    0.0404779  0.039926521            3 
 3029000   0.77429736   -5.1908488    1471.2756  0.040477486  0.039917778            5 
 3030000   0.76426597   -5.2106109     1469.329  0.040410589  0.039908984            7 
 3031000   0.76362864   -5.1872966    1472.0783  0.040472844  0.039900142           11 
 3032000   0.77741644   -5.2033481    1467.7432  0.040340347  0.039891304            3 
 3033000   0.76554944   -5.1717108    1471.2666  0.040423853  0.039882513           12 
 3034000   0.77534093   -5.1727858    1475.9186  0.040538305  0.039873727            6 
 3035000   0.76279649   -5.1803879    1472.2754  0.040424914  0.039864965           10 
 3036000   0.74553907   -5.1797768    1473.9909  0.040458687  0.039856139            8 
 3037000   0.76010461   -5.1949393    1473.6102  0.040434919  0.039847279           10 
 3038000   0.76293816   -5.1998775    1470.8619  0.040346224  0.039838553           12 
 3039000   0.76947317   -5.1944269    1470.4811  0.040322505  0.039829759            8 
 3040000   0.77739249   -5.1894833    1467.0538   0.04021529  0.039821009            4 
 3041000   0.76691479   -5.2106417    1471.6494     0.040328  0.039812174            5 
 3042000   0.76056641   -5.1992394    1472.7156  0.040343953  0.039803341            5 
 3043000   0.76050286     -5.19752    1469.5956   0.04024525  0.039794605           11 
 3044000   0.76551715   -5.1967606    1468.0565  0.040189895  0.039785757            6 
 3045000   0.77120894   -5.1939695     1474.887   0.04036363  0.039776943           11 
 3046000   0.76338474   -5.2012686    1471.8738  0.040267941  0.039768133            7 
 3047000   0.76247255   -5.1746795    1474.2837  0.040320636  0.039759339            7 
 3048000   0.78030508   -5.2125163     1475.355  0.040336697  0.039750607            3 
 3049000   0.76052718   -5.2113462    1476.0992  0.040343806   0.03974178            7 
 3050000   0.75923401   -5.1998016    1475.7987  0.040322369  0.039732964            9 
 3051000   0.76705677   -5.1912744    1473.0546  0.040234202  0.039724217            7 
 3052000   0.75714159   -5.2101353    1474.6016  0.040263259    0.0397155            6 
 3053000   0.76525392   -5.2032381    1471.5773  0.040167521  0.039706675           11 
 3054000   0.74364983   -5.1836172    1478.3339  0.040338732  0.039697899           14 
 3055000   0.77106035   -5.1937636    1475.3945  0.040245348  0.039689154           19 
 3056000   0.76921348   -5.2152895    1473.4207  0.040178358  0.039680309            8 
 3057000   0.76112277   -5.2066903    1471.7646   0.04012007  0.039671486            6 
 3058000   0.76864924   -5.2213681    1473.9944  0.040167713  0.039662654           11 
 3059000   0.76691539   -5.2213419    1468.4858  0.040004517  0.039653766            4 
 3060000   0.76874298   -5.1998016    1473.9189  0.040139404  0.039644927            7 
 3061000   0.75362128   -5.1938075    1471.8442  0.040069808  0.039636084           19 
 3062000   0.74970671   -5.1951429    1473.6852  0.040106827  0.039627241            4 
 3063000   0.74552776   -5.2001403    1475.3838  0.040139943  0.039618407            9 
 3064000   0.74338756    -5.188299    1471.7471  0.040027935   0.03960949            7 
 3065000    0.7620109   -5.2046528    1475.6722  0.040121593  0.039600485            6 
 3066000   0.75388832   -5.2044422    1472.1755  0.040013467  0.039591547           14 
 3067000   0.76941713   -5.2043707    1469.2561  0.039921099  0.039582616           13 
 3068000    0.7617442   -5.1838912    1476.7961  0.040112888  0.039573711            8 
 3069000   0.76699282   -5.1975885    1471.9272  0.039967611  0.039564718            7 
 3070000   0.75436597   -5.1940201    1470.7727  0.039923255  0.039555786            5 
 3071000   0.75925479    -5.211756    1477.7096  0.040098491  0.039546856            7 
 3072000   0.76085377   -5.1885118    1475.3151  0.040020482  0.039537936            4 
 3073000    0.7731291   -5.2064372    1476.0092  0.040026283  0.039529082           14 
 3074000   0.77652111   -5.2039972    1469.0813  0.039825454  0.039520051           10 
 3075000    0.7706532   -5.2338442    1471.7193  0.039883993  0.039511032            8 
 3076000   0.75754659   -5.2171695    1477.7168  0.040033506  0.039501997           13 
 3077000   0.75724726    -5.210598    1471.9873  0.039865326  0.039492996            7 
 3078000   0.75337595   -5.2144921    1473.5432  0.039894499  0.039484002           11 
 3079000   0.76171693   -5.2391822    1470.8241   0.03980795  0.039475003           10 
 3080000   0.76004495   -5.2466381    1473.9826  0.039880482  0.039465911           10 
 3081000   0.74289155   -5.1978291    1474.7949  0.039889509  0.039457016            9 
 3082000   0.75204688    -5.197269    1475.8656  0.039905515  0.039448068            3 
 3083000   0.74371093   -5.2301956     1476.242  0.039902745  0.039439129            6 
 3084000   0.75812981   -5.2478055    1469.4383  0.039705963  0.039430145            5 
 3085000   0.78587202   -5.2213884    1481.0314  0.040006252  0.039421254            6 
 3086000   0.76635893   -5.2095571    1475.7399  0.039850396  0.039412413            8 
 3087000   0.75330976   -5.2024002    1476.6339  0.039861621  0.039403565            4 
 3088000   0.78381163   -5.2115144    1473.6499  0.039768185  0.039394715           11 
 3089000   0.77087217   -5.2230103    1474.7437  0.039784819  0.039385806           13 
 3090000   0.75806795   -5.2127118    1481.1823  0.039945585  0.039376923            5 
 3091000   0.77310421   -5.2065343     1480.451  0.039912947  0.039368112           12 
 3092000   0.75900203   -5.1964658    1476.9818  0.039806539  0.039359215            9 
 3093000   0.74810809   -5.2133797    1478.1819  0.039826003  0.039350294            4 
 3094000   0.76706538   -5.2451662     1475.378  0.039737611  0.039341424            8 
 3095000   0.74360198   -5.2253621    1477.7073  0.039787488   0.03933257           11 
 3096000   0.77721053   -5.2488907    1478.3009  0.039790614  0.039323633            5 
 3097000   0.76099641   -5.1802895    1477.6444  0.039760102  0.039314746            8 
 3098000   0.75724012    -5.210522    1478.5201  0.039770824  0.039305843           10 
 3099000   0.75032732   -5.2058141    1479.4459  0.039782884  0.039296984            8 
 3100000   0.74868675   -5.2285398    1478.1099  0.039734138  0.039288073            6 
 3101000   0.74644221   -5.2441528    1480.5571  0.039787087  0.039279246            5 
 3102000   0.75350578   -5.1923557    1478.2046  0.039711063  0.039270422            5 
 3103000   0.76049263   -5.2295726    1478.7626  0.039713251  0.039261634            9 
 3104000   0.75253852   -5.2373074    1485.3542  0.039877422  0.039252811           12 
 3105000   0.74636677    -5.221717    1480.1099  0.039723828  0.039243957            7 
 3106000   0.75030802   -5.2015361    1481.7116  0.039754013  0.039235171            3 
 3107000   0.75725348   -5.1962977    1485.0377  0.039830429  0.039226398            3 
 3108000   0.74725311   -5.2234799    1480.3801  0.039692731  0.039217636           14 
 3109000   0.76486991   -5.2537639    1480.7578  0.039690089  0.039208811            8 
 3110000   0.77008313   -5.2208331     1482.822  0.039732636  0.039200026           13 
 3111000   0.74747856   -5.2302526    1481.9842  0.039697422  0.039191243            9 
 3112000   0.74413168   -5.2211168    1484.7558  0.039758885  0.039182498            4 
 3113000   0.73685315   -5.2456357    1476.7541  0.039531912  0.039173657            4 
 3114000   0.74875996   -5.2242991    1482.0855  0.039661889  0.039164833            4 
 3115000   0.73683119   -5.2091657    1485.7593  0.039747441  0.039156063            8 
 3116000   0.75493398   -5.2209268    1486.3942  0.039751663  0.039147296            5 
 3117000   0.74728738   -5.2242898     1483.602   0.03966426   0.03913853           14 
 3118000    0.7563021   -5.2313565    1480.3409  0.039564381  0.039129731            7 
 3119000   0.74476039   -5.2712123    1478.4025  0.039499907  0.039120913            6 
 3120000   0.75012544   -5.2233397    1484.0536  0.039638183  0.039111991           10 
 3121000   0.75632268    -5.217061    1482.5302  0.039584808   0.03910324            5 
 3122000   0.75489933   -5.2303543    1482.8917  0.039581778  0.039094482            4 
 3123000   0.75402081   -5.1966431    1484.5035  0.039612112  0.039085723            8 
 3124000   0.74954686   -5.2287999    1484.8734  0.039609298  0.039076929            5 
 3125000   0.73509488   -5.2040393    1486.3979  0.039637279  0.039068064            4 
 3126000    0.7653107    -5.212098    1486.0872  0.039616314  0.039059276            8 
 3127000   0.75460882   -5.2102908    1484.1096  0.039550943  0.039050454           15 
 3128000   0.74969522   -5.2575221    1481.9407  0.039480518  0.039041657            9 
 3129000   0.75675126    -5.227909    1479.5247  0.039403557  0.039032727            5 
 3130000    0.7462843   -5.2328683    1485.5583  0.039551605  0.039023791           12 
 3131000   0.74626763   -5.2238842    1481.9546  0.039443058  0.039014956            7 
 3132000   0.73829357   -5.2423321     1484.363  0.039494544  0.039006129            8 
 3133000   0.75818471   -5.2323865    1486.4038  0.039536223  0.038997269            9 
 3134000   0.74687507   -5.2300707    1483.3824  0.039443267   0.03898841           11 
 3135000   0.75799916   -5.2067463    1485.4163   0.03948475  0.038979663            4 
 3136000   0.72791551   -5.2411888    1485.9209  0.039485567  0.038970905            4 
 3137000   0.73923944   -5.2252695    1488.0576  0.039529742  0.038962099           20 
 3138000   0.74966693   -5.2191041    1485.9228  0.039460451  0.038953257           10 
 3139000   0.72576612   -5.2286135    1484.9164  0.039421164  0.038944507           16 
 3140000     0.740987   -5.2228541    1485.7489  0.039430705  0.038935647            9 
 3141000    0.7414617   -5.2294674    1484.0372  0.039372737  0.038926776            9 
 3142000   0.73601359   -5.2279524    1485.1479  0.039389665  0.038917914           11 
 3143000   0.74115656   -5.2305571    1486.8624  0.039422591  0.038909058            3 
 3144000   0.75411798   -5.2276263    1487.3753  0.039423646  0.038900225            6 
 3145000   0.75917082   -5.2326874    1485.0467   0.03934941  0.038891355           11 
 3146000   0.73138346    -5.222045    1487.6954  0.039407062  0.038882556            8 
 3147000   0.75062093   -5.2385736    1486.9663  0.039375233   0.03887375            5 
 3148000   0.75221025   -5.2222703    1484.7881  0.039305065  0.038864992            6 
 3149000   0.74691358    -5.233136    1489.2263  0.039410032  0.038856208            9 
 3150000   0.75607501     -5.22273    1486.3424  0.039321229  0.038847415           10 
 3151000   0.74475501   -5.2566543    1484.4722  0.039259288  0.038838486           10 
 3152000   0.73592679   -5.2461882    1483.4169  0.039218933  0.038829643            6 
 3153000   0.74748347   -5.2157939    1486.7771  0.039295302   0.03882083            6 
 3154000   0.73554542   -5.2428161    1484.1899  0.039214486  0.038811907            8 
 3155000   0.74500703   -5.2554629    1486.9062  0.039273804  0.038802918            7 
 3156000   0.73850987   -5.2355361    1483.0983  0.039160812  0.038794017            5 
 3157000    0.7367252   -5.2618247    1486.0549  0.039226451  0.038785107            5 
 3158000   0.76573005   -5.2426058    1486.3231  0.039221108   0.03877618            9 
 3159000   0.74000239   -5.2220978    1485.2308  0.039179878  0.038767286            6 
 3160000   0.75664003   -5.2322149    1490.8386  0.039315363   0.03875842            8 
 3161000   0.74076941   -5.2390897    1486.8906  0.039198844  0.038749574            7 
 3162000   0.74652097   -5.2256402    1487.2894   0.03919696  0.038740701           13 
 3163000    0.7394722    -5.231026     1490.271  0.039263119  0.038731889           11 
 3164000   0.75457781   -5.2452818     1485.862  0.039134586  0.038723046            5 
 3165000   0.77245324   -5.2379704    1492.5585  0.039298539  0.038714268            3 
 3166000   0.72921308   -5.2405477     1487.535  0.039153901  0.038705455            7 
 3167000   0.75675375   -5.2353607    1489.9988  0.039206367  0.038696598            7 
 3168000   0.72350402   -5.2332952    1486.0911    0.0390912  0.038687746           10 
 3169000   0.74093752   -5.2536303    1484.7626  0.039043932  0.038678886            4 
 3170000   0.74515012   -5.2552804    1490.8082  0.039190543   0.03866998            5 
 3171000   0.76029327   -5.2579119    1490.9968  0.039183139  0.038661108           15 
 3172000      0.76034   -5.2487234     1488.258  0.039098834  0.038652255            7 
 3173000   0.72771593   -5.2586216    1489.9741  0.039131581   0.03864342            5 
 3174000   0.73629648   -5.2307619    1492.9598  0.039197642  0.038634568            5 
 3175000   0.73962433   -5.2379085    1490.8703  0.039130453  0.038625776            6 
 3176000   0.75922635   -5.2441338    1488.0841  0.039045029   0.03861695            6 
 3177000    0.7304551   -5.2274691    1492.5713  0.039150438  0.038608056            9 
 3178000   0.74447194   -5.2460838    1490.0847  0.039072915  0.038599196           11 
 3179000   0.74394964   -5.2385953    1490.5985  0.039074093  0.038590364            6 
 3180000   0.74335617   -5.2545576    1486.8682  0.038964052  0.038581495            8 
 3181000   0.72929529   -5.2621123    1486.5429  0.038943279  0.038572631           11 
 3182000   0.75456144   -5.2461383     1490.956  0.039046616  0.038563745            9 
 3183000   0.73135171   -5.2621031    1490.0263   0.03901001  0.038554915           15 
 3184000   0.73701926   -5.2466405    1489.1214  0.038974073  0.038546025            5 
 3185000   0.75235291   -5.2607494    1490.5104  0.038998179  0.038537087            6 
 3186000   0.73765594   -5.2573437    1493.0539  0.039052465  0.038528204            6 
 3187000   0.74065429   -5.2543039    1488.3735  0.038917831  0.038519308           10 
 3188000   0.74207117   -5.2705726    1490.2317  0.038954196  0.038510403            6 
 3189000   0.73357188   -5.2456983    1490.9389  0.038960461  0.038501531            5 
 3190000   0.73153712   -5.2428405    1492.4255  0.038987082  0.038492671            9 
 3191000   0.73490586    -5.235836    1489.9567  0.038910391  0.038483838            9 
 3192000   0.74278224   -5.2622015    1488.9502  0.038871926  0.038475015            4 
 3193000   0.75017704   -5.2490074    1493.6284  0.038981846  0.038466191            9 
 3194000   0.72860903   -5.2672253    1494.4419  0.038990867  0.038457348            7 
 3195000   0.75267357   -5.2429501    1493.5186   0.03895458  0.038448533            7 
 3196000   0.73651861    -5.232964    1495.0287  0.038981768  0.038439746            7 
 3197000   0.75024715   -5.2606954    1490.9476  0.038863194  0.038430843            4 
 3198000   0.74950705   -5.2705731    1489.7454  0.038819714  0.038421908           14 
 3199000   0.74165017   -5.2470026    1489.0587  0.038789693  0.038412981            9 
 3200000   0.73898598   -5.2575349    1492.7537  0.038873793  0.038404162            3 
 3201000   0.74194847   -5.2437854     1491.555  0.038830443   0.03839533            8 
 3202000   0.74408114   -5.2790144    1493.5489  0.038870209  0.038386483           18 
 3203000    0.7383342   -5.2388119    1494.5732  0.038884723  0.038377755            9 
 3204000   0.72491696    -5.226735    1496.9038  0.038933202  0.038369004            8 
 3205000   0.74025733   -5.2589871    1495.1785  0.038876196  0.038360213            8 
 3206000   0.72746674   -5.2546223    1500.5555  0.039003834  0.038351426           13 
 3207000   0.72585964   -5.2557242    1494.0972  0.038823854   0.03834259            6 
 3208000    0.7556453   -5.2253214    1489.5407   0.03869339  0.038333684            4 
 3209000   0.74905427   -5.2374697    1494.3812  0.038807032  0.038324863            9 
 3210000   0.76306766   -5.2561376    1496.0246  0.038837606  0.038315996           17 
 3211000    0.7359825    -5.247664    1495.6172  0.038814938  0.038307104            8 
 3212000   0.72557466    -5.288565    1491.6385  0.038699629  0.038298145            9 
 3213000   0.73921554   -5.2634202    1495.2438  0.038781092  0.038289261            6 
 3214000   0.74380358   -5.2802707    1491.3302  0.038667554  0.038280365            3 
 3215000   0.74335759     -5.23018    1496.8202  0.038797828  0.038271581            8 
 3216000   0.73469746   -5.2717711    1496.4216  0.038775435   0.03826273            6 
 3217000    0.7326435   -5.2499417    1494.8449  0.038722539  0.038253876            4 
 3218000   0.72330623   -5.2273244    1497.6995   0.03878443  0.038245112            4 
 3219000   0.74601666   -5.2436462    1496.8384  0.038750089  0.038236386            6 
 3220000   0.75641654   -5.2865935    1497.5171  0.038755618  0.038227604            5 
 3221000    0.7438111   -5.2676838    1495.5062  0.038691562  0.038218847            5 
 3222000   0.74155097    -5.274659    1497.3746  0.038727875  0.038209994            9 
 3223000   0.73191335   -5.2460816    1501.9865  0.038835104  0.038201313            6 
 3224000   0.73063553   -5.2167008    1502.9643  0.038848333  0.038192647           10 
 3225000   0.73448434   -5.2522248     1497.357  0.038691394  0.038183984            7 
 3226000   0.73910666   -5.2364339    1499.6104   0.03873761  0.038175315            6 
 3227000   0.73506216    -5.276275    1500.3973  0.038745928  0.038166616            9 
 3228000   0.74000051   -5.2546069    1498.3259  0.038680451  0.038157872            6 
 3229000   0.71869308   -5.2620204    1499.1411   0.03868951  0.038149178            3 
 3230000   0.73983293   -5.2586279    1500.4116  0.038710308   0.03814058            5 
 3231000   0.73950427   -5.2807161    1499.5009  0.038674841  0.038131945           14 
 3232000   0.73122868   -5.2727337    1500.9641  0.038700601  0.038123293            6 
 3233000   0.73781529   -5.2550369    1499.9654  0.038662887  0.038114629            6 
 3234000   0.73110728   -5.2565677    1503.3923  0.038739237  0.038105957            4 
 3235000   0.73191373   -5.2446059    1502.8477  0.038713233  0.038097257           12 
 3236000   0.73356876   -5.2709085    1502.0049  0.038679565  0.038088614           14 
 3237000    0.7439903   -5.2976546    1497.3155  0.038546894  0.038079901           10 
 3238000   0.73347069   -5.2873049     1500.934  0.038628113  0.038071181            7 
 3239000   0.73341435   -5.2835792    1498.9331  0.038564707  0.038062337            4 
 3240000   0.73066319   -5.2789627    1498.9682  0.038553708  0.038053452           10 
 3241000   0.73034987   -5.2953977    1497.8032  0.038511858  0.038044652            5 
 3242000    0.7381844   -5.2926574    1497.4156  0.038490016  0.038035839            7 
 3243000   0.73645444   -5.2826501    1501.9681   0.03859513  0.038027057           12 
 3244000   0.72583737   -5.2625574    1500.7142  0.038551023  0.038018349            4 
 3245000   0.73486941   -5.2733763    1494.8071  0.038387446  0.038009573            6 
 3246000   0.71653597   -5.2880213    1504.7938  0.038632003  0.038000823            5 
 3247000   0.73809861   -5.2768241    1500.0599  0.038498612  0.037992138            7 
 3248000   0.72525388   -5.2850136    1499.5647  0.038474053  0.037983361            6 
 3249000   0.73166476   -5.3009489    1499.7967  0.038468161  0.037974516            6 
 3250000   0.73586364   -5.2798083    1500.5474  0.038475575  0.037965742            7 
 3251000   0.73307538   -5.2644301    1499.2703  0.038431003  0.037957027            6 
 3252000   0.73806704   -5.2479768    1500.0345  0.038438769  0.037948381            7 
 3253000   0.73204184   -5.2882991    1500.6021  0.038441492  0.037939682            3 
 3254000   0.72122457   -5.2638308    1504.6889  0.038534339  0.037931039            4 
 3255000   0.72511677   -5.2619696    1507.6997  0.038599582  0.037922417           10 
 3256000   0.73649877    -5.254982    1501.0173    0.0384167  0.037913775            5 
 3257000   0.72317048   -5.2783667    1502.7978  0.038450461  0.037905157            8 
 3258000   0.72764094   -5.2840786    1503.5342  0.038457494  0.037896531           12 
 3259000   0.74140559   -5.2639268    1506.5047  0.038521652   0.03788794           10 
 3260000   0.72356429   -5.2856924    1498.1393  0.038295994  0.037879303           11 
 3261000   0.72411894   -5.2610722    1504.7222  0.038452475   0.03787067           13 
 3262000    0.7408546   -5.2831881    1507.8457  0.038520481  0.037862006           10 
 3263000     0.746813   -5.2789977    1502.3088  0.038367271  0.037853379           11 
 3264000   0.72987911   -5.2916557    1506.3498  0.038458686  0.037844692            5 
 3265000   0.72913996    -5.281383    1505.6327  0.038428603  0.037836099           10 
 3266000   0.72973464   -5.2653394    1506.3921  0.038436214  0.037827458            8 
 3267000   0.73561296   -5.2955424    1502.7924  0.038332629   0.03781877            4 
 3268000   0.73620782   -5.2756189    1503.5984  0.038341453  0.037810106            7 
 3269000   0.73094428   -5.2789222     1507.137  0.038419929  0.037801426            8 
 3270000   0.71478924   -5.2831572    1503.6272  0.038318736  0.037792769            9 
 3271000   0.74890122   -5.2738581    1508.0208  0.038418955  0.037784128            9 
 3272000   0.72955858   -5.2723783    1505.5436  0.038344121  0.037775565           11 
 3273000   0.72912523   -5.2727929    1505.7852  0.038338558  0.037766892            6 
 3274000   0.71663852   -5.2774398    1503.7677  0.038275496   0.03775824            4 
 3275000    0.7148379   -5.2632225    1506.4813  0.038332857  0.037749587           15 
 3276000   0.71095659     -5.30571    1504.5384  0.038271734  0.037740901            7 
 3277000   0.72718214    -5.263119    1508.7493  0.038367136  0.037732208            6 
 3278000   0.73574741    -5.280658    1505.6428   0.03827646  0.037723549            8 
 3279000   0.74634597     -5.26456    1506.7989  0.038294168  0.037714949            4 
 3280000   0.72455993   -5.2846429    1503.9438  0.038209955  0.037706301            8 
 3281000   0.74030676   -5.2856229    1503.7628   0.03819371  0.037697595            6 
 3282000   0.72063573   -5.2950254    1506.7938  0.038259035   0.03768896            9 
 3283000   0.71118048   -5.2940704     1506.814  0.038247893  0.037680355            7 
 3284000    0.7273778   -5.2882962    1508.1882  0.038271119  0.037671698           10 
 3285000   0.73430324   -5.2717369    1510.9725  0.038330098  0.037663112            5 
 3286000   0.70923432   -5.2971957    1504.1153  0.038144535  0.037654483           15 
 3287000   0.74102838   -5.3006322    1507.4288  0.038216936  0.037645941            4 
 3288000   0.70931637   -5.2959789    1502.6541  0.038084298  0.037637309            9 
 3289000   0.71810291   -5.3200185    1510.9457  0.038282805  0.037628684            9 
 3290000   0.71097595   -5.2679703    1508.1426  0.038200167  0.037620101           10 
 3291000   0.73474554   -5.2918978    1503.7811   0.03807812  0.037611462            7 
 3292000   0.73413998   -5.2958103     1508.151  0.038177172  0.037602877            6 
 3293000   0.71697555    -5.320457    1509.4365   0.03819811  0.037594203            8 
 3294000   0.73446995   -5.2805711    1510.9338  0.038224393  0.037585619            6 
 3295000   0.73399843   -5.2885462    1507.0968  0.038115752  0.037576969            6 
 3296000   0.72422242   -5.2796262    1509.2329  0.038158193  0.037568288            8 
 3297000   0.72941913    -5.298943    1505.6804  0.038056828  0.037559578            4 
 3298000   0.71675755   -5.2603056    1508.7633  0.038123188  0.037550937            4 
 3299000   0.72905692   -5.2880308    1507.9456  0.038090977   0.03754238            6 
 3300000   0.72856035   -5.2997643    1510.5134  0.038144277  0.037533743           30 
 3301000    0.7171024   -5.2860773    1508.9939  0.038094364  0.037525074            9 
 3302000   0.72458108   -5.2974206    1508.3451  0.038066451  0.037516329            9 
 3303000   0.72244939    -5.285219    1509.0281  0.038072159  0.037507741            8 
 3304000   0.72839819   -5.2805801    1508.9485  0.038058629  0.037499085            7 
 3305000   0.72062964   -5.2758641    1510.1742  0.038078019  0.037490464           20 
 3306000   0.70598714   -5.2812529    1507.1976  0.037991471   0.03748187            8 
 3307000   0.72157778   -5.3095054    1507.8843  0.037997286  0.037473222            9 
 3308000   0.72265206   -5.3139312    1509.0826  0.038015987  0.037464571            7 
 3309000   0.75382406   -5.2673664     1512.546  0.038091721  0.037455983            6 
 3310000   0.73594614   -5.2800918    1507.9767  0.037965174  0.037447435            6 
 3311000    0.7105857   -5.3030303    1506.5492  0.037917778  0.037438837            7 
 3312000   0.72675702   -5.2829935    1515.2814  0.038126041  0.037430179            6 
 3313000   0.71268869    -5.325649    1506.5617  0.037895203  0.037421547           13 
 3314000   0.73139515   -5.3005451    1511.0478  0.037996576  0.037412839            8 
 3315000   0.72397307   -5.2881602    1508.1511  0.037912296  0.037404212            4 
 3316000   0.72670243   -5.2965512    1511.8861  0.037994724  0.037395623            9 
 3317000   0.72149187   -5.3000192    1514.0066  0.038036544   0.03738702            5 
 3318000   0.71656635   -5.3116082    1511.0366  0.037950487  0.037378378           10 
 3319000   0.71941898   -5.2985964    1509.2886  0.037895165  0.037369692            6 
 3320000   0.72785383   -5.3066042    1509.5217    0.0378896  0.037361081            4 
 3321000   0.72933029   -5.2984864    1512.9978  0.037965418   0.03735259            5 
 3322000    0.7109829   -5.2874152    1517.6978  0.038071889  0.037344068            8 
 3323000   0.72955926   -5.3309228    1515.7821  0.038012392   0.03733551            4 
 3324000   0.71853051   -5.2806868    1516.2793  0.038013419  0.037326951            6 
 3325000    0.7267294   -5.3268465    1511.6887  0.037886934  0.037318486           14 
 3326000   0.72533567   -5.2929144    1509.0728  0.037810003   0.03730993            6 
 3327000   0.72337999   -5.2867192    1516.4343  0.037983026  0.037301408           11 
 3328000   0.71495176   -5.3038038    1515.2602  0.037942214  0.037292857            9 
 3329000   0.71937357   -5.3100125    1510.9704   0.03782343  0.037284283            4 
 3330000   0.72988431   -5.2831318    1514.8166  0.037908325    0.0372757            5 
 3331000   0.70455589   -5.2650626    1514.5808  0.037891043  0.037267103            8 
 3332000    0.7270065   -5.2999235    1516.8887  0.037937394   0.03725854            8 
 3333000   0.74159781   -5.3212964    1511.7535  0.037797618  0.037249985           11 
 3334000     0.725157   -5.2921505     1513.208  0.037822636  0.037241387            6 
 3335000   0.70118126   -5.2868725    1515.4609  0.037867588  0.037232834           22 
 3336000   0.71422415   -5.2726028    1517.7864  0.037914327  0.037224371           24 
 3337000   0.70573122   -5.2970138    1513.2989  0.037790903  0.037215835           23 
 3338000   0.72404069    -5.288963     1520.415  0.037957235  0.037207294            9 
 3339000   0.72300024   -5.3157934    1512.5316  0.037749116  0.037198751           11 
 3340000   0.72214468   -5.3207831    1512.3859  0.037734179  0.037190197           10 
 3341000   0.72226653   -5.2830371      1511.26  0.037694803  0.037181574            5 
 3342000   0.73206123   -5.3207742    1515.7056  0.037794375  0.037173027            7 
 3343000   0.71648065   -5.3348886    1511.3566  0.037674659  0.037164455            9 
 3344000   0.72134771    -5.314879    1511.3734  0.037663811  0.037155857            5 
 3345000   0.71657197   -5.2797808    1518.8223  0.037838125  0.037147248            6 
 3346000   0.71083348    -5.297792    1519.8158  0.037851558  0.037138693           10 
 3347000   0.72214598   -5.3144095    1512.4757  0.037657497  0.037130082            7 
 3348000   0.70581924   -5.3009278    1517.1846  0.037763457  0.037121498           11 
 3349000    0.7198052    -5.292577    1514.0038  0.037673031  0.037112872            8 
 3350000   0.71582783   -5.3363379    1514.6072  0.037676797  0.037104259            9 
 3351000   0.71343503   -5.3072456    1513.3802   0.03763504  0.037095696            7 
 3352000   0.70889327   -5.3288453    1517.3977  0.037723689  0.037087129            8 
 3353000   0.72193055   -5.3214503    1517.7762  0.037721847  0.037078576            8 
 3354000   0.71135454    -5.301906    1516.9092  0.037689059  0.037070044           10 
 3355000   0.73393654   -5.2817553    1515.7038  0.037647884   0.03706146            5 
 3356000   0.71837045   -5.2925041    1517.6845  0.037685848  0.037052858           11 
 3357000   0.71249698   -5.3095594    1517.3949  0.037667435  0.037044289            5 
 3358000   0.71971571   -5.2707038     1521.423  0.037756179  0.037035736            3 
 3359000   0.72114715   -5.2750703    1519.9868  0.037709308  0.037027269           12 
 3360000   0.72795492   -5.3175925     1514.407  0.037559697   0.03701875           24 
 3361000   0.71928151   -5.3209299    1519.7861  0.037681893  0.037010239           18 
 3362000     0.714452   -5.3188233     1517.307  0.037609236  0.037001752            9 
 3363000   0.72369084   -5.3234448    1518.6362  0.037630989  0.036993192            7 
 3364000   0.71513575   -5.3084779    1519.9079  0.037651305  0.036984649           22 
 3365000   0.71088209   -5.2874521    1518.9485  0.037616358  0.036976138           11 
 3366000   0.71994135   -5.2907355    1518.4099  0.037591848  0.036967637           13 
 3367000   0.70775938   -5.2805404    1520.2148  0.037625355  0.036959174           10 
 3368000   0.71346289   -5.3044246    1517.4936  0.037546854  0.036950583           14 
 3369000   0.71396822   -5.3089916    1522.4393  0.037658042  0.036942037            5 
 3370000   0.70142165   -5.3312281     1524.035  0.037686325  0.036933495            7 
 3371000   0.70040292   -5.3250152    1514.6905  0.037444143  0.036924937            8 
 3372000   0.72830162   -5.3233398    1518.1772  0.037519208  0.036916348            9 
 3373000    0.6979852   -5.3169097    1516.6924  0.037471399  0.036907701            5 
 3374000   0.72033309   -5.3464038    1520.4605  0.037553361  0.036899135           17 
 3375000   0.70862737   -5.3141697    1519.3231   0.03751415  0.036890571            6 
 3376000   0.71949904   -5.3152406    1519.5506  0.037508654  0.036882013           11 
 3377000   0.70533746   -5.3285343     1516.673  0.037426538  0.036873502           12 
 3378000   0.71638214   -5.3161965    1520.0641  0.037499114  0.036864955           13 
 3379000   0.70216177   -5.3253356    1520.1057  0.037489043  0.036856424            9 
 3380000   0.72786773   -5.3113673    1518.8698   0.03744748  0.036847949            4 
 3381000   0.72431125   -5.3052346    1519.7431   0.03745793  0.036839466            9 
 3382000    0.7073199   -5.3164169    1520.6994  0.037470417  0.036830942            9 
 3383000   0.71056033   -5.3180862    1520.7487  0.037460556  0.036822418            7 
 3384000   0.70792064   -5.2982101    1520.4441  0.037441984   0.03681397            9 
 3385000   0.70726162   -5.2784463    1524.2064  0.037523545  0.036805481            4 
 3386000    0.7132993   -5.3138042    1516.1861  0.037315074  0.036796963            8 
 3387000   0.71315265   -5.3141921    1523.0111   0.03747198  0.036788468            8 
 3388000    0.7056214   -5.3251134    1519.2648  0.037368773  0.036779974           10 
 3389000    0.6933193   -5.3085654    1520.5373  0.037389036  0.036771473           11 
 3390000   0.70355997   -5.2990826    1522.2565  0.037420269  0.036762945            8 
 3391000   0.70977916   -5.3059059    1521.6455  0.037394217  0.036754443           17 
 3392000    0.7273803   -5.3197486    1518.5781  0.037307834  0.036745924            9 
 3393000   0.71088067   -5.3151411    1521.8714  0.037377724  0.036737429            5 
 3394000   0.69793758   -5.3265284    1521.1681  0.037349443  0.036728955           10 
 3395000   0.70745621   -5.3315873    1523.5854  0.037397777  0.036720438            6 
 3396000   0.69753758   -5.3477938    1521.8832  0.037344993  0.036711869            8 
 3397000   0.70212288   -5.3306539    1519.9713  0.037287098  0.036703358            8 
 3398000   0.71841877   -5.3364188    1521.9358  0.037324304  0.036694831            5 
 3399000   0.71140707   -5.3336605    1521.0651  0.037291975  0.036686296           15 
 3400000   0.69009933   -5.3202426    1522.2189  0.037309287  0.036677744           11 
 3401000   0.71533532   -5.3182676    1523.0516  0.037318721  0.036669217            6 
 3402000   0.70266241   -5.3189899    1522.5059  0.037294384  0.036660708            7 
 3403000   0.71734491   -5.3251925    1523.1731  0.037299761  0.036652145            5 
 3404000   0.70147921   -5.3191519    1524.1401  0.037312479  0.036643562            7 
 3405000   0.71558883   -5.3355029    1522.1591  0.037253037  0.036635001            6 
 3406000   0.71465913    -5.288729    1525.9353  0.037334491  0.036626457            4 
 3407000   0.70589554   -5.3243775    1520.7884  0.037197643  0.036617954            5 
 3408000   0.69071141   -5.3500411    1520.1612   0.03717139  0.036609392           17 
 3409000   0.72697299   -5.3203686    1518.4159  0.037117822  0.036600797            5 
 3410000   0.70494046   -5.3348743    1523.5653   0.03723278  0.036592261           11 
 3411000   0.70182335   -5.3351926     1525.035  0.037257769  0.036583658           21 
 3412000   0.70001185   -5.3580213    1517.0631  0.037052147  0.036575072           13 
 3413000   0.70980782   -5.3368152    1524.9049  0.037232759  0.036566493            6 
 3414000   0.70474845   -5.3057503      1519.89  0.037099444  0.036557949            7 
 3415000   0.70875467   -5.3167368    1525.6404  0.037228902  0.036549453            6 
 3416000   0.70023854   -5.3159335     1520.112  0.037083139  0.036540895            4 
 3417000   0.69916852   -5.3156846    1526.1273  0.037218985  0.036532384            7 
 3418000   0.70635249   -5.3233081     1522.647  0.037123244  0.036523816            6 
 3419000   0.69457073   -5.3320071    1522.3055  0.037104063  0.036515234           10 
 3420000     0.693609   -5.3427925    1522.2444  0.037091725  0.036506562           10 
 3421000   0.71617042   -5.3370747    1525.0768  0.037149879  0.036497965            6 
 3422000   0.70852482    -5.313756     1519.093  0.036993303  0.036489347           21 
 3423000   0.71040372   -5.3265313    1521.4716  0.037040404  0.036480731            9 
 3424000   0.67583951   -5.3457896    1519.8188  0.036989358  0.036472052            8 
 3425000   0.69318902   -5.3485484     1519.572  0.036972554   0.03646332           16 
 3426000   0.71652561   -5.3228208     1523.344  0.037053512  0.036454642            6 
 3427000   0.71291611   -5.3066074    1522.9016  0.037031943  0.036446058            7 
 3428000    0.7073617   -5.3483754    1520.6619  0.036966693  0.036437389            9 
 3429000   0.70159953   -5.3236561    1521.0569  0.036965513  0.036428697            5 
 3430000   0.69568325   -5.3337688    1520.9016  0.036950962  0.036420034            7 
 3431000   0.70730607    -5.317994    1523.8279  0.037011266  0.036411352            6 
 3432000   0.70576968   -5.3431983    1522.5464  0.036969366   0.03640274            5 
 3433000   0.72122721   -5.3538818     1520.758  0.036915185  0.036394075            9 
 3434000   0.70597834    -5.329281       1520.3  0.036893322  0.036385373           10 
 3435000   0.70226859   -5.3505453    1521.2565  0.036905786  0.036376703           13 
 3436000   0.69682362   -5.3358769     1520.927  0.036887054  0.036368022           11 
 3437000   0.70015244    -5.320954    1520.8518  0.036874499  0.036359382            6 
 3438000   0.70706747   -5.3506287    1522.7563  0.036909937  0.036350745           15 
 3439000   0.70039728   -5.3254185    1521.8488  0.036877213  0.036342155            6 
 3440000   0.68117807    -5.328991    1526.7796   0.03698594  0.036333547            5 
 3441000   0.69454694   -5.3346807    1525.3917   0.03694158  0.036324946           24 
 3442000   0.69378679   -5.3443243    1518.9321  0.036774456  0.036316314           28 
 3443000   0.69653572   -5.3808155    1520.1665  0.036793652  0.036307621            8 
 3444000   0.70982376    -5.343179    1520.0952  0.036781244  0.036298917            7 
 3445000   0.69248721   -5.3497167    1526.2144  0.036918588  0.036290261            6 
 3446000   0.69650123   -5.3315865    1524.4435   0.03686505  0.036281637            5 
 3447000    0.7022077   -5.3353244     1520.832  0.036767043  0.036273005            6 
 3448000   0.70369272   -5.3428028    1523.2688  0.036815274  0.036264302            9 
 3449000   0.69482603   -5.3336302    1522.6999  0.036790854  0.036255614            9 
 3450000   0.70240205   -5.3334146    1526.7198   0.03687729  0.036246999           12 
 3451000   0.70428606   -5.3128117    1521.5014  0.036740592  0.036238402            8 
 3452000   0.69309502   -5.3291101    1525.0655  0.036815987  0.036229798           15 
 3453000   0.70207896   -5.3417468    1526.1441  0.036831357  0.036221138            6 
 3454000   0.69691377   -5.3377147    1525.7201  0.036810463  0.036212478           19 
 3455000   0.69689363   -5.3779655    1519.5002  0.036649787   0.03620384           10 
 3456000    0.6953457   -5.3486114    1521.1022  0.036677811  0.036195148           14 
 3457000   0.68866783   -5.3372271    1522.8629  0.036709645  0.036186507            7 
 3458000    0.6872501   -5.3765237    1521.9936  0.036678079  0.036177808           15 
 3459000   0.69102939   -5.3605785     1523.526  0.036704395  0.036169081            6 
 3460000   0.69696633   -5.3348276    1526.2805  0.036760128  0.036160387            9 
 3461000   0.69864142   -5.3599569    1521.1257  0.036625391  0.036151729            9 
 3462000   0.69186906   -5.3444395    1527.3087  0.036763642  0.036143035            6 
 3463000   0.69956953   -5.3319159    1523.4519  0.036660215  0.036134349            4 
 3464000   0.71511428   -5.3486683    1526.0464  0.036712047  0.036125713           10 
 3465000   0.69535013   -5.3434274    1523.5847  0.036642249  0.036117037            5 
 3466000   0.68612793   -5.3450451    1527.2709  0.036720306  0.036108341           10 
 3467000   0.69795956   -5.3512855    1523.2896  0.036614017  0.036099694            8 
 3468000   0.70786122    -5.384222    1523.4134  0.036606435  0.036091029           11 
 3469000   0.68748096   -5.3431281    1522.8308  0.036581888  0.036082327           11 
 3470000   0.70470141   -5.3419256     1525.726  0.036640873  0.036073645           14 
 3471000   0.68605424   -5.3559194    1522.0602  0.036542307  0.036065048            7 
 3472000   0.69428453   -5.3663283    1527.1719  0.036654471  0.036056391            7 
 3473000   0.69732037   -5.3325735    1526.0053  0.036615924  0.036047769           12 
 3474000   0.69125717   -5.3336233    1523.2264  0.036538726  0.036039137            8 
 3475000   0.68727478   -5.3371118    1526.1236  0.036597687  0.036030561            7 
 3476000   0.68778926   -5.3598189    1525.5867  0.036574289  0.036021939            9 
 3477000   0.69976757   -5.3392237    1525.7126  0.036566786  0.036013313            4 
 3478000   0.68565187   -5.3358325    1525.0915   0.03654139  0.036004685           12 
 3479000   0.68043344    -5.332426    1526.9898  0.036576358  0.035996027            9 
 3480000   0.68854148   -5.3650823    1528.0306  0.036590772  0.035987479            7 
 3481000   0.67948936   -5.3461145    1521.9463  0.036434604   0.03597883            8 
 3482000   0.70521438   -5.3569424    1521.0375   0.03640239  0.035970155            5 
 3483000   0.70058542   -5.3401768    1529.0453  0.036583531  0.035961487           11 
 3484000    0.7001391   -5.3590741    1527.1916  0.036528693  0.035952863           12 
 3485000   0.68462423   -5.3649335    1528.4901  0.036549262  0.035944258           13 
 3486000   0.71163795   -5.3476684     1527.759  0.036521298  0.035935634           11 
 3487000   0.68940359   -5.3480545    1525.6367  0.036460106  0.035926991           10 
 3488000   0.69213794   -5.3445644    1529.7291  0.036547428  0.035918414            9 
 3489000   0.69577075    -5.328694     1523.833  0.036396125  0.035909803            5 
 3490000   0.69796417   -5.3596099     1526.205  0.036442336  0.035901177           17 
 3491000   0.70671828   -5.3459148    1528.1663  0.036478714  0.035892528            7 
 3492000      0.69329   -5.3495983    1525.8024  0.036411855  0.035883912            9 
 3493000    0.6739924   -5.3953633    1522.8133   0.03633012  0.035875181            7 
 3494000   0.69590741   -5.3670952    1524.9105  0.036369742  0.035866473            7 
 3495000   0.69652808   -5.3630339    1524.9495  0.036360264  0.035857772           17 
 3496000   0.69328345   -5.3365081    1525.6224  0.036365903  0.035849028            6 
 3497000   0.68956318   -5.3719395    1522.0879  0.036271277   0.03584031            8 
 3498000   0.69258809   -5.3328543    1524.3162  0.036313993  0.035831613           15 
 3499000   0.68789196   -5.3791798    1524.9912  0.036319692  0.035822967            9 
 3500000   0.69056482   -5.3604008    1527.1939   0.03636176  0.035814253            6 
 3501000   0.68443358   -5.3564545    1528.6577  0.036386216  0.035805653            6 
 3502000   0.68586195   -5.3534135    1525.4262   0.03629893  0.035797048            9 
 3503000   0.68350552   -5.3578159    1528.8638  0.036370345  0.035788405            7 
 3504000   0.70478206   -5.3563672    1526.4681  0.036302989  0.035779733           11 
 3505000   0.69255701   -5.3603208    1530.6496  0.036392048  0.035771092            9 
 3506000   0.69298372   -5.3524848    1525.2683  0.036253764   0.03576242            8 
 3507000   0.68214114    -5.365333    1526.8345  0.036280642  0.035753775            7 
 3508000   0.69831202   -5.3513567    1528.6573  0.036313599  0.035745146            7 
 3509000   0.69159121   -5.3469496    1527.2972   0.03627095  0.035736523            9 
 3510000   0.70305927   -5.3737251    1529.1743  0.036305182   0.03572793            6 
 3511000   0.69730591   -5.3524495    1522.5936  0.036138651   0.03571929            8 
 3512000   0.69633556   -5.3549196    1528.4003  0.036266142  0.035710648           10 
 3513000   0.68819677   -5.3649918     1527.701   0.03623923  0.035702029            6 
 3514000   0.69827138   -5.3462319    1532.7793  0.036349348  0.035693456            7 
 3515000      0.68207   -5.3438487    1528.2928  0.036232642  0.035684856           20 
 3516000   0.69333533   -5.3561574    1527.8248  0.036211245  0.035676292            7 
 3517000   0.67572648   -5.3653898    1526.1642    0.0361616  0.035667665            6 
 3518000   0.68612317   -5.3499966    1528.7501  0.036212576  0.035659035            7 
 3519000    0.6793812   -5.3458615    1529.0872  0.036210267  0.035650481            6 
 3520000   0.70225442   -5.3313905    1528.7346  0.036191634  0.035641863            6 
 3521000   0.68720187   -5.3543533    1529.7182  0.036204635  0.035633238            7 
 3522000   0.69733736   -5.3604419    1533.0261  0.036272623  0.035624627            6 
 3523000   0.69151706   -5.3741439    1526.0722  0.036097839  0.035615983            7 
 3524000    0.6785263   -5.3507051    1533.2648  0.036257679  0.035607302            4 
 3525000   0.70352889   -5.3554207    1529.0671  0.036148159   0.03559873           11 
 3526000   0.67725289   -5.3620443    1529.6051  0.036150622  0.035590109            9 
 3527000   0.68678682   -5.3840403    1529.6252  0.036140848   0.03558142            7 
 3528000   0.68113414   -5.3545543    1530.4179  0.036149328  0.035572787           14 
 3529000    0.6815061   -5.3594983    1530.0427  0.036130223  0.035564161            7 
 3530000   0.68396944   -5.3702681      1526.92   0.03604627  0.035555547           11 
 3531000   0.67197622   -5.3639543    1531.1853  0.036136725  0.035546916            7 
 3532000   0.68669029    -5.361341    1529.0927  0.036077122  0.035538336            9 
 3533000   0.69556463   -5.3819361    1529.7632  0.036082725   0.03552982            5 
 3534000   0.69174965   -5.3567676    1529.7515  0.036072239  0.035521286            6 
 3535000   0.69323353   -5.3680398    1530.4052  0.036077445  0.035512666           17 
 3536000   0.68906408   -5.3530609    1529.5051  0.036046029  0.035504109            9 
 3537000   0.68429879   -5.3730244    1529.1063  0.036026442  0.035495534           11 
 3538000   0.68563908   -5.3955481    1524.6459    0.0359112  0.035486947           10 
 3539000   0.68772148   -5.3844887    1531.5044  0.036062551  0.035478374            9 
 3540000   0.69368123   -5.3795775    1531.7359  0.036057812  0.035469835           11 
 3541000   0.69040679   -5.3581972    1533.9122  0.036098847    0.0354613            9 
 3542000    0.7000526   -5.3602316    1532.8183  0.036062919  0.035452797           11 
 3543000   0.67442727    -5.370901     1533.452  0.036067644   0.03544431            8 
 3544000   0.68299346    -5.367306    1529.5553  0.035965842  0.035435775           15 
 3545000   0.66406468   -5.3730475    1533.8531  0.036056726  0.035427271            7 
 3546000   0.68682167   -5.3856649     1534.368  0.036058657  0.035418721           16 
 3547000   0.69131396    -5.354327    1534.7856  0.036058302  0.035410221           10 
 3548000   0.66874487   -5.3796452    1537.2654  0.036106383  0.035401736            3 
 3549000   0.68268631   -5.3644496    1534.7726  0.036037678  0.035393245            8 
 3550000   0.69122048   -5.3719023    1533.6073  0.036000171   0.03538472            4 
 3551000   0.67817939   -5.3742678    1534.0422  0.036000239  0.035376205           13 
 3552000   0.67966183   -5.3828612    1534.0458  0.035990188  0.035367763           19 
 3553000   0.69800405   -5.3790553    1533.3308   0.03596329  0.035359283           15 
 3554000   0.69116998   -5.3717433    1536.6939  0.036032027  0.035350822            8 
 3555000   0.69018578   -5.3567452    1537.8591  0.036049206  0.035342317            6 
 3556000   0.68780817   -5.3813677    1533.1552  0.035928834  0.035333806            9 
 3557000   0.68312462   -5.3692501    1533.7827  0.035933435  0.035325303           15 
 3558000   0.66579278   -5.3550256    1532.1311  0.035884651  0.035316745           10 
 3559000   0.68234574   -5.3880997    1533.9361  0.035916833   0.03530826            9 
 3560000   0.67638068   -5.3795274    1535.4282  0.035941672  0.035299741            5 
 3561000   0.68891062   -5.3729068    1533.3474  0.035882884  0.035291224           12 
 3562000   0.67613198   -5.3529902    1534.9666  0.035910691  0.035282753            7 
 3563000   0.68409227   -5.3793214    1532.5927   0.03584509  0.035274282            5 
 3564000   0.67911916   -5.3986824    1534.3225  0.035875479  0.035265793           23 
 3565000    0.6874126   -5.3870281     1533.394  0.035843712  0.035257284           10 
 3566000   0.66655797    -5.372402    1537.4062   0.03592742  0.035248817            4 
 3567000   0.68046536    -5.385854    1530.6744  0.035760079  0.035240324           10 
 3568000   0.68078042   -5.3924426    1536.1763  0.035878557  0.035231786            8 
 3569000   0.68004967   -5.4129419    1533.2783  0.035800837  0.035223273            9 
 3570000   0.67718218   -5.3926935    1535.5095  0.035842893  0.035214729            7 
 3571000   0.66545071   -5.3582224    1537.9625  0.035890099  0.035206198            5 
 3572000   0.69529705   -5.3755076    1535.4165  0.035820655  0.035197766           10 
 3573000   0.69044098   -5.3724597    1540.8686  0.035937788  0.035189298            7 
 3574000   0.68009814   -5.3693795     1538.268  0.035867095  0.035180864            8 
 3575000   0.68473309   -5.4104093    1535.0948  0.035783096  0.035172395            8 
 3576000   0.67710804   -5.3877509    1536.4634  0.035804981  0.035163904           11 
 3577000    0.6842909   -5.3851235    1535.3067  0.035768026  0.035155412            9 
 3578000   0.69823663   -5.4094122    1536.1189  0.035776944  0.035146955            9 
 3579000   0.66374611   -5.4035389    1535.8222   0.03576004  0.035138459            6 
 3580000   0.67106561   -5.3917819    1538.0214  0.035801242  0.035129996           23 
 3581000   0.67856317   -5.4131242    1533.0966   0.03567664  0.035121556           20 
 3582000   0.68402056   -5.3979269    1537.0243  0.035758056  0.035113049           13 
 3583000   0.67569052   -5.3978851    1536.6821  0.035740118  0.035104551           10 
 3584000   0.68970493   -5.3847424    1540.6082  0.035821432  0.035096099            5 
 3585000   0.67146898   -5.3972931    1540.8655  0.035817422  0.035087659           14 
 3586000   0.68828675   -5.3742755    1541.9719  0.035833145  0.035079175           11 
 3587000   0.69154105   -5.4048073    1538.6599   0.03574621  0.035070726           19 
 3588000   0.67986259   -5.4033197    1535.8877  0.035671861  0.035062244            8 
 3589000   0.66544719     -5.39777    1535.1406  0.035644575  0.035053754            9 
 3590000   0.68283282    -5.383948     1543.106  0.035819545  0.035045329            4 
 3591000   0.68815195   -5.3868105    1539.8034  0.035732929  0.035036875           13 
 3592000   0.67887636   -5.3953026    1538.4556  0.035691714  0.035028462           17 
 3593000   0.69490122   -5.3821059    1540.5038  0.035729285  0.035020026           22 
 3594000   0.67890067   -5.3991184    1534.2362  0.035574017  0.035011587           10 
 3595000   0.67333423   -5.3999646    1537.9908  0.035651154  0.035003111            9 
 3596000   0.68204409   -5.3879709    1537.1003  0.035620605  0.034994692            8 
 3597000   0.68376318    -5.407458    1535.4682   0.03557289  0.034986237            8 
 3598000   0.67294876   -5.3886718    1537.8829  0.035618929   0.03497774           20 
 3599000    0.6718566   -5.3713999    1541.7229  0.035697946  0.034969311           10 
 3600000   0.67993418   -5.3985852    1536.1782  0.035559679  0.034960868           16 
 3601000   0.65794136   -5.4019923    1533.9674  0.035498644  0.034952362           10 
 3602000   0.65427596   -5.4137514    1538.9362  0.035603743  0.034943855            6 
 3603000   0.67397311   -5.4071421    1538.7227  0.035588923  0.034935398            6 
 3604000   0.66527168   -5.4029112    1534.5157  0.035481773  0.034926935            7 
 3605000   0.68324662   -5.4159227    1537.2849  0.035535943  0.034918469            8 
 3606000   0.67247713     -5.36936    1541.2714  0.035618215  0.034910009           15 
 3607000   0.67313211   -5.3885027    1541.7155    0.0356186  0.034901569            7 
 3608000   0.68423296   -5.3949789    1536.1289  0.035479696  0.034893091            9 
 3609000   0.67939793    -5.387161    1537.5543  0.035502778   0.03488464            7 
 3610000   0.69096304   -5.4096822     1539.097  0.035528556  0.034876148            7 
 3611000   0.67218309   -5.3815371    1542.5825  0.035599154  0.034867677           11 
 3612000   0.67160857   -5.3902417    1540.0867  0.035531717  0.034859261           16 
 3613000   0.67508584   -5.4075662    1538.0172   0.03547415  0.034850833            9 
 3614000   0.67970681   -5.3898212    1536.2958  0.035424639  0.034842407            8 
 3615000   0.67808187    -5.396854    1539.8216  0.035496117  0.034834003           22 
 3616000   0.68089528   -5.3953523    1544.3172  0.035589906  0.034825593            5 
 3617000    0.6699236   -5.4100481     1534.298   0.03534923   0.03481719           13 
 3618000    0.6764867   -5.4156369     1541.471  0.035504675  0.034808768           15 
 3619000   0.67015772   -5.3871581    1542.8935  0.035527621  0.034800389           12 
 3620000   0.67106783   -5.4006037    1538.3456  0.035413113  0.034792003           13 
 3621000   0.66467614   -5.3811101    1539.9204  0.035439575  0.034783676           18 
 3622000   0.67796138   -5.4168569    1538.0304  0.035386305  0.034775321            7 
 3623000   0.66214374   -5.3930775    1538.5332  0.035388104  0.034766923            8 
 3624000    0.6572534   -5.4003311    1538.7162  0.035382546  0.034758586           19 
 3625000   0.66686388   -5.3845739    1542.5498  0.035460914  0.034750172            9 
 3626000   0.66044884   -5.4007508     1540.431  0.035402442  0.034741809           22 
 3627000   0.66684494   -5.3981773    1540.9573  0.035404771  0.034733476            7 
 3628000    0.6713766    -5.399972    1544.1107  0.035467446   0.03472513           10 
 3629000    0.6695686   -5.3661796    1544.1522  0.035458625  0.034716768            6 
 3630000   0.66142099   -5.3875495    1542.5929   0.03541306  0.034708474            8 
 3631000   0.68397365   -5.3964499    1540.9115  0.035364717  0.034700092            9 
 3632000   0.67615918   -5.4045394    1541.4059  0.035366326  0.034691681           18 
 3633000   0.65589905   -5.4104856    1543.0331  0.035393914  0.034683303           10 
 3634000   0.66718372   -5.3973811      1540.29  0.035321271   0.03467489           15 
 3635000   0.66635628   -5.4077284    1541.7991   0.03534615  0.034666499            6 
 3636000   0.69385151   -5.3825222    1543.5905  0.035377486  0.034658131            6 
 3637000   0.65493838   -5.3925735    1541.6466   0.03532322  0.034649713            7 
 3638000   0.68143599   -5.3990273    1538.7532  0.035247232  0.034641242            9 
 3639000   0.66184888   -5.4367647    1541.1888  0.035293322   0.03463277           18 
 3640000   0.66761813   -5.3870553    1542.7693   0.03531981  0.034624329           13 
 3641000    0.6633297   -5.3974303    1539.5767  0.035237039  0.034615886            7 
 3642000   0.66047074   -5.4063988    1540.5149  0.035248832  0.034607409           11 
 3643000   0.66815852   -5.4078456    1541.1424  0.035253509  0.034598927            8 
 3644000   0.67490512   -5.3978596    1539.3395  0.035202605  0.034590465            9 
 3645000    0.6827117   -5.3916159    1544.4215  0.035309133  0.034582032           11 
 3646000   0.66177588   -5.4064374    1539.6243  0.035189805  0.034573553           10 
 3647000    0.6512341   -5.4203077    1534.6199  0.035065804   0.03456504           22 
 3648000   0.66516583   -5.4271838    1536.6596  0.035102786  0.034556514           11 
 3649000   0.68167996   -5.4081643      1536.23  0.035083356  0.034548024           11 
 3650000   0.67489619   -5.4133386    1544.5104  0.035262795  0.034539534            9 
 3651000   0.65737988   -5.4027836    1544.5013  0.035252929  0.034531061            7 
 3652000   0.66453762   -5.4184878    1539.5193  0.035129594  0.034522583           11 
 3653000   0.66066816   -5.4014417    1539.3435  0.035115966  0.034514073            9 
 3654000   0.66888267   -5.4133728    1537.3563  0.035061036  0.034505625            5 
 3655000   0.68038424    -5.435875    1542.0074  0.035157487  0.034497174            7 
 3656000    0.6603499   -5.4375697    1539.7224  0.035095788  0.034488716            9 
 3657000   0.66293073   -5.4091496    1540.8054   0.03511087  0.034480297           10 
 3658000   0.65357076   -5.4050595    1541.3498  0.035113673  0.034471866            9 
 3659000   0.67000831   -5.4002188     1542.682  0.035134417  0.034463472           17 
 3660000   0.66813336   -5.4093626    1540.4184  0.035073279  0.034455068            6 
 3661000   0.67231347   -5.4290387     1540.893  0.035074501  0.034446684            8 
 3662000   0.65388924   -5.4247974    1537.4573   0.03498674  0.034438222           13 
 3663000   0.67059475   -5.4217426     1540.797  0.035053167  0.034429784           17 
 3664000   0.66678862   -5.4153583    1543.9808  0.035116013  0.034421381           17 
 3665000   0.65593088    -5.425024    1542.6419  0.035075986   0.03441301           14 
 3666000   0.66247875   -5.4265084    1542.6116  0.035065731  0.034404586           10 
 3667000   0.65416568   -5.3997429    1542.1984  0.035046777  0.034396238           15 
 3668000   0.66769573   -5.4275611    1540.4857  0.034998311  0.034387825            7 
 3669000   0.66111321   -5.4172331    1542.2906  0.035029767  0.034379404           23 
 3670000   0.67761974   -5.4294697    1542.3602  0.035021802  0.034370995            9 
 3671000   0.66654037    -5.416433    1544.3354  0.035057101  0.034362649            8 
 3672000    0.6585135   -5.4108913    1545.1732  0.035066567  0.034354369           11 
 3673000    0.6583046   -5.4017235    1543.3761  0.035016248  0.034346011           10 
 3674000   0.65318063   -5.4265883    1542.3379  0.034983168  0.034337667            9 
 3675000   0.65890256   -5.4140522    1548.2683  0.035108126  0.034329349           10 
 3676000    0.6617534   -5.4102406    1542.5394  0.034968702  0.034321042            9 
 3677000   0.67305431   -5.3973907     1543.348  0.034977517  0.034312663            8 
 3678000   0.64811268   -5.4111726    1544.7888  0.035000652  0.034304329           15 
 3679000   0.67483236   -5.4123579    1542.0342  0.034928744   0.03429599           10 
 3680000   0.67915122   -5.4362197    1541.8609  0.034915329  0.034287535           13 
 3681000    0.6673582   -5.4237252    1537.9025   0.03481623  0.034279108           16 
 3682000   0.66388874   -5.4052244    1543.2277  0.034927297  0.034270652           26 
 3683000   0.65472871   -5.4211762    1543.0257  0.034913244  0.034262281            9 
 3684000   0.67598385   -5.4199092    1541.1489  0.034861311  0.034253891            9 
 3685000    0.6681822   -5.4238059    1545.7837  0.034956665  0.034245505            8 
 3686000   0.66872119   -5.4342884    1541.3267  0.034846416  0.034237122           13 
 3687000   0.67107563   -5.4214204    1543.5746  0.034887771  0.034228748            6 
 3688000   0.66115392   -5.4096481    1545.6703  0.034925667  0.034220383            6 
 3689000   0.65627232    -5.402928    1545.5869  0.034914315  0.034212055            8 
 3690000   0.66079154   -5.4106145    1544.0383   0.03486988  0.034203688           10 
 3691000   0.65292102   -5.4586215    1541.1415   0.03479503  0.034195306            9 
 3692000   0.67365111   -5.4275532    1541.5082  0.034793883  0.034186936            9 
 3693000   0.66593155   -5.4085139    1544.5975  0.034854173  0.034178599            8 
 3694000   0.67399488   -5.4493605    1540.3742  0.034749463  0.034170254           23 
 3695000   0.64200518   -5.4284562    1542.2438  0.034782223  0.034161846            7 
 3696000   0.66750339   -5.4278339    1546.3859  0.034866205  0.034153482           14 
 3697000   0.65351478   -5.3790568    1551.7001  0.034976559  0.034145162            9 
 3698000   0.65772985   -5.3996204    1548.0807  0.034885539  0.034136892           10 
 3699000   0.67064354   -5.4101794    1546.9662     0.034851  0.034128604           20 
 3700000   0.66216182   -5.4223943    1543.3795  0.034760801   0.03412027           12 
 3701000   0.65936078   -5.4407676    1541.5177  0.034709486  0.034111939           10 
 3702000   0.65674298   -5.4173379    1548.6334  0.034860287  0.034103629           18 
 3703000    0.6612845   -5.4273413    1543.2201   0.03472905  0.034095322           29 
 3704000   0.66581805   -5.4632637    1546.4157  0.034791571  0.034086951           29 
 3705000   0.65249094   -5.4431435    1541.9393  0.034681495  0.034078572           24 
 3706000    0.6769634   -5.4613227    1543.2297  0.034701153  0.034070217           10 
 3707000   0.66751815    -5.396004    1546.1623  0.034757718  0.034061868           10 
 3708000   0.65773693   -5.4183246    1546.1363   0.03474776  0.034053559           11 
 3709000   0.65350393   -5.4337964    1551.8861  0.034867577  0.034045293           12 
 3710000    0.6457286   -5.4313721    1548.8523  0.034790035  0.034036978           11 
 3711000    0.6595526   -5.4115932    1550.3064  0.034813312  0.034028689           21 
 3712000   0.65097301   -5.4415292     1546.459   0.03471756  0.034020374           17 
 3713000   0.66684771   -5.4166914     1547.707   0.03473622  0.034012025           16 
 3714000   0.66123622   -5.4320231    1551.8013  0.034818734  0.034003674           10 
 3715000   0.66982272   -5.4424814    1545.8293    0.0346754  0.033995361           10 
 3716000   0.65519157   -5.4450499    1546.9061  0.034690217  0.033987023           14 
 3717000   0.65835506   -5.4373267    1543.0059  0.034593443  0.033978681            7 
 3718000    0.6533039   -5.4394461    1545.3233   0.03463608  0.033970309           13 
 3719000   0.64956844   -5.4402431    1544.7362  0.034613611  0.033961943            6 
 3720000    0.6665905   -5.4242074    1549.0977  0.034702009  0.033953587            6 
 3721000   0.66191089   -5.4411523    1544.9463  0.034599711  0.033945234           15 
 3722000   0.66254169   -5.4349193    1543.5992  0.034560255  0.033936874            6 
 3723000   0.65876433   -5.4331212    1546.4258  0.034614241  0.033928533           11 
 3724000   0.65401321   -5.4466374    1546.5636  0.034608028   0.03392014            6 
 3725000   0.66451841   -5.4373905    1548.2451  0.034636355  0.033911799           10 
 3726000     0.664911   -5.4365158    1548.7297  0.034637899  0.033903474            7 
 3727000   0.66648778   -5.4111851    1549.8922  0.034654597  0.033895158           11 
 3728000   0.66028207   -5.4438205    1544.9965  0.034535866  0.033886877            6 
 3729000   0.64764311   -5.4309744    1543.1759  0.034485918   0.03387851           13 
 3730000   0.64993382   -5.4646081    1546.5638  0.034552364  0.033870121           10 
 3731000   0.64994407   -5.4396227    1548.4665  0.034585601  0.033861772           17 
 3732000   0.66600919   -5.4501216    1546.2219  0.034526212    0.0338534           11 
 3733000   0.65452433   -5.4352828    1545.9335  0.034510525   0.03384508           17 
 3734000   0.65877382   -5.4203625    1547.4053   0.03453413  0.033836727            9 
 3735000    0.6356967    -5.418179    1546.8488  0.034512467  0.033828441            8 
 3736000   0.66046912   -5.4376837     1548.167  0.034532633  0.033820121            7 
 3737000   0.65665986   -5.4512155    1545.6335  0.034466897  0.033811768            7 
 3738000    0.6564917   -5.4517896    1548.4128  0.034519636  0.033803408           13 
 3739000     0.665716   -5.4220737    1547.8996  0.034498966  0.033795109           10 
 3740000    0.6593306   -5.4378093    1548.6145  0.034505671  0.033786794            9 
 3741000   0.65546739   -5.4238457    1547.8229  0.034478814  0.033778467           13 
 3742000    0.6678612   -5.4365932    1545.8539   0.03442575  0.033770164            8 
 3743000   0.65281462   -5.4575207    1542.2722   0.03433681  0.033761831           17 
 3744000   0.63751599   -5.4348059    1547.7668  0.034449938  0.033753465            6 
 3745000   0.63428552   -5.4580587    1545.6693  0.034394066  0.033745112           16 
 3746000   0.64888857   -5.4627821    1545.7929  0.034387633  0.033736779           14 
 3747000    0.6553282   -5.4671104    1550.2684  0.034477991  0.033728416           14 
 3748000   0.66387916    -5.481527    1548.1645  0.034422015  0.033720084            9 
 3749000   0.63685436   -5.4743733    1545.6591  0.034357141  0.033711747           21 
 3750000   0.65110494   -5.4496558    1549.0643  0.034423652  0.033703416            7 
 3751000   0.66232963   -5.4531941    1549.1429  0.034416221  0.033695084           14 
 3752000    0.6420526   -5.4573948    1547.4243  0.034368876  0.033686752           17 
 3753000   0.66548657   -5.4513963    1545.9767  0.034327575  0.033678441            8 
 3754000   0.63758098   -5.4514307    1548.8716  0.034382693  0.033670079           17 
 3755000   0.64557706   -5.4529807    1547.1986  0.034336409  0.033661747           12 
 3756000   0.65557584   -5.4163035    1551.1652  0.034415273  0.033653439            9 
 3757000   0.65286459    -5.451891    1548.9657  0.034357326   0.03364514            8 
 3758000   0.64933876   -5.4451294    1548.3616  0.034334788  0.033636798           19 
 3759000   0.65841153   -5.4307957    1549.5118  0.034351152  0.033628488            4 
 3760000   0.65442424   -5.4328793    1555.2952  0.034470196  0.033620239            8 
 3761000    0.6500572   -5.4557658    1546.6592  0.034269679  0.033611966           14 
 3762000   0.64592275   -5.4459663    1551.5462  0.034368825  0.033603657            8 
 3763000   0.65006073   -5.4665553    1544.4617  0.034202801   0.03359532            8 
 3764000   0.64566744   -5.4713195    1544.2659   0.03418938  0.033586935           10 
 3765000   0.64939217   -5.4679853    1546.4311  0.034228222  0.033578603           10 
 3766000     0.655793   -5.4491156     1548.405  0.034262812  0.033570233           14 
 3767000   0.65139749   -5.4674649    1546.5056  0.034211697  0.033561908           12 
 3768000   0.63540202   -5.4630029    1549.8905  0.034277478  0.033553561           18 
 3769000   0.63923023   -5.4446017    1545.7702  0.034177284  0.033545234           20 
 3770000   0.63282762   -5.4480039    1548.7924  0.034235022  0.033536866            9 
 3771000   0.65350872   -5.4454194    1546.2225  0.034169153  0.033528574           20 
 3772000   0.64263261   -5.4583578    1545.2475  0.034138553  0.033520239           16 
 3773000   0.65187186   -5.4559811    1544.3871  0.034110502   0.03351189           19 
 3774000   0.64333045   -5.4698934    1546.4721  0.034147504   0.03350352           13 
 3775000   0.66634482   -5.4909924    1543.6711  0.034076625  0.033495168           17 
 3776000   0.65476928   -5.4587571    1549.0277  0.034185817  0.033486837           13 
 3777000   0.64947417   -5.4811963     1546.084  0.034111817  0.033478516           27 
 3778000   0.63891761   -5.4847813     1552.663  0.034247906  0.033470174           14 
 3779000   0.62059407   -5.4414293    1548.0217  0.034136492   0.03346189           13 
 3780000   0.66790226   -5.4565449    1552.4243  0.034224521  0.033453625           22 
 3781000    0.6410493   -5.4559898    1548.3967  0.034126701  0.033445364           11 
 3782000   0.63857951    -5.457639    1549.2292  0.034136022  0.033437106            9 
 3783000   0.65049024   -5.4464476     1552.787   0.03420537  0.033428849            8 
 3784000   0.65646495   -5.4330864    1553.9797  0.034222598    0.0334206           21 
 3785000   0.64433865   -5.4453202    1550.5004  0.034136952   0.03341234           11 
 3786000   0.64722618   -5.4681687    1547.5722  0.034063485  0.033404039            7 
 3787000   0.64396687   -5.4684323    1554.7118  0.034211596  0.033395739           14 
 3788000   0.64499656   -5.4721429    1550.0499  0.034100006  0.033387383           10 
 3789000   0.63460341   -5.4757112    1546.7619  0.034018693   0.03337901           14 
 3790000   0.64828412   -5.4727161    1550.4648  0.034091136  0.033370669           10 
 3791000   0.63589916   -5.4741969    1549.9259  0.034070296  0.033362335           12 
 3792000   0.65898373   -5.4863184    1550.2273  0.034067935  0.033354006            8 
 3793000   0.65894758   -5.4804107     1548.084  0.034011864  0.033345635            8 
 3794000   0.63946523   -5.4940715    1547.1668  0.033982754  0.033337274            7 
 3795000   0.65693866   -5.4791154     1547.522  0.033981599  0.033328934           12 
 3796000   0.63762295   -5.4696677    1551.3499  0.034056681  0.033320653           11 
 3797000    0.6510976   -5.4538391    1549.7653  0.034012934  0.033312396            9 
 3798000   0.65656113   -5.4871063    1551.5511   0.03404316  0.033304146            7 
 3799000   0.64037806   -5.4691323    1549.3334  0.033985552  0.033295886           19 
 3800000   0.63199695   -5.4811066    1545.7907   0.03389892  0.033287576           24 
 3801000   0.64540369   -5.5043439    1544.9258  0.033871038  0.033279226            8 
 3802000   0.64393846   -5.4796092     1547.337   0.03391498  0.033270878           13 
 3803000   0.64712258   -5.4632998    1551.7711  0.034003224  0.033262567           21 
 3804000   0.64875347   -5.4799377    1552.3148  0.034006194  0.033254287           34 
 3805000   0.63556868   -5.4602277    1552.7558  0.034006916  0.033246025           10 
 3806000   0.65021111   -5.4522947    1550.5656  0.033950025  0.033237776            9 
 3807000   0.64289567   -5.4460211    1550.3042  0.033935386  0.033229527           12 
 3808000   0.64678921    -5.462593    1549.6289  0.033911697  0.033221288           10 
 3809000   0.62648371    -5.482681    1551.4224  0.033942032   0.03321301           30 
 3810000   0.63541688   -5.4863763    1550.1761  0.033905864  0.033204676           33 
 3811000   0.64419396   -5.4633216    1547.9738   0.03384881  0.033196372           14 
 3812000   0.64056623   -5.4557272    1552.4417  0.033937603  0.033188088            7 
 3813000    0.6397535   -5.4639379    1548.9196  0.033851728  0.033179809            9 
 3814000   0.63521831   -5.4878826    1550.8446  0.033884912   0.03317151           12 
 3815000   0.64846972   -5.4786247    1547.1722  0.033795811  0.033163222            7 
 3816000   0.65118057   -5.4523125    1552.8581  0.033911123  0.033154945           17 
 3817000   0.63609566   -5.4716265    1548.0094   0.03379638  0.033146624            9 
 3818000   0.64690901   -5.4698061    1547.3992   0.03377421  0.033138349            9 
 3819000   0.63722227   -5.4843653    1549.9282   0.03382055  0.033130038           24 
 3820000   0.63314095   -5.4889081    1551.4711  0.033845356  0.033121724            9 
 3821000   0.64503949   -5.4798901    1550.8078  0.033822032   0.03311344           22 
 3822000   0.63816877   -5.4728855    1555.1446  0.033907739  0.033105155            5 
 3823000   0.64203495   -5.4777612    1549.5931   0.03377786  0.033096851            5 
 3824000   0.63994668   -5.4949049    1552.5941  0.033834425  0.033088554            7 
 3825000   0.64065357   -5.4890091    1548.3644  0.033733429  0.033080237           15 
 3826000   0.64199712   -5.4977121    1550.4378  0.033769773  0.033071923            5 
 3827000   0.63819955   -5.4679407    1545.9689  0.033663638  0.033063631           17 
 3828000   0.64317847   -5.4858702    1548.5716  0.033711504  0.033055314           12 
 3829000   0.64088497   -5.4517024    1553.3117  0.033805862  0.033047016            9 
 3830000   0.63412749   -5.4610315    1552.1458  0.033771666  0.033038743           11 
 3831000   0.63436034   -5.4797965    1551.0094  0.033738133  0.033030418            9 
 3832000   0.63781263   -5.4777582    1548.2105   0.03366846  0.033022133           39 
 3833000   0.63061006   -5.4876635    1551.1412  0.033723393  0.033013856           11 
 3834000   0.63820402   -5.4752916    1551.5269  0.033722981  0.033005565           10 
 3835000   0.63068388   -5.4663096    1554.9161  0.033787834  0.032997309            6 
 3836000    0.6360571   -5.4916999     1554.662  0.033773504  0.032989022            8 
 3837000   0.63169565    -5.476912    1550.5286  0.033674932  0.032980711            8 
 3838000    0.6375491   -5.4784353    1550.7986  0.033672022  0.032972399           13 
 3839000   0.63789744   -5.5066153    1547.6045  0.033593916  0.032964117            8 
 3840000   0.63145433   -5.4709469    1557.7157  0.033804595  0.032955864            7 
 3841000   0.61804317   -5.4640636    1553.8247  0.033711375  0.032947615            6 
 3842000   0.64670739   -5.4812719    1550.0608  0.033620961  0.032939369           18 
 3843000   0.63631918   -5.4661598    1553.4056  0.033684744  0.032931144            8 
 3844000   0.64085069   -5.4950531    1554.0156  0.033689204  0.032922876            9 
 3845000   0.63921667    -5.479345    1549.3459  0.033579236  0.032914579           23 
 3846000   0.62999371    -5.474748    1557.5321   0.03374788  0.032906279           12 
 3847000   0.64772238   -5.4717281    1554.6276  0.033676188  0.032897995            5 
 3848000   0.64623916   -5.4965441    1550.2989  0.033573694  0.032889675            8 
 3849000   0.64077074   -5.4807468     1549.454   0.03354668  0.032881353            8 
 3850000   0.63077686    -5.480773    1552.9783  0.033614249  0.032873039            8 
 3851000   0.63208832   -5.4943902     1550.322  0.033548039  0.032864736           10 
 3852000   0.64372224   -5.5026029     1545.524  0.033435532  0.032856453           14 
 3853000    0.6310111    -5.482411    1550.9918  0.033545112  0.032848146            8 
 3854000    0.6316411   -5.4920336    1550.8201  0.033532696   0.03283984            6 
 3855000   0.64568809   -5.4908982    1549.7844  0.033501607  0.032831533           12 
 3856000   0.63441691   -5.4655001     1549.208  0.033480463  0.032823252           14 
 3857000   0.63878945   -5.4795778    1553.6269  0.033567257  0.032814952            8 
 3858000   0.64042071   -5.4914825    1546.5972  0.033406714  0.032806689           16 
 3859000   0.63103893   -5.5019777    1547.7655  0.033423286  0.032798414            6 
 3860000   0.64285651   -5.4777032    1551.0697  0.033485961   0.03279016           17 
 3861000   0.63885395   -5.4811983    1551.0992  0.033477924  0.032781868           11 
 3862000   0.63655777   -5.4944498    1552.8079  0.033506125  0.032773547           15 
 3863000   0.63342294   -5.4966799    1547.5463  0.033383949  0.032765234            9 
 3864000   0.62063778     -5.50371    1548.8641  0.033403729  0.032756905            6 
 3865000   0.63522314   -5.4936947    1552.5547  0.033474659  0.032748605           24 
 3866000   0.63223962   -5.4984437    1549.9081  0.033408951  0.032740331           20 
 3867000   0.63587821   -5.5016657    1550.9653  0.033423094  0.032732043           12 
 3868000   0.64024159   -5.4848396    1551.5226   0.03342646  0.032723764           11 
 3869000   0.64521107   -5.4958377    1553.3045    0.0334562  0.032715489            7 
 3870000   0.62078386   -5.4919753    1552.4874  0.033429961   0.03270719           13 
 3871000    0.6310343   -5.4737137     1554.297  0.033460281  0.032698925           12 
 3872000   0.63522158   -5.4714771    1552.2562  0.033407718  0.032690663           10 
 3873000   0.63269348   -5.4900412    1551.7516  0.033388235  0.032682385           17 
 3874000   0.63602129   -5.4868995    1552.5864  0.033397573  0.032674131           10 
 3875000   0.63561068   -5.4957254    1553.1033  0.033400071  0.032665818           17 
 3876000   0.64332076   -5.4685156     1550.147  0.033327894   0.03265756           12 
 3877000   0.62764362    -5.505857    1550.0897  0.033318065  0.032649262           23 
 3878000    0.6315488   -5.4910966    1552.3594  0.033358248  0.032640949           15 
 3879000   0.63654179   -5.4870405    1554.6549  0.033398962  0.032632652            7 
 3880000   0.62561002    -5.483649    1550.3204   0.03329726  0.032624375           10 
 3881000   0.64244579   -5.4915041    1551.4594  0.033313137  0.032616116           18 
 3882000    0.6327872   -5.4960668    1553.3153  0.033344394  0.032607834           12 
 3883000   0.62336938   -5.4859574     1551.575  0.033298458  0.032599573           18 
 3884000   0.62492275   -5.5010032    1550.1222  0.033258716  0.032591322           27 
 3885000   0.60870978   -5.5094541    1547.2277  0.033188068  0.032583035           15 
 3886000   0.62099377   -5.5152205    1555.3925  0.033354617  0.032574762           14 
 3887000   0.62011557   -5.4763972    1554.3345  0.033323354  0.032566528           12 
 3888000   0.63246541   -5.4949763    1555.5672  0.033341203  0.032558282           13 
 3889000   0.62329447    -5.509461    1553.6613   0.03329179   0.03255006           22 
 3890000   0.62758998    -5.506641    1557.9111  0.033374275   0.03254184           29 
 3891000    0.6247813   -5.5140523    1548.5081  0.033164313  0.032533582           12 
 3892000   0.65264855   -5.5038525    1548.2253  0.033149736  0.032525295           22 
 3893000   0.62231304   -5.4885194    1551.5675  0.033212764  0.032517024           12 
 3894000   0.63315952   -5.4940033    1550.2906  0.033176909  0.032508739           20 
 3895000   0.62037504   -5.5262821    1548.3607  0.033127102  0.032500455            9 
 3896000     0.624649   -5.4992392    1552.6845  0.033211082  0.032492158           14 
 3897000   0.62638472   -5.4997012    1556.8659  0.033291974  0.032483857           26 
 3898000   0.61582343   -5.5044146      1550.52  0.033147768  0.032475581           16 
 3899000   0.62061077   -5.4717369    1550.8541  0.033146408  0.032467293           14 
 3900000   0.63884175   -5.5053239    1553.2649   0.03318942  0.032459061           18 
 3901000    0.6217625    -5.502888    1553.1758   0.03317901  0.032450828            8 
 3902000   0.62586379      -5.4844    1557.7017  0.033267164  0.032442632            5 
 3903000   0.63883858    -5.482794    1555.7945  0.033217919  0.032434448            7 
 3904000    0.6280782      -5.5039    1551.1557  0.033110392  0.032426204            6 
 3905000   0.62342139   -5.4999949    1553.6502  0.033155147  0.032417924           10 
 3906000   0.63030509   -5.5431675    1549.2653  0.033053108  0.032409651           15 
 3907000   0.61959033      -5.5057     1549.814  0.033056352    0.0324014           19 
 3908000   0.62290291   -5.5036967    1553.0629  0.033117172  0.032393181           24 
 3909000   0.62985301   -5.4929451    1556.4187  0.033180239   0.03238498           19 
 3910000   0.62703712   -5.4784439    1554.8054   0.03313737  0.032376771           14 
 3911000     0.628969   -5.4812844    1554.8437  0.033129714  0.032368592           13 
 3912000   0.61890825   -5.4984701    1557.5833  0.033179602   0.03236038            8 
 3913000   0.62652388   -5.5080377    1554.4578  0.033104562  0.032352158            9 
 3914000   0.64131325    -5.527602    1552.0658  0.033045175   0.03234395           19 
 3915000    0.6288248   -5.5073479    1554.4061  0.033086549  0.032335763            8 
 3916000   0.64688153   -5.4872278     1556.969   0.03313264  0.032327568           12 
 3917000   0.61844102   -5.5211362    1553.8749  0.033058355   0.03231933           10 
 3918000   0.61907922   -5.5103271    1549.2696  0.032951966  0.032311079           11 
 3919000   0.62906806   -5.5090918    1555.7015  0.033080324  0.032302844           24 
 3920000   0.61005223   -5.5323929    1553.4439  0.033023893  0.032294657           17 
 3921000    0.6180916   -5.5006667     1555.779  0.033065098  0.032286433           15 
 3922000    0.6198053    -5.498545     1553.813  0.033014896  0.032278222           10 
 3923000   0.62745385   -5.5227922    1556.1691  0.033056529  0.032270033           17 
 3924000    0.6171931   -5.4990538    1555.2258   0.03302807  0.032261841            9 
 3925000   0.63560642    -5.486018    1554.7158  0.033008827  0.032253684           11 
 3926000   0.62804068   -5.5027078    1554.0859  0.032987051  0.032245531            7 
 3927000     0.625558   -5.5127724    1549.3939  0.032879082   0.03223734            9 
 3928000   0.61385094    -5.509589    1555.0232  0.032990138  0.032229127           10 
 3929000   0.63132785   -5.5147709    1551.9447  0.032916448   0.03222091           15 
 3930000    0.6329348   -5.5267475    1554.7995  0.032968607    0.0322127           11 
 3931000   0.61432743   -5.5093827    1552.3833  0.032908999  0.032204475           15 
 3932000   0.62198627   -5.5318396    1556.0806  0.032978989  0.032196258           19 
 3933000   0.62742162    -5.542787    1551.1229  0.032865559  0.032188061           22 
 3934000   0.62500361   -5.5218992    1552.5766  0.032887998   0.03217987           17 
 3935000   0.62258362   -5.4993428    1556.1387  0.032955077    0.0321717           38 
 3936000   0.61008568   -5.4963389    1554.9989  0.032922573  0.032163507            9 
 3937000    0.6145448    -5.494794    1554.2996  0.032899407  0.032155329           13 
 3938000    0.6108765    -5.503368    1552.9231  0.032861924  0.032147135            8 
 3939000   0.61267486   -5.5359687    1550.8154  0.032808991    0.0321389           10 
 3940000   0.63594171   -5.5118361    1551.5105  0.032815365  0.032130663           27 
 3941000   0.62076276   -5.5108826    1558.2175  0.032948861  0.032122462            7 
 3942000   0.62642395   -5.5287428     1554.584  0.032863691  0.032114258           11 
 3943000    0.6151224   -5.5291085    1554.0125  0.032843277  0.032106089           11 
 3944000   0.62782253   -5.5180814    1557.3766  0.032906031  0.032097942            8 
 3945000   0.62720244   -5.5270499    1558.9349  0.032930606  0.032089791           16 
 3946000   0.63349848   -5.4974245    1558.1424  0.032905525   0.03208163            9 
 3947000   0.63078808   -5.5246728    1553.2633  0.032794174  0.032073497            8 
 3948000   0.62198399   -5.5176761    1556.1589  0.032846987  0.032065308           10 
 3949000   0.61166401   -5.5060048    1557.4035  0.032864935  0.032057173           10 
 3950000   0.61244202   -5.4926485    1555.9552   0.03282606  0.032049053           10 
 3951000   0.62154866   -5.5263531    1557.4052  0.032848335  0.032040915           11 
 3952000   0.62320354   -5.5233449    1554.6161  0.032781209  0.032032764           30 
 3953000   0.60999234   -5.5269632     1556.411  0.032810756  0.032024599           40 
 3954000   0.63033137   -5.5074327    1556.7662  0.032809944  0.032016445           30 
 3955000   0.61306736   -5.5107148    1560.5509  0.032881392  0.032008309           30 
 3956000   0.61905028   -5.5024119    1556.5766  0.032789361  0.032000204           70 
 3957000   0.61854675   -5.5075913    1553.6297  0.032719015  0.031992061           18 
 3958000   0.62557989   -5.5188307    1557.3369    0.0327888  0.031983944           13 
 3959000   0.61639756    -5.515444    1557.1764   0.03277714  0.031975835           24 
 3960000   0.61781537   -5.5190795    1561.4793  0.032859412  0.031967756           11 
 3961000   0.62650187   -5.5325632    1555.7563  0.032730714   0.03195961           10 
 3962000   0.60526685   -5.5257911    1554.8246  0.032702856  0.031951447            9 
 3963000   0.61455302   -5.5278227    1554.5351  0.032688518  0.031943277           12 
 3964000   0.60996255   -5.5169912    1554.9609  0.032689221  0.031935134           10 
 3965000   0.62270577    -5.527011    1558.6355  0.032758206  0.031927008           27 
 3966000   0.61276833   -5.5340399    1558.0435  0.032737509  0.031918854           27 
 3967000   0.60460835   -5.5287834    1554.3834   0.03265237  0.031910735           26 
 3968000   0.62159453   -5.4957858    1557.4545  0.032708638  0.031902632            9 
 3969000   0.62569219   -5.5143063    1558.0351  0.032712587  0.031894524           15 
 3970000   0.61880115    -5.521866    1556.1951  0.032665724  0.031886441           13 
 3971000   0.61969543   -5.5311253    1557.3965  0.032682709  0.031878303           20 
 3972000   0.61152913   -5.5036686     1555.677  0.032638406  0.031870185           18 
 3973000   0.61090268   -5.5318905     1557.042  0.032658823  0.031862045            8 
 3974000   0.60642384   -5.5161487    1555.8783  0.032626202  0.031853863           14 
 3975000   0.62662083   -5.5129969    1557.4371  0.032650673  0.031845714            6 
 3976000   0.60138916   -5.5249142    1557.5684  0.032645213  0.031837634            8 
 3977000   0.61698165   -5.5310607     1556.082  0.032605858  0.031829503           10 
 3978000   0.61399183   -5.5252947    1558.6775  0.032652034  0.031821371           19 
 3979000   0.62017205   -5.5355165     1557.537  0.032619942   0.03181323           10 
 3980000   0.60492557   -5.5233977     1556.724  0.032594724  0.031805082            8 
 3981000   0.61976481   -5.5172468    1557.8844  0.032610826  0.031796941           25 
 3982000   0.61971724   -5.5553144     1553.627   0.03251354  0.031788783           22 
 3983000   0.60882414   -5.5314612    1555.3021  0.032540423   0.03178062           10 
 3984000   0.61432828   -5.5280896    1557.9496  0.032587633  0.031772477           20 
 3985000   0.61292723   -5.5348271    1552.9873  0.032475686  0.031764306           25 
 3986000   0.61012862   -5.5384431    1555.7956  0.032526251  0.031756136           14 
 3987000   0.61241374   -5.5269561    1554.1606  0.032483918  0.031747988           11 
 3988000   0.63823798   -5.5279572    1557.9553  0.032555068  0.031739845           11 
 3989000   0.60296492    -5.550622    1555.1868   0.03248907  0.031731714           43 
 3990000   0.61159704   -5.5479559    1556.4707  0.032507742  0.031723559           18 
 3991000   0.62485071   -5.5390349     1558.333  0.032538482  0.031715461           23 
 3992000   0.61077106    -5.515268    1558.2536  0.032528673  0.031707375           12 
 3993000   0.61161471   -5.5642891     1554.479  0.032441751  0.031699233           14 
 3994000   0.61282394    -5.544295    1558.8394  0.032524609  0.031691117           22 
 3995000   0.61857334   -5.5472305    1555.7311  0.032451628  0.031682997           17 
 3996000   0.62143411   -5.5605978    1555.2305  0.032433069  0.031674866           15 
 3997000    0.6046526   -5.5416764     1557.293  0.032467954  0.031666729            6 
 3998000    0.6248685   -5.5277828    1554.2768  0.032396966  0.031658593           42 
 3999000   0.61428895   -5.5555466    1556.5332  0.032435884  0.031650428           23 
 4000000   0.60598278   -5.5326194    1556.8457  0.032434285  0.031642311           17 
 4001000   0.60118093    -5.535646     1559.466  0.032480754  0.031634188           12 
 4002000   0.61263812   -5.5497335    1561.5913  0.032516894  0.031626108           17 
 4003000   0.61145794     -5.53817    1562.4314   0.03252626   0.03161799           28 
 4004000    0.6048537   -5.5374563    1558.5155  0.032436636  0.031609888           10 
 4005000   0.61905505   -5.5686884    1558.9413  0.032437397  0.031601771            7 
 4006000   0.61137219   -5.5374424    1556.0426  0.032369001  0.031593655           20 
 4007000   0.61113044   -5.5292335     1561.443  0.032473235  0.031585563           19 
 4008000   0.62091406   -5.5020987    1558.9088  0.032412442  0.031577492            8 
 4009000    0.5995495   -5.5267013    1559.0842  0.032408004  0.031569458           11 
 4010000   0.60743658   -5.5448182    1559.7222   0.03241318  0.031561383           15 
 4011000   0.60884707   -5.5353207    1555.0275   0.03230756  0.031553286           15 
 4012000   0.59707672   -5.5354584    1555.8261  0.032316095  0.031545214           32 
 4013000   0.61997898     -5.53435    1556.3228  0.032318356  0.031537139            9 
 4014000   0.60791635   -5.5518274    1555.1714  0.032286402  0.031529014           16 
 4015000   0.60296568   -5.5380975    1555.6216  0.032287705  0.031520922           11 
 4016000   0.62189008   -5.5409787    1557.8165   0.03232521  0.031512812           14 
 4017000   0.61538687   -5.5282994    1558.6911  0.032335306  0.031504709           19 
 4018000   0.62179737   -5.5531535    1557.0177  0.032292552  0.031496632            9 
 4019000   0.61022836   -5.5480501    1553.0523  0.032202296  0.031488518           12 
 4020000   0.61070967   -5.5235337    1559.4458  0.032326821  0.031480377           14 
 4021000   0.61313983   -5.5473218    1558.7911  0.032305213  0.031472286           15 
 4022000   0.60460654   -5.5569642    1554.0639  0.032199235  0.031464179           14 
 4023000   0.59585157   -5.5452942    1555.9412  0.032230118   0.03145604           12 
 4024000   0.60510104   -5.5480918     1555.395  0.032210797  0.031447925           22 
 4025000   0.60349741   -5.5363051    1563.3546  0.032367591  0.031439837           11 
 4026000   0.60822706   -5.5467835     1554.947  0.032185523  0.031431737           13 
 4027000   0.60604286   -5.5504236    1559.8327  0.032278633  0.031423662           26 
 4028000   0.62540433   -5.5508391    1555.5988  0.032183027  0.031415549           21 
 4029000   0.61361701   -5.5603566    1557.2364   0.03220891  0.031407428           20 
 4030000   0.60335274   -5.5547228    1555.5036  0.032165087  0.031399302           14 
 4031000   0.61884864   -5.5534768    1556.0217  0.032167819  0.031391214           18 
 4032000   0.60145254    -5.533173    1559.7472  0.032236839  0.031383123           13 
 4033000   0.61218071   -5.5707038    1554.9746  0.032130229  0.031375009           12 
 4034000   0.60399843   -5.5463641    1558.8126   0.03220155  0.031366896           19 
 4035000   0.61293057   -5.5695601    1554.9063  0.032112893  0.031358798           20 
 4036000   0.59583189    -5.587104    1553.7976  0.032082044  0.031350672           27 
 4037000   0.61619428   -5.5661679    1553.0998  0.032059695  0.031342541           14 
 4038000   0.60634635   -5.5622473    1557.4972  0.032142505  0.031334399           21 
 4039000   0.60530758   -5.5580688    1556.2495  0.032108803  0.031326281           11 
 4040000   0.60240692   -5.5701448     1552.616  0.032025907  0.031318133           15 
 4041000   0.60671753   -5.5610295     1553.369   0.03203351  0.031310026           10 
 4042000   0.59403047   -5.5687399    1557.0016  0.032100479  0.031301937           10 
 4043000   0.59993353   -5.5376142    1559.6287  0.032146689   0.03129385           14 
 4044000   0.60638808   -5.5520783    1554.9433  0.032042187  0.031285771           16 
 4045000    0.6016872   -5.5494327     1553.449  0.032003482  0.031277718            9 
 4046000   0.59729589   -5.5356764    1557.5283  0.032079592  0.031269658            9 
 4047000   0.61222577   -5.5531994    1558.0843  0.032083113  0.031261588           18 
 4048000    0.6115135    -5.559981    1556.0003  0.032032285  0.031253523           15 
 4049000   0.60877235   -5.5543321    1559.2758  0.032091789  0.031245428           25 
 4050000   0.60812963   -5.5595767    1560.0199  0.032099175  0.031237334           14 
 4051000   0.60382317   -5.5551858    1554.5643  0.031979024  0.031229244           24 
 4052000    0.6049932   -5.5522441     1555.423  0.031988792  0.031221153           22 
 4053000   0.60694401   -5.5455165     1559.254  0.032059669  0.031213093           10 
 4054000   0.60119016   -5.5367281    1563.5853  0.032140793  0.031205099           10 
 4055000   0.60450462   -5.5537005    1559.5504  0.032049946  0.031197091            7 
 4056000   0.59800209   -5.5775711    1561.3455  0.032078926  0.031189043           14 
 4057000   0.60413711   -5.5683177    1555.3637  0.031948149  0.031180946           21 
 4058000   0.60552046   -5.5449163    1560.6509  0.032048851  0.031172874           14 
 4059000   0.60718795   -5.5618376    1558.5962  0.031998772  0.031164836           60 
 4060000   0.60110881   -5.5718038    1558.7992  0.031995058  0.031156787           22 
 4061000   0.60651091   -5.5686435     1556.781  0.031945764  0.031148737           17 
 4062000   0.59432544    -5.563149     1556.284  0.031927704  0.031140684           10 
 4063000   0.58969677   -5.5408225    1555.7983  0.031909885  0.031132629            7 
 4064000   0.60693886   -5.5605724    1559.0933  0.031969596  0.031124582           30 
 4065000   0.61560371   -5.5719743    1555.9532  0.031897359  0.031116503           26 
 4066000   0.60708276   -5.5566934    1558.0405  0.031932295  0.031108441           20 
 4067000   0.59000962   -5.5829112    1555.8634  0.031879835  0.031100381           28 
 4068000   0.59308053   -5.5756215    1553.9679  0.031833167  0.031092281           26 
 4069000   0.58411056   -5.5374065    1558.2116  0.031912256  0.031084208           22 
 4070000    0.6023226   -5.5747661    1552.9776  0.031797247  0.031076148           17 
 4071000   0.61019106   -5.5810234    1554.5708  0.031822051  0.031068087           12 
 4072000   0.59522811   -5.5634214    1557.1477  0.031866971  0.031060045           13 
 4073000   0.60144683   -5.5330104    1560.3778  0.031925235   0.03105202           17 
 4074000    0.6053542   -5.5766336    1559.7583  0.031904728  0.031044025           10 
 4075000   0.60058561   -5.5727111    1556.4968  0.031830201  0.031035984            7 
 4076000   0.60376387   -5.5872979     1556.217  0.031816671  0.031027921           13 
 4077000    0.5987853    -5.562796    1558.1105  0.031847569  0.031019897           15 
 4078000     0.596431   -5.5738261    1556.1301  0.031799291  0.031011915           26 
 4079000   0.60450607   -5.5580744    1559.4661   0.03185965  0.031003903           28 
 4080000   0.59069401   -5.5693956    1556.4589  0.031790418  0.030995923           16 
 4081000   0.59357609   -5.5703044    1559.3263   0.03184118  0.030987902           34 
 4082000   0.60462785   -5.5417336    1558.6864  0.031820316  0.030979874           19 
 4083000   0.59789132   -5.5631691    1559.5267  0.031829675   0.03097185            9 
 4084000   0.59188186   -5.5697199    1555.9339  0.031748571  0.030963813           19 
 4085000   0.59454924   -5.5668519     1558.326  0.031789596  0.030955799           17 
 4086000   0.58661608   -5.5682878    1556.8081  0.031750859  0.030947758           19 
 4087000   0.60429891   -5.5715802     1558.589  0.031779401  0.030939721           12 
 4088000    0.5900324   -5.5681465    1557.2246  0.031743816  0.030931711           12 
 4089000   0.60471587   -5.5645404    1560.6245  0.031805343  0.030923712           20 
 4090000    0.5969805   -5.5532603    1559.8965  0.031782732  0.030915733           23 
 4091000   0.58716609   -5.5644585    1559.5296  0.031767489  0.030907721            4 
 4092000   0.60131274   -5.5548395    1557.1963  0.031712209  0.030899724            7 
 4093000   0.60247961   -5.5874531    1561.3634  0.031789303  0.030891733           12 
 4094000   0.59858691   -5.5658502    1559.3474  0.031740502  0.030883724           14 
 4095000    0.6013118   -5.5671122    1561.6408  0.031779423  0.030875783            9 
 4096000   0.59441494   -5.5536092     1559.419  0.031726461  0.030867826           17 
 4097000   0.59339411   -5.5621567    1558.7186  0.031704471  0.030859859           15 
 4098000   0.59400264   -5.5381746     1562.284  0.031769238   0.03085188           16 
 4099000   0.59691373   -5.5653962    1556.0387  0.031634519  0.030843881           24 
 4100000   0.57478388   -5.5789538    1557.9884  0.031666431  0.030835865           19 
 4101000    0.6097827   -5.5509989    1562.3671  0.031747685  0.030827862           13 
 4102000   0.58891849    -5.574571    1559.5894  0.031683517   0.03081989           38 
 4103000    0.5827043   -5.5812913    1559.5382  0.031674755  0.030811891           21 
 4104000   0.60045834    -5.591883    1554.1664  0.031557959  0.030803856           16 
 4105000   0.59917355   -5.5875334    1554.7682  0.031562488  0.030795807           17 
 4106000   0.58833465   -5.5956811     1553.578  0.031530646  0.030787778           13 
 4107000   0.59231152   -5.5844552    1559.8368  0.031649963  0.030779728            9 
 4108000   0.59704332   -5.5868405    1560.3713  0.031653101  0.030771744            8 
 4109000   0.60540178   -5.5797851    1556.6144  0.031569206  0.030763759           22 
 4110000   0.58769872   -5.5863384    1558.8113  0.031606069  0.030755754           24 
 4111000   0.57848563   -5.5526623    1561.1652  0.031646096   0.03074775           31 
 4112000   0.58851863   -5.5818678    1562.3512  0.031662436  0.030739776            7 
 4113000     0.595949   -5.5937985    1554.9474   0.03150473  0.030731762           13 
 4114000   0.58923884   -5.5914211    1557.3927  0.031546602  0.030723769           12 
 4115000   0.59614714   -5.5753938    1556.2458   0.03151571  0.030715759           12 
 4116000   0.60679281   -5.5799622    1556.3544  0.031510253  0.030707713           13 
 4117000   0.58935042   -5.5702857    1560.6966   0.03159049  0.030699693           25 
 4118000   0.58740401   -5.5728292    1559.8388  0.031565461   0.03069167           13 
 4119000   0.59549046   -5.5710059     1555.387  0.031467732  0.030683683           26 
 4120000   0.58737091    -5.602585    1557.9556  0.031512048  0.030675678           20 
 4121000   0.58664575   -5.5991347    1560.2044  0.031549874  0.030667643           10 
 4122000   0.59210496   -5.5857003     1556.322  0.031463731  0.030659623           13 
 4123000   0.58412545   -5.6017097    1558.8382  0.031506956  0.030651599           18 
 4124000   0.60533429   -5.5893271    1557.1499  0.031465203  0.030643575           24 
 4125000     0.584096   -5.5930812    1552.5543  0.031364734  0.030635556           25 
 4126000   0.58802646   -5.6105215    1556.6018   0.03143888  0.030627548           22 
 4127000   0.58438965   -5.5929387    1561.0463  0.031521005  0.030619528           38 
 4128000    0.5957587   -5.5974882    1557.4212  0.031440189  0.030611485           17 
 4129000   0.58471673   -5.5895068    1560.4237  0.031493172  0.030603471           21 
 4130000   0.59630109   -5.5918277    1557.7509  0.031431617  0.030595483           11 
 4131000   0.58509713   -5.5934163    1560.4831  0.031479123  0.030587447           22 
 4132000   0.58681302   -5.5918016    1553.2807  0.031326249  0.030579404           20 
 4133000   0.59174771   -5.6029754    1558.5502  0.031424918  0.030571365           13 
 4134000     0.579556   -5.5954888    1557.4642  0.031395424  0.030563353           17 
 4135000   0.58875319   -5.5965058    1558.6472  0.031411673  0.030555355           14 
 4136000   0.58301613   -5.5661011     1559.902   0.03142936   0.03054738           12 
 4137000   0.58157649   -5.5804726    1559.5207  0.031414083   0.03053936           17 
 4138000   0.58803264   -5.5859225    1559.6392  0.031408878   0.03053133           28 
 4139000   0.57758669   -5.5953975    1558.9506  0.031387425  0.030523358           20 
 4140000   0.58894972   -5.5885653    1556.1768   0.03132401  0.030515371           13 
 4141000   0.57949554    -5.593058    1558.9566  0.031372386  0.030507373           16 
 4142000   0.58422514   -5.6005226    1556.5966   0.03131733  0.030499388           15 
 4143000   0.59954101   -5.5899686    1560.0779  0.031379796  0.030491382           11 
 4144000   0.59661399   -5.5561107    1556.9565  0.031309454  0.030483422           21 
 4145000   0.58511128   -5.5944838    1558.3907  0.031330733  0.030475445           17 
 4146000   0.60093197     -5.59527    1559.8236  0.031351978  0.030467436           35 
 4147000   0.59080045   -5.5906433    1559.1824  0.031331533  0.030459451           15 
 4148000   0.57621318   -5.6044173    1554.3122  0.031226136  0.030451468           65 
 4149000   0.58343612   -5.5940578    1559.9858  0.031332565  0.030443467           67 
 4150000   0.57752349   -5.5987321    1555.8725   0.03124242  0.030435468           35 
 4151000   0.59254334   -5.6033839    1554.8102  0.031213567  0.030427427           43 
 4152000   0.58728046   -5.5972498     1557.147   0.03125295   0.03041941           37 
 4153000   0.58786614   -5.5773081     1556.992  0.031242315   0.03041139           45 
 4154000   0.59640039   -5.5982607    1557.4369  0.031243718  0.030403383           47 
 4155000   0.58792052   -5.5906565    1559.8506  0.031284609  0.030395399           67 
 4156000   0.58935879   -5.5908152    1556.5841  0.031211583  0.030387414           44 
 4157000   0.59701285   -5.5863141    1558.0108  0.031232676  0.030379421           27 
 4158000   0.58022886   -5.5987137     1556.515  0.031195186  0.030371456           39 
 4159000   0.59530907   -5.5871355    1561.5219  0.031288008  0.030363505           16 
 4160000   0.58972601   -5.6192747    1557.1339  0.031192586  0.030355524           13 
 4161000   0.58608394   -5.6114133    1556.4253  0.031170897  0.030347548           25 
 4162000   0.59328074   -5.5920492    1558.1635  0.031198211   0.03033957           24 
 4163000   0.58540801   -5.5801277    1557.8865  0.031185173  0.030331621           27 
 4164000   0.59075717   -5.6141195    1560.9461  0.031238914  0.030323671           28 
 4165000   0.59944343   -5.5895819    1559.0994  0.031194466  0.030315722           19 
 4166000   0.58922425    -5.605763    1556.0236  0.031125452  0.030307733           12 
 4167000    0.5837378   -5.5944643    1560.7783  0.031213069  0.030299769           18 
 4168000    0.5756063    -5.610453    1557.5155  0.031140346  0.030291798           15 
 4169000   0.57789032   -5.6090112    1559.4456  0.031171456  0.030283814           18 
 4170000   0.59217456   -5.5855397    1558.9991  0.031155057  0.030275825           32 
 4171000   0.59452962   -5.6289985    1557.0902  0.031109451  0.030267846           23 
 4172000    0.5903864   -5.5978206    1559.8644  0.031157406  0.030259882           11 
 4173000   0.57934794   -5.5951936    1559.6958  0.031146572  0.030251933           11 
 4174000   0.57713716   -5.6258739    1554.6765  0.031038902  0.030243951           12 
 4175000   0.59272202   -5.6011389    1557.9409  0.031096624  0.030235985           29 
 4176000   0.59250165   -5.5985994    1555.8214  0.031046882  0.030228046           10 
 4177000    0.5754479    -5.616813    1557.6328  0.031075588  0.030220089           18 
 4178000   0.59097186   -5.6063449    1556.2729  0.031041027  0.030212129           14 
 4179000   0.58374529   -5.5984984    1559.7666  0.031103266  0.030204192           30 
 4180000   0.58793022   -5.6284866    1556.1693  0.031024108  0.030196249           15 
 4181000   0.58429108    -5.597679    1558.8742  0.031070601   0.03018831           18 
 4182000   0.58661953   -5.5911655    1558.6038  0.031057783  0.030180377            8 
 4183000   0.58803737   -5.6202396    1556.3663  0.031005784  0.030172415            4 
 4184000   0.57550245   -5.6258881    1555.4897  0.030980914  0.030164463           40 
 4185000   0.56220284    -5.619162    1558.5023  0.031033499  0.030156522           29 
 4186000   0.58903639   -5.6185809    1557.7578  0.031011263  0.030148584           28 
 4187000   0.58711236   -5.6075422    1557.7773  0.031004245  0.030140642           17 
 4188000   0.58425543   -5.6123852    1558.8013  0.031017219  0.030132695           21 
 4189000   0.57657835   -5.6111183    1557.5663  0.030985245  0.030124761           25 
 4190000   0.58010434   -5.5988497    1560.0633  0.031027511  0.030116816           41 
 4191000   0.59192387   -5.6108391    1561.3519  0.031045731  0.030108867            9 
 4192000   0.58585246   -5.5910431    1560.6878  0.031025124  0.030100937            9 
 4193000   0.57723369   -5.6274808    1560.7686   0.03101933  0.030092995           21 
 4194000   0.57889015   -5.6091061    1558.6037  0.030968919  0.030085075           29 
 4195000   0.58322896   -5.6132853    1557.7476   0.03094453   0.03007713           13 
 4196000   0.57019069   -5.6540172    1554.9224  0.030881046  0.030069167           22 
 4197000   0.56602216   -5.6426854    1556.9662  0.030914268   0.03006117           48 
 4198000   0.58716619   -5.6260356    1554.3293  0.030854559  0.030053188           29 
 4199000   0.58016239   -5.6235018    1557.3032  0.030906232  0.030045226           44 
 4200000   0.57953198   -5.6261122    1555.9441  0.030871906  0.030037272           22 
 4201000   0.57184296   -5.6170304    1555.8622  0.030862933  0.030029286           33 
 4202000   0.57770522   -5.6421028    1554.3944  0.030826479  0.030021305           17 
 4203000   0.59075602   -5.6150091    1558.1788  0.030894179  0.030013367           52 
 4204000   0.57706127   -5.6350213    1557.9132  0.030881565  0.030005421           55 
 4205000   0.58526731   -5.6291164    1560.6249   0.03092796  0.029997503           27 
 4206000   0.59404917   -5.6065648    1565.0598  0.031008476  0.029989606           18 
 4207000   0.58545962   -5.6119139    1562.1059  0.030942594  0.029981717           24 
 4208000   0.56825721   -5.6038347    1560.4398  0.030902245  0.029973839           25 
 4209000    0.5797664   -5.6239816    1559.0404  0.030867197   0.02996595           19 
 4210000   0.57858276   -5.6076713     1557.734  0.030834006  0.029958088            8 
 4211000   0.57392713   -5.6306893    1559.0965  0.030853648  0.029950181            9 
 4212000   0.57711447   -5.6071456    1558.7529  0.030839524  0.029942273           10 
 4213000   0.57711015   -5.6043985    1557.8224  0.030813798   0.02993436           28 
 4214000   0.57807437   -5.6342766    1559.4583  0.030838836  0.029926464           13 
 4215000   0.58285013   -5.6250857     1559.508  0.030832504   0.02991855           24 
 4216000   0.56435883   -5.6169283    1554.2621    0.0307215  0.029910651           19 
 4217000   0.57129551   -5.6359838    1561.5659  0.030858547  0.029902764           19 
 4218000   0.58464673   -5.6120061     1556.991  0.030760846  0.029894888           17 
 4219000   0.55465419   -5.6146482    1560.3989  0.030820869  0.029887018           11 
 4220000   0.57348423   -5.6467386    1557.9393  0.030764994  0.029879151           13 
 4221000    0.5934412   -5.6167398    1559.6834  0.030792139  0.029871273            9 
 4222000   0.57492786   -5.6147063    1560.8271   0.03080742  0.029863406           12 
 4223000   0.56959935   -5.6053323    1560.6417  0.030796467  0.029855543           14 
 4224000   0.57245916   -5.6286326    1560.0861  0.030778215  0.029847669           16 
 4225000   0.57019891   -5.6376231    1559.8649  0.030766566   0.02983979           21 
 4226000   0.57782036   -5.6319308    1558.9421  0.030741088  0.029831887           27 
 4227000   0.58026381    -5.618199    1560.1783  0.030758188  0.029823969            8 
 4228000   0.57503726   -5.6214584    1557.8874  0.030705759  0.029816101           14 
 4229000   0.58130843   -5.6486027    1556.6934   0.03067497   0.02980817           16 
 4230000   0.57305047   -5.6266588     1553.413  0.030603093  0.029800253           13 
 4231000   0.56652391   -5.6047112    1559.0758  0.030707395  0.029792349           32 
 4232000   0.56118134   -5.6300179    1555.3954  0.030627666   0.02978447           15 
 4233000   0.58172982   -5.6330268    1560.3402  0.030717778  0.029776585           16 
 4234000   0.58941074   -5.6334266    1559.5244  0.030694466  0.029768747           14 
 4235000   0.58354176   -5.6371758    1558.5659  0.030668357  0.029760871           16 
 4236000   0.57831092   -5.6221387    1557.6817  0.030643723  0.029752989           26 
 4237000   0.56944229   -5.6253039    1558.6151  0.030654848  0.029745114           40 
 4238000   0.58033543   -5.6125136    1559.6419  0.030667806  0.029737221           21 
 4239000   0.57379215   -5.6209985    1560.8165  0.030683661   0.02972934           18 
 4240000   0.57048097   -5.6343724    1558.8975   0.03063871  0.029721464           20 
 4241000   0.57943366   -5.6486489    1557.0124  0.030594442  0.029713555           28 
 4242000   0.57509477   -5.6290601    1554.1779  0.030531547  0.029705674           14 
 4243000   0.56672461   -5.6567221    1553.2657  0.030506436  0.029697756           10 
 4244000    0.5782427   -5.6318743    1557.8189  0.030588652  0.029689843           35 
 4245000     0.577051   -5.6591865    1555.2437  0.030530893  0.029681932           19 
 4246000   0.57158601    -5.608868    1558.7355  0.030592234  0.029674062           20 
 4247000   0.56934868   -5.6402191    1557.8254  0.030567174   0.02966618           19 
 4248000   0.55911698   -5.6481121    1556.9431  0.030542669  0.029658276           10 
 4249000   0.56717691   -5.6503493    1556.1838  0.030520588  0.029650383           14 
 4250000   0.57550662   -5.6579471    1556.6723  0.030522986  0.029642497           26 
 4251000   0.56573083    -5.653698    1559.9669  0.030580391  0.029634628           28 
 4252000   0.56139397   -5.6509165    1556.6745  0.030508672  0.029626767           26 
 4253000   0.57268636   -5.6254125    1558.4541  0.030536369  0.029618871           26 
 4254000   0.56807633   -5.6262396    1558.9827  0.030539545   0.02961098           29 
 4255000   0.57056158   -5.6394601    1557.3943   0.03050126  0.029603112           22 
 4256000   0.56959563   -5.6346774    1556.5642   0.03047784  0.029595244           30 
 4257000   0.56735235   -5.6551926     1559.505  0.030528248  0.029587377           20 
 4258000   0.56755133   -5.6336279    1560.3877  0.030538354  0.029579488           30 
 4259000   0.56991542   -5.6543631    1560.9897  0.030542962  0.029571645           20 
 4260000   0.57401961   -5.6434321    1557.3519   0.03046463  0.029563795           16 
 4261000   0.56891976    -5.644526    1555.3484  0.030418298   0.02955595           24 
 4262000    0.5663551   -5.6382594    1557.1427  0.030446244  0.029548113           14 
 4263000   0.56809789   -5.6281319    1559.6047   0.03048723  0.029540286           14 
 4264000   0.57110517   -5.6225579    1559.2191  0.030472544  0.029532446           11 
 4265000   0.56455408   -5.6454216     1560.433  0.030489117  0.029524621           18 
 4266000   0.57535494   -5.6421761    1556.6005  0.030407105   0.02951679           21 
 4267000    0.5642202   -5.6389029    1559.0557  0.030447929  0.029508958            9 
 4268000   0.57330914   -5.6387033    1556.5614  0.030392093  0.029501084            5 
 4269000   0.57805821   -5.6380643    1558.9153  0.030430922  0.029493233            8 
 4270000   0.55889908   -5.6384364    1559.9034  0.030443079  0.029485398           11 
 4271000   0.57466656   -5.6668596    1554.6534  0.030333517  0.029477541           16 
 4272000   0.56046977   -5.6410829    1557.1935  0.030375965    0.0294697           12 
 4273000   0.56105107   -5.6442283     1561.248  0.030447929  0.029461874           15 
 4274000   0.56614176   -5.6571546    1559.0145  0.030397256  0.029454024           17 
 4275000   0.57086484   -5.6517449     1557.667   0.03036388  0.029446181           16 
 4276000   0.56446219     -5.64918     1559.337  0.030389325  0.029438365           49 
 4277000   0.55706448   -5.6167798    1562.7073  0.030447886  0.029430584           24 
 4278000   0.55919078   -5.6288446    1558.4201  0.030357256    0.0294228           25 
 4279000   0.56929161   -5.6488323    1556.8026  0.030318661  0.029414998           12 
 4280000   0.56748391   -5.6310934    1557.8497  0.030331964  0.029407208           28 
 4281000   0.56879006   -5.6479235    1557.1345  0.030310957  0.029399427           13 
 4282000   0.55832645    -5.624543    1561.1494  0.030382014  0.029391635           19 
 4283000   0.56917769   -5.6141453    1560.8865  0.030369806  0.029383867           23 
 4284000   0.58101234   -5.6442454    1556.0748  0.030269117  0.029376079           14 
 4285000   0.56902618    -5.634479    1562.8741  0.030394285  0.029368283           17 
 4286000   0.56908759   -5.6351221    1558.0666  0.030293719  0.029360488           27 
 4287000   0.56009575   -5.6614191    1560.1535  0.030327221  0.029352697           12 
 4288000   0.56813517   -5.6523835    1559.0575  0.030298847  0.029344872            9 
 4289000   0.55837539   -5.6610759    1555.9652  0.030231702  0.029337058           34 
 4290000   0.56079291   -5.6419458    1559.6929  0.030297065  0.029329265           13 
 4291000   0.57846105   -5.6327918    1557.4366  0.030246186  0.029321455           16 
 4292000   0.57146431   -5.6269311    1559.0662   0.03027078  0.029313656           12 
 4293000   0.56150889   -5.6650304    1561.3157  0.030307394  0.029305865           18 
 4294000   0.57011678    -5.620318    1560.0074  0.030274946  0.029298079            6 
 4295000   0.56543878   -5.6652904    1556.6109  0.030201997  0.029290269           12 
 4296000   0.56473137   -5.6613537    1557.2595  0.030207548  0.029282446           19 
 4297000   0.55738265    -5.640274    1558.5631    0.0302258  0.029274646           14 
 4298000   0.56295528   -5.6652517    1559.0225  0.030227674  0.029266812           11 
 4299000   0.56395157   -5.6579728    1556.2598  0.030167089  0.029259002           29 
 4300000   0.55465523   -5.6560903    1555.5503  0.030146323  0.029251189           20 
 4301000   0.55356793    -5.643695     1557.121  0.030169747  0.029243397           20 
 4302000    0.5583713    -5.669386    1559.7376  0.030213421  0.029235588           17 
 4303000   0.57173185   -5.6692942    1561.4066   0.03023872   0.02922778           15 
 4304000   0.56333307   -5.6819218    1556.8154  0.030142802   0.02921999           31 
 4305000   0.56976472   -5.6491877     1558.848  0.030175145  0.029212208           20 
 4306000   0.56584079   -5.6398238    1561.3003  0.030215596  0.029204446           29 
 4307000   0.56450352   -5.6426565    1560.0784   0.03018494  0.029196698           31 
 4308000   0.57036083   -5.6423648    1559.3503  0.030163848   0.02918896            8 
 4309000    0.5602401   -5.6403234    1558.9276  0.030148674  0.029181197           24 
 4310000   0.56121334   -5.6457443    1557.8021  0.030119918  0.029173397           31 
 4311000   0.56120266   -5.6597054    1560.8528  0.030171902  0.029165629           11 
 4312000   0.56195613   -5.6593008    1556.5822   0.03008237  0.029157854           20 
 4313000   0.56264521   -5.6622547    1558.7155  0.030116614  0.029150046           20 
 4314000   0.55774019   -5.6681157    1558.3607  0.030102779  0.029142241           26 
 4315000   0.56494132   -5.6621257    1558.1907   0.03009252  0.029134439           31 
 4316000   0.56045297   -5.6732895    1561.0256  0.030140285  0.029126668           34 
 4317000   0.58340434   -5.6606669    1560.9266  0.030131392  0.029118918           44 
 4318000   0.56501499   -5.6714315    1558.2853  0.030073438  0.029111154           41 
 4319000   0.56049363   -5.6808159    1555.3875  0.030010564  0.029103392           43 
 4320000   0.55724356   -5.6737719    1559.6447   0.03008574  0.029095603           29 
 4321000   0.57029753   -5.6605318    1557.7578  0.030042386  0.029087843           54 
 4322000   0.55668806    -5.668125    1557.6412  0.030033187  0.029080066           39 
 4323000   0.54527249   -5.6737288    1555.0208  0.029975726  0.029072301           91 
 4324000    0.5554215   -5.6575708    1560.7401  0.030079019  0.029064534           48 
 4325000   0.55464503    -5.671498    1561.3143  0.030083128  0.029056776           98 
 4326000   0.56821101   -5.6764906     1556.601  0.029985379  0.029049016           65 
 4327000   0.55970957   -5.6791865     1559.068  0.030025961  0.029041263           94 
 4328000   0.54925103    -5.663361    1562.2486  0.030080263  0.029033479           39 
 4329000   0.57559754   -5.6813375    1555.4203  0.029941871  0.029025688           49 
 4330000   0.56122435   -5.6629758    1558.4422  0.029993114   0.02901791           44 
 4331000   0.56085717   -5.6805327    1557.9066  0.029975883   0.02901016           47 
 4332000   0.56357679   -5.6678976    1554.9096  0.029911311  0.029002398           31 
 4333000    0.5540381    -5.683943    1557.3491  0.029951325  0.028994631           13 
 4334000   0.56373415   -5.6822839    1559.0533  0.029977183  0.028986866           20 
 4335000   0.55713309   -5.6854024    1555.7197  0.029906184  0.028979083           41 
 4336000   0.56641196   -5.6938438    1556.1483  0.029907524  0.028971276           47 
 4337000   0.56777009   -5.6761691    1555.7376  0.029892736  0.028963492           22 
 4338000    0.5508762   -5.6652228    1554.8518  0.029868829  0.028955704           22 
 4339000   0.55693095   -5.6824658     1560.777  0.029975743  0.028947924           18 
 4340000    0.5500994   -5.6719039    1558.8546  0.029931923  0.028940155           17 
 4341000   0.55595508    -5.672557      1556.51   0.02988002  0.028932398           39 
 4342000   0.55437807   -5.6625395    1559.4979  0.029930484   0.02892464           36 
 4343000   0.55190823   -5.6855863    1558.4099  0.029902716  0.028916896           39 
 4344000   0.55483408   -5.6733041    1558.8724  0.029904705  0.028909152           26 
 4345000    0.5611487   -5.6377094    1557.3681   0.02986897  0.028901432           11 
 4346000   0.55764059   -5.6781746    1558.2201  0.029878435  0.028893716           16 
 4347000   0.56211455   -5.6377274    1561.5641  0.029935667  0.028886017           13 
 4348000   0.55420015   -5.6588425     1558.059  0.029861604  0.028878321           14 
 4349000   0.55558676   -5.6677969    1556.8552  0.029831671  0.028870577           38 
 4350000   0.56946697   -5.6458763    1559.8394  0.029881981  0.028862843           36 
 4351000   0.56147144   -5.6615876    1557.9255  0.029838457  0.028855116           27 
 4352000   0.55408505   -5.6774894    1557.0739  0.029815294  0.028847398           15 
 4353000   0.55104908   -5.6749227    1558.9333  0.029844041  0.028839682           33 
 4354000   0.56088729    -5.672858    1560.6071  0.029869221  0.028831947           40 
 4355000    0.5511648    -5.656662    1557.4379   0.02980172  0.028824217           24 
 4356000   0.55923414   -5.6856144    1557.4112  0.029794367  0.028816472           38 
 4357000    0.5610608   -5.6707316    1554.7417  0.029736472  0.028808712           62 
 4358000   0.57155134   -5.6813339    1556.2572  0.029758627  0.028800942           19 
 4359000   0.55211603   -5.6765544    1556.4879  0.029756212   0.02879318           28 
 4360000   0.55515388   -5.6905442    1557.3684  0.029766216  0.028785422          137 
 4361000   0.55227728   -5.6663288     1556.507  0.029742929  0.028777646           61 
 4362000   0.55335913   -5.6713463    1557.4016  0.029753201  0.028769889           34 
 4363000   0.55222973   -5.6679123    1559.2633   0.02978194  0.028762136           23 
 4364000   0.56847933   -5.6758373    1560.8673  0.029805747  0.028754396           23 
 4365000   0.54671433   -5.7011517    1557.5537  0.029735657  0.028746662           22 
 4366000   0.55616014   -5.6854274    1557.2059  0.029722207  0.028738908           25 
 4367000   0.55855857   -5.6720532    1558.5235  0.029740546  0.028731181           29 
 4368000   0.55745724   -5.6714263    1554.4193  0.029655436  0.028723468           36 
 4369000   0.55913474   -5.6788435    1557.3564  0.029704669  0.028715733           28 
 4370000   0.55460103   -5.6718365    1559.1082  0.029731278  0.028708001           18 
 4371000   0.56274694   -5.6923452    1559.1624  0.029725508  0.028700263           27 
 4372000   0.54974345   -5.6977389    1555.2286   0.02964373   0.02869254           15 
 4373000   0.55416296   -5.6976023    1556.3249  0.029657842  0.028684829           30 
 4374000   0.56418825   -5.6591656    1558.6094  0.029694586  0.028677128           23 
 4375000   0.56208196    -5.687086     1556.065  0.029639333  0.028669431           25 
 4376000   0.55897205   -5.6829498     1557.217  0.029654499  0.028661736           54 
 4377000   0.55969829     -5.68159    1559.1112  0.029683787  0.028654026           54 
 4378000   0.55477105   -5.6777803    1556.1423  0.029620494  0.028646318           50 
 4379000   0.56125839   -5.6797437    1560.1187  0.029689402  0.028638634           38 
 4380000   0.53588722   -5.6914518    1557.7625  0.029637794  0.028630924           34 
 4381000   0.55310595   -5.6866242    1554.6291  0.029571429  0.028623217           31 
 4382000   0.55674503    -5.685393    1554.4292  0.029560878  0.028615501           33 
 4383000    0.5589207   -5.6754962    1557.3178  0.029609055  0.028607789           27 
 4384000   0.55573055   -5.6879595    1551.2281  0.029486544  0.028600062           17 
 4385000   0.55134104    -5.683574    1556.9464  0.029588491  0.028592362           12 
 4386000   0.56273315    -5.689845    1553.8451  0.029522821   0.02858466           14 
 4387000   0.54329367   -5.6628937    1559.2474  0.029618711  0.028576943           20 
 4388000   0.54556337   -5.6751491    1556.7533  0.029564595  0.028569261           17 
 4389000   0.55033319   -5.6738698    1563.5275   0.02968648  0.028561594           37 
 4390000   0.54391918   -5.6726963    1561.7976   0.02964688  0.028553933           45 
 4391000   0.56314356   -5.6560981    1555.2426  0.029515726  0.028546259           18 
 4392000   0.55262514   -5.6672518    1559.7117  0.029593802  0.028538607           15 
 4393000   0.55040572   -5.6709236    1559.8172  0.029589066  0.028530936           24 
 4394000   0.54382157    -5.659016    1561.4694  0.029613665  0.028523295           22 
 4395000   0.55009969   -5.6504029    1561.9865  0.029616734  0.028515664           11 
 4396000   0.54185389   -5.6710943    1561.6967  0.029604503  0.028508032           21 
 4397000   0.54358574    -5.661923    1555.9429  0.029488722  0.028500406           35 
 4398000    0.5522964   -5.6641231     1561.427   0.02958593  0.028492772           17 
 4399000   0.54047359   -5.6709235    1560.3015  0.029557882  0.028485134           21 
 4400000   0.54605122   -5.6820204    1558.6074   0.02951908  0.028477472           13 
 4401000   0.53317718   -5.6685083    1562.1726   0.02957988  0.028469836           23 
 4402000   0.54577225   -5.6680321    1556.1947  0.029459993  0.028462193           27 
 4403000   0.54989338    -5.688136    1556.2759  0.029454839  0.028454533           33 
 4404000   0.53800805   -5.6947094     1557.196  0.029465561  0.028446875           36 
 4405000    0.5445034   -5.7005255    1561.4016  0.029538433  0.028439187           16 
 4406000   0.54192469   -5.6929528    1557.8812  0.029465146  0.028431523           12 
 4407000      0.54074   -5.6939265    1557.1454  0.029444547  0.028423883           24 
 4408000   0.55305099   -5.7040296      1559.97  0.029491267  0.028416263           35 
 4409000   0.54216559   -5.6731796    1556.3276  0.029415734  0.028408616           81 
 4410000   0.54659562    -5.678362    1557.6257  0.029433592  0.028400976           98 
 4411000   0.54120417   -5.7108551    1556.1396  0.029398843  0.028393325           39 
 4412000   0.54411012   -5.7016197    1558.4487  0.029435794  0.028385638           70 
 4413000   0.54899438   -5.6953998    1555.0865  0.029365634   0.02837798          147 
 4414000   0.54744403    -5.709043    1556.2866  0.029381638  0.028370317           59 
 4415000   0.54685491   -5.7010068    1557.8846  0.029405146  0.028362643           77 
 4416000   0.54648991   -5.7073715    1555.9585   0.02936214  0.028354979           59 
 4417000   0.54249588   -5.6943029    1550.5841  0.029254096  0.028347288           49 
 4418000   0.54597949   -5.6945777    1559.0275  0.029406735  0.028339624           54 
 4419000   0.54580096   -5.6915645    1555.1282  0.029326548  0.028331957           36 
 4420000   0.54848327   -5.6949811    1559.1513  0.029395763  0.028324313           27 
 4421000   0.53375314   -5.6970997    1558.5826  0.029378395  0.028316663           45 
 4422000   0.53707811   -5.6955055    1553.9896  0.029285195  0.028309007           32 
 4423000   0.54769894   -5.7063533    1559.3071  0.029378761  0.028301338           41 
 4424000    0.5493529   -5.6920987    1556.0606  0.029310968   0.02829365           39 
 4425000    0.5528926   -5.7052781    1555.5682   0.02929507  0.028285987           17 
 4426000   0.55709835   -5.7123932    1556.7133  0.029310011   0.02827835           15 
 4427000    0.5425555   -5.6911372    1560.0726  0.029366626  0.028270722           27 
 4428000   0.55310131   -5.6960552     1558.405   0.02932861  0.028263094           33 
 4429000   0.54588125   -5.7016901    1558.6203  0.029326038  0.028255456           32 
 4430000   0.56366963   -5.6959348    1555.1523  0.029254182  0.028247806           32 
 4431000    0.5442332   -5.7047259     1555.237  0.029249173  0.028240176           30 
 4432000   0.54698039   -5.6980437    1554.1343  0.029221839  0.028232522           94 
 4433000   0.54434997   -5.6839228    1560.1063  0.029327512  0.028224902           41 
 4434000   0.54657715   -5.7072824     1559.955  0.029318054   0.02821727           23 
 4435000   0.54671275   -5.6889349    1560.2093   0.02931622   0.02820965           38 
 4436000   0.53640458   -5.7091791    1551.4147    0.0291444  0.028202011           21 
 4437000   0.54616819    -5.728605    1556.6506  0.029236169  0.028194356           31 
 4438000   0.55693992   -5.7147263    1556.7281  0.029231036  0.028186714           22 
 4439000   0.54638659   -5.7130417    1555.7916  0.029206871  0.028179072           21 
 4440000   0.53564938   -5.7046173    1559.4509  0.029268973  0.028171439           20 
 4441000   0.54043376   -5.7084503    1555.3623  0.029185662  0.028163824           38 
 4442000   0.53130027   -5.6981857    1556.4383  0.029199277  0.028156215           35 
 4443000    0.5426415   -5.7030588    1558.4596  0.029230618  0.028148594           10 
 4444000   0.53460959   -5.7047355    1556.6026  0.029189217  0.028141011           21 
 4445000   0.52537614   -5.7129124    1558.2874  0.029214237   0.02813342           62 
 4446000    0.5283776    -5.693118    1559.7391  0.029234876  0.028125828           75 
 4447000   0.54403148   -5.6917443    1559.0354  0.029215116  0.028118246           37 
 4448000   0.54296764   -5.6815736     1559.202  0.029211669  0.028110662           31 
 4449000   0.54095226   -5.7017181    1557.4155  0.029171639  0.028103078           59 
 4450000   0.53561765    -5.706987    1557.6316  0.029169131  0.028095505           32 
 4451000   0.53591599    -5.689032     1556.669  0.029144555  0.028087943           24 
 4452000    0.5477217   -5.7210373    1554.2881  0.029093442  0.028080348           37 
 4453000   0.53537939   -5.7133507     1556.618  0.029130511  0.028072746           23 
 4454000   0.54026919   -5.7171454     1556.766  0.029126741  0.028065131           34 
 4455000   0.53802335   -5.7368412    1558.1093  0.029145328  0.028057513           54 
 4456000   0.53943346   -5.7168285    1558.0163   0.02913705  0.028049906           69 
 4457000    0.5372838    -5.734309    1554.8128  0.029070616  0.028042301           30 
 4458000   0.53222286   -5.7101304     1560.228  0.029165321  0.028034704           33 
 4459000    0.5324206   -5.7234827    1555.5892  0.029072087   0.02802711           24 
 4460000    0.5343347   -5.7140833    1555.7831  0.029069191  0.028019545           66 
 4461000   0.53273535   -5.7071649    1555.4732  0.029056886  0.028011969           36 
 4462000   0.54340725   -5.7264761    1553.1701  0.029007361   0.02800439           69 
 4463000   0.53765577   -5.6996229    1556.5254  0.029063511  0.027996763           28 
 4464000   0.53590016   -5.7385794    1554.8334  0.029025415  0.027989143           27 
 4465000   0.53578579    -5.720853    1554.5504  0.029013631  0.027981526           49 
 4466000   0.55066646   -5.7381325    1554.1625  0.028999897  0.027973931           45 
 4467000   0.53880036   -5.7209649    1553.9532    0.0289895  0.027966293           40 
 4468000   0.52974641   -5.7212019    1555.8688   0.02901874  0.027958657           59 
 4469000   0.53488072    -5.713708    1557.3918  0.029040646  0.027951038           33 
 4470000   0.54586029   -5.7257376    1556.1451  0.029010908  0.027943434           20 
 4471000   0.53468405   -5.7289888    1556.4912   0.02901087  0.027935838           25 
 4472000    0.5396391    -5.725687    1550.9951  0.028901965   0.02792822           27 
 4473000   0.53182792   -5.7305337     1558.183  0.029029417  0.027920613           43 
 4474000   0.53365653   -5.7312355    1554.8598  0.028961031  0.027912974           63 
 4475000   0.53737045   -5.7385533    1556.3488  0.028982287  0.027905358           40 
 4476000   0.53471976    -5.741401    1555.6875    0.0289635  0.027897767           34 
 4477000   0.52815492   -5.7549995     1554.379  0.028932674  0.027890167           26 
 4478000   0.54281596   -5.7325556     1556.363  0.028963135  0.027882566           42 
 4479000   0.53023062   -5.7391769    1554.5954  0.028923781  0.027874976           41 
 4480000   0.54865942   -5.7201164    1558.0048  0.028980743  0.027867401           44 
 4481000   0.53592526   -5.7137937    1558.0813    0.0289757  0.027859824           92 
 4482000   0.53258444   -5.7173471    1559.7426  0.029000122  0.027852265           70 
 4483000   0.53582508   -5.7086066     1557.477   0.02895154  0.027844736           47 
 4484000   0.53975872   -5.7341799    1554.4522  0.028888868  0.027837187           40 
 4485000   0.54805218   -5.7195429    1556.1951   0.02891481  0.027829644           24 
 4486000   0.53660491   -5.7299471     1557.947  0.028940908   0.02782208           17 
 4487000   0.52619496   -5.7098777    1551.4076  0.028813007  0.027814492           40 
 4488000    0.5495911   -5.7146424    1555.9934  0.028891738  0.027806923           45 
 4489000   0.52991121   -5.7295834     1558.074  0.028923925  0.027799361           21 
 4490000   0.53006736   -5.7200962    1558.8792  0.028932428  0.027791806           25 
 4491000   0.51651334   -5.7213989    1553.8165  0.028832044  0.027784257           32 
 4492000   0.52658866   -5.7364561    1554.2818  0.028834258    0.0277767           46 
 4493000   0.52892877    -5.746906    1556.2418  0.028864192  0.027769121           84 
 4494000   0.53823754    -5.727995     1553.667  0.028810024  0.027761561           35 
 4495000   0.52192838   -5.7400138    1558.3644    0.0288907  0.027754002           38 
 4496000   0.52740269   -5.7169877    1555.8058  0.028836851  0.027746445           95 
 4497000   0.53150411   -5.7390049    1555.3004  0.028821074  0.027738901           36 
 4498000   0.53856191   -5.7503908    1554.1994  0.028794267   0.02773134           71 
 4499000   0.52955434   -5.7417771    1552.1299  0.028749535   0.02772376           21 
 4500000   0.52822308   -5.7348225    1553.5231  0.028768947   0.02771619           25 
 4501000   0.54760446   -5.7242099    1554.5803  0.028782128  0.027708635           12 
 4502000   0.53843093   -5.7506323     1557.346  0.028826929  0.027701071           36 
 4503000   0.53641072   -5.7181562    1555.2937  0.028782546  0.027693529           19 
 4504000   0.53105718   -5.7129996     1552.975  0.028733256  0.027685992           34 
 4505000   0.53027656   -5.7420578    1554.9326  0.028763089  0.027678441           45 
 4506000   0.53144529   -5.7153416    1556.3771  0.028783421  0.027670898           35 
 4507000   0.52276627   -5.7315836    1556.1012  0.028771933  0.027663348           15 
 4508000   0.53020177   -5.7262439     1554.447  0.028734971  0.027655803           20 
 4509000   0.52867868   -5.7220087     1552.547  0.028693484  0.027648251           20 
 4510000   0.52304885   -5.7423711    1555.5784  0.028743133  0.027640703           23 
 4511000   0.53570004   -5.7381596    1555.5382  0.028736019  0.027633141           26 
 4512000   0.52716522   -5.7324172    1555.9105  0.028736527  0.027625608           35 
 4513000   0.51939965   -5.7131821    1556.4675  0.028740444  0.027618087           34 
 4514000   0.51997743   -5.7169232    1557.9077  0.028760665  0.027610582           52 
 4515000   0.52357465   -5.7095924    1558.7368  0.028769598  0.027603073           18 
 4516000   0.53237019   -5.7404021    1557.6877  0.028743868  0.027595555           43 
 4517000   0.52946304   -5.7330757    1559.1978  0.028765364  0.027588058           13 
 4518000   0.52734184   -5.7082941    1557.2595  0.028723245  0.027580576           19 
 4519000   0.52584857   -5.7282341    1558.9727  0.028748482  0.027573084           25 
 4520000   0.52777827   -5.7292155    1557.6989  0.028718638  0.027565578           35 
 4521000   0.52539984   -5.7346449    1552.4156  0.028614902   0.02755809           20 
 4522000   0.53124862   -5.7240943    1557.1647  0.028696091  0.027550608           16 
 4523000    0.5342426   -5.7378344    1556.0565  0.028669329  0.027543106           23 
 4524000   0.52243524   -5.7356817     1558.619  0.028710194  0.027535615           29 
 4525000   0.51528018   -5.7348177    1558.4783  0.028701258   0.02752812           25 
 4526000   0.52377288   -5.7275756    1557.4231  0.028675489  0.027520631           57 
 4527000   0.52574457   -5.7421177    1555.4174  0.028632233  0.027513118           89 
 4528000   0.52327992     -5.73823    1555.5436  0.028628232  0.027505607           36 
 4529000   0.51851332   -5.7566189    1551.4297  0.028546215  0.027498099           43 
 4530000   0.52067837   -5.7559041    1553.4803  0.028577635  0.027490575          126 
 4531000   0.53997435   -5.7295445    1556.2998  0.028623185  0.027483078           87 
 4532000   0.53193364     -5.73222    1556.7614  0.028625357  0.027475597           49 
 4533000   0.53115227   -5.7351969    1556.7071  0.028618043  0.027468111           30 
 4534000    0.5233694   -5.7298109    1558.5234  0.028645114  0.027460638          113 
 4535000   0.52868995   -5.7455179    1553.9077  0.028553982  0.027453144           65 
 4536000   0.52840565   -5.7439696    1550.6119  0.028487137  0.027445632           78 
 4537000   0.53273433   -5.7389985    1552.0495  0.028507265   0.02743809          112 
 4538000   0.52638699   -5.7738452    1554.3671  0.028543542  0.027430564          146 
 4539000   0.52036475   -5.7535395    1552.7987  0.028508458   0.02742304           75 
 4540000   0.53567305   -5.7375136    1553.4088  0.028513377  0.027415515           37 
 4541000    0.5210207   -5.7522563     1552.868  0.028497174  0.027408004          135 
 4542000   0.52544247    -5.747265    1554.1602  0.028514609  0.027400485           68 
 4543000   0.52904801   -5.7453641    1552.7875  0.028483151  0.027392984           93 
 4544000   0.52536181   -5.7614628    1550.7959  0.028440359  0.027385479          133 
 4545000   0.53049679    -5.749994    1553.4514   0.02848279  0.027377965          158 
 4546000    0.5196369   -5.7507315    1552.3646  0.028456603  0.027370468           53 
 4547000   0.51861954   -5.7560092    1552.0768   0.02844507  0.027362958           40 
 4548000   0.52488307   -5.7490311     1551.302  0.028424618  0.027355451           86 
 4549000   0.52088882   -5.7494969    1552.3299  0.028437201  0.027347939           67 
 4550000     0.508882    -5.753566    1552.6462  0.028436744  0.027340417          107 
 4551000    0.5324419   -5.7586923    1556.7177  0.028505048  0.027332891           79 
 4552000   0.52364716   -5.7636805    1554.4404  0.028457095  0.027325371           43 
 4553000   0.52073111   -5.7372066     1556.118  0.028481551  0.027317882          126 
 4554000   0.52551887   -5.7565555    1556.5029   0.02848234  0.027310383           56 
 4555000   0.52625704   -5.7435048    1555.3274  0.028454581  0.027302874          109 
 4556000    0.5341709   -5.7630985    1555.0885  0.028443966  0.027295361          188 
 4557000   0.52163713   -5.7694139    1551.5934   0.02837381  0.027287851           72 
 4558000   0.50958939   -5.7489726    1553.7167  0.028406405  0.027280343           99 
 4559000   0.53170274   -5.7534595    1553.3103  0.028392746  0.027272827           89 
 4560000   0.53397924   -5.7518247    1554.2593  0.028403862   0.02726531           35 
 4561000   0.51415047   -5.7545743    1554.2647  0.028397733  0.027257788           78 
 4562000   0.51509441   -5.7563363    1553.6714  0.028380669  0.027250284           90 
 4563000   0.53204001   -5.7588214    1553.5107  0.028371515  0.027242789           48 
 4564000   0.52711328   -5.7361197    1554.5289   0.02838389  0.027235303          128 
 4565000   0.52706189   -5.7527005    1554.6481  0.028379849  0.027227838          162 
 4566000   0.52683356   -5.7498064    1553.1614    0.0283465  0.027220357          194 
 4567000   0.51185388   -5.7586102    1549.6582  0.028276371  0.027212845          154 
 4568000   0.52323152     -5.76308     1551.169  0.028297742  0.027205337          139 
 4569000   0.51893028   -5.7856614     1550.145  0.028272872   0.02719781          141 
 4570000   0.50995374   -5.7694778    1552.5843  0.028311165  0.027190295          156 
 4571000   0.53214839   -5.7789043    1553.0664   0.02831376  0.027182783           62 
 4572000   0.51339105   -5.7668116     1552.186  0.028291521  0.027175274          129 
 4573000   0.50849144   -5.7775451    1550.6344  0.028257059  0.027167756          142 
 4574000    0.5247568    -5.768185    1548.0831  0.028204399  0.027160242          143 
 4575000   0.51763839    -5.773638    1550.0666  0.028234365   0.02715273           65 
 4576000    0.5196252   -5.7571493    1550.6479   0.02823878  0.027145243          139 
 4577000   0.51513566   -5.7619768    1551.0766  0.028240415  0.027137748           90 
 4578000   0.52353613   -5.7610697    1554.8154  0.028302305  0.027130275           69 
 4579000    0.5240288   -5.7702872    1553.2148  0.028266994  0.027122792          111 
 4580000   0.51920722   -5.7608531    1552.6289  0.028250163  0.027115322          202 
 4581000   0.51057398   -5.7483281    1553.8962   0.02826705  0.027107866          151 
 4582000   0.52753157   -5.7606689    1550.5048  0.028199201  0.027100408          179 
 4583000    0.5180183   -5.7530926    1554.3134  0.028262299  0.027092935          177 
 4584000   0.51882625   -5.7550912     1552.316  0.028219823  0.027085463          194 
 4585000   0.52689521   -5.7533166    1551.8729  0.028205615  0.027077959          166 
 4586000    0.5195073   -5.7597641    1553.8267  0.028234967  0.027070473          187 
 4587000   0.52229605   -5.7573308    1553.1802  0.028217066  0.027062989          194 
 4588000   0.51036844   -5.7688494    1552.6022  0.028200419  0.027055501          132 
 4589000   0.52490461   -5.7665876    1550.5452  0.028156918     0.027048          164 
 4590000   0.52458437   -5.7699065     1548.285  0.028109749  0.027040504          152 
 4591000   0.52315198   -5.7583028    1549.1277  0.028118922  0.027033027          114 
 4592000   0.51697765   -5.7474092    1550.6523  0.028140468  0.027025545           88 
 4593000   0.51889615   -5.7651657    1548.4098  0.028093653  0.027018054           60 
 4594000   0.50269482   -5.7862043    1548.4213  0.028087746  0.027010537          118 
 4595000   0.51399741   -5.7669107    1549.4897   0.02810101   0.02700302          181 
 4596000   0.51009592   -5.7794836    1550.1771   0.02810736  0.026995516           90 
 4597000    0.5268751   -5.7748191    1547.3512  0.028050019   0.02698801          170 
 4598000   0.51042478   -5.7725199     1549.377  0.028080634  0.026980513          139 
 4599000   0.51771267   -5.7699068    1549.5692   0.02807801  0.026973027          116 
 4600000   0.51901219   -5.7609086    1549.8676  0.028077312  0.026965515          159 
 4601000   0.52642836   -5.7757701    1547.1896  0.028022705  0.026958009           95 
 4602000   0.49938943   -5.7608784    1550.4957  0.028076483  0.026950515           80 
 4603000    0.5185356   -5.7934046     1546.461   0.02799734  0.026943014           92 
 4604000   0.50915102   -5.7732558    1550.7103   0.02806817  0.026935515           51 
 4605000   0.51029044   -5.7778644    1548.6034  0.028023949  0.026928023           37 
 4606000   0.51436892   -5.7622195    1550.0333  0.028043735  0.026920542          171 
 4607000    0.4960181   -5.7749093    1549.1743   0.02802211  0.026913073           86 
 4608000   0.50403008   -5.7770785    1547.6021  0.027987597  0.026905579           78 
 4609000   0.51568402   -5.7888638    1549.0416   0.02800755  0.026898102           91 
 4610000   0.51633333   -5.7633852    1546.5345  0.027956155  0.026890611           58 
 4611000   0.51011326   -5.7784894    1548.6112  0.027987624  0.026883126           47 
 4612000   0.51128197    -5.774098     1551.133  0.028027121  0.026875651           43 
 4613000   0.50814675     -5.79138    1546.9136  0.027944822  0.026868177           50 
 4614000   0.51393217    -5.772243    1549.2457  0.027980885  0.026860674          171 
 4615000   0.51654887   -5.7750625     1550.753   0.02800204   0.02685318           98 
 4616000   0.51190745   -5.8081379    1548.4472  0.027954347  0.026845694          258 
 4617000   0.51291325   -5.8012392    1548.6726  0.027952361  0.026838197          202 
 4618000    0.5152862   -5.7663822    1550.1884  0.027973661  0.026830719          243 
 4619000    0.5157898   -5.7632776    1550.6979  0.027976796  0.026823267          108 
 4620000   0.50994774   -5.7778758    1549.1875  0.027943498  0.026815817           87 
 4621000   0.51195353   -5.7686771    1549.9769  0.027951686  0.026808365          114 
 4622000   0.50366513   -5.7820319     1547.493  0.027900854  0.026800913          109 
 4623000   0.51004541   -5.7867795     1549.792  0.027936261  0.026793443          123 
 4624000   0.51392114   -5.7652298    1549.3013  0.027921375  0.026785982           81 
 4625000   0.51039855   -5.7720817    1550.4996  0.027936929  0.026778541          222 
 4626000   0.51276709   -5.7729164    1548.5679  0.027896092  0.026771089          173 
 4627000   0.51776664   -5.7658573    1548.7278  0.027892943  0.026763652          169 
 4628000   0.52434193   -5.7804538    1550.9021  0.027926068  0.026756199          114 
 4629000   0.52083431   -5.7914218    1551.4469  0.027929842  0.026748781          109 
 4630000   0.52182317   -5.7737786    1546.8065  0.027840289  0.026741344          240 
 4631000   0.51217401   -5.7905364    1549.0472  0.027874599  0.026733897          214 
 4632000   0.50274094   -5.7853469    1549.4837  0.027876434  0.026726456          220 
 4633000   0.50630311   -5.7923636    1547.1974  0.027829294   0.02671901          213 
 4634000   0.50492181   -5.7828229    1551.3469  0.027897908  0.026711574          169 
 4635000   0.50948887   -5.7955404    1549.0101  0.027849877  0.026704137          140 
 4636000   0.50367249   -5.7607392    1549.9438  0.027860653  0.026696701          171 
 4637000   0.51081908   -5.7814816    1549.7812  0.027851723  0.026689274          229 
 4638000    0.5047845    -5.806322    1546.3561  0.027784176  0.026681841          177 
 4639000   0.50738482   -5.7865709    1548.2986  0.027813081  0.026674396          313 
 4640000   0.51306382   -5.7812613    1548.9725  0.027819189  0.026666962          242 
 4641000   0.50558277   -5.8019988    1549.4968   0.02782261  0.026659519          250 
 4642000   0.50477937   -5.8034349    1547.9353  0.027788584  0.026652073          298 
 4643000   0.50787973    -5.797789    1549.3194  0.027807441  0.026644639          278 
 4644000   0.51217993    -5.800277    1548.1196  0.027779924  0.026637202          273 
 4645000   0.51079686   -5.7986192    1548.6828  0.027784047  0.026629762          286 
 4646000   0.50936582   -5.8206654    1548.2096  0.027769579  0.026622315          411 
 4647000   0.50158818   -5.8055326    1550.2533  0.027800253  0.026614867          262 
 4648000   0.50052653   -5.7975621    1544.3054  0.027687633   0.02660745          183 
 4649000   0.50101541   -5.7994097    1547.5453  0.027739752  0.026600012          303 
 4650000   0.50998069   -5.7982052    1546.6842  0.027718355  0.026592597          209 
 4651000   0.51491354    -5.809651    1545.9244  0.027698781  0.026585175          256 
 4652000   0.51097196   -5.7857672    1546.7149  0.027706989  0.026577758          157 
 4653000   0.49714154   -5.7894397    1552.3459  0.027801882  0.026570336          243 
 4654000   0.51710628   -5.7910505    1548.8506  0.027733323  0.026562913          270 
 4655000   0.51657029   -5.8136641    1548.4471  0.027720142  0.026555485          318 
 4656000   0.51684545   -5.7971929    1550.0476  0.027742833  0.026548073          285 
 4657000   0.50391462   -5.8058409    1548.1482  0.027702888  0.026540671          252 
 4658000   0.49761274   -5.7892613    1547.2853  0.027681504  0.026533278          172 
 4659000   0.51511558   -5.8033351    1549.3643  0.027712748  0.026525889          199 
 4660000   0.49965321   -5.8032301    1546.5264  0.027656052  0.026518498          230 
 4661000   0.49311351   -5.8017563    1549.3106  0.027699897  0.026511086          119 
 4662000   0.50009117   -5.7836352    1548.2483  0.027674967  0.026503704          285 
 4663000   0.51230651   -5.7958791    1549.3374  0.027688495  0.026496302          208 
 4664000   0.50384755   -5.7857078    1547.2547  0.027645345  0.026488916          283 
 4665000   0.50062641   -5.8105606    1550.0814  0.027689914  0.026481506          302 
 4666000   0.51133757   -5.7851712    1551.9324  0.027717038  0.026474136          312 
 4667000   0.50371253   -5.7974892    1544.0146  0.027569719  0.026466752          238 
 4668000   0.50292055   -5.8059447    1548.2354  0.027639164  0.026459364          317 
 4669000   0.49749952   -5.7865386    1550.9182  0.027681128  0.026451983          335 
 4670000   0.50409272   -5.8022326    1547.6166  0.027616284  0.026444622          413 
 4671000   0.49154484   -5.8061204    1547.6842  0.027611578  0.026437237          346 
 4672000   0.50362686   -5.7938378    1548.5744  0.027621548  0.026429873          333 
 4673000   0.50611806   -5.8130521    1549.7523  0.027636641  0.026422528          272 
 4674000   0.50166064   -5.7854456    1549.3246  0.027623103  0.026415158          325 
 4675000   0.50794371   -5.7995043    1545.9184  0.027556477  0.026407786          318 
 4676000   0.51149416     -5.80653    1548.1613  0.027590556   0.02640041          240 
 4677000   0.49969935   -5.8084475    1547.9808  0.027581441  0.026393043          313 
 4678000    0.5048783    -5.810358    1548.1879  0.027579235  0.026385679          356 
 4679000   0.50316544   -5.8082576    1548.5953  0.027580597  0.026378305          360 
 4680000   0.50448367   -5.8053075    1545.6246  0.027521806  0.026370938          360 
 4681000   0.49389746   -5.8092934    1549.5532  0.027585865  0.026363577          328 
 4682000    0.5017139   -5.8040039    1549.1435  0.027572681  0.026356213          384 
 4683000   0.50126598   -5.8235188    1548.6585  0.027558162  0.026348848          408 
 4684000   0.50116633   -5.8128691    1547.8294  0.027537529  0.026341483          386 
 4685000   0.50874066   -5.8254195    1548.1232  0.027536877  0.026334118          306 
 4686000   0.49261844   -5.7967515    1545.3601  0.027481862  0.026326762          360 
 4687000   0.51181071   -5.8176963    1548.3021  0.027528307  0.026319401          315 
 4688000   0.50022934   -5.8194996    1547.1503   0.02750196  0.026312043          388 
 4689000   0.50060584   -5.8175891    1546.9198  0.027491999  0.026304678          393 
 4690000   0.49908278   -5.8142461     1547.693  0.027499876  0.026297312          499 
 4691000   0.49402193   -5.8313441    1543.3965  0.027417688  0.026289924          560 
 4692000   0.50585317   -5.8161767    1542.6178  0.027398014  0.026282533          470 
 4693000   0.50501538   -5.8339774    1548.1752  0.027490859  0.026275167          468 
 4694000   0.49719279   -5.8147665    1545.4916   0.02743736    0.0262678          345 
 4695000   0.50188924   -5.8229702    1543.6801  0.027399362  0.026260448          380 
 4696000   0.50669098   -5.8275514    1544.5683  0.027409291   0.02625308          374 
 4697000   0.49876046   -5.8178381    1544.4149  0.027400733  0.026245725          324 
 4698000   0.50178471   -5.8126776    1546.6792  0.027435065  0.026238377          409 
 4699000   0.50069463   -5.8076749    1543.6455  0.027375425  0.026231023          543 
 4700000   0.48392212    -5.802737    1544.9452  0.027392646  0.026223679          383 
 4701000   0.49669625    -5.826906    1547.0359   0.02742388  0.026216337          473 
 4702000   0.50238995   -5.8271934    1544.0142  0.027364494  0.026208996          472 
 4703000   0.49756726   -5.8120578    1545.0901  0.027377739  0.026201652          449 
 4704000   0.49314285   -5.8200461    1545.0749   0.02737165   0.02619431          424 
 4705000   0.50164529   -5.8350421     1547.147  0.027402533  0.026186961          412 
 4706000   0.49301698   -5.8223011    1544.6654  0.027352765  0.026179634          415 
 4707000   0.48182348    -5.812244    1546.0636  0.027371709    0.0261723          416 
 4708000   0.48343765   -5.8321571      1544.69  0.027341581  0.026164968          478 
 4709000   0.49242394    -5.822146    1546.4001  0.027366038  0.026157635          396 
 4710000   0.50423663   -5.8469264    1547.7898  0.027384817   0.02615031          426 
 4711000   0.50243561   -5.8447855    1546.9188  0.027363595  0.026142966          511 
 4712000   0.49694617   -5.8271589    1549.3695   0.02740113  0.026135627          476 
 4713000   0.49017652   -5.8251434    1548.1291  0.027373384  0.026128295          450 
 4714000    0.5060068   -5.8214301     1545.559  0.027322144   0.02612097          438 
 4715000   0.49693889   -5.8360308    1546.7396  0.027337215   0.02611365          527 
 4716000   0.49707751   -5.8163458    1544.8554  0.027298123  0.026106334          555 
 4717000   0.48273342   -5.8269506    1547.1169  0.027332289  0.026099011          542 
 4718000   0.49674002   -5.8175758    1545.1959  0.027292565   0.02609169          568 
 4719000   0.50320925   -5.8313929    1546.4774  0.027309412  0.026084358          598 
 4720000   0.49191369   -5.8422598    1546.1658  0.027298124  0.026077032          569 
 4721000   0.50022375   -5.8427988    1545.8457  0.027286692  0.026069691          646 
 4722000   0.49664425   -5.8375805      1542.41  0.027220282  0.026062335          677 
 4723000   0.49981439   -5.8331217    1543.6079  0.027235654  0.026054993          641 
 4724000   0.49613538   -5.8318722    1544.7393  0.027249846  0.026047663          588 
 4725000   0.50512471   -5.8422075    1545.1044  0.027250519   0.02604032          551 
 4726000   0.49687898   -5.8294781     1546.586  0.027270877  0.026032996          595 
 4727000   0.49566489   -5.8209663    1545.4016  0.027244227  0.026025664          660 
 4728000   0.49482552   -5.8280338    1546.3887  0.027255864  0.026018335          577 
 4729000   0.49930596   -5.8607526    1542.8474  0.027187697  0.026011002          743 
 4730000   0.48470833   -5.8474381    1542.3075  0.027172437  0.026003673          718 
 4731000   0.50033528   -5.8297046    1542.8451  0.027176163  0.025996319          760 
 4732000   0.49233153   -5.8342764    1545.2434  0.027212656  0.025988982          722 
 4733000   0.49184278   -5.8483642    1546.1015  0.027222014  0.025981655          806 
 4734000   0.48911981   -5.8343183    1542.4566  0.027152102  0.025974317          893 
 4735000   0.50054288    -5.849268    1543.6875   0.02716803  0.025966978          807 
 4736000   0.49082032   -5.8328599    1542.4712  0.027140893  0.025959657          868 
 4737000    0.4933902   -5.8442616    1542.0683  0.027128075  0.025952323          822 
 4738000   0.49908106   -5.8357717     1541.502  0.027112389   0.02594499          757 
 4739000   0.48564007   -5.8271552    1542.4387   0.02712314  0.025937673          838 
 4740000    0.5001338   -5.8363966    1542.6488  0.027121111  0.025930336          938 
 4741000   0.49157098    -5.847253    1541.0072  0.027086536     0.025923          839 
 4742000   0.49578275   -5.8327045    1541.0485   0.02708155  0.025915668          901 
 4743000   0.49419583   -5.8443631    1543.0974  0.027111838  0.025908341          912 
 4744000   0.48805648   -5.8566195    1541.2777  0.027074158  0.025901012          901 
 4745000   0.48682597    -5.844814    1541.3079  0.027068984  0.025893675          773 
 4746000   0.48863909   -5.8623503    1542.7872  0.027089254  0.025886336          950 
 4747000   0.49106966   -5.8618458    1547.7052  0.027169882  0.025879002          759 
 4748000   0.48923948   -5.8356728    1545.1837  0.027119905  0.025871681          810 
 4749000   0.49578138   -5.8610918    1540.2198   0.02702709  0.025864352          776 
 4750000   0.48608649   -5.8461819    1542.3381  0.027058563  0.025857034          775 
 4751000   0.48862535   -5.8541494    1542.8539  0.027061916  0.025849701          843 
 4752000   0.48969985   -5.8432234    1542.2955  0.027046428  0.025842385          892 
 4753000   0.48520608   -5.8466465    1543.5372  0.027062507  0.025835067          821 
 4754000     0.492921   -5.8739804    1540.7837  0.027008549  0.025827756          882 
 4755000    0.4891951    -5.853276    1542.8015  0.027038232  0.025820453          934 
 4756000   0.48746932   -5.8524871    1546.5925  0.027098972  0.025813133          764 
 4757000   0.48275029   -5.8422972     1544.032   0.02704842  0.025805827          794 
 4758000   0.50402339   -5.8489562    1543.3732  0.027031196  0.025798528          802 
 4759000     0.495475   -5.8659465    1545.1787  0.027057132  0.025791223          835 
 4760000   0.49073033    -5.841706     1540.082  0.026962219  0.025783927          837 
 4761000   0.49082143   -5.8551634    1544.0344  0.027025738  0.025776632          796 
 4762000   0.48032031   -5.8563621    1545.1656  0.027039857   0.02576935          835 
 4763000   0.48174332   -5.8564844    1542.2253  0.026982736  0.025762076          797 
 4764000   0.49241141   -5.8534921    1541.9027  0.026971429  0.025754792          787 
 4765000   0.48292907   -5.8426162    1542.9881  0.026984752  0.025747512          832 
 4766000   0.48845003   -5.8597959    1541.6118  0.026955025  0.025740221          811 
 4767000   0.49298395   -5.8660431    1540.4804  0.026929593  0.025732927          873 
 4768000     0.491514   -5.8763801    1541.4436  0.026940778  0.025725631          938 
 4769000   0.48956782   -5.8642553    1541.6931   0.02693949  0.025718333          899 
 4770000   0.49021452   -5.8751181     1540.056  0.026905241  0.025711026          979 
 4771000   0.50006361   -5.8641276    1541.7165  0.026928605   0.02570372          917 
 4772000   0.48924743   -5.8588447    1538.7291  0.026870794  0.025696423          909 
 4773000    0.4939385   -5.8826001    1540.6183  0.026898148  0.025689104          928 
 4774000   0.48056323   -5.8891115    1537.7559  0.026842548  0.025681793         1000 
 4775000   0.48616781   -5.8731084    1542.5613  0.026920791  0.025674491          965 
 4776000     0.487347   -5.8714817    1541.7873  0.026901649   0.02566719          968 
 4777000   0.49465486   -5.8728714    1539.0021   0.02684743  0.025659905          946 
 4778000   0.49394353   -5.8728922    1538.5751  0.026834364  0.025652618          991 
 4779000   0.49375983   -5.8660865    1540.2519  0.026857988  0.025645316          960 
 4780000   0.48395581    -5.871599    1538.7849  0.026826793  0.025638024         1014 
 4781000   0.48188522   -5.8886366    1541.0468  0.026860608  0.025630723         1129 
 4782000   0.48897433    -5.884383    1541.8684  0.026869309   0.02562343         1038 
 4783000   0.48148021    -5.860691    1539.3026  0.026818987  0.025616149          975 
 4784000   0.48102215   -5.8771382    1541.0183  0.026843267  0.025608866         1022 
 4785000   0.48586213   -5.8714178    1544.9393  0.026905944  0.025601593         1019 
 4786000   0.48423737   -5.8862028     1540.969  0.026831192  0.025594311         1029 
 4787000   0.47885023   -5.8972682    1542.5526  0.026853154  0.025587024         1028 
 4788000   0.48694684   -5.8738085    1542.6879  0.026849901   0.02557975         1065 
 4789000   0.48083751    -5.879604     1540.075  0.026798826  0.025572463          990 
 4790000   0.49158973   -5.8680714    1541.0603  0.026810373    0.0255652         1051 
 4791000   0.48381441   -5.8764857     1541.985  0.026820862  0.025557937          999 
 4792000   0.49416242   -5.8713934    1545.0267   0.02686816  0.025550679         1087 
 4793000   0.47763928   -5.8949744    1542.2225    0.0268138  0.025543416         1101 
 4794000   0.47878901   -5.8852683    1542.8566  0.026819229  0.025536152         1098 
 4795000   0.49011189   -5.8996153    1538.9648     0.026746  0.025528874         1198 
 4796000   0.47955825   -5.8874269    1540.9459  0.026774845  0.025521585         1101 
 4797000    0.4794825   -5.8903245    1539.8964  0.026751032  0.025514311         1118 
 4798000   0.48099741   -5.8925838    1542.0447  0.026782769  0.025507039         1078 
 4799000   0.48236691   -5.8858669    1539.5002  0.026733003   0.02549977         1196 
 4800000   0.48954356   -5.8884793    1538.6377   0.02671246  0.025492494         1083 
 4801000   0.48398865   -5.8852719    1540.4432  0.026738235  0.025485228         1048 
 4802000   0.47655606   -5.8858661     1540.896  0.026740526   0.02547797         1068 
 4803000   0.47824989    -5.877093    1537.5975  0.026677727  0.025470699         1170 
 4804000   0.49387822   -5.8994607    1536.4392  0.026652081  0.025463429         1106 
 4805000   0.49153611    -5.891432    1539.2955  0.026696072  0.025456157         1122 
 4806000   0.48246894   -5.8952033    1537.1567  0.026653431   0.02544889         1026 
 4807000   0.48271141   -5.8829304    1538.1765  0.026665565  0.025441633         1065 
 4808000   0.47681577   -5.8883272    1535.1757   0.02660801  0.025434367         1148 
 4809000    0.4730215   -5.9026687    1538.8485  0.026666121  0.025427107         1103 
 4810000   0.46755569   -5.8911517    1540.7992  0.026694373  0.025419843         1172 
 4811000   0.48039474   -5.8902093    1540.5361  0.026684268  0.025412587         1136 
 4812000   0.49271755   -5.9093799    1538.1248  0.026636963   0.02540532         1255 
 4813000   0.48300796     -5.89631    1539.4708  0.026654734  0.025398055         1130 
 4814000   0.47165417   -5.8892251    1541.6406  0.026686757  0.025390801         1224 
 4815000    0.4835419   -5.8878863    1537.0345  0.026601497   0.02538354         1258 
 4816000     0.479934   -5.8942599    1537.1215  0.026597478  0.025376283         1223 
 4817000   0.47836652    -5.891116    1537.7842  0.026603422  0.025369028         1118 
 4818000   0.47885271   -5.8762701    1537.2795   0.02658917  0.025361773         1107 
 4819000   0.48007518   -5.8867674    1539.6896   0.02662533  0.025354521         1150 
 4820000   0.48264496   -5.9034146    1538.9572  0.026607144  0.025347272         1196 
 4821000   0.47884283   -5.8898821    1536.4151  0.026557683  0.025340026         1173 
 4822000   0.49050673   -5.8854792    1537.7406  0.026575082  0.025332796         1179 
 4823000   0.48063134   -5.9009497     1536.714  0.026551834  0.025325555         1305 
 4824000   0.47945507   -5.8926463    1538.1588  0.026571289  0.025318317         1245 
 4825000   0.47298738   -5.9058726    1538.7137  0.026575367  0.025311074         1218 
 4826000   0.47642016   -5.8883312    1535.2735  0.026510456  0.025303834         1245 
 4827000   0.47058128   -5.8996094    1537.8777  0.026549923  0.025296605         1241 
 4828000   0.48803276   -5.9031749    1534.4276  0.026484873  0.025289378         1195 
 4829000   0.48983167   -5.9127176    1539.2456  0.026562532  0.025282139         1270 
 4830000   0.49114704   -5.9050331     1538.353  0.026541633  0.025274892         1252 
 4831000   0.48277888   -5.9215126    1537.1759  0.026515834   0.02526765         1251 
 4832000   0.48472673   -5.9034868    1540.4683  0.026567127  0.025260416         1294 
 4833000   0.46231305   -5.9070501    1536.4802  0.026492865  0.025253182         1248 
 4834000   0.48413247   -5.9113637    1538.8787  0.026528733  0.025245952         1232 
 4835000   0.47475235   -5.8967183    1537.4435  0.026498509  0.025238727         1344 
 4836000   0.47944782   -5.9203533    1537.3039  0.026490624  0.025231494         1377 
 4837000   0.47815458   -5.9133365    1533.4132  0.026418117  0.025224255         1385 
 4838000   0.48290579    -5.905361    1535.2601   0.02644447  0.025217019         1320 
 4839000   0.47798507   -5.9195233    1537.9736  0.026485733  0.025209794         1342 
 4840000   0.47923714   -5.8896701    1535.9217  0.026444932  0.025202561         1362 
 4841000   0.48266851   -5.9037647     1536.156  0.026443504   0.02519533         1425 
 4842000   0.47840071   -5.9196148    1535.8212   0.02643228  0.025188095         1402 
 4843000   0.47616998   -5.9179804    1538.6656  0.026475766   0.02518085         1486 
 4844000   0.48006161    -5.922983    1538.7404  0.026471586  0.025173615         1522 
 4845000   0.47765909   -5.9250282    1531.6808  0.026344698  0.025166384         1493 
 4846000   0.47345834   -5.9225352    1534.5524  0.026388644  0.025159154         1463 
 4847000   0.47789624   -5.9197253    1537.1506   0.02642787  0.025151921         1458 
 4848000   0.48063007   -5.9280705    1535.4233  0.026392728  0.025144686         1572 
 4849000   0.45511315   -5.9225996    1538.7138  0.026443834  0.025137453         1450 
 4850000   0.46011777   -5.9242312    1535.0786  0.026375921  0.025130226         1520 
 4851000   0.48243642   -5.9116678    1540.0716  0.026456257  0.025122995         1510 
 4852000   0.47088274   -5.9130127    1537.6818  0.026409759  0.025115781         1561 
 4853000   0.47085236   -5.9247378    1535.7715  0.026371514  0.025108556         1521 
 4854000    0.4784744   -5.9200554     1535.418  0.026360012  0.025101331         1517 
 4855000   0.48895829   -5.9139363    1537.5162  0.026390597   0.02509412         1512 
 4856000   0.48015497   -5.9265338    1536.4405  0.026366702  0.025086902         1524 
 4857000   0.47462538   -5.9097722    1535.5861  0.026346614   0.02507968         1487 
 4858000   0.47704125   -5.9299917    1533.1542  0.026299475  0.025072461         1534 
 4859000   0.47156304   -5.9132627    1535.2582  0.026330147  0.025065227         1585 
 4860000   0.46967565   -5.9234573    1533.8418  0.026300443  0.025058008         1553 
 4861000   0.47207714   -5.9220303    1534.4574  0.026305585   0.02505079         1591 
 4862000   0.48481073   -5.9222432    1534.6002  0.026302622  0.025043582         1551 
 4863000    0.4726975   -5.9327676    1534.2398  0.026291038  0.025036368         1570 
 4864000   0.47547298    -5.904383    1534.5939    0.0262917  0.025029154         1644 
 4865000   0.47071496   -5.8950541    1533.5421  0.026268279  0.025021966         1503 
 4866000   0.47920981   -5.9127231    1537.6047  0.026332455  0.025014767         1546 
 4867000   0.47028826   -5.9272584    1538.8443  0.026348269  0.025007573         1556 
 4868000    0.4679573   -5.9378462      1533.99  0.026259758   0.02500038         1583 
 4869000   0.46521009    -5.923381    1535.0785  0.026272994  0.024993189         1563 
 4870000   0.46972538   -5.9084568    1536.5654  0.026293043  0.024985998         1571 
 4871000   0.46504922   -5.9190798    1536.0323  0.026278524  0.024978816         1539 
 4872000   0.48171181     -5.93324    1537.6822  0.026301352  0.024971643         1519 
 4873000   0.47345297    -5.928487    1535.8979  0.026265441  0.024964464         1559 
 4874000   0.47340239   -5.9196779      1537.54  0.026288128    0.0249573         1596 
 4875000   0.47183333   -5.9288437    1535.9873  0.026256194  0.024950128         1571 
 4876000   0.47110775    -5.922969    1537.2225  0.026271918  0.024942949         1593 
 4877000   0.47437426   -5.9257703     1534.413  0.026218525  0.024935779         1500 
 4878000   0.47596494   -5.9283031    1536.3857  0.026246852  0.024928605         1630 
 4879000   0.46595409   -5.9287597    1535.8657  0.026232591  0.024921416         1626 
 4880000   0.46935861   -5.9385899    1532.9628  0.026177644  0.024914232         1691 
 4881000   0.46110123   -5.9300876    1535.5897  0.026217129  0.024907048         1731 
 4882000   0.47821528   -5.9225597    1532.7903  0.026163974  0.024899859         1755 
 4883000   0.47596777   -5.9340571    1532.2843  0.026149982  0.024892669         1770 
 4884000   0.47065882   -5.9146539     1534.556  0.026183387  0.024885491         1666 
 4885000     0.472291   -5.9242154    1532.7623  0.026147428  0.024878308         1742 
 4886000   0.47579475   -5.9271121    1532.0992  0.026130768  0.024871127         1686 
 4887000   0.47589687   -5.9285708    1533.9484  0.026156954  0.024863956         1624 
 4888000   0.47076862   -5.9305772    1532.8355   0.02613263  0.024856774         1583 
 4889000   0.46987856   -5.9382837    1532.4734  0.026121112  0.024849589         1649 
 4890000   0.47395262   -5.9413978    1533.7513  0.026137547  0.024842418         1674 
 4891000   0.45880122    -5.938762    1531.8561  0.026099913  0.024835238         1740 
 4892000   0.46475353   -5.9348339    1534.7293  0.026143522  0.024828053         1828 
 4893000   0.45786224   -5.9506671    1534.5021  0.026134309   0.02482088         1816 
 4894000   0.47670976   -5.9214469    1531.7579  0.026082242  0.024813705         1848 
 4895000   0.47205712   -5.9391534    1533.3274  0.026103632  0.024806546         1763 
 4896000   0.47175246   -5.9252576     1535.336  0.026132489  0.024799388         1755 
 4897000   0.46588407   -5.9418278    1533.5711  0.026097118  0.024792222         1831 
 4898000   0.47018862   -5.9604033    1532.5179  0.026073873  0.024785052         1923 
 4899000   0.46672336   -5.9350589    1532.1128  0.026061658  0.024777878         1896 
 4900000   0.47005498   -5.9406134     1531.819  0.026051343  0.024770714         1866 
 4901000   0.46386288   -5.9382958     1532.856  0.026063661  0.024763543         1938 
 4902000   0.45886672   -5.9385806    1532.7244  0.026056107  0.024756361         1957 
 4903000   0.46057992   -5.9371768    1535.5678  0.026099119  0.024749207         1834 
 4904000   0.46302261   -5.9495428     1532.382  0.026039662  0.024742046         1931 
 4905000   0.46983013   -5.9419911    1532.2403  0.026031946  0.024734889         1871 
 4906000    0.4683315   -5.9122402    1535.9655  0.026089916  0.024727737         1795 
 4907000   0.46490945   -5.9498987    1532.0809  0.026018629  0.024720593         1956 
 4908000   0.46673007   -5.9479195    1531.8479  0.026009371  0.024713439         1919 
 4909000   0.45676276   -5.9599107    1531.4952  0.025998085  0.024706288         1902 
 4910000   0.46846263   -5.9343776    1531.7273  0.025996729  0.024699137         1899 
 4911000   0.45824776   -5.9474005    1531.9761  0.025995657  0.024691988         1942 
 4912000   0.46642852   -5.9643992    1529.6909  0.025951597  0.024684835         1927 
 4913000   0.45618484   -5.9397457     1531.654  0.025979612  0.024677688         1870 
 4914000   0.46177209   -5.9410103      1533.81  0.026010887  0.024670545         1912 
 4915000   0.45806138   -5.9604942    1532.3061  0.025980097  0.024663411         1901 
 4916000   0.45601884   -5.9519111     1532.314  0.025974946  0.024656273         1890 
 4917000    0.4620381   -5.9325402    1532.2756  0.025969012  0.024649149         1827 
 4918000   0.46707537   -5.9385729    1531.4849  0.025950334  0.024642024         1842 
 4919000   0.46872859   -5.9479941    1534.6086  0.025997977  0.024634913         1828 
 4920000   0.46693829   -5.9479339     1532.175  0.025951473  0.024627805         1731 
 4921000   0.46429778   -5.9341032    1533.0975  0.025961823  0.024620692         1897 
 4922000   0.46527627   -5.9507084    1531.8617  0.025935623  0.024613572         1902 
 4923000   0.47286071   -5.9441771    1530.4501  0.025906461  0.024606455         1995 
 4924000   0.45591777   -5.9509586    1532.5691  0.025937061  0.024599336         2036 
 4925000   0.46635488    -5.955382    1533.2666  0.025943597  0.024592206         2076 
 4926000    0.4617752    -5.937065    1533.6696  0.025945148  0.024585076         2081 
 4927000   0.47929005   -5.9372536    1532.8834  0.025926585  0.024577953         2041 
 4928000   0.46407668    -5.947752    1532.1717  0.025909288  0.024570841         2068 
 4929000   0.45578173   -5.9333807    1533.6368  0.025928803  0.024563742         2003 
 4930000   0.45484145   -5.9412339    1532.7288  0.025908195  0.024556627         1967 
 4931000   0.46489172   -5.9282206    1532.2524   0.02589489  0.024549515         2001 
 4932000    0.4739717   -5.9483742    1533.4147  0.025909278  0.024542412         1985 
 4933000   0.45287476   -5.9444248     1531.102  0.025864957  0.024535301         2016 
 4934000   0.45641372   -5.9510206    1528.3665  0.025813513  0.024528185         2089 
 4935000   0.46282858   -5.9390159    1530.2766  0.025840537  0.024521075         2048 
 4936000   0.45693143   -5.9564629    1531.2166  0.025851172  0.024513963         2103 
 4937000    0.4683273   -5.9483874    1533.5578  0.025885454  0.024506869         2036 
 4938000   0.45611281   -5.9594871    1530.5803  0.025829964  0.024499766         2143 
 4939000   0.45510307   -5.9710582    1530.8459  0.025829215  0.024492651         2117 
 4940000   0.46786835   -5.9610696     1531.991  0.025843303  0.024485541         2131 
 4941000   0.44962194   -5.9624244    1526.9963  0.025753833  0.024478433         2124 
 4942000    0.4666496   -5.9589261    1530.1961  0.025802578  0.024471329         2134 
 4943000   0.45190529   -5.9505834    1534.4735  0.025869469  0.024464219         2038 
 4944000   0.44470598   -5.9490082    1528.4225  0.025762246  0.024457111         2179 
 4945000   0.47153791   -5.9580633    1530.5224  0.025792424  0.024450013         2240 
 4946000   0.45944035   -5.9680898    1528.4043  0.025751522  0.024442896         2339 
 4947000   0.46490622   -5.9652101    1529.6661  0.025767571  0.024435783         2277 
 4948000   0.46395717   -5.9538525    1528.8536   0.02574868  0.024428671         2227 
 4949000   0.46476059   -5.9687749    1530.0606    0.0257638  0.024421568         2345 
 4950000   0.45120695   -5.9686846    1527.9936  0.025723798  0.024414456         2329 
 4951000   0.46503763   -5.9511104    1532.0184  0.025786346  0.024407348         2196 
 4952000   0.45242944    -5.969068    1528.6211  0.025723968  0.024400252         2293 
 4953000   0.45664302   -5.9716557    1529.4691  0.025733042  0.024393156         2233 
 4954000   0.45391279   -5.9657835    1528.3747  0.025709438  0.024386059         2321 
 4955000   0.46791078   -5.9607641    1529.2248  0.025718547  0.024378969         2306 
 4956000   0.45687088   -5.9581849    1529.7225  0.025721727  0.024371876         2364 
 4957000   0.46243796   -5.9659374    1530.9119  0.025736533  0.024364786         2282 
 4958000   0.46292836    -5.970028    1528.7509  0.025695019  0.024357698         2228 
 4959000   0.45856072   -5.9705681    1530.1966  0.025714132  0.024350621         2278 
 4960000   0.45339253   -5.9763409    1532.3883  0.025745771  0.024343548         2408 
 4961000    0.4549521   -5.9639351    1528.3897  0.025673415   0.02433647         2408 
 4962000   0.45860538   -5.9829385    1528.4662  0.025669525  0.024329372         2449 
 4963000    0.4515092   -5.9783257    1523.9317  0.025588214  0.024322267         2476 
 4964000   0.45385188   -5.9574502    1527.2767  0.025639214  0.024315174         2410 
 4965000   0.45033474   -5.9783747    1525.5999  0.025605906  0.024308072         2399 
 4966000     0.470202   -5.9626613    1526.6004   0.02561754  0.024300987         2320 
 4967000   0.45964759   -5.9781543     1530.289  0.025674267  0.024293921         2323 
 4968000   0.46862836     -5.97051    1527.6676  0.025625128   0.02428684         2389 
 4969000   0.45847836   -5.9708333    1529.3747    0.0256486  0.024279765         2365 
 4970000   0.45612474   -5.9758968    1526.9106  0.025602123  0.024272677         2472 
 4971000   0.45620196   -5.9836257    1527.4712  0.025606371  0.024265578         2401 
 4972000   0.46021168   -5.9911278    1526.4213  0.025583623  0.024258495         2501 
 4973000   0.46094506   -5.9730876    1526.2983  0.025576418  0.024251401         2580 
 4974000   0.46176272   -5.9941949     1525.188  0.025552673   0.02424431         2536 
 4975000   0.45163874   -5.9783692     1523.965  0.025527052  0.024237227         2568 
 4976000   0.45394738   -5.9695136    1527.5684  0.025582268  0.024230142         2438 
 4977000   0.45650847   -5.9693148    1525.9335  0.025549755  0.024223065         2479 
 4978000   0.45283932   -5.9663824    1526.5776  0.025555404  0.024215988         2562 
 4979000   0.45653557   -5.9864659    1525.6651  0.025534999  0.024208909         2414 
 4980000   0.45612628    -5.985776    1525.8854  0.025533557  0.024201827         2432 
 4981000   0.46020933   -5.9751317    1526.0037   0.02553041  0.024194763         2510 
 4982000   0.45147809   -5.9732597    1529.1662  0.025578185  0.024187698         2502 
 4983000   0.45232719   -5.9894074    1527.3791  0.025543165   0.02418064         2484 
 4984000   0.45228772   -5.9879878    1524.8046  0.025494995  0.024173572         2609 
 4985000   0.46079492   -5.9645303    1530.3629  0.025582796  0.024166507         2604 
 4986000   0.45610375    -5.985534    1525.7335  0.025500292   0.02415944         2523 
 4987000   0.44920767   -5.9996062    1523.6871  0.025460984  0.024152381         2581 
 4988000   0.46193138   -5.9881949    1528.4829  0.025536001  0.024145326         2612 
 4989000   0.44527881   -5.9914626    1525.8535  0.025486962  0.024138265         2555 
 4990000   0.45695324   -5.9854502    1525.9363  0.025483239  0.024131212         2540 
 4991000   0.46336651   -5.9912393    1528.0308  0.025513104  0.024124147         2552 
 4992000   0.44526502   -5.9794535     1526.456  0.025481704   0.02411709         2581 
 4993000   0.45395743   -5.9929697    1527.0167  0.025485958  0.024110045         2587 
 4994000   0.45051738   -5.9685518    1525.6082  0.025457353  0.024102999         2578 
 4995000   0.44927508   -5.9856417    1525.1715   0.02544497  0.024095959         2584 
 4996000   0.45903174   -5.9897754    1526.8109  0.025467222  0.024088898         2609 
 4997000   0.45506897   -5.9958253    1526.5516  0.025457802  0.024081848         2628 
 4998000   0.44707758   -6.0018636    1527.2551  0.025464438  0.024074796         2644 
 4999000   0.45737797   -5.9825821    1526.6842  0.025449826  0.024067758         2638 
 5000000   0.44822534   -5.9873716    1528.4145  0.025473575  0.024060714         2579 
 5001000   0.44546334   -5.9880372    1525.5831  0.025421301  0.024053678         2660 
 5002000   0.44474799   -5.9753298    1524.2683  0.025394314  0.024046648         2645 
 5003000   0.45223423   -5.9923178    1527.1283  0.025436876  0.024039616         2585 
 5004000   0.44590615   -5.9999729    1526.5855  0.025422754  0.024032583         2634 
 5005000   0.44881037   -5.9994362    1525.3932  0.025397822   0.02402554         2665 
 5006000   0.44462896   -5.9949571    1525.1675  0.025388992  0.024018497         2729 
 5007000   0.45954862   -5.9933912    1524.1781  0.025367454  0.024011446         2650 
 5008000   0.44921151   -5.9832941    1523.4663  0.025350543  0.024004405         2696 
 5009000   0.45190827   -6.0161182    1526.6927   0.02539916  0.023997364         2680 
 5010000   0.44601899   -6.0033301    1525.0371  0.025366551  0.023990325         2679 
 5011000   0.45001327   -6.0032692    1521.3142  0.025299577  0.023983291         2726 
 5012000   0.45142883   -5.9664543    1526.6946  0.025383988  0.023976259         2700 
Loop time of 12793.5 on 48 procs for 5000000 steps with 4000 atoms

Performance: 67534.340 tau/day, 390.824 timesteps/s
99.4% CPU use with 48 MPI tasks x no OpenMP threads

MPI task timing breakdown:
Section |  min time  |  avg time  |  max time  |%varavg| %total
---------------------------------------------------------------
Pair    | 910.56     | 963.61     | 1040.7     |  86.3 |  7.53
Neigh   | 86.628     | 89.753     | 93.218     |  18.1 |  0.70
Comm    | 786.15     | 872.6      | 940.9      | 110.8 |  6.82
Output  | 52.28      | 52.284     | 52.363     |   0.2 |  0.41
Modify  | 10675      | 10696      | 10733      |  14.2 | 83.60
Other   |            | 119.6      |            |       |  0.94

Nlocal:        83.3333 ave          93 max          77 min
Histogram: 4 3 7 15 4 7 4 1 2 1
Nghost:        2365.69 ave        2389 max        2346 min
Histogram: 4 4 4 5 7 12 6 2 3 1
Neighs:        16191.7 ave       19190 max       14267 min
Histogram: 9 6 5 5 10 0 4 6 1 2
FullNghs:      32384.1 ave       36204 max       30001 min
Histogram: 3 6 12 8 8 4 3 0 1 3

Total # of neighbors = 1554435
Ave neighs/atom = 388.60875
Neighbor list builds = 269028
Dangerous builds = 0

#clear
#
#next RN
#
#jump SELF
Total wall time: 3:33:16
