
units lj                  # Use reduced LJ style units
atom_style atomic         # Uncharged point particles
atom_modify map hash      # Needed for indexing of clusters etc
                          # Used to be able to find where atoms are in relation to each other.

lattice fcc 1.0 spacing 1 1 1
Lattice spacing in x,y,z = 1.5874011 1.5874011 1.5874011
region box block 0 10 0 10 0 10 units lattice
create_box 2 box
Created orthogonal box = (0.0000000 0.0000000 0.0000000) to (15.874011 15.874011 15.874011)
  3 by 4 by 4 MPI processor grid
create_atoms 1 box
Created 4000 atoms
  using lattice units in orthogonal box = (0.0000000 0.0000000 0.0000000) to (15.874011 15.874011 15.874011)
  create_atoms CPU = 0.002 seconds
set type 1 type/fraction 2 0.84 78393
Setting atom values ...
  3354 settings made for type/fraction
mass 1 1.0
mass 2 1.0
pair_style lj/cut  3.5
pair_modify tail  yes
pair_coeff 1  1  1.0  1.0   # Intearaction between 1 and 1 set with epsilon = 1 and sigma = 1
pair_coeff 1  2  1.5  0.8
pair_coeff 2  2  0.5  0.88

write_data data.0
System init for write_data ...
Neighbor list info ...
  update every 1 steps, delay 10 steps, check yes
  max neighbors/atom: 2000, page size: 100000
  master list distance cutoff = 3.8
  ghost atom cutoff = 3.8
  binsize = 1.9, bins = 9 9 9
  1 neighbor lists, perpetual/occasional/extra = 1 0 0
  (1) pair lj/cut, perpetual
      attributes: half, newton on
      pair build: half/bin/atomonly/newton
      stencil: half/bin/3d
      bin: standard
WARNING: Not all mixed pair coeffs generated from mixing. Use write_data with 'pair ij' option to store all pair coeffs. (../write_data.cpp:312)


#############################
#   M E L T   S Y S T E M   #
#############################

velocity all create 2.4 6583654 mom yes dist gaussian # Assign velocities
                                                    # Temperature 2.4, random number seed, zero linear momentum
                                                                                # Gaussian distribution

timestep 0.002   # simulation timestep
thermo 1000       # output thermodynamic data every 1000 steps bf 100

# Define a fix  in this case with index 1 applied to all
# particles in the simulation. This fix is for simulations
# in the anisotropic NPT ensemble. Note that we use the MTK
# correction.
fix 1 all npt temp 2.4 2.4 0.1 iso 5.68 5.68 0.5 mtk yes tchain 5 pchain 5 # Use NPT ensemble
                                                                         # Set temperature and pressure and damping
                                                                         # Numbers of thermostats in chain and in barostat
run 10000          # run for 10000 steps
Per MPI rank memory allocation (min/avg/max) = 3.642 | 3.644 | 3.648 Mbytes
Step Temp E_pair E_mol TotEng Press Volume 
       0          2.4   -3.4880302            0   0.11106983   -3.0192302         4000 
    1000    2.4025642   -2.7476943            0   0.85525102    5.5383997    3868.7183 
    2000    2.4427668    -2.709725            0   0.95350918    5.7003964    3878.1348 
    3000    2.3933633   -2.7621686            0   0.82697883    5.5092418    3848.2611 
    4000    2.3944524   -2.7047752            0   0.88600548    5.8698139    3859.4444 
    5000    2.4620929   -2.6932391            0   0.99897689    5.9491091    3863.9574 
    6000    2.3859762   -2.7387833            0   0.83928635    5.3870771    3888.3678 
    7000    2.4111087   -2.7184009            0   0.89735793    5.6380426    3890.3316 
    8000    2.3571998    -2.695515            0    0.8394007    5.6208839    3896.0801 
    9000    2.3973097    -2.751443            0   0.84362254    5.5172244    3874.3613 
   10000    2.3987238   -2.6722901            0   0.92489618    5.6824424    3913.5613 
Loop time of 2.58418 on 48 procs for 10000 steps with 4000 atoms

Performance: 668683.933 tau/day, 3869.699 timesteps/s
99.6% CPU use with 48 MPI tasks x no OpenMP threads

MPI task timing breakdown:
Section |  min time  |  avg time  |  max time  |%varavg| %total
---------------------------------------------------------------
Pair    | 1.0937     | 1.1968     | 1.3641     |   4.3 | 46.31
Neigh   | 0.21119    | 0.22109    | 0.25091    |   1.4 |  8.56
Comm    | 0.74319    | 0.89242    | 0.96441    |   5.1 | 34.53
Output  | 0.00025192 | 0.00025811 | 0.00032457 |   0.0 |  0.01
Modify  | 0.19246    | 0.25852    | 0.32799    |   7.8 | 10.00
Other   |            | 0.01509    |            |       |  0.58

Nlocal:        83.3333 ave          95 max          75 min
Histogram: 2 5 8 3 14 4 5 3 3 1
Nghost:        1671.23 ave        1703 max        1638 min
Histogram: 2 4 4 5 9 6 5 7 4 2
Neighs:        9735.67 ave       11531 max        8413 min
Histogram: 1 4 9 6 12 8 3 4 0 1

Total # of neighbors = 467312
Ave neighs/atom = 116.82800
Neighbor list builds = 916
Dangerous builds = 254

# Equilibrate just above the melting temperature to avoid step fn in T

fix 1 all npt temp 1.25 1.25 0.1 iso 5.68 5.68 0.5 mtk yes tchain 5 pchain 5
run 2000
Per MPI rank memory allocation (min/avg/max) = 3.643 | 3.645 | 3.649 Mbytes
Step Temp E_pair E_mol TotEng Press Volume 
   10000    2.3987238   -2.6722901            0   0.92489618    5.6824424    3913.5613 
   11000    1.2337545   -4.0378044            0   -2.1876353    5.5868087    2984.4388 
   12000    1.2351827   -4.0072831            0   -2.1549723     5.538806    3001.2695 
Loop time of 0.631667 on 48 procs for 2000 steps with 4000 atoms

Performance: 547123.665 tau/day, 3166.225 timesteps/s
99.6% CPU use with 48 MPI tasks x no OpenMP threads

MPI task timing breakdown:
Section |  min time  |  avg time  |  max time  |%varavg| %total
---------------------------------------------------------------
Pair    | 0.28211    | 0.30378    | 0.353      |   2.4 | 48.09
Neigh   | 0.039414   | 0.04206    | 0.048351   |   0.7 |  6.66
Comm    | 0.18485    | 0.23693    | 0.25995    |   3.0 | 37.51
Output  | 5.6534e-05 | 5.7604e-05 | 7.3244e-05 |   0.0 |  0.01
Modify  | 0.040609   | 0.043973   | 0.047955   |   1.0 |  6.96
Other   |            | 0.004868   |            |       |  0.77

Nlocal:        83.3333 ave          91 max          75 min
Histogram: 2 1 4 11 1 10 8 5 5 1
Nghost:        1986.96 ave        2000 max        1960 min
Histogram: 2 0 0 1 5 5 8 13 7 7
Neighs:        12723.1 ave       14086 max       11293 min
Histogram: 2 5 5 4 9 4 6 5 3 5

Total # of neighbors = 610710
Ave neighs/atom = 152.67750
Neighbor list builds = 142
Dangerous builds = 9

#############################
# L I N E A R  Q U E N C H  #
#############################

# Define solid atoms. This closely follows ten Wolde  Ruiz-Montero and Frenkel  Faraday Discuss  1996  104  93-110
# Compute components of the per-atom q6 vector
compute q6 all orientorder/atom degrees 1 6 components 6 nnn NULL cutoff 1.3 # compute the Q6 parameter.
                                                                             # Use all neighbours within 1.3 unit cell.

# get number of connections
compute coord_number all coord/atom orientorder q6 0.5

# An atom is solid if it has 8 or more connections (of a possible 14)
variable is_solid atom c_coord_number>=8
group solid dynamic all var is_solid    # Must be dynamic to update
dynamic group solid defined

# do clustering
compute cluster solid cluster/atom 1.3 # Create a cluster where all atoms within are solid and max 1.3 units from another member

# define chunks one chunk per cluster
compute clus_chunks solid chunk/atom c_cluster nchunk every compress yes  # Says which atoms are in which chunk

# count the size of each chunk
compute size_chunks solid property/chunk clus_chunks count


# Find the maximum entry in the vector of chunk sizes
variable max_n equal max(c_size_chunks)


# Thermo style which includes this variable
# thermo_style custom step temp pe vol v_max_n

thermo ${N}  # Print the thermo information every 100 steps
thermo 1000  

# Reset the npt fix at a lower temperature (below freezing)
fix 1  all npt temp  ${temp} ${temp}  0.1  iso  5.68  5.68  0.5  mtk yes tchain  5  pchain  5
fix 1  all npt temp  0.45 ${temp}  0.1  iso  5.68  5.68  0.5  mtk yes tchain  5  pchain  5
fix 1  all npt temp  0.45 0.45  0.1  iso  5.68  5.68  0.5  mtk yes tchain  5  pchain  5

dump dmp2 all dcd ${N} traj.dcd
dump dmp2 all dcd 1000 traj.dcd


compute msd all msd com yes
variable twopoint equal c_msd[4]/6/(step*dt+1.0e-6)
fix 9 all vector 10 c_msd[4]
variable fit equal slope(f_9)/6/(10*dt)
thermo_style custom step temp pe c_msd[4] v_twopoint v_fit v_max_n

fix 1 all npt temp 1.25 ${temp} 0.1 iso 5.68 5.68 0.5 mtk yes tchain 5 pchain 5
fix 1 all npt temp 1.25 0.45 0.1 iso 5.68 5.68 0.5 mtk yes tchain 5 pchain 5
run 500000 # 5000000  # Run for this many steps
Neighbor list info ...
  update every 1 steps, delay 10 steps, check yes
  max neighbors/atom: 2000, page size: 100000
  master list distance cutoff = 3.8
  ghost atom cutoff = 3.8
  binsize = 1.9, bins = 8 8 8
  4 neighbor lists, perpetual/occasional/extra = 1 3 0
  (1) pair lj/cut, perpetual
      attributes: half, newton on
      pair build: half/bin/atomonly/newton
      stencil: half/bin/3d
      bin: standard
  (2) compute orientorder/atom, occasional
      attributes: full, newton on
      pair build: full/bin/atomonly
      stencil: full/bin/3d
      bin: standard
  (3) compute coord/atom, occasional
      attributes: full, newton on
      pair build: full/bin/atomonly
      stencil: full/bin/3d
      bin: standard
  (4) compute cluster/atom, occasional
      attributes: full, newton on
      pair build: full/bin/atomonly
      stencil: full/bin/3d
      bin: standard
Per MPI rank memory allocation (min/avg/max) = 9.828 | 9.834 | 9.837 Mbytes
Step Temp PotEng c_msd[4] v_twopoint v_fit v_max_n 
   12000    1.2351827   -4.0072831 3.0379033e-30 2.109655e-32 8.3333333e+20            2 
   13000     1.246709   -4.0447423   0.88203942 0.0056540986  0.074536806            1 
   14000     1.249729   -4.0472088     1.821021  0.010839411  0.077320251            2 
   15000    1.2614613   -4.0362312    2.6952453  0.014973584  0.075925174            2 
   16000    1.2647564   -4.0577902    3.6288524  0.018900272   0.07597477            4 
   17000    1.2630928   -4.0322116    4.6480617  0.022784615   0.07685924            2 
   18000    1.2353272   -4.0670441    5.5195012  0.025553245  0.077160047            2 
   19000     1.249884   -4.0497108    6.4380137  0.028236902  0.077184756            2 
   20000    1.2385516   -4.0659179    7.4532193   0.03105508  0.077386035            3 
   21000    1.2360389   -4.0717948    8.4452548  0.033512915  0.078058901            2 
   22000     1.225377   -4.0791183    9.3581012  0.035447352  0.078433831            1 
   23000     1.225346   -4.0773653    10.280197  0.037247089  0.078533916            1 
   24000    1.2317602   -4.0495871     11.10983  0.038575798  0.078353482            2 
   25000    1.2328297   -4.0661161    12.051854  0.040172845  0.078061142            1 
   26000    1.2404809   -4.0738862    13.035604  0.041780781  0.077923403            2 
   27000    1.2425155   -4.0816655    14.061515  0.043399737  0.077972268            3 
   28000    1.2209899   -4.0566012    14.948414  0.044489326  0.078050798            1 
   29000    1.2272169   -4.0494866    15.790473  0.045374922  0.078026178            6 
   30000    1.2421687   -4.0889667    16.559204  0.045997788  0.077772104            1 
   31000    1.2381589    -4.070397    17.559457  0.047202841  0.077615909            2 
   32000    1.2087226   -4.0565043    18.416276  0.047959051  0.077468398            2 
   33000    1.2525522   -4.0784493    19.331034  0.048815741  0.077307714            2 
   34000    1.2071896   -4.0828099    20.251041  0.049634903  0.077173663            1 
   35000    1.2147967   -4.1156208    21.243157  0.050578944  0.077147301            1 
   36000    1.2242275   -4.0880381    22.031426   0.05099867  0.077138518            2 
   37000    1.2100919   -4.1103389    23.118349  0.052068353  0.077070787            2 
   38000    1.2006337   -4.1127593    23.941319  0.052502892   0.07704538            1 
   39000    1.1876604   -4.1104881    24.715067  0.052809971  0.076923424            1 
   40000    1.1876394   -4.1332376    25.519381  0.053165376  0.076755907            3 
   41000    1.2056781   -4.1112361    26.204384  0.053260943  0.076521821            2 
   42000    1.1976379   -4.1352761    26.937658  0.053447733  0.076229474            2 
   43000    1.2039862    -4.100099    27.563574  0.053417778  0.075826281            2 
   44000    1.2137583   -4.1218436    28.637503  0.054237695  0.075520665            2 
   45000    1.1770418   -4.1408341    29.362902  0.054375744  0.075267423            2 
   46000    1.2062131    -4.120689    30.265741   0.05482924   0.07501619            1 
   47000    1.2123066   -4.0896551    31.050819  0.055054643  0.074761847            2 
   48000    1.1795484   -4.1007506     31.72267   0.05507408  0.074497461            2 
   49000    1.1880158   -4.1682901     32.35221  0.055020764  0.074163696            2 
   50000    1.1790768   -4.1631066    33.213155  0.055355258  0.073849345            2 
   51000    1.2039874   -4.1523174    34.216486  0.055909291  0.073564438            2 
   52000    1.1796886   -4.1229987    34.928681   0.05597545  0.073306685            2 
   53000    1.1556171   -4.1555199    35.734526  0.056186362  0.073062316            2 
   54000     1.156901   -4.1416561    36.769894  0.056743663  0.072865805            2 
   55000    1.1547103   -4.1579661    37.395871   0.05666041  0.072712678            3 
   56000    1.1702931   -4.1349723     38.33662  0.057048541  0.072524293            3 
   57000    1.1801805   -4.1059449    39.329178  0.057498798  0.072350444            1 
   58000    1.1937689   -4.1640349    39.934954  0.057377807  0.072211499            3 
   59000    1.1900359   -4.1417744    40.718365  0.057511814  0.072059571            2 
   60000    1.1756928   -4.1324532    41.355592  0.057438322  0.071881564            2 
   61000     1.178596   -4.1662163    41.987496  0.057359967  0.071683355            1 
   62000    1.1586246   -4.1443536    42.859702  0.057607126  0.071490159            1 
   63000    1.1646668   -4.2063553    43.460484  0.057487412  0.071300206            4 
   64000    1.1812226   -4.1684071    44.440991  0.057865874  0.071131031            2 
   65000    1.1781577   -4.1549025    45.161559  0.057899434  0.070948025            2 
   66000    1.1459409   -4.1811025    45.718779  0.057725731  0.070766966            3 
   67000    1.1667006   -4.1524303    46.762571  0.058162401   0.07060796            2 
   68000    1.1832601   -4.1877849    47.670811  0.058420112  0.070478211            2 
   69000    1.1840277   -4.1515038     48.70324  0.058820338  0.070373434            2 
   70000    1.1464931   -4.1493536    49.583567  0.059028056  0.070306044            4 
   71000    1.1667859   -4.1858063     50.21629  0.058939307  0.070234567            2 
   72000    1.1576482   -4.1994291    51.158471  0.059211192  0.070159122            4 
   73000    1.1547144   -4.1777612     51.98521  0.059343846  0.070087193            2 
   74000    1.1244145    -4.183903    52.738212  0.059389878  0.070027032            5 
   75000    1.1474696   -4.1882781    53.469664  0.059410737  0.069965893            3 
   76000    1.1438282   -4.1872531    54.430918  0.059683024   0.06990944            2 
   77000    1.1310996   -4.1693182    55.401777  0.059958633  0.069856397            2 
   78000    1.1493584   -4.2095052    55.830385  0.059647847   0.06979592            3 
   79000    1.1317097   -4.2125665    56.639829  0.059746654  0.069724574            2 
   80000    1.1334061   -4.1933459    57.552516  0.059950537  0.069663239            6 
   81000    1.1358207   -4.2220924    58.591707  0.060279533  0.069628697            2 
   82000    1.1495241   -4.2547466    59.113116  0.060074304   0.06958741            5 
   83000    1.1486283   -4.1945714    60.290207  0.060532336  0.069549154            2 
   84000     1.159123   -4.2210085    60.879334  0.060396164  0.069500433            5 
   85000    1.1465373   -4.2367597     61.29607  0.060094186  0.069448534            2 
   86000    1.1155866   -4.2389389    62.338705  0.060405721  0.069398166            2 
   87000    1.1149976   -4.2090853     63.42599  0.060752864  0.069356704            6 
   88000     1.116981    -4.241717    64.153209  0.060751145  0.069324986            1 
   89000    1.1018596   -4.2530219    64.737292  0.060615442  0.069283279            5 
   90000     1.119887   -4.2297457    65.354282  0.060513224  0.069222587            2 
   91000    1.1194624   -4.2303905    66.224218  0.060644888  0.069163691            5 
   92000    1.1307236    -4.237058    66.677222  0.060396034  0.069095684            1 
   93000    1.1309305    -4.249687    67.293499  0.060298834  0.069022588            2 
   94000    1.1426701   -4.2451261    68.094109  0.060367118  0.068939249            4 
   95000    1.1134627   -4.2417491    68.394872  0.059995501  0.068847743            3 
   96000    1.1300074   -4.2332007    68.934729  0.059839174  0.068732161            3 
   97000    1.1094908   -4.2785653    69.913643  0.060063267  0.068607712            3 
   98000    1.0923907   -4.2541462    70.618563  0.060049799  0.068490929            1 
   99000    1.1292453    -4.272959    70.919475  0.059696527  0.068373974            3 
  100000    1.0967904   -4.2620472     71.87185  0.059893208  0.068241495            2 
  101000    1.1017371   -4.2692982    72.411522   0.05974548  0.068111832            4 
  102000    1.0871971   -4.2871273    73.192521  0.059797811   0.06798913            3 
  103000    1.1143246   -4.2707168    73.605822  0.059551636  0.067863137            2 
  104000    1.1138763   -4.2630072    74.048684  0.059333881  0.067721057            4 
  105000    1.1199199   -4.2309212    74.640393  0.059238407  0.067568389            3 
  106000    1.1144507   -4.2617836    75.159719  0.059087829  0.067415966            3 
  107000    1.0870504   -4.3195002    75.651837  0.058918876  0.067247864            2 
  108000    1.1222268    -4.287583    76.305262  0.058877516  0.067078739            4 
  109000    1.0932506   -4.2604889    76.763401  0.058687615  0.066915712            5 
  110000    1.0932203   -4.2995988    77.247491  0.058520826  0.066741262            3 
  111000    1.0801817   -4.2865016     78.09756  0.058631802  0.066568693            7 
  112000    1.1216402   -4.3146533    78.650723  0.058519883  0.066403233            3 
  113000    1.0700096   -4.2819901    79.378748  0.058538899  0.066228061            3 
  114000    1.1047912   -4.2902912    79.935018   0.05843203  0.066053526            3 
  115000    1.1317521   -4.2897941    80.846044   0.05858409  0.065891992            1 
  116000    1.0701632   -4.3031353    81.695488  0.058689287  0.065737944            4 
  117000    1.0884786   -4.2970844      82.5607  0.058803917  0.065596123            1 
  118000    1.0713454   -4.3087345    83.232171  0.058779782  0.065460099            3 
  119000    1.0828134   -4.2642162    83.690679  0.058606918  0.065326025            3 
  120000    1.0712816   -4.2908618    84.583295  0.058738399  0.065194495            2 
  121000    1.0903263   -4.2940185    84.780544  0.058388805  0.065060334            4 
  122000    1.0894044   -4.3181076    85.284879  0.058254698  0.064923572            2 
  123000    1.0800465   -4.3290573    85.730149  0.058082757  0.064785807            2 
  124000    1.0459771   -4.3600375    86.752752  0.058301581   0.06465106            4 
  125000    1.0762611   -4.3969691    87.163792  0.058109194  0.064520579            2 
  126000    1.0357609   -4.3390423    88.075675  0.058251108  0.064390729            4 
  127000    1.0670713   -4.2790389    88.958465  0.058371696  0.064273054            1 
  128000    1.0729466   -4.3159876     89.43467  0.058225696  0.064152019            3 
  129000    1.0779322   -4.2980922    90.114584  0.058213555  0.064023782            5 
  130000    1.0757697   -4.3595081    90.646371  0.058106648  0.063897223            2 
  131000    1.0623924   -4.2967302    91.424727  0.058158223  0.063777084            2 
  132000    1.0705357   -4.3325959    92.019675  0.058093229  0.063659357            3 
  133000    1.0462822   -4.3557195    92.066775  0.057685949  0.063538792            3 
  134000    1.0617062   -4.3295274     93.11402  0.057906729  0.063420315            5 
  135000    1.0581777    -4.374704    93.378021  0.057640753  0.063300886            3 
  136000    1.0441722   -4.3471294    94.119801  0.057671446  0.063181792            5 
  137000     1.057537   -4.3652778    95.040563  0.057810561  0.063062476            1 
  138000    1.0281662   -4.3578756    94.900768  0.057307227  0.062943068            4 
  139000    1.0405347   -4.3792451    95.665458  0.057353392  0.062822256            3 
  140000    1.0417211   -4.3781704    96.582225   0.05748942  0.062701588            5 
  141000    1.0347841    -4.406947    96.698761  0.057150568  0.062583504            6 
  142000    1.0313449    -4.378219    97.542406  0.057243196  0.062463278            3 
  143000    1.0352013   -4.3352578    98.718073  0.057528014  0.062348104            2 
  144000    1.0420042   -4.3468691    98.745274  0.057144256  0.062232333            2 
  145000    1.0171228   -4.3739083    99.458962  0.057160323  0.062109594            2 
  146000    1.0316354   -4.3821634    99.716319  0.056915707  0.061987423            3 
  147000    1.0407289   -4.3921482    100.11747  0.056755934  0.061869714            1 
  148000    1.0157846   -4.3508578     101.0862  0.056917905  0.061745057            3 
  149000    1.0256825   -4.3983534     101.1277  0.056559116  0.061628785            2 
  150000    1.0239891   -4.4005624    101.80253  0.056556959  0.061512236            2 
  151000    1.0139613   -4.3936849    102.60078  0.056622946  0.061393512            2 
  152000    1.0261478   -4.4258939    102.88014  0.056403587  0.061270265            2 
  153000    1.0160695   -4.3950142    103.81963  0.056546637  0.061147007            6 
  154000    1.0303374   -4.4000545    104.63276  0.056619461  0.061029997            1 
  155000    1.0190658   -4.4030479    105.40048  0.056666924    0.0609192            2 
  156000    1.0145361   -4.3699465     106.1188  0.056687394  0.060809404            2 
  157000    1.0188258   -4.4300446    105.93004  0.056226137  0.060702912            2 
  158000    1.0110498   -4.3901055    106.73271  0.056293621  0.060594114            2 
  159000    1.0263943   -4.3859848    107.65191  0.056421334  0.060484112            2 
  160000    1.0079971   -4.3859083    107.75887  0.056124413  0.060379051            3 
  161000   0.99166909   -4.4419413    108.60901  0.056215842  0.060278236            5 
  162000    1.0303311   -4.4136763    109.45284  0.056302902  0.060177877            6 
  163000    1.0077455    -4.430228    110.08225  0.056279269   0.06007806            3 
  164000    1.0111467   -4.4378665    109.79783  0.055791578  0.059973402            4 
  165000    1.0021922   -4.4263313    109.89362  0.055501827  0.059861233            2 
  166000    1.0003119    -4.426817    110.20302  0.055322803  0.059738825            4 
  167000   0.99962044   -4.4162524    110.74686  0.055262904   0.05961726            2 
  168000    1.0125089   -4.4744755    110.99871  0.055058886  0.059494852            2 
  169000   0.98581897   -4.4391863    111.69543  0.055076643  0.059375009            3 
  170000   0.97620033   -4.4383674    111.93896  0.054872037    0.0592539            4 
  171000   0.98772602   -4.4199748    113.10906  0.055121375  0.059132553            4 
  172000   0.98086412   -4.4474047    113.41169  0.054947522  0.059014566            3 
  173000   0.99548323   -4.4622876    113.40047  0.054624505  0.058897708            3 
  174000   0.98877987   -4.4696559    114.53542   0.05485413  0.058776453            2 
  175000   0.99970535   -4.4637728    114.61015  0.054576262  0.058654764            3 
  176000    1.0021098   -4.4783527     114.6901  0.054304025  0.058530984            7 
  177000   0.98720203   -4.4862283    115.24396  0.054257986  0.058406348            6 
  178000   0.97683701   -4.5055524    115.48787  0.054067353  0.058276399            3 
  179000    0.9862581   -4.4477947    116.41129    0.0541952  0.058147575            4 
  180000   0.96854049   -4.4723607    116.80513   0.05407645  0.058021954            4 
  181000   0.99101742   -4.4601605     116.8008  0.053775692  0.057893606            8 
  182000   0.98088597   -4.4809598    117.25026  0.053686018   0.05776562            3 
  183000   0.98685206   -4.4645157    118.26864  0.053856396  0.057638458            2 
  184000   0.96230328   -4.4845358    118.10061  0.053487593  0.057510804            5 
  185000   0.98007844   -4.5026354    118.75145  0.053491643  0.057380014            5 
  186000   0.98733483   -4.5009121    118.84019  0.053243811   0.05724971            2 
  187000   0.97005155    -4.486093    119.54295  0.053272259  0.057121932            4 
  188000   0.97737712   -4.5071761    119.79999  0.053102832  0.056997249            2 
  189000   0.96520522   -4.4940221    120.39824  0.053085642  0.056868767            2 
  190000   0.95447346   -4.4796739    121.24044  0.053175631  0.056739603            6 
  191000   0.95661214   -4.5267746    120.80474  0.052707128  0.056611121            4 
  192000   0.93312582   -4.5224575    122.00749   0.05295464   0.05648703            5 
  193000   0.97214714   -4.4813044    122.97356  0.053097394  0.056366242            2 
  194000   0.95974531   -4.5196808    122.78699  0.052743552   0.05624618            4 
  195000   0.96044543   -4.5083143     123.3282   0.05270436  0.056127099            3 
  196000   0.95064586   -4.5303892    124.22227  0.052815592  0.056007769            3 
  197000   0.95980358   -4.5690799    124.01256  0.052458782  0.055889088            4 
  198000   0.96104344   -4.5177078    125.22092  0.052702406    0.0557709            2 
  199000   0.94604258   -4.5508668    124.88325  0.052296168  0.055653107            2 
  200000   0.94635271   -4.5328013    125.90924  0.052462182  0.055539584            7 
  201000   0.93902889   -4.5590519    126.30669  0.052365956  0.055428914            5 
  202000   0.92617802   -4.5479887    127.27971  0.052508131  0.055319093            3 
  203000   0.96340947   -4.5500722    127.49849  0.052339281  0.055210428            2 
  204000   0.92588735   -4.5569601    127.12954  0.051932002  0.055103054            4 
  205000   0.93829561   -4.5672974    127.60848  0.051873367  0.054990694            3 
  206000   0.94315981   -4.5694854    128.46282   0.05196716  0.054879416            3 
  207000    0.9474399   -4.5604632    128.59134  0.051767851  0.054766526            4 
  208000   0.95420771   -4.5621553    128.81656  0.051609199  0.054651651            3 
  209000   0.94671949   -4.5477862    129.22467  0.051524988  0.054533963            3 
  210000    0.9391927   -4.5688629    128.72143  0.051079934  0.054414502            3 
  211000   0.92980071   -4.5675631    129.95089  0.051323415  0.054295712            7 
  212000    0.9259415     -4.54425    130.18341  0.051172723  0.054176145            3 
  213000   0.95109032   -4.5606718    130.37071  0.051005754  0.054053166            3 
  214000   0.92897879   -4.5465858    130.75042  0.050915272  0.053931669            7 
  215000   0.94793699   -4.5675577    130.94114  0.050752379  0.053808167            6 
  216000   0.93959258   -4.5742556    131.24425  0.050634355  0.053684695            2 
  217000   0.93023849   -4.5855713    131.78727  0.050609551  0.053562466            3 
  218000   0.89736714   -4.6059424    131.42459  0.050238756  0.053441687            7 
  219000   0.93633485   -4.5986902    132.75721  0.050516441  0.053321383            4 
  220000   0.90266384   -4.5858016    132.53132  0.050201258  0.053197168            4 
  221000    0.9057596   -4.6000883    132.81832  0.050082324  0.053072036            4 
  222000   0.92205338   -4.6231942    132.32488  0.049671501  0.052944283            7 
  223000   0.92829783     -4.59624    132.99709   0.04969996  0.052815099            3 
  224000   0.91673822   -4.6116159     133.7861  0.049771613  0.052689095            7 
  225000   0.91578051   -4.6014038    133.95019   0.04961118  0.052563901            2 
  226000   0.89073874   -4.6266431    134.87651  0.049733225   0.05244114            3 
  227000   0.91329372   -4.6308558    135.00742  0.049562195  0.052318324            2 
  228000   0.91645281   -4.6149282    135.59968  0.049561285  0.052198172            4 
  229000   0.90823948   -4.6256152    136.08126  0.049520108  0.052081026            4 
  230000   0.91028369   -4.6235224    136.55511  0.049476491  0.051964983            3 
  231000   0.89516864   -4.6182142    136.42956  0.049217014  0.051844369            6 
  232000   0.90413136   -4.6152574    136.86759   0.04916221  0.051723283            1 
  233000   0.88627084   -4.6697798     136.9326  0.048974464  0.051601636            3 
  234000   0.88194826   -4.6425562    137.42711  0.048941278  0.051480421            3 
  235000   0.87220424    -4.669677    137.46423  0.048746181  0.051360269            7 
  236000   0.89603564   -4.6419361    137.68533  0.048617701  0.051240459            3 
  237000   0.89985726   -4.6548915    137.82526  0.048461764  0.051119725            5 
  238000   0.89072685   -4.5997697    138.77134  0.048589405  0.051000887            7 
  239000   0.87536688   -4.6402242    138.92395  0.048439312  0.050885127            6 
  240000   0.89098549   -4.6747022    139.35999  0.048388884  0.050770016            3 
  241000   0.87773796   -4.6938488    138.59827  0.047924712  0.050653086            8 
  242000   0.88736244   -4.6686661    140.12269  0.048251615    0.0505363            4 
  243000   0.90011594   -4.6597655    140.97411  0.048345032  0.050422275            4 
  244000   0.86328954   -4.6461145    140.83659  0.048099927  0.050308679            3 
  245000   0.88858663   -4.6739436    141.19132  0.048024257  0.050195381            5 
  246000   0.88133479   -4.6756654    141.42693   0.04790885  0.050081499            3 
  247000   0.86751587   -4.6804937    141.48059  0.047732994  0.049966171            4 
  248000   0.88843018   -4.6490065    142.07818  0.047741325  0.049853157            4 
  249000   0.87217444   -4.7032862    142.47027  0.047680813  0.049740687            4 
  250000   0.85854684   -4.6699214    142.55174  0.047517247  0.049627453            2 
  251000   0.87645366   -4.6928621    143.06202  0.047497351  0.049516534            4 
  252000    0.8656926   -4.7137212    142.53829  0.047135679  0.049402889           15 
  253000    0.8727369   -4.6909486    142.82539  0.047043936  0.049289425            2 
  254000   0.86349047    -4.695628    144.25334  0.047327212  0.049176304            4 
  255000   0.87659263   -4.6807522    143.83914  0.047006255  0.049064933            4 
  256000   0.86688541   -4.6876324    144.46709  0.047027047  0.048952045            3 
  257000   0.85813983   -4.7105962    143.83555  0.046639284   0.04883971            4 
  258000   0.86251092   -4.7073483    144.49071  0.046670124  0.048726028            4 
  259000   0.84735346   -4.7166162    144.53608  0.046504529  0.048613471            4 
  260000   0.86856617   -4.7174771    144.72881  0.046387438  0.048499441            6 
  261000     0.872531   -4.7279399    144.75903  0.046219357  0.048383168            6 
  262000   0.83972516   -4.7229046    145.48551  0.046274017    0.0482681            2 
  263000   0.86226849   -4.7199413    145.44154  0.046084139  0.048153392            5 
  264000    0.8518975   -4.6977733    145.91035  0.046057561  0.048038362            4 
  265000   0.86400232   -4.7296868    146.30703  0.046008501  0.047924215            9 
  266000   0.82675355   -4.7253164    146.67587  0.045951086  0.047811709            7 
  267000   0.83434611   -4.7316147     146.7126   0.04579045   0.04769781            4 
  268000   0.83141363   -4.6975114    147.02508  0.045716754  0.047585046            5 
  269000   0.84406521   -4.7319048    147.50662   0.04569598  0.047472138            7 
  270000   0.81730542    -4.733675    148.02289  0.045686077  0.047359813            5 
  271000   0.82760187    -4.747356     147.7515  0.045434041  0.047247867            4 
  272000   0.85041466   -4.7513093    148.00911  0.045345929  0.047135587            5 
  273000   0.82367033   -4.7482591    148.31516  0.045273248   0.04702473            5 
  274000   0.84420628   -4.7820514     148.5169  0.045169374  0.046913129            7 
  275000   0.82997303   -4.7578803    148.35754  0.044956831  0.046800184            3 
  276000   0.82348333   -4.7616272    149.06078  0.045006273  0.046688438            4 
  277000   0.82372302   -4.7619923    149.26225  0.044904408  0.046575758            5 
  278000   0.81676783   -4.7742963    148.85114  0.044619647   0.04646314            9 
  279000   0.82454881    -4.777107    149.34133  0.044606133  0.046351784            9 
  280000   0.83188521    -4.771418     149.7764  0.044576311  0.046241508            3 
  281000   0.83715023   -4.7955328    150.20252  0.044544046   0.04613094            8 
  282000   0.80828447   -4.7756403    150.00189  0.044326798  0.046019756            4 
  283000   0.79485648   -4.7564913    150.23135  0.044237735  0.045908342            2 
  284000     0.815306   -4.8204118    150.67001  0.044210684  0.045797599            9 
  285000   0.80598749    -4.806816    150.65407  0.044050897  0.045685909            4 
  286000    0.7997302   -4.8046557    150.53843  0.043863178  0.045574039           12 
  287000    0.7941413   -4.7869923    151.52934  0.043998065  0.045463278            4 
  288000   0.80874695   -4.7999905    151.32689  0.043786715  0.045352361            4 
  289000   0.81121601   -4.7870422    151.57112  0.043705629   0.04524157            8 
  290000   0.81387031   -4.7901082    152.20413  0.043736819  0.045132548            6 
  291000     0.798416   -4.8188012    151.88897  0.043496268  0.045023687            4 
  292000   0.78846021   -4.8151738    152.24696  0.043449474  0.044914028            5 
  293000   0.79579946   -4.7937836    152.45782  0.043361155  0.044804115            5 
  294000   0.81487103   -4.8161292    152.49017  0.043222837  0.044694628            4 
  295000   0.82118775   -4.8390502    152.82406  0.043170637   0.04458627            4 
  296000   0.79360239   -4.8190996    152.87559  0.043039298  0.044477628            4 
  297000   0.79168566   -4.8339384    153.75253  0.043140439  0.044368877            6 
  298000   0.79620098   -4.8214014    153.47551  0.042918209  0.044259874            7 
  299000   0.79552523   -4.8133274      153.983  0.042916109  0.044151649            4 
  300000   0.79174959   -4.8641056    153.75568   0.04270991  0.044045018            6 
  301000   0.78622345   -4.8452761    154.20883  0.042693475  0.043937487            5 
  302000   0.79091669    -4.845831    154.58062  0.042654696   0.04383083            5 
  303000    0.7802479   -4.8870438    154.25949  0.042425601  0.043723631           13 
  304000   0.77381467   -4.8504152    154.76633  0.042424979  0.043615766           10 
  305000   0.78508198   -4.8480964    155.39631  0.042458009  0.043510278            3 
  306000    0.7873803   -4.8646497    155.17009  0.042257649  0.043405588            4 
  307000   0.77438103   -4.8405419    155.05653  0.042089179  0.043299608            8 
  308000   0.77172567   -4.8731452    155.43833  0.042055824  0.043192439            8 
  309000   0.78401375   -4.8713588    155.80669  0.042019064  0.043087281            4 
  310000   0.76536149   -4.8665519    155.37889   0.04176852  0.042981848            6 
  311000   0.76799775   -4.8462087    156.34678  0.041893564  0.042878105            9 
  312000   0.77490318   -4.9088347    156.37921  0.041767951  0.042775633            6 
  313000   0.75703114   -4.8723563    156.60822  0.041695478  0.042672505            5 
  314000   0.78340295   -4.8639413     156.7265   0.04159408  0.042569499            4 
  315000   0.78017088   -4.8854319    156.65739  0.041443755  0.042466363            5 
  316000   0.77225083   -4.8661007     157.8945  0.041638845  0.042365171            5 
  317000   0.75822106   -4.8826074    157.70461  0.041457574  0.042264056            6 
  318000   0.76916619   -4.9207869    157.45044  0.041260598  0.042162843            7 
  319000   0.75454056   -4.8888252     158.3776  0.041373458  0.042062181            9 
  320000   0.75928551   -4.9130706     157.9696  0.041137916  0.041962075           11 
  321000   0.74354622   -4.9148319    158.07779  0.041037849  0.041861208            5 
  322000     0.764061   -4.9129605    158.34778  0.040980273  0.041760747            6 
  323000   0.76307627    -4.910245    158.22527  0.040821793  0.041660215            6 
  324000   0.77536851   -4.9268107     158.3344  0.040723867  0.041559185            6 
  325000   0.74792555   -4.9105914    158.79685  0.040717141  0.041459049            9 
  326000   0.75461157   -4.9308731    158.78538   0.04058931  0.041358936            5 
  327000   0.75715368    -4.925895    159.58491  0.040668938  0.041260365            9 
  328000   0.75065416   -4.8950971    160.06258  0.040666305   0.04116364            6 
  329000   0.74707831   -4.9633497    160.02734  0.040533775  0.041067134            4 
  330000   0.74329698   -4.9345696    159.91344  0.040382183  0.040970296            4 
  331000    0.7328055   -4.9251514    160.82204  0.040488933  0.040873951            7 
  332000   0.72573276   -4.9509475    160.09043   0.04018334   0.04077741           10 
  333000   0.75305815   -4.9510425    160.62943  0.040197554  0.040681451            9 
  334000   0.73095815   -4.9502075    160.60746  0.040071721  0.040584766           12 
  335000   0.73965284   -4.9271792    160.48081  0.039920598  0.040488533            8 
  336000   0.72504999   -4.9115106    161.41724  0.040034037  0.040392691            3 
  337000   0.72700315   -4.9512082    161.21544   0.03986534  0.040297066           13 
  338000   0.72712449    -4.965725    160.61827  0.039600165  0.040199776            5 
  339000   0.73983757   -4.9616918    160.93765  0.039561861  0.040102263            4 
  340000   0.73099362    -4.982317    161.30233  0.039534886  0.040006195           10 
  341000   0.73351646   -4.9764901     161.4319   0.03945061  0.039909301            3 
  342000   0.71421175   -4.9702381    161.45837  0.039341709  0.039814167           10 
  343000   0.72565003   -4.9894319    161.73929  0.039295259  0.039718943            3 
  344000   0.72713865   -4.9570087    162.50279  0.039365987  0.039624257            8 
  345000   0.71400242   -4.9839572    162.12368  0.039160309  0.039529494            7 
  346000    0.7128055   -4.9999353    162.38526  0.039110131  0.039434632            5 
  347000   0.70884655   -4.9805949    162.48995  0.039022562  0.039339736            6 
  348000   0.71316894   -5.0056964    162.56251  0.038927803   0.03924601           10 
  349000   0.70957564   -4.9836572    163.09414  0.038943204  0.039153082            8 
  350000   0.69853067     -4.99953    163.70823  0.038978151  0.039061689            6 
  351000    0.7164306   -5.0074512    163.46703  0.038809835  0.038970465           12 
  352000   0.71393975   -5.0062034    163.63209  0.038738659  0.038878994            5 
  353000   0.72604772   -5.0071746    163.88658  0.038688995  0.038787775            7 
  354000   0.69427862    -5.028669     163.5137  0.038491925  0.038696323           12 
  355000    0.7131467   -5.0169614    163.53121  0.038387609  0.038604347           10 
  356000   0.69802822   -5.0116004    163.86595  0.038358133  0.038512881            6 
  357000   0.69878964   -5.0502734    164.25918   0.03834248   0.03842141            4 
  358000   0.71404824   -5.0090491    164.49243  0.038289673  0.038330662            8 
  359000   0.68967897   -5.0305436    164.49841  0.038184405   0.03824044            9 
  360000   0.69599526   -5.0583785    164.10779  0.037987915  0.038149397           10 
  361000   0.68411689   -5.0335902    164.76943  0.038035417  0.038059476            8 
  362000   0.68909483     -5.03851    164.64868   0.03790255   0.03796939           12 
  363000   0.68536198   -5.0487305    164.80529  0.037834088  0.037879521            8 
  364000   0.68217372   -5.0605929    164.88033  0.037747328  0.037789451           10 
  365000   0.69039247   -5.0533292    164.73463  0.037610646  0.037699756           10 
  366000   0.68412908   -5.0593497    165.22805   0.03762023  0.037610508           22 
  367000   0.68216874   -5.0480322    165.17415  0.037505484  0.037520935           13 
  368000   0.67853121   -5.0587176    165.46275   0.03746892  0.037431676           13 
  369000   0.69766512   -5.0214063    166.13459  0.037519104  0.037342881            9 
  370000   0.65998298    -5.044894    165.95303  0.037376809  0.037255005            6 
  371000   0.68041024   -5.0817362    165.55969   0.03718771  0.037166544            8 
  372000   0.69999807   -5.0596693     165.9994  0.037186246  0.037078074            9 
  373000   0.66608221    -5.098204    165.93883  0.037073019   0.03699023           18 
  374000     0.656009   -5.0711026    165.89812  0.036964822  0.036902421            5 
  375000    0.6778388   -5.1047657     166.2416  0.036942578  0.036815422           11 
  376000   0.66239373   -5.0998656    166.01474  0.036794046  0.036727497           15 
  377000   0.66276369   -5.1109893    166.30002  0.036759508  0.036639326            7 
  378000   0.64845297   -5.0836967    166.57277  0.036722393  0.036551932           16 
  379000   0.66480354   -5.0915526    166.57284  0.036625515  0.036464528           15 
  380000   0.67344086   -5.0728085    166.61927  0.036539313  0.036377369            7 
  381000   0.65452254   -5.1324945    166.15252   0.03634132  0.036290346           15 
  382000   0.65326621   -5.1122585    166.88271  0.036405478  0.036203268            5 
  383000   0.65726551   -5.1178587    166.58199  0.036244993  0.036116897            9 
  384000   0.65836413   -5.1342871    167.51394  0.036352851   0.03603081            6 
  385000   0.65813966   -5.1295988    167.16959  0.036183894  0.035944397            8 
  386000   0.65028831   -5.1151376    167.78333  0.036222653  0.035858958           11 
  387000   0.64974541   -5.1382237    167.87549  0.036148901  0.035773997           11 
  388000   0.64944936   -5.1288626    167.92634  0.036066654    0.0356897           11 
  389000   0.65443308   -5.1221135    167.82069  0.035951305  0.035604877            6 
  390000   0.63916051   -5.1470092    167.36765  0.035762318  0.035520066           14 
  391000   0.64347904    -5.123665    167.89097  0.035782388   0.03543546           12 
  392000   0.64595987   -5.1510144    168.24175  0.035765678  0.035350657           16 
  393000   0.63363544    -5.177897    167.52919  0.035523576  0.035265296           14 
  394000   0.64715973   -5.1268726    168.01465  0.035536093  0.035179959           21 
  395000   0.63946959   -5.1495088    168.18847  0.035482799  0.035095606           21 
  396000    0.6229549   -5.1400401    168.45501  0.035449286  0.035011102           10 
  397000   0.65144351   -5.1734576    168.32058  0.035331775  0.034926812           11 
  398000   0.63074234   -5.1603952    167.91976  0.035159079   0.03484328           10 
  399000   0.62831493   -5.1502274    168.34272  0.035159299  0.034759623           16 
  400000   0.62315145   -5.1648377    168.12963  0.035027006  0.034675528            9 
  401000   0.62440647   -5.1854678    168.56834  0.035030827  0.034591575           20 
  402000   0.61661417   -5.1974912    168.47941   0.03492525  0.034507667           14 
  403000   0.62952252   -5.1952303    168.32952  0.034807594  0.034424559           23 
  404000   0.62561709   -5.1645042    168.61913  0.034781174  0.034342233            4 
  405000   0.61902863   -5.1872789    169.00827  0.034775364  0.034259521           42 
  406000   0.61148639    -5.183219    169.01945  0.034692005  0.034176672           20 
  407000   0.61939899   -5.2131142    169.71121  0.034748406  0.034094974           10 
  408000   0.60693415   -5.2152221    169.63417  0.034647502  0.034013729           24 
  409000   0.61621136   -5.2023203    169.20614  0.034475579  0.033932959           12 
  410000   0.60068774   -5.1821884    169.50643  0.034452527  0.033852059           25 
  411000   0.61330516   -5.2304199    169.60452  0.034388589  0.033771249           17 
  412000   0.60968013   -5.2196692    169.23756  0.034230898  0.033690185           10 
  413000   0.60718333   -5.2227122    169.57916  0.034216941  0.033609799           12 
  414000   0.62931861   -5.2184715    169.73248  0.034165153  0.033529215           18 
  415000   0.61164891   -5.2357206     169.8283  0.034102068  0.033449001            5 
  416000    0.6035502   -5.2184297     169.7995  0.034014323  0.033368558            7 
  417000   0.60394044   -5.2382675     169.5123   0.03387536   0.03328822           18 
  418000   0.59573583   -5.2161434    170.47764  0.033986771  0.033208829           18 
  419000   0.61256811   -5.2421255    169.85531  0.033781883   0.03312935            8 
  420000   0.59341699   -5.2359508    170.14782  0.033759489  0.033049637           20 
  421000   0.57843182   -5.2462972    169.87797  0.033625884   0.03297072           12 
  422000   0.59174811   -5.2498486    170.05384  0.033580932  0.032892076           12 
  423000   0.58666092   -5.2617761    170.21156  0.033532616  0.032813295           49 
  424000   0.58795671    -5.259904    170.31356  0.033473577  0.032734726           23 
  425000   0.59364774   -5.2459799    170.03341  0.033339884  0.032656453            5 
  426000   0.57732711   -5.2346538    170.44524  0.033342184  0.032578272            7 
  427000   0.58811524   -5.2526688    170.87312  0.033347603  0.032500369           18 
  428000   0.57645164   -5.2707933    170.56413  0.033209526  0.032422715           12 
  429000   0.59042537   -5.2522642    170.46359  0.033112585   0.03234513           22 
  430000   0.58199529   -5.2735309    170.55021  0.033052367  0.032266904           14 
  431000   0.56852658    -5.284525    170.62585  0.032990303  0.032188916           16 
  432000   0.58111326   -5.2992719    170.13236  0.032818742  0.032110825           19 
  433000   0.58519649   -5.3077089    170.13692  0.032743826   0.03203291           10 
  434000   0.56359285   -5.2971243    170.57605  0.032752698   0.03195493           14 
  435000   0.57145237   -5.2968047    170.68835  0.032698917  0.031877226           14 
  436000   0.57800031   -5.2859303    171.00165  0.032683801  0.031799749           15 
  437000   0.56542495   -5.2946576    170.69967  0.032551425  0.031722511           11 
  438000   0.58329491     -5.29561    170.44971  0.032429549  0.031645345           18 
  439000   0.56659777   -5.3065485    170.61075  0.032386247  0.031567998           17 
  440000   0.57256725   -5.3045693    170.71848  0.032333046  0.031491126           21 
  441000   0.55406638   -5.3429929     170.7241   0.03226079    0.0314138           32 
  442000   0.57350336   -5.3093114    170.75939  0.032194455  0.031336919           21 
  443000   0.56496944   -5.3257362    170.84766  0.032138387  0.031260134           15 
  444000   0.55710468   -5.3189765    171.11847   0.03211683  0.031183424           18 
  445000   0.56110425   -5.3226227    170.92244  0.032007948  0.031107113           25 
  446000   0.54736847   -5.3426067    170.80367  0.031913989   0.03103064           33 
  447000   0.56059354   -5.3478896    170.72905  0.031828682  0.030953863           18 
  448000   0.55274161   -5.3386481    171.03223   0.03181403  0.030877306           12 
  449000   0.54905726   -5.3642148     170.9271  0.031723663   0.03080084           12 
  450000   0.55652183   -5.3570115    170.53791  0.031581095  0.030724286           17 
  451000   0.54967868   -5.3447723     170.8474  0.031568256  0.030648172           27 
  452000   0.54975832   -5.3337401    171.12615  0.031549806  0.030572522           49 
  453000   0.55230746   -5.3392116    170.67752  0.031397631  0.030496788           33 
  454000   0.54781678   -5.3528065    170.92775  0.031374404  0.030421178           16 
  455000   0.54615594   -5.3599133    171.15325  0.031346749  0.030345656           27 
  456000   0.55478119   -5.3691981    171.14536  0.031276565   0.03027024           29 
  457000   0.54110084   -5.3658551     170.9904  0.031179869  0.030194991           49 
  458000   0.53101811    -5.383657    171.02974  0.031118948  0.030119786           23 
  459000   0.53479527   -5.3813992    170.92474  0.031032087  0.030044614           11 
  460000   0.53641537   -5.3751252    171.15424  0.031006204   0.02996984           17 
  461000   0.51998742   -5.3878712    170.71648  0.030859813  0.029894904           33 
  462000   0.53530595   -5.3765772    171.21957  0.030883761  0.029820085           24 
  463000   0.52085036   -5.3870797    170.96039  0.030770409  0.029745451           23 
  464000   0.53651532   -5.4033103    170.77357   0.03067054  0.029670619           10 
  465000   0.51788759   -5.4142509    170.88152  0.030623929  0.029595978           11 
  466000   0.52346194   -5.3861937    171.14291  0.030604956  0.029521587           18 
  467000   0.50810789   -5.4110297    171.41271  0.030587564  0.029447495           31 
  468000   0.51952229   -5.4071146    171.02966  0.030453999   0.02937366           22 
  469000    0.5246092   -5.4138852    171.35767  0.030447347  0.029299596           39 
  470000   0.50751003   -5.4121836    170.87502  0.030296989  0.029225607           18 
  471000   0.52018648   -5.4209077    171.10001  0.030272472    0.0291515            8 
  472000   0.52425206    -5.428373    170.45959  0.030095266  0.029077642           22 
  473000   0.51016031   -5.4472996    170.79709  0.030091102  0.029003565           34 
  474000   0.51675375   -5.4264095    170.55193  0.029984517  0.028929532           17 
  475000   0.51033868   -5.4300108    170.93555  0.029988692  0.028855854           23 
  476000   0.50660975   -5.4184739    170.65897  0.029877271  0.028782153           19 
  477000   0.51072653   -5.4381878    170.56053  0.029797437  0.028708667           42 
  478000   0.51039214   -5.4417729    170.60227  0.029742377  0.028635333           31 
  479000   0.50735168     -5.43763    170.56395  0.029673617  0.028561929           16 
  480000   0.50046786   -5.4500157    170.71401  0.029637849  0.028489001           35 
  481000   0.49527846   -5.4580782    170.92752  0.029613223  0.028416555           24 
  482000     0.496521   -5.4513846    170.94722   0.02955519  0.028344033           91 
  483000   0.49875038    -5.449987    170.58423  0.029431371   0.02827172           49 
  484000   0.49926034   -5.4719984     171.1382  0.029465944  0.028199642           86 
  485000   0.49845898   -5.4682699     170.5392  0.029302269  0.028127978          113 
  486000   0.48296741   -5.4745818    170.60412  0.029253107  0.028056142          156 
  487000   0.49088998     -5.47839    170.09455  0.029105844  0.027984317           59 
  488000    0.4908922    -5.476755    170.48421  0.029112741  0.027912517           35 
  489000   0.48109898   -5.4544454    170.86676  0.029118397  0.027840911           55 
  490000   0.48412024   -5.4942486    170.70266  0.029031064  0.027769424          117 
  491000     0.479079   -5.4900089    170.61183  0.028956522    0.0276979           59 
  492000   0.47903655   -5.5051607    170.44984  0.028870231  0.027626543           37 
  493000   0.48404997   -5.4980039    170.72935  0.028858917  0.027555204           62 
  494000    0.4749926   -5.4886178     170.5549   0.02877107  0.027484082           53 
  495000   0.47409405   -5.5043224    170.76252    0.0287479  0.027413289           45 
  496000   0.48832376    -5.505552       170.49  0.028644153  0.027342539           30 
  497000   0.47907679   -5.5065679    170.39212  0.028570107  0.027271671           54 
  498000   0.47512516   -5.5221807    170.48683  0.028528586  0.027201028          138 
  499000   0.47243935   -5.5130138    169.92579  0.028377721  0.027130244          157 
  500000   0.46305369   -5.5233264    170.36001  0.028393334  0.027059657           90 
  501000   0.46865135   -5.5146276    170.50752  0.028361197  0.026989323           69 
  502000   0.47377051   -5.5220532    170.21508  0.028256155  0.026919084          148 
  503000   0.46847378   -5.5300177    170.34254  0.028221096  0.026849008          123 
  504000    0.4644379   -5.5391228    170.35126  0.028166545   0.02677894          190 
  505000   0.46116419   -5.5147518    170.39198  0.028117488  0.026709189          166 
  506000   0.46310747   -5.5387205    170.19206  0.028028996   0.02663954          130 
  507000   0.45339977   -5.5495112    170.06874  0.027953442  0.026569899          102 
  508000   0.45001942    -5.546088    170.05175  0.027895628  0.026500408          164 
  509000   0.45247163   -5.5562897    170.41844  0.027900858  0.026430891          264 
  510000    0.4544364    -5.560864     169.6456  0.027719869  0.026361582           94 
  511000   0.44936075   -5.5754381    170.01614   0.02772605  0.026292246          133 
  512000   0.45994629   -5.5656778    169.72011  0.027623716  0.026223063          269 
Loop time of 1262.51 on 48 procs for 500000 steps with 4000 atoms

Performance: 68435.196 tau/day, 396.037 timesteps/s
99.4% CPU use with 48 MPI tasks x no OpenMP threads

MPI task timing breakdown:
Section |  min time  |  avg time  |  max time  |%varavg| %total
---------------------------------------------------------------
Pair    | 85.939     | 91.503     | 96.306     |  28.2 |  7.25
Neigh   | 8.4888     | 8.8573     | 9.2494     |   6.9 |  0.70
Comm    | 81.382     | 88.391     | 95.244     |  35.6 |  7.00
Output  | 1.0943     | 1.0953     | 1.126      |   0.4 |  0.09
Modify  | 1055.6     | 1059.7     | 1064.8     |   7.0 | 83.93
Other   |            | 13         |            |       |  1.03

Nlocal:        83.3333 ave          91 max          75 min
Histogram: 1 0 4 13 4 9 7 4 3 3
Nghost:        2321.52 ave        2342 max        2295 min
Histogram: 1 2 6 3 5 7 7 9 4 4
Neighs:        15785.8 ave       17364 max       14065 min
Histogram: 1 2 4 10 8 8 5 3 2 5
FullNghs:      31571.4 ave       34874 max       28232 min
Histogram: 1 0 6 13 5 7 7 5 1 3

Total # of neighbors = 1515429
Ave neighs/atom = 378.85725
Neighbor list builds = 26928
Dangerous builds = 0

#clear
#
#next RN
#
#jump SELF
Total wall time: 0:21:06
