
units lj                  # Use reduced LJ style units
atom_style atomic         # Uncharged point particles
atom_modify map hash      # Needed for indexing of clusters etc
                          # Used to be able to find where atoms are in relation to each other.

lattice fcc 1.0 spacing 1 1 1
Lattice spacing in x,y,z = 1.5874011 1.5874011 1.5874011
region box block 0 10 0 10 0 10 units lattice
create_box 2 box
Created orthogonal box = (0.0000000 0.0000000 0.0000000) to (15.874011 15.874011 15.874011)
  3 by 4 by 4 MPI processor grid
create_atoms 1 box
Created 4000 atoms
  using lattice units in orthogonal box = (0.0000000 0.0000000 0.0000000) to (15.874011 15.874011 15.874011)
  create_atoms CPU = 0.002 seconds
set type 1 type/fraction 2 0.62 78393
Setting atom values ...
  2494 settings made for type/fraction
mass 1 1.0
mass 2 1.0
pair_style lj/cut  3.5
pair_modify tail  yes
pair_coeff 1  1  1.0  1.0   # Intearaction between 1 and 1 set with epsilon = 1 and sigma = 1
pair_coeff 1  2  1.5  0.8
pair_coeff 2  2  0.5  0.88

write_data data.0
System init for write_data ...
Neighbor list info ...
  update every 1 steps, delay 10 steps, check yes
  max neighbors/atom: 2000, page size: 100000
  master list distance cutoff = 3.8
  ghost atom cutoff = 3.8
  binsize = 1.9, bins = 9 9 9
  1 neighbor lists, perpetual/occasional/extra = 1 0 0
  (1) pair lj/cut, perpetual
      attributes: half, newton on
      pair build: half/bin/atomonly/newton
      stencil: half/bin/3d
      bin: standard
WARNING: Not all mixed pair coeffs generated from mixing. Use write_data with 'pair ij' option to store all pair coeffs. (../write_data.cpp:312)


#############################
#   M E L T   S Y S T E M   #
#############################

velocity all create 2.4 2750902 mom yes dist gaussian # Assign velocities
                                                    # Temperature 2.4, random number seed, zero linear momentum
                                                                                # Gaussian distribution

timestep 0.002   # simulation timestep
thermo 1000       # output thermodynamic data every 1000 steps bf 100

# Define a fix  in this case with index 1 applied to all
# particles in the simulation. This fix is for simulations
# in the anisotropic NPT ensemble. Note that we use the MTK
# correction.
fix 1 all npt temp 2.4 2.4 0.1 iso 5.68 5.68 0.5 mtk yes tchain 5 pchain 5 # Use NPT ensemble
                                                                         # Set temperature and pressure and damping
                                                                         # Numbers of thermostats in chain and in barostat
run 10000          # run for 10000 steps
Per MPI rank memory allocation (min/avg/max) = 3.642 | 3.644 | 3.648 Mbytes
Step Temp E_pair E_mol TotEng Press Volume 
       0          2.4   -4.6132646            0   -1.0141646   -4.0148013         4000 
    1000    2.4545315   -4.3558944            0   -0.6750176    5.5422547    3631.8301 
    2000     2.355569   -4.3980981            0  -0.86562802    5.6230289    3586.9195 
    3000     2.387912   -4.3109922            0  -0.73001965     5.589251    3640.5028 
    4000    2.4965395   -4.2655374            0  -0.52166425    5.6310344    3668.8934 
    5000    2.3959572   -4.2637715            0  -0.67073413    5.7665882    3650.0337 
    6000     2.407829    -4.397315            0  -0.78647451    5.3305457    3618.2371 
    7000    2.4058559   -4.3546055            0  -0.74672388    5.9477702    3599.4397 
    8000    2.4019163   -4.3509432            0  -0.74896943    5.7927838    3597.9256 
    9000    2.4166202   -4.3219314            0  -0.69790738    5.6660557    3619.4196 
   10000    2.4195086   -4.3484845            0  -0.72012884    5.8066956    3608.8121 
Loop time of 2.69687 on 48 procs for 10000 steps with 4000 atoms

Performance: 640743.583 tau/day, 3708.007 timesteps/s
99.6% CPU use with 48 MPI tasks x no OpenMP threads

MPI task timing breakdown:
Section |  min time  |  avg time  |  max time  |%varavg| %total
---------------------------------------------------------------
Pair    | 1.1882     | 1.2745     | 1.4416     |   3.6 | 47.26
Neigh   | 0.21765    | 0.22448    | 0.25223    |   1.2 |  8.32
Comm    | 0.77011    | 0.92125    | 1.0229     |   4.9 | 34.16
Output  | 0.00025529 | 0.00026119 | 0.00032644 |   0.0 |  0.01
Modify  | 0.21627    | 0.26068    | 0.33361    |   5.7 |  9.67
Other   |            | 0.01572    |            |       |  0.58

Nlocal:        83.3333 ave          96 max          72 min
Histogram: 2 1 9 6 4 18 1 3 3 1
Nghost:        1758.85 ave        1788 max        1734 min
Histogram: 1 7 8 4 7 6 6 5 1 3
Neighs:        10577.1 ave       12301 max        8768 min
Histogram: 1 2 5 7 7 9 10 2 4 1

Total # of neighbors = 507702
Ave neighs/atom = 126.92550
Neighbor list builds = 904
Dangerous builds = 196

# Equilibrate just above the melting temperature to avoid step fn in T

fix 1 all npt temp 1.25 1.25 0.1 iso 5.68 5.68 0.5 mtk yes tchain 5 pchain 5
run 2000
Per MPI rank memory allocation (min/avg/max) = 3.644 | 3.646 | 3.650 Mbytes
Step Temp E_pair E_mol TotEng Press Volume 
   10000    2.4195086   -4.3484845            0  -0.72012884    5.8066956    3608.8121 
   11000    1.2400937   -6.3673567            0   -4.5076812    5.7191711    2766.9441 
   12000    1.2568191    -6.471342            0   -4.5865846    5.8801136    2732.5617 
Loop time of 0.664092 on 48 procs for 2000 steps with 4000 atoms

Performance: 520409.714 tau/day, 3011.630 timesteps/s
99.6% CPU use with 48 MPI tasks x no OpenMP threads

MPI task timing breakdown:
Section |  min time  |  avg time  |  max time  |%varavg| %total
---------------------------------------------------------------
Pair    | 0.29133    | 0.32714    | 0.35853    |   2.2 | 49.26
Neigh   | 0.041848   | 0.044384   | 0.048154   |   0.5 |  6.68
Comm    | 0.21029    | 0.24244    | 0.28168    |   2.9 | 36.51
Output  | 5.4819e-05 | 5.7739e-05 | 7.4175e-05 |   0.0 |  0.01
Modify  | 0.041546   | 0.045146   | 0.049477   |   1.0 |  6.80
Other   |            | 0.004928   |            |       |  0.74

Nlocal:        83.3333 ave          92 max          77 min
Histogram: 1 5 11 3 9 6 10 2 0 1
Nghost:        2137.04 ave        2150 max        2119 min
Histogram: 1 2 2 9 2 10 6 5 5 6
Neighs:        13966.5 ave       15582 max       11970 min
Histogram: 1 0 2 9 6 10 10 7 1 2

Total # of neighbors = 670391
Ave neighs/atom = 167.59775
Neighbor list builds = 144
Dangerous builds = 13

#############################
# L I N E A R  Q U E N C H  #
#############################

# Define solid atoms. This closely follows ten Wolde  Ruiz-Montero and Frenkel  Faraday Discuss  1996  104  93-110
# Compute components of the per-atom q6 vector
compute q6 all orientorder/atom degrees 1 6 components 6 nnn NULL cutoff 1.3 # compute the Q6 parameter.
                                                                             # Use all neighbours within 1.3 unit cell.

# get number of connections
compute coord_number all coord/atom orientorder q6 0.5

# An atom is solid if it has 8 or more connections (of a possible 14)
variable is_solid atom c_coord_number>=8
group solid dynamic all var is_solid    # Must be dynamic to update
dynamic group solid defined

# do clustering
compute cluster solid cluster/atom 1.3 # Create a cluster where all atoms within are solid and max 1.3 units from another member

# define chunks one chunk per cluster
compute clus_chunks solid chunk/atom c_cluster nchunk every compress yes  # Says which atoms are in which chunk

# count the size of each chunk
compute size_chunks solid property/chunk clus_chunks count


# Find the maximum entry in the vector of chunk sizes
variable max_n equal max(c_size_chunks)


# Thermo style which includes this variable
# thermo_style custom step temp pe vol v_max_n

thermo ${N}  # Print the thermo information every 100 steps
thermo 1000  

# Reset the npt fix at a lower temperature (below freezing)
fix 1  all npt temp  ${temp} ${temp}  0.1  iso  5.68  5.68  0.5  mtk yes tchain  5  pchain  5
fix 1  all npt temp  0.45 ${temp}  0.1  iso  5.68  5.68  0.5  mtk yes tchain  5  pchain  5
fix 1  all npt temp  0.45 0.45  0.1  iso  5.68  5.68  0.5  mtk yes tchain  5  pchain  5

dump dmp2 all dcd ${N} traj.dcd
dump dmp2 all dcd 1000 traj.dcd


compute msd all msd com yes
variable twopoint equal c_msd[4]/6/(step*dt+1.0e-6)
fix 9 all vector 10 c_msd[4]
variable fit equal slope(f_9)/6/(10*dt)
thermo_style custom step temp pe c_msd[4] v_twopoint v_fit v_max_n

fix 1 all npt temp 1.25 ${temp} 0.1 iso 5.68 5.68 0.5 mtk yes tchain 5 pchain 5
fix 1 all npt temp 1.25 0.45 0.1 iso 5.68 5.68 0.5 mtk yes tchain 5 pchain 5
run 2000000 # 5000000  # Run for this many steps
Neighbor list info ...
  update every 1 steps, delay 10 steps, check yes
  max neighbors/atom: 2000, page size: 100000
  master list distance cutoff = 3.8
  ghost atom cutoff = 3.8
  binsize = 1.9, bins = 8 8 8
  4 neighbor lists, perpetual/occasional/extra = 1 3 0
  (1) pair lj/cut, perpetual
      attributes: half, newton on
      pair build: half/bin/atomonly/newton
      stencil: half/bin/3d
      bin: standard
  (2) compute orientorder/atom, occasional
      attributes: full, newton on
      pair build: full/bin/atomonly
      stencil: full/bin/3d
      bin: standard
  (3) compute coord/atom, occasional
      attributes: full, newton on
      pair build: full/bin/atomonly
      stencil: full/bin/3d
      bin: standard
  (4) compute cluster/atom, occasional
      attributes: full, newton on
      pair build: full/bin/atomonly
      stencil: full/bin/3d
      bin: standard
Per MPI rank memory allocation (min/avg/max) = 9.850 | 9.854 | 9.858 Mbytes
Step Temp PotEng c_msd[4] v_twopoint v_fit v_max_n 
   12000    1.2568191    -6.471342 3.7463004e-30 2.6015974e-32 8.3333333e+20            6 
   13000    1.2313894   -6.4859997   0.50617079 0.0032446844  0.041180231            1 
   14000    1.2543772   -6.5042986   0.95513912 0.0056853517   0.03945079            4 
   15000    1.2375164   -6.4631341    1.4156338 0.0078646321  0.038252786            3 
   16000    1.2636565   -6.4451087    1.8506334 0.0096387152  0.037525687            1 
   17000    1.2448568   -6.4391929    2.3216059  0.011380421  0.037536622            1 
   18000    1.2450361   -6.4858841    2.7447789  0.012707309  0.037687255            2 
   19000    1.2312026   -6.5040539    3.1799558  0.013947174  0.037316743            2 
   20000    1.2378705   -6.4656172     3.628769  0.015119871  0.037309618            2 
   21000    1.2741986   -6.4602946     4.056141  0.016095797  0.037100255            2 
   22000    1.2275803   -6.4748182    4.5648253  0.017291005  0.037275841            3 
   23000    1.2670309   -6.4545383    5.0166498  0.018176267  0.037236408            1 
   24000    1.2516522   -6.5154205    5.3780436  0.018673762  0.037182103            1 
   25000    1.2278007   -6.5030324    5.8805711  0.019601903  0.037226694            1 
   26000    1.2616186   -6.5085862    6.2454451  0.020017452  0.037195116            1 
   27000    1.2497536   -6.4286935    6.7185135  0.020736152   0.03708309            3 
   28000      1.24758   -6.4770675    7.1092043  0.021158346  0.036952741            2 
   29000    1.2367593   -6.4722444    7.5853141  0.021796879  0.036833047            4 
   30000    1.2453066   -6.4860679    8.0627777  0.022396604  0.036843781            1 
   31000    1.2654821   -6.5201694    8.5114907  0.022880351  0.036891817            2 
   32000    1.2583621   -6.4875551    9.0129861  0.023471318  0.036973946            2 
   33000    1.2398446    -6.497335     9.394175  0.023722664     0.036997            4 
   34000    1.2324707   -6.5460748    9.8715021  0.024194858  0.037042498            3 
   35000    1.2489013   -6.4904369    10.356434  0.024658176  0.037085722            3 
   36000    1.2353937    -6.514312    10.786087  0.024967793  0.037120768            2 
   37000    1.2491721   -6.4807798    11.239016  0.025313099  0.037148305            2 
   38000    1.2128345   -6.4894824    11.820135  0.025921349  0.037203392            5 
   39000    1.2474614   -6.5122263    12.303457  0.026289438  0.037335143            6 
   40000    1.2462353   -6.4534741    12.692472  0.026442649  0.037423638            2 
   41000    1.2591208   -6.5713977    13.050355  0.026525112  0.037466746            3 
   42000    1.2350954   -6.4837023    13.538234  0.026861575   0.03749489            2 
   43000    1.2506336   -6.5137422    13.950731  0.027036299  0.037493204            2 
   44000    1.2294403   -6.4632988    14.386009   0.02724623  0.037473023            3 
   45000    1.2709229   -6.4841274    14.855259  0.027509739  0.037455397            2 
   46000     1.227835    -6.502491    15.230267  0.027591063  0.037440309            5 
   47000    1.2468853   -6.4916576    15.609666  0.027676712   0.03741541            1 
   48000    1.2213624   -6.4819384    16.005737  0.027787737  0.037344488            3 
   49000    1.2621514   -6.5087206    16.399164  0.027889735  0.037266203            3 
   50000    1.2364736   -6.4629539    16.811732  0.028019554  0.037191283            2 
   51000    1.2534742   -6.5080116    17.291299  0.028253756  0.037126834            2 
   52000    1.2092117   -6.5122557    17.736776   0.02842432  0.037093093            9 
   53000    1.2281882   -6.5329246    18.105903  0.028468401  0.037054591            2 
   54000    1.2365822   -6.5183808    18.623739  0.028740337  0.037015356            5 
   55000    1.2432237   -6.5236007    19.111684  0.028957096  0.036984223            2 
   56000     1.230559   -6.4827684    19.556348  0.029101708  0.036968875            3 
   57000    1.2437664   -6.5280891    19.851772  0.029023058   0.03694055            2 
   58000    1.2384003   -6.4939848    20.240936  0.029081804  0.036879311            2 
   59000    1.2338667   -6.5374319    20.529293  0.028996176  0.036812819            2 
   60000    1.2436909   -6.5294365    21.002606  0.029170285  0.036741541            2 
   61000    1.2188341   -6.5727477    21.476453  0.029339416  0.036685536            2 
   62000    1.2265531   -6.5043056    22.033948  0.029615521   0.03665602            4 
   63000    1.2485165   -6.4834037    22.543916  0.029819995  0.036634225            4 
   64000     1.209115   -6.5601171    23.000742  0.029948883  0.036626703            2 
   65000    1.2363457   -6.5177837    23.525614  0.030161044  0.036628685            2 
   66000    1.2412123   -6.5441234    23.971655  0.030267241  0.036642285            2 
   67000    1.2064101   -6.5149662    24.255746  0.030168838  0.036636591            1 
   68000     1.240448   -6.5192622    24.545304  0.030080029  0.036618176            1 
   69000    1.2197569   -6.5219747     24.94996  0.030132802   0.03659395            3 
   70000    1.2642175   -6.4819205    25.483728  0.030337771  0.036559434            2 
   71000    1.2271174   -6.5409702    25.838241  0.030326574  0.036533328            4 
   72000    1.2295413   -6.4979716     26.52992  0.030705925  0.036523032            1 
   73000    1.2082867   -6.5672286    27.003001  0.030825343  0.036526215            2 
   74000    1.2287197   -6.5454799    27.406692  0.030863391  0.036534669            3 
   75000    1.2280898   -6.5110092    28.052324  0.031169249  0.036546102            2 
   76000    1.2153565   -6.5202349     28.27302  0.031001119  0.036561492            2 
   77000    1.2175077   -6.5542287    28.883926   0.03125966  0.036580634            1 
   78000    1.2615069   -6.5230816    29.324948  0.031330073  0.036602518            2 
   79000    1.2270643   -6.5169813     29.88243   0.03152155  0.036634277            3 
   80000    1.2037822   -6.5603533    30.214004  0.031472921  0.036652538            2 
   81000     1.209342   -6.5554344    30.712976  0.031597711  0.036678187            2 
   82000    1.2317447   -6.5129298    31.251441  0.031759594  0.036694695            2 
   83000    1.2029596   -6.5436215    31.651309  0.031778423  0.036727992            3 
   84000     1.220218   -6.5407397    32.094236   0.03183952  0.036752049            2 
   85000     1.227001   -6.5360529    32.534595  0.031896662  0.036777291            1 
   86000    1.1784988   -6.5397331    33.047598  0.032022866  0.036801599            2 
   87000    1.2060428   -6.5805111    33.407073  0.031999111  0.036821155            1 
   88000    1.2136903   -6.5804947    33.735987  0.031946957  0.036831921            3 
   89000    1.2228065   -6.5575437    34.177587  0.032001486  0.036835739            2 
   90000    1.2306585   -6.5112213    34.937804  0.032349819  0.036850721            1 
   91000    1.2241646   -6.5569232    34.960464  0.032015077  0.036861263            6 
   92000    1.2096137   -6.5085259    35.439031  0.032100572  0.036855869            2 
   93000    1.2034674   -6.5612138    35.537869  0.031843969  0.036839694            4 
   94000    1.1972046   -6.5587675    35.841969  0.031774795  0.036805312            2 
   95000    1.1997681   -6.5462789    36.430824  0.031956863  0.036770505            2 
   96000    1.2040869    -6.558086    36.719041  0.031874168  0.036742332            2 
   97000    1.1959408    -6.526652    37.458086  0.032180486  0.036716426            2 
   98000    1.1987119   -6.5456857    37.669057  0.032031511  0.036698489            2 
   99000    1.2032755   -6.5360846    38.159759  0.032121009  0.036676198            2 
  100000     1.206519   -6.5372115     38.65433  0.032211942  0.036659746            2 
  101000    1.2011974   -6.5731776    38.810901  0.032022195  0.036634698            2 
  102000    1.2021984   -6.5774344     39.37822  0.032171749  0.036608398            4 
  103000     1.200733   -6.5110923    39.812331  0.032210624  0.036583853            2 
  104000    1.2133685   -6.5508019    40.310641  0.032300193  0.036561315            2 
  105000    1.2357612   -6.5971326    40.846607  0.032417942  0.036555052            4 
  106000    1.2472521   -6.5738343    41.171963  0.032367895  0.036549448            1 
  107000    1.2355774   -6.5833537    41.471307  0.032298526  0.036537402            4 
  108000    1.2293752   -6.5894236    42.043784  0.032441191  0.036522757            3 
  109000    1.2376085   -6.5264249    42.542217  0.032524631  0.036509338            3 
  110000    1.2533082   -6.5898817    42.780998  0.032409847  0.036497124            3 
  111000    1.2219285   -6.5949058    43.297657  0.032505749  0.036484931            2 
  112000    1.1977024   -6.5744689    43.793103  0.032584154    0.0364716            2 
  113000    1.2076956    -6.607913    43.914606  0.032385402  0.036456557            3 
  114000    1.2258186   -6.5881227    44.451078  0.032493478  0.036441564            3 
  115000    1.1844125   -6.5837932    44.777519  0.032447478  0.036419301            3 
  116000    1.2070903   -6.5653529    45.363261  0.032588549  0.036398101            1 
  117000    1.2217924   -6.5497681    45.654485  0.032517439  0.036375683            2 
  118000    1.2186261   -6.5770983    45.971638  0.032465846   0.03634827            2 
  119000    1.1990435   -6.5751854    46.334847  0.032447372  0.036325388            3 
  120000    1.2067755   -6.5946975    46.679203  0.032416113  0.036298023            2 
  121000     1.223329   -6.5592366    47.452121  0.032680524  0.036280233            6 
  122000    1.2281683   -6.5509251     47.66365  0.032557138   0.03626496            3 
  123000    1.2340794   -6.6037845    48.171345  0.032636412  0.036247646            2 
  124000     1.204822   -6.5975432    48.527298  0.032612431  0.036225963            3 
  125000    1.2107904   -6.5741758    48.962224  0.032641483   0.03620419            2 
  126000    1.1859826   -6.5646854    49.497703  0.032736576  0.036190163            2 
  127000    1.2140091   -6.6153167    49.935976  0.032766388  0.036174536            3 
  128000    1.1941334   -6.5635017    50.317877  0.032759035  0.036158579            4 
  129000    1.2054537   -6.5529764    51.055269   0.03298144  0.036146043            2 
  130000    1.2402835   -6.6120366    51.115731  0.032766494  0.036136183            2 
  131000    1.2303931   -6.6093782       51.624  0.032839694  0.036125808            4 
  132000    1.1742018   -6.5437848    52.052519  0.032861438  0.036114954            2 
  133000     1.200474   -6.5798822    52.621489  0.032970858  0.036103151            2 
  134000    1.1910923   -6.5325577    52.815292  0.032845331  0.036087695            2 
  135000    1.2064177   -6.5220447    53.664525   0.03312625  0.036079603            2 
  136000    1.1963865   -6.5953618    53.863572   0.03300464  0.036071127            7 
  137000    1.2304783   -6.5948686     54.07682  0.032893443  0.036059245            3 
  138000     1.208373   -6.5654611    54.706119  0.033035096  0.036050064            2 
  139000    1.2279455   -6.6082045    55.072711  0.033017213  0.036042725            4 
  140000    1.2093439   -6.6355757    55.621248  0.033107886  0.036036054            2 
  141000    1.2039947   -6.6216189    55.835529  0.032999722   0.03602916            5 
  142000    1.1800137   -6.6104623    56.336206  0.033061154  0.036019379            4 
  143000    1.1966824   -6.6007166    56.717546  0.033052183  0.036012478            1 
  144000     1.214133   -6.5220387    57.632716  0.033352266  0.036010264            3 
  145000    1.2076292   -6.5754841    57.868666  0.033257854  0.036008451            1 
  146000     1.190906   -6.5704915    58.082463   0.03315209  0.036003146            3 
  147000    1.2023856   -6.6130223    58.489481  0.033157302  0.035995597            4 
  148000    1.2028655   -6.5830226    58.838268  0.033129655   0.03598639            2 
  149000    1.1950095   -6.5874955    59.152531  0.033083071  0.035975105            2 
  150000     1.190711   -6.5975369    59.404518   0.03300251  0.035960192            2 
  151000    1.1873937   -6.5592474    60.210844  0.033228942   0.03594639            4 
  152000    1.2052213   -6.6215879    60.251822  0.033032797  0.035932629            2 
  153000    1.2121838   -6.5882102    60.596902  0.033004849  0.035918819            5 
  154000    1.1752762   -6.6585669    60.874007   0.03294048  0.035903752            5 
  155000    1.1757368   -6.6111659    61.227776  0.032918159  0.035886678            3 
  156000     1.186016   -6.5958035    61.902698   0.03306768  0.035871286            2 
  157000    1.2018807    -6.630659    62.429102  0.033136466  0.035856346            7 
  158000    1.1998956   -6.6149002    62.778322  0.033110929  0.035842629            1 
  159000    1.2042934   -6.6489613    63.065384  0.033053136  0.035831015            2 
  160000     1.189218   -6.6222235     63.87146  0.033266385  0.035819128            1 
  161000    1.2065707   -6.6362859    64.062492   0.03315864  0.035806966            2 
  162000     1.192891   -6.6442402    64.404923  0.033130104   0.03579445            2 
  163000    1.1844082   -6.6195452    64.639427  0.033046742  0.035776026            2 
  164000    1.1980381   -6.6073638    65.361773  0.033212283  0.035764946            3 
  165000    1.1920109   -6.6039382     65.80049   0.03323257  0.035755126            2 
  166000    1.1724754    -6.619036     66.14155  0.033203589  0.035744022            3 
  167000    1.1641391   -6.6235558    66.802327  0.033334495  0.035736989            2 
  168000    1.1927787   -6.5824106    67.608765  0.033536094  0.035734466            3 
  169000    1.1685041   -6.6038572    67.543487  0.033305467  0.035731439            2 
  170000    1.2185267   -6.6139851    67.844378  0.033257048  0.035724107            2 
  171000    1.1491447   -6.6536151    68.462815  0.033363945  0.035719355            1 
  172000    1.2177495   -6.6189269    68.960303  0.033410999  0.035712049            2 
  173000    1.1767523   -6.6365275    69.239716  0.033352464  0.035705918            2 
  174000    1.1638456   -6.6438906     69.74215  0.033401413  0.035701746            7 
  175000    1.1806684   -6.6038273    70.107629  0.033384585  0.035696983            4 
  176000    1.1565929   -6.6300166    70.425175  0.033345253  0.035688788            2 
  177000    1.1809936    -6.604789    70.810832  0.033338433  0.035677644            3 
  178000    1.1698524   -6.6380316    71.194063  0.033330554   0.03566699            3 
  179000    1.2032937    -6.637348    71.721617  0.033389952  0.035658821            2 
  180000    1.1862472   -6.6570265    71.906232  0.033289922  0.035650838            2 
  181000    1.1610054    -6.606337    72.667596  0.033456536  0.035643482            4 
  182000    1.1967935   -6.6824846    72.618165  0.033250076  0.035635258            4 
  183000    1.1918426   -6.6588481    72.891313  0.033192765  0.035624337            2 
  184000    1.1730516   -6.6274019    73.315431  0.033204452  0.035611785            3 
  185000    1.1622484   -6.6736864     73.71218  0.033203685  0.035595861            5 
  186000    1.1872713   -6.6566546    74.068603  0.033184858  0.035581003           10 
  187000    1.1668572   -6.6739545    74.273132  0.033098544  0.035564482            1 
  188000    1.1912583    -6.634642    74.814373  0.033162399  0.035548721            4 
  189000    1.1754323   -6.6640109    75.175152   0.03314601  0.035534584            4 
  190000    1.1839345    -6.683675    75.547716  0.033134963  0.035519763            5 
  191000     1.189024   -6.6431317    76.120786  0.033211512  0.035504215            5 
  192000    1.1897211   -6.6315979     76.38774  0.033154401  0.035489876            5 
  193000    1.1771093   -6.6679108    76.383199  0.032980656  0.035471012            2 
  194000    1.1922491    -6.613303    76.950008  0.033054127  0.035451711            1 
  195000    1.1656975    -6.619317    77.103393  0.032950168  0.035430888            5 
  196000    1.1781871    -6.647896    77.406147  0.032910777  0.035410051            4 
  197000     1.159993   -6.6485858    78.285617  0.033115743  0.035389829            2 
  198000    1.1974544   -6.6094139    78.387727  0.032991468  0.035370596            2 
  199000    1.1661086   -6.6531841    78.877685  0.033030856  0.035351515            2 
  200000    1.1906732   -6.7024345     79.01088    0.0329212  0.035329512            5 
  201000    1.1726899   -6.6686504    79.323044  0.032886834  0.035308675            4 
  202000    1.1615115   -6.6785944    79.903844  0.032963632  0.035286925            3 
  203000    1.1739092   -6.6890945    80.039179  0.032856806  0.035264521            2 
  204000    1.1601697   -6.6509527    80.845835  0.033025259  0.035245172            2 
  205000    1.1796472   -6.6627017    81.098826  0.032967002  0.035226618            2 
  206000    1.1849221   -6.6635555    81.086235  0.032801875    0.0352047            3 
  207000    1.1407537   -6.6390389    81.619132  0.032857944  0.035181968            6 
  208000    1.1655213   -6.6199146    82.079625  0.032884465  0.035159783            5 
  209000    1.1619082   -6.6779172    82.317295  0.032821888  0.035137664            1 
  210000    1.1901988   -6.6818627    82.851297  0.032877499  0.035116582            2 
  211000    1.1533021   -6.6927371    83.521435  0.032986349  0.035098746            3 
  212000    1.1659496   -6.6926858    83.869512  0.032967575  0.035082263            4 
  213000    1.1347501   -6.6709563    84.106808  0.032905637  0.035063586            1 
  214000    1.1662435   -6.6474318    84.985387  0.033093998  0.035048944            2 
  215000    1.1503979   -6.6831588    85.145865  0.033002273  0.035035352            2 
  216000    1.1762335   -6.6659886    85.678997  0.033055169  0.035019881            2 
  217000    1.1636919   -6.6507842    86.097057  0.033063386  0.035005022            4 
  218000    1.1657185   -6.6424717    86.649087   0.03312274  0.034990896            4 
  219000    1.1681661   -6.6723429    86.807772  0.033031877  0.034976876            6 
  220000    1.1725409   -6.6446458    87.291563  0.033064986   0.03496281            1 
  221000     1.155678   -6.6033011    87.909399   0.03314834  0.034948309            3 
  222000    1.1655929   -6.7000082    87.743899  0.032936899  0.034932526            3 
  223000    1.1378787   -6.6925074    88.462085   0.03305758  0.034915651            5 
  224000    1.1799082   -6.6823829    88.853934  0.033055779  0.034901292            6 
  225000    1.1375415   -6.6958205    88.983416  0.032956821  0.034886427            4 
  226000    1.1552671   -6.7161023    89.469826  0.032990349  0.034872578            3 
  227000    1.1512382   -6.6743744    89.856411  0.032986935  0.034859471            2 
  228000    1.1744698   -6.6758284    90.334769  0.033017094  0.034844385            2 
  229000    1.1642934   -6.6946957     90.84862  0.033059905  0.034831584            4 
  230000    1.1756115   -6.6768881    91.294488  0.033077713  0.034820498            2 
  231000    1.1880982   -6.6783132    91.810266  0.033120587   0.03481114            5 
  232000     1.170685    -6.676768    92.429349  0.033200197  0.034802285            2 
  233000    1.1700397   -6.6881136    93.105277  0.033299455  0.034795716            3 
  234000    1.1621897   -6.7194601    93.012165   0.03312399  0.034789332            4 
  235000    1.1410375   -6.6931943    93.309313  0.033088409  0.034780476            2 
  236000    1.1620048   -6.7379344    93.415341  0.032985643  0.034770716            4 
  237000    1.1715276   -6.6910106    94.507148  0.033230361  0.034762317            2 
  238000    1.1474284    -6.723028    94.978333  0.033255719  0.034756696            2 
  239000    1.1705469   -6.7192573    95.659368  0.033354033  0.034751063            3 
  240000      1.16927   -6.7075046    95.679777  0.033222145   0.03474501            3 
  241000    1.1545275   -6.7110819    96.290519  0.033295477  0.034741351            2 
  242000    1.1554498   -6.7123669     96.48187  0.033223785  0.034736538           10 
  243000    1.1592366   -6.7253072    96.604367   0.03312907  0.034731387            5 
  244000    1.1641227     -6.70533    97.323074  0.033238755   0.03472523            3 
  245000    1.1532324   -6.7279676    97.573861  0.033188388   0.03471814            6 
  246000     1.169982   -6.6658747    98.348435  0.033315866  0.034709403            6 
  247000    1.1468836   -6.6946683    98.342276  0.033178905  0.034702723            2 
  248000    1.1683282    -6.719752    98.524269  0.033106273   0.03469263            6 
  249000    1.1399176   -6.7343018    98.700673  0.033032354  0.034681039            2 
  250000    1.1664823   -6.7359286    98.986852  0.032995617  0.034668662            2 
  251000    1.1499897     -6.69837    99.661858  0.033088266  0.034657244            5 
  252000    1.1535533   -6.6889044    99.936284  0.033047713  0.034645801            1 
  253000    1.1401838   -6.6709268    99.989396  0.032934583  0.034630833            6 
  254000    1.1436527   -6.6844818    100.35888  0.032926142   0.03461473            5 
  255000    1.1520665   -6.7250325    100.69974  0.032908413  0.034598397            2 
  256000     1.142756   -6.7128247    100.48157  0.032708845  0.034581991            2 
  257000    1.1517015   -6.6783388    101.05374  0.032767102  0.034564673            3 
  258000    1.1479379   -6.6936641    101.51158  0.032787978   0.03454722            3 
  259000    1.1587808   -6.7362431    101.52287  0.032665017  0.034530436            2 
  260000    1.1417478   -6.7221868     101.9652  0.032681153  0.034513612            2 
  261000      1.13248   -6.7352546    102.36904  0.032684878    0.0344967            1 
  262000    1.1401046   -6.7538039    102.43712  0.032581782  0.034478266            4 
  263000     1.129889   -6.7169522    102.99075  0.032633319  0.034460287            7 
  264000    1.1528163   -6.7233454    103.38454  0.032634008  0.034441551            3 
  265000    1.1324782   -6.7842302    103.41073  0.032519096  0.034422582            8 
  266000    1.1571869   -6.7309405    103.83279   0.03252907  0.034402825            2 
  267000    1.1417665   -6.7403427    104.07423  0.032482595  0.034381986            4 
  268000    1.1503176   -6.7035031    104.72821  0.032564741  0.034359266            3 
  269000     1.159853   -6.7410425    104.81129  0.032469422  0.034338231            3 
  270000    1.1144936   -6.7387311    105.07986  0.032432054  0.034315087            3 
  271000    1.1416655   -6.7315828    105.42931  0.032419837  0.034291833            2 
  272000    1.1666166   -6.7351516    105.30836  0.032263592  0.034268824            4 
  273000    1.1642805   -6.7505152    106.05026  0.032371876  0.034245785            1 
  274000    1.1588352   -6.7090641    106.63511  0.032431602  0.034225223            9 
  275000    1.1340687   -6.7374892    107.21189  0.032488453  0.034205977            2 
  276000    1.1213618   -6.7857413    107.28501  0.032392818  0.034184717            2 
  277000    1.1362578   -6.7734958    107.36014  0.032298477  0.034162556            2 
  278000    1.1544492   -6.7468088    107.67877   0.03227781  0.034139482            1 
  279000    1.1370324   -6.7641737    107.98755  0.032254347  0.034116649            2 
  280000     1.143631   -6.7275898    108.23925  0.032214064  0.034093582            4 
  281000    1.1417744   -6.7233005    108.63046  0.032215438  0.034069463            2 
  282000    1.1408282   -6.7332075    109.16738  0.032259864  0.034045408            3 
  283000    1.1632714   -6.7519461    109.10722  0.032128158   0.03402088            5 
  284000    1.1332506   -6.7715772    109.23673  0.032053031  0.033994301            2 
  285000    1.1441601     -6.74742    109.91516  0.032138936  0.033969532            4 
  286000     1.116967   -6.7121693    109.82092  0.031999102  0.033943744            4 
  287000    1.1628885   -6.7741037    109.71564  0.031857039  0.033918023            4 
  288000    1.1573676   -6.7610522    109.79746  0.031770098  0.033889988            2 
  289000    1.1527665   -6.7186325    110.46387  0.031852328  0.033860846            2 
  290000    1.1398896   -6.7462985    110.51292  0.031756586  0.033830279            4 
  291000    1.1529319   -6.7511404    110.71124   0.03170425   0.03380006            3 
  292000    1.1543012    -6.710039    111.42298  0.031798794  0.033770403            3 
  293000    1.1070982   -6.7447974    111.41296  0.031687418  0.033740984            4 
  294000    1.1584999   -6.7201546    112.13175  0.031783375  0.033711566            3 
  295000    1.1002662   -6.7617641    112.16872   0.03168608  0.033682961            5 
  296000    1.1465464   -6.7263181    112.74107  0.031740166  0.033655094            2 
  297000    1.1332527    -6.736659    113.27476  0.031783042  0.033628112            2 
  298000    1.1513126   -6.7453159    113.53849  0.031750137  0.033601114            3 
  299000    1.1351127   -6.7899372    113.94088  0.031756097  0.033574563            2 
  300000    1.1409303   -6.7618794     114.3899  0.031774972  0.033548984            1 
  301000     1.136404   -6.7346585    114.64427  0.031739831  0.033523172            5 
  302000    1.1333565   -6.7318471    115.21375  0.031791873  0.033498594            3 
  303000    1.1361633   -6.7880006    115.05024   0.03164198  0.033471787            4 
  304000    1.1502376   -6.7707192    115.45498  0.031648844  0.033445689            3 
  305000    1.1633167   -6.7600866    115.81751  0.031644129  0.033420405            4 
  306000    1.1211898   -6.7476221    115.83251  0.031544802  0.033394179            3 
  307000    1.1062598   -6.7810688    116.25458  0.031556617  0.033367371            2 
  308000    1.1192377   -6.8196988    116.44378  0.031505352  0.033340225            5 
  309000    1.1284648   -6.7689277    116.53697  0.031428524  0.033312483            5 
  310000    1.1331688     -6.75945    117.31125  0.031535281  0.033285585            5 
  311000    1.1153096   -6.7777265    117.72833  0.031545639  0.033258416            2 
  312000    1.1334485   -6.7488179    118.08383  0.031539484  0.033233212            5 
  313000    1.1533746   -6.7415295    118.83685  0.031639205   0.03320911            2 
  314000    1.1143711   -6.7960824    119.05217  0.031595585  0.033185376            2 
  315000    1.1553019   -6.7402294    119.93803  0.031729639  0.033163299            3 
  316000    1.1030201   -6.7621966    119.75323  0.031580494  0.033140642            1 
  317000    1.1321124   -6.7599868    120.28141  0.031619718  0.033118062            3 
  318000    1.1280249   -6.7892675    120.46195  0.031567597  0.033094597            5 
  319000    1.1316117   -6.7651773    120.97502   0.03160267   0.03307202            3 
  320000    1.1473104   -6.7620082    121.08714   0.03153311   0.03305092            2 
  321000    1.1309953   -6.7909701    121.18188   0.03145947  0.033028446            5 
  322000    1.1135991   -6.7763023    121.26009  0.031382012  0.033004305            3 
  323000    1.1244476   -6.7679331    121.50873     0.031349  0.032980336            3 
  324000    1.1124994   -6.7971657    121.87885  0.031347442  0.032955134            5 
  325000     1.155584   -6.8014074    122.43129  0.031392639  0.032931114            4 
  326000    1.1180344   -6.7389324    122.78265  0.031386158   0.03290862            2 
  327000    1.1303722   -6.7821262    122.95184  0.031333292  0.032885557            2 
  328000    1.1128099   -6.7971096    123.19269  0.031298957   0.03286272            4 
  329000    1.1409662   -6.8120539    123.59716  0.031306271  0.032839604            3 
  330000    1.1205287   -6.8436174    123.98073  0.031308266  0.032815611            6 
  331000    1.1158273   -6.8074432    124.19348  0.031267241  0.032792049            2 
  332000    1.1238822   -6.7868334    124.58112  0.031270361  0.032769751            2 
  333000    1.1046877   -6.7760211    125.31294  0.031359594  0.032746861            6 
  334000    1.1099707   -6.7926822    125.37182  0.031280393  0.032723553            2 
  335000    1.1269012   -6.7626401    125.51009  0.031221416  0.032700131            9 
  336000    1.1185576   -6.8315594    125.41003  0.031103677  0.032677326            3 
  337000    1.1260019   -6.7821886    125.59582  0.031057323  0.032653417            4 
  338000    1.1055035   -6.8002912    126.29352  0.031137454  0.032629302            2 
  339000    1.1025824   -6.7720306    126.90112  0.031194965  0.032605896            2 
  340000    1.1127613   -6.7983877    127.44698  0.031237004  0.032583407            5 
  341000    1.1077394   -6.7902131    127.66279  0.031198141  0.032561695            3 
  342000    1.0927638   -6.8060601    128.25707  0.031251722  0.032540612            2 
  343000    1.1363766   -6.7683741     128.8789  0.031311685  0.032519438            2 
  344000    1.1068574   -6.7824245    129.34785  0.031334267  0.032498785            3 
  345000    1.1184909    -6.788335    129.23773  0.031216842  0.032479498            3 
  346000    1.1043442   -6.8242555    129.72303  0.031243505   0.03246024            1 
  347000    1.1245532   -6.8589939    129.64261  0.031134152  0.032438995            2 
  348000    1.1356846   -6.8212723    130.26056  0.031192664  0.032420095            5 
  349000    1.1324973   -6.8313694    130.50573  0.031161827  0.032401917            5 
  350000    1.1103262   -6.7819527    131.29356  0.031260371  0.032384415            2 
  351000    1.1037877   -6.8381231    131.95864  0.031329212  0.032366592           11 
  352000    1.1176786   -6.8233153    132.18564  0.031293949  0.032349528            3 
  353000    1.0812695   -6.8107895    131.96338  0.031152828  0.032332737            2 
  354000    1.1398385    -6.820611    132.84058  0.031271322  0.032316011            5 
  355000    1.0798712   -6.8129196    133.71628  0.031388799  0.032299793            3 
  356000     1.103798   -6.7876273    134.24951  0.031425446  0.032284317            3 
  357000    1.1154154   -6.8170398    133.55157  0.031174502   0.03226781            5 
  358000    1.0969904   -6.8188215    134.18763  0.031235483  0.032251086            3 
  359000    1.1104704   -6.8236207    134.29354  0.031173059  0.032233171            3 
  360000    1.1115362   -6.8167259    134.81586  0.031207375  0.032216341            3 
  361000    1.0986829   -6.8419939    135.06867  0.031179287  0.032199205            2 
  362000    1.0998862   -6.8541851    134.83896  0.031040277  0.032181401            2 
  363000    1.1483447   -6.8091253    135.21407  0.031040878  0.032162482            1 
  364000     1.115287   -6.8336643    135.15178  0.030941342  0.032142815            5 
  365000    1.1360868   -6.8521787    135.73174  0.030988982  0.032122746            4 
  366000    1.1295358   -6.8007115    136.20172  0.031011321  0.032103307            5 
  367000    1.0875958   -6.8002154    135.85993  0.030849212  0.032083527            2 
  368000    1.1032356   -6.8564214    136.19866  0.030842087  0.032062651            5 
  369000    1.1006395   -6.8479159    136.40651  0.030805446  0.032041546            4 
  370000    1.0868049   -6.8061146    136.83925   0.03081965  0.032020987            3 
  371000    1.1050813   -6.8430791    137.53383  0.030892594  0.032000596            2 
  372000    1.0953964   -6.7768569    138.15928  0.030949659  0.031980568           12 
  373000    1.0859672   -6.8144816    137.99386  0.030829727  0.031960092            5 
  374000    1.1055718   -6.8216041    137.86209  0.030717935  0.031938615           12 
  375000    1.0987745   -6.8340127    138.56521  0.030792269  0.031917046            5 
  376000    1.0807935   -6.8376192    138.34429  0.030661411  0.031896389            4 
  377000    1.1118945    -6.874286    138.59581  0.030635679  0.031874991            2 
  378000    1.0850403   -6.8370419    139.29609  0.030709015  0.031853522            8 
  379000    1.1211694   -6.8821913    139.07902   0.03058026  0.031832502            9 
  380000    1.1143907   -6.8398538    139.98756  0.030699026  0.031811594            5 
  381000    1.1075062   -6.8082799    140.50226  0.030731028  0.031790885            3 
  382000    1.0890231   -6.8030531    141.23807  0.030811097  0.031771468            3 
  383000    1.1052913   -6.8503812     140.6471  0.030602067   0.03175196            2 
  384000    1.0964698   -6.8807677    140.61756  0.030515963  0.031731475            6 
  385000    1.0968717   -6.8569887    140.98103  0.030515375  0.031710525            3 
  386000     1.082708   -6.8538824     142.1471   0.03068806  0.031689963            2 
  387000    1.1019649   -6.8383285    142.09029  0.030596531  0.031669782            2 
  388000    1.1060285   -6.8600354    142.29505  0.030561651  0.031648666            2 
  389000    1.1124627   -6.8631305     142.2474  0.030472879  0.031627636            4 
  390000    1.0947309   -6.8663188    142.40786   0.03042903  0.031606497            2 
  391000    1.1091575   -6.8990457    142.57347  0.030386502  0.031584154            1 
  392000    1.1133614   -6.8414489      143.304  0.030464287  0.031562526            5 
  393000    1.0999254   -6.8462458    143.29546  0.030384958  0.031540938            3 
  394000    1.1063255   -6.8700417    143.45814  0.030342245  0.031518313            3 
  395000    1.0898373   -6.8900816    143.20969  0.030213015  0.031496333            3 
  396000    1.0895929   -6.8535263    144.09006  0.030321983  0.031474016            4 
  397000    1.1005173   -6.8399256    144.26236  0.030281772   0.03145224            5 
  398000    1.0866223   -6.8418024    144.34547  0.030223089  0.031430213            4 
  399000    1.1015195   -6.8618187    144.35362  0.030149044  0.031407199            1 
  400000    1.0874365   -6.8795057    144.41038  0.030085496  0.031383602           11 
  401000     1.096687    -6.879227    145.04018  0.030141351  0.031359485            8 
  402000    1.1059041   -6.8418235    145.25193  0.030110268  0.031335752            2 
  403000    1.0931958   -6.8747838    144.86691  0.029955938  0.031311389            5 
  404000    1.1219922   -6.8327564    145.46626  0.030005416  0.031286571            3 
  405000    1.0996914   -6.8548771     144.8845  0.029811625  0.031261373            2 
  406000    1.0796271   -6.8323986    146.00352  0.029967881  0.031236785            4 
  407000    1.0811449   -6.8951579    145.71305  0.029834777  0.031212321            5 
  408000    1.1000967   -6.8435029    146.45849  0.029913907  0.031187866            2 
  409000    1.0848255   -6.8186224    147.32606  0.030017535  0.031164265            2 
  410000    1.1021818   -6.9101144    147.12446  0.029903346  0.031141021            4 
  411000    1.1127244   -6.8564668     148.0391  0.030016038  0.031117929            5 
  412000    1.0708284   -6.8571312    148.51597  0.030039637  0.031095547            4 
  413000    1.0775835   -6.8576343    148.57809  0.029979438  0.031073129            3 
  414000    1.0746149   -6.9111008    148.38296  0.029867745  0.031050318            3 
  415000    1.0804128   -6.8886455    148.55617  0.029830557  0.031027451            2 
  416000      1.08863   -6.9458111    148.88982  0.029825685   0.03100496            4 
  417000    1.1055907   -6.8850644    149.84866  0.029945776  0.030982345            4 
  418000    1.0749519   -6.8720892    150.03245  0.029910775  0.030961008            3 
  419000    1.0777544   -6.9250016    150.36705  0.029905937  0.030940197            5 
  420000    1.0801563   -6.8754066    150.73053  0.029906852  0.030918827            2 
  421000    1.0802978   -6.9021428     151.0672  0.029902454  0.030898322            5 
  422000    1.0942181   -6.9273752    151.05803  0.029829784  0.030877356            6 
  423000    1.0941332   -6.8830693    151.61001  0.029868007  0.030855849            5 
  424000    1.0807991    -6.916492    151.42886  0.029761961  0.030834575            3 
  425000    1.0572844   -6.9309141    151.34267  0.029675034  0.030813054            4 
  426000     1.093425    -6.889787    151.94694   0.02972358   0.03079185            5 
  427000    1.0996703   -6.9172649    151.99267  0.029662894   0.03076991            3 
  428000    1.0883299   -6.9150029    152.35132  0.029663419  0.030748553            4 
  429000    1.0779523   -6.8757582    152.80871  0.029683121  0.030727061            3 
  430000    1.0687783    -6.879215    153.21702  0.029693221  0.030705725            4 
  431000    1.0957263   -6.9062592     153.3109  0.029642478  0.030683954            2 
  432000    1.0937395   -6.8910344    153.37962  0.029587117   0.03066133            2 
  433000    1.0776988   -6.9281737    153.23158  0.029490296  0.030639167            4 
  434000    1.0871147    -6.875188    154.28894  0.029625373  0.030617622            5 
  435000    1.0935761     -6.89186    154.58256  0.029613517  0.030596848            6 
  436000     1.103974   -6.8665978    155.31859  0.029686276  0.030576696            5 
  437000    1.0907603   -6.8625299    155.45751  0.029644834  0.030555411            4 
  438000     1.082294   -6.8798535    155.60234  0.029604707  0.030534287            4 
  439000    1.0851848   -6.8809978    156.07092  0.029626218  0.030513728            3 
  440000    1.0645729   -6.9437863    156.06972   0.02955866  0.030492899            2 
  441000    1.0935038   -6.9226358    155.85359  0.029450793  0.030472052            4 
  442000    1.0691594   -6.9240451    156.75457  0.029554028  0.030451112            7 
  443000    1.0870009   -6.8969679    157.21619  0.029574152  0.030431473            3 
  444000    1.0726075   -6.9126639    157.33105  0.029529102  0.030411632            5 
  445000    1.0729642   -6.9274378    157.83496  0.029557109  0.030391109            5 
  446000    1.0800733   -6.9109037    157.59618  0.029446223  0.030370789            4 
  447000    1.0889116   -6.8890289    158.24129  0.029500613  0.030350522            2 
  448000    1.0571295   -6.8908263    158.51291  0.029485288  0.030330027            3 
  449000    1.0834885   -6.9008503    158.39547  0.029397823  0.030309732            2 
  450000    1.0837555   -6.9098005    158.41325  0.029335787  0.030289336            2 
  451000    1.0880426   -6.9326935    158.67579  0.029319252  0.030268022            2 
  452000    1.0826637   -6.9130777     158.8213  0.029281213  0.030245929            3 
  453000     1.072749   -6.9296306    159.11219  0.029270086  0.030224124            2 
  454000    1.0609587    -6.966479    159.15494  0.029213462  0.030202449            1 
  455000    1.0499384    -6.968987     159.5561  0.029222729  0.030180756            4 
  456000    1.0590632   -6.9017413    160.07265  0.029253042  0.030159801            3 
  457000    1.0810693   -6.9414966    159.64712  0.029111437  0.030138496            4 
  458000    1.0903146   -6.8937345    160.70079   0.02923959  0.030116494            2 
  459000    1.0708214   -6.9154583    160.29496  0.029102208  0.030094467            6 
  460000    1.0870111   -6.9770722    160.16853  0.029016038  0.030071617            7 
  461000    1.0581734   -6.9734116    160.63007  0.029036528  0.030049097            4 
  462000    1.0630905   -6.9933795    160.11739  0.028881203  0.030026601            3 
  463000    1.0689557   -6.9455881    160.72946  0.028928989  0.030003966            3 
  464000    1.1017138   -6.8903165    161.77961  0.029055247  0.029981817            5 
  465000    1.0441686   -6.9417438    161.22369  0.028893134  0.029959564            4 
  466000    1.0570263   -6.9500328    162.27961  0.029019959  0.029937424            5 
  467000    1.0532711   -6.9358501    162.28143  0.028958143  0.029915383            5 
  468000    1.0509249   -6.9201134    162.08179  0.028860718  0.029893251            3 
  469000     1.072548    -6.939172      162.857  0.028936923  0.029870638            3 
  470000    1.0767359    -6.951558    162.90666   0.02888416  0.029848385            3 
  471000    1.0693465   -6.9786941     163.0901   0.02885529  0.029826226            3 
  472000    1.0913283   -6.9526772    163.40554  0.028849848  0.029804217            2 
  473000    1.0662275   -6.9141775    163.81626  0.028861216  0.029782038            2 
  474000    1.0758871   -6.9935151    163.52119  0.028748452  0.029759363            3 
  475000    1.0531993   -6.9139437    164.43057  0.028847468  0.029737571            3 
  476000    1.0767683   -6.9412063    164.37496  0.028777129  0.029715444            6 
  477000    1.0494961   -6.9418071     164.1099  0.028670493  0.029693123            2 
  478000    1.0566438   -6.9337827    164.77732   0.02872687   0.02967057            4 
  479000    1.0687779   -6.9356956    164.63507  0.028642149  0.029648096            3 
  480000    1.0447017   -6.9376099    165.10398  0.028663886  0.029625703            4 
  481000    1.0455595    -6.971633    165.06528  0.028597589  0.029603139            2 
  482000    1.0625529   -6.9605872    165.32404  0.028582995  0.029580014            5 
  483000    1.0498352   -6.9638179    165.82568  0.028610366  0.029557169            5 
  484000    1.0501672    -6.947267    165.36764   0.02847239  0.029534166            3 
  485000    1.0584535   -6.9361066    166.03699  0.028528692  0.029511086            3 
  486000    1.0555842   -6.9931905     165.8919  0.028445112  0.029488099            3 
  487000    1.0578656   -6.9777539    165.87031   0.02838301  0.029465126            1 
  488000      1.06687    -6.926796    167.12669  0.028539394  0.029442247            5 
  489000    1.0567221   -6.9339841    166.82614  0.028429813  0.029419509            5 
  490000    1.0704228   -6.9788323    166.68311  0.028347468  0.029396613            5 
  491000    1.0495758    -6.985134    166.84139  0.028316597  0.029373717            6 
  492000    1.0416243   -6.9693578    167.64758  0.028395593  0.029350449            3 
  493000    1.0492778    -6.995693    167.92464  0.028384828  0.029327479            3 
  494000      1.05142   -6.9955262     167.6501  0.028281056   0.02930393            1 
  495000    1.0730701   -6.9679146     167.7873  0.028247021  0.029280713            2 
  496000    1.0498784   -6.9902945    168.28783  0.028274165   0.02925768            4 
  497000    1.0464421   -6.9413591    168.95544  0.028329215  0.029235054            3 
  498000    1.0676595   -6.9601758    168.90158  0.028263317  0.029212397            4 
  499000    1.0597392   -6.9645841    169.18711   0.02825436  0.029189149            3 
  500000    1.0740755   -6.9886492    169.44261  0.028240435   0.02916643            6 
  501000    1.0347641   -6.9435641    169.67459  0.028222654  0.029143567            2 
  502000    1.0595807   -6.9872301    169.83389  0.028192877  0.029120761           12 
  503000    1.0267646   -6.9513621    169.98948  0.028162604  0.029097916            4 
  504000    1.0424912   -7.0136483    169.91678  0.028094706  0.029075171            3 
  505000    1.0621668   -7.0014397    170.47553  0.028131275  0.029052267            3 
  506000    1.0379355   -6.9883568    171.46643  0.028238871  0.029030272            2 
  507000    1.0452769   -6.9668668    171.30165   0.02815609  0.029007468            4 
  508000    1.0438198   -6.9978871    171.47337  0.028128833  0.028985619            2 
  509000    1.0356968   -6.9782181    172.16623  0.028187005  0.028964579            2 
  510000    1.0333567   -6.9697721    172.17047   0.02813243  0.028942943            5 
  511000    1.0501666   -7.0348206     172.0662  0.028060371  0.028921322            7 
  512000     1.020223   -6.9993563    172.51059  0.028077896  0.028899718            3 
  513000    1.0349482   -7.0082375    172.61389  0.028039943  0.028878038            3 
  514000    1.0588876    -7.007408    172.91186  0.028033699   0.02885678            2 
  515000     1.042466    -6.978999    174.06864  0.028166446  0.028836176            2 
  516000    1.0347474   -7.0686592    173.56344  0.028030272  0.028815402            5 
  517000    1.0581182   -7.0001985    173.62663   0.02798624  0.028794107            4 
  518000    1.0334163   -6.9665963    174.44484  0.028063842  0.028773428            4 
  519000    1.0595598   -6.9858024    174.78983  0.028065163  0.028753249            4 
  520000    1.0508009   -6.9970102    174.59315  0.027979671  0.028733023            3 
  521000    1.0423451   -6.9884784    175.07728  0.028003404   0.02871258            3 
  522000      1.03381   -7.0134446    175.16395  0.027963593   0.02869225            3 
  523000    1.0420577   -6.9934913    175.12676  0.027904199  0.028671088            6 
  524000    1.0492076   -7.0203554    175.17744  0.027859008  0.028649839            4 
  525000    1.0303424   -7.0290988    175.52485  0.027861087  0.028628993            3 
  526000    1.0497448   -6.9753691     176.1723  0.027910694  0.028607854            3 
  527000    1.0534072     -7.01432    177.00514  0.027989428   0.02858746            2 
  528000    1.0194783   -6.9833193    176.92501  0.027923771  0.028567166            4 
  529000     1.049902   -6.9870083    176.90218  0.027867388  0.028546837            3 
  530000     1.065861   -7.0066883    176.53128  0.027756491  0.028526401            3 
  531000    1.0136642   -7.0330143    176.66319   0.02772492  0.028505345            3 
  532000    1.0244768   -6.9717693    178.28311  0.027926552  0.028484521            3 
  533000    1.0343693   -6.9950851    177.36949  0.027731315  0.028464412            4 
  534000    1.0571827     -7.05549    176.92761  0.027610427  0.028443491           10 
  535000    1.0382815   -7.0407999    178.13634  0.027747094   0.02842282            5 
  536000    1.0350811   -7.0408493    177.85786   0.02765203  0.028402484            6 
  537000     1.017732   -7.0044959    178.65227  0.027723816  0.028382224            4 
  538000    1.0473042   -6.9991451    178.58477  0.027661829  0.028362136            2 
  539000    1.0336767   -7.0191368    179.13145   0.02769503  0.028341799            4 
  540000    1.0369409   -7.0072503    180.07528  0.027789395  0.028322282            5 
  541000    1.0312915   -7.0175948    179.51064  0.027651054  0.028302911            1 
  542000    1.0472254   -7.0381235    180.25589   0.02771462  0.028283251            4 
  543000    1.0424709   -7.0215224    180.40515  0.027686487  0.028264013            5 
  544000    1.0683999   -7.0265991    180.77124  0.027691673  0.028244699            6 
  545000    1.0006745   -7.0664173    180.35999   0.02757798  0.028225332            4 
  546000    1.0150583   -7.0668481    180.59844  0.027563864  0.028205378            5 
  547000    1.0325539   -7.0443244    181.04087  0.027580877  0.028185825            4 
  548000    1.0480407   -7.0958446    180.60612  0.027464435  0.028166079            3 
  549000    1.0304298   -7.0505165    182.00483   0.02762672  0.028146197            7 
  550000    1.0331764   -7.0591369    181.48839  0.027498241  0.028126272            5 
  551000    1.0271571   -7.0580063    181.46209  0.027444357   0.02810612            5 
  552000    1.0418849   -7.0442492    181.20646  0.027356048  0.028086282            6 
  553000    1.0251754   -7.0612212    181.91479   0.02741332  0.028066218            5 
  554000    1.0515763   -7.0606222    181.97599  0.027373044  0.028045058            7 
  555000    1.0391093   -7.0134013    182.93557  0.027467803  0.028024631            4 
  556000    1.0136527   -7.0607195    182.50644  0.027354083  0.028004109            3 
  557000    1.0285917   -7.0593497    182.38599  0.027286952  0.027983269            5 
  558000    1.0223195   -7.0092584    183.16011  0.027353661  0.027962859            5 
  559000    1.0181568   -7.0138337    183.55918  0.027364219  0.027942638            5 
  560000    1.0331596   -6.9981748    183.90631   0.02736701  0.027923058            3 
  561000    1.0340677   -7.0273942    183.67093  0.027283264   0.02790318            4 
  562000    0.9930229   -7.0135745    183.98325  0.027281027  0.027883442            2 
  563000    1.0330314   -7.0408454    184.11123  0.027251515  0.027863755            2 
  564000    1.0455019   -7.0512273     184.8588  0.027313652  0.027843556            2 
  565000    1.0091364   -7.0156668    185.07962   0.02729788  0.027823614            7 
  566000    1.0240125   -7.0417422     184.6791   0.02719068  0.027803745            6 
  567000    1.0383705   -7.0494696    184.80623  0.027161409  0.027783818            5 
  568000    1.0378516   -7.0204447    185.57707  0.027226683  0.027764267            5 
  569000     1.028277   -7.0193168    186.00441  0.027241419  0.027744816            3 
  570000    1.0441482   -7.0491271    186.59895  0.027280549  0.027725133            5 
  571000    1.0180288   -7.0667811    186.01327  0.027147295  0.027705595            4 
  572000    1.0331342   -7.0726515    186.32365  0.027145053  0.027685476            3 
  573000    1.0339662   -7.0064521    186.63996  0.027143683   0.02766562            3 
  574000    1.0262399   -7.0925449    186.24558  0.027039138  0.027646402            2 
  575000     1.001056   -7.0629514    186.89986  0.027086936  0.027626505            3 
  576000    1.0382829   -7.0886897     187.0703  0.027064569  0.027606154            6 
  577000    1.0254572   -7.0840265    187.30441  0.027051475  0.027586513            5 
  578000    1.0383984   -7.0709924    187.25078   0.02699694  0.027566868            3 
  579000    1.0305589   -7.0655444    187.64653  0.027007272  0.027547185            3 
  580000   0.99694267   -7.0245909    187.29875  0.026910741  0.027527883            5 
  581000    1.0318979   -7.0952315    187.74445   0.02692835  0.027508237            7 
  582000    1.0179148   -7.0746502    188.21834  0.026949933  0.027488646            3 
  583000    1.0094574   -7.0657275    189.24957  0.027051111  0.027469301           10 
  584000    1.0444231   -7.0388754    189.90356   0.02709811  0.027449994            5 
  585000    1.0187592   -7.0599543    189.16135  0.026946062  0.027431516            4 
  586000    1.0131964   -7.0514363    189.96763  0.027014736  0.027413151            5 
  587000    1.0189406   -7.0610259    190.25172  0.027009046  0.027395176            3 
  588000    1.0234761   -7.0583455    190.49753  0.026997949  0.027377093            4 
  589000    1.0078394    -7.059694    190.92925  0.027013193  0.027359295            3 
  590000    1.0040555   -7.0489902    190.98747  0.026975631  0.027341027            2 
  591000    1.0085799   -7.0563897    190.79655  0.026903067  0.027322654            7 
  592000    1.0184051   -7.0811212    191.36242  0.026937278  0.027304618            2 
  593000   0.99963795   -7.0827504    191.56733  0.026920648  0.027286303            3 
  594000     1.005506   -7.0803787    191.64497  0.026886219  0.027268284            3 
  595000   0.99946704   -7.0653431     191.8319  0.026867212  0.027250375            2 
  596000    1.0164253   -7.0629965    192.32725  0.026891395  0.027232533            7 
  597000    1.0008784   -7.0762124    191.88455  0.026784554  0.027214655            4 
  598000    1.0271618   -7.0772582     192.1107   0.02677128  0.027196718            3 
  599000     1.001568   -7.0414235    192.66082  0.026803119  0.027178609            4 
  600000    1.0253003   -7.0067638     193.0984  0.026819223  0.027160433            3 
  601000    1.0203961   -7.0746255     192.9562  0.026754881  0.027142196            5 
  602000    1.0332484   -7.0655157     192.9577  0.026710645  0.027123729            8 
  603000    1.0147197    -7.079824    192.91465  0.026660399  0.027105164            2 
  604000   0.99762009   -7.0968524     193.0562   0.02663579  0.027086163            4 
  605000   0.99779181   -7.0699531    193.62691  0.026670373  0.027067483            4 
  606000    1.0139929   -7.1094546     193.3737  0.026591542  0.027048817            5 
  607000    1.0227709   -7.1114847    193.71039  0.026593957  0.027030105            4 
  608000    1.0098118   -7.0774916    194.14662  0.026610008  0.027011535            4 
  609000    1.0530463   -7.1130823    193.54882  0.026484513  0.026992579           10 
  610000     0.980291   -7.0644994    194.32678  0.026547374  0.026973864            6 
  611000    1.0070104   -7.0789581    194.65585  0.026548806  0.026955024            6 
  612000    1.0205892   -7.0996805     194.4776  0.026481155  0.026936033            6 
  613000    1.0346467    -7.083771    195.09358  0.026521693  0.026917216            3 
  614000    1.0403942   -7.1421193    194.29419  0.026370004  0.026898117            6 
  615000   0.99498659   -7.0519913    194.84096  0.026401214  0.026878891            5 
  616000   0.99812249   -7.0522498    195.15239  0.026400486   0.02685976            2 
  617000   0.99736133   -7.1019152    194.83639  0.026315017    0.0268403            4 
  618000    1.0142329   -7.1075243    194.79353  0.026266657   0.02682046            5 
  619000    1.0182824   -7.1245465    195.42441  0.026309155  0.026800477           15 
  620000   0.99277023   -7.1453709    194.75218  0.026176368  0.026780593            3 
  621000    0.9883783   -7.0984744    196.50416  0.026369318  0.026760899            3 
  622000     1.027919   -7.1142533    195.68191  0.026216762  0.026740948            8 
  623000   0.99702985   -7.1304147    195.68005  0.026174432  0.026721346            3 
  624000   0.98869072    -7.185584    195.57952   0.02611906  0.026701449            4 
  625000    1.0086099   -7.1377156     196.3224  0.026176319  0.026681373            2 
  626000   0.96830846   -7.1307876    196.92862  0.026215205  0.026661946            4 
  627000   0.99786635   -7.1451063    196.28712  0.026088134  0.026641949            2 
  628000   0.98885739   -7.1272378    196.96376   0.02613638  0.026621703            5 
  629000    1.0110712   -7.0879108    197.24472  0.026132051  0.026602223            2 
  630000    0.9976642   -7.1131387    197.25967  0.026092549  0.026582854            5 
  631000   0.99252823   -7.1626696    196.43769  0.025942643  0.026563188            3 
  632000     1.006701    -7.130476    197.69205   0.02606699  0.026543333            4 
  633000    1.0051019   -7.1337309    196.93675  0.025926375  0.026523569            8 
  634000   0.99667925   -7.1311627    197.73243  0.025990067  0.026503703            9 
  635000   0.97869338   -7.1469313    197.82765  0.025961633   0.02648378           13 
  636000    1.0180648    -7.084355    198.44786  0.026002078   0.02646394            6 
  637000   0.99502364    -7.109537    198.11853  0.025918175  0.026444108            2 
  638000   0.98569597   -7.1152252    198.39081  0.025913116  0.026424072            5 
  639000   0.99570996   -7.1033871    198.81788  0.025928258  0.026404227            4 
  640000   0.99028658   -7.1431717    198.95305  0.025905345  0.026384482            5 
  641000   0.99339682   -7.1546254     198.8673  0.025853783  0.026364639            5 
  642000   0.98043322   -7.1129922    198.76541  0.025800286  0.026344642            4 
  643000   0.98251632   -7.1593819    199.63914  0.025873398   0.02632488            4 
  644000    1.0154532   -7.1536997    199.49517  0.025814593  0.026304849            8 
  645000     0.997107    -7.190762    199.01949  0.025713112  0.026284883            4 
  646000    1.0023136   -7.1887126    199.13177  0.025687793  0.026264447            6 
  647000   0.99932663   -7.1266859    199.98815  0.025758392  0.026244129            6 
  648000   0.99494162   -7.1558678    200.13929  0.025738078  0.026224251            7 
  649000    1.0017922   -7.1900349    199.86417  0.025663093  0.026204086            3 
  650000    1.0009904   -7.1990248    199.89865  0.025628032  0.026183707            4 
  651000   0.99673758   -7.2178215    199.45267  0.025531576   0.02616292            3 
  652000   0.99218569   -7.1491009    199.83409  0.025541167  0.026141982            5 
  653000    1.0017959   -7.1107397    200.98268  0.025648632  0.026121463            6 
  654000   0.99110847   -7.1258019    200.50182  0.025548142  0.026101187           13 
  655000    1.0096554   -7.1436189    200.93014  0.025563631  0.026080587            8 
  656000   0.99213488   -7.1653794    200.60474  0.025483326  0.026059834            9 
  657000   0.99877412   -7.1740251    200.75082  0.025463067  0.026039132            8 
  658000    1.0129927   -7.1997015    200.48956  0.025391282  0.026017929            2 
  659000    1.0026682   -7.1610226    201.09391  0.025429175  0.025996942            6 
  660000   0.99501642   -7.1464789    200.79148   0.02535246  0.025975889            8 
  661000   0.98549704   -7.1267287     201.3536  0.025384973   0.02595503           11 
  662000    0.9910467   -7.1956911    201.25008  0.025333595  0.025934229            7 
  663000   0.98461083   -7.1245508    202.10155  0.025402408  0.025913984            3 
  664000   0.99600711   -7.1531987    202.29105  0.025387933  0.025893955            5 
  665000   0.96552246   -7.1571803    202.35963   0.02535835  0.025873735            6 
  666000   0.98056955    -7.128121     203.2135  0.025427114  0.025853536            2 
  667000   0.98085981   -7.1680133     202.7423  0.025330123  0.025833208           13 
  668000   0.98453353   -7.1887652    201.91779  0.025189345  0.025812297            6 
  669000   0.96279589   -7.1522728    203.06463  0.025294547  0.025791861            7 
  670000    1.0035991   -7.1692732    202.29959  0.025161641  0.025771448            5 
  671000   0.96919641   -7.1801089    203.52998  0.025276947   0.02575123            3 
  672000   0.96098808   -7.1617863    203.50369  0.025236073  0.025730474            3 
  673000    1.0184465   -7.1342714    204.13175  0.025276343  0.025710125            4 
  674000   0.96888358   -7.1763838     203.9244  0.025213204  0.025689792           11 
  675000   0.97624257   -7.1988369    203.31714  0.025100881  0.025669339            5 
  676000   0.97849396   -7.1639926    203.99059  0.025146769  0.025649248            8 
  677000   0.97785956   -7.1640876     204.3718  0.025156548  0.025628962            4 
  678000   0.97312328   -7.1143692    205.55277  0.025264598  0.025608866            4 
  679000   0.97099517   -7.1884983    204.46618  0.025094033  0.025588641            6 
  680000   0.97034275   -7.1642615    205.02122   0.02512515  0.025568399            4 
  681000   0.95860359   -7.1739068    205.01645  0.025087671  0.025548089            5 
  682000   0.97807395   -7.1929231      204.807  0.025025293  0.025527839           15 
  683000    0.9756797    -7.213433    204.26191  0.024922147  0.025507459            4 
  684000   0.97807423   -7.1563562    205.47087  0.025033001  0.025486934            3 
  685000   0.98245339   -7.1862631    204.80796  0.024915811  0.025466447            7 
  686000   0.95542857   -7.1723482    205.24099  0.024932094  0.025445948            4 
  687000   0.98279739   -7.1459891    205.49988  0.024927205  0.025425751            6 
  688000   0.99691497    -7.167269    205.94348  0.024944705   0.02540562            6 
  689000   0.93721983   -7.1831573    205.18256  0.024816468  0.025385392           15 
  690000   0.97670232   -7.1837689    205.78874  0.024853712  0.025364888            5 
  691000   0.96810382   -7.2026069    206.51205  0.024904974  0.025344245            4 
  692000   0.97634439   -7.1894422    205.87836  0.024792674  0.025323798            2 
  693000   0.99960868   -7.2092441    205.94233   0.02476459  0.025303338            7 
  694000   0.99704143   -7.1893893    206.17889  0.024757311  0.025283061            4 
  695000   0.95883066   -7.2080348    206.12092  0.024714738  0.025262634           10 
  696000   0.97796669   -7.2016087     206.9198  0.024774881  0.025241915            7 
  697000   0.97328205   -7.2069651    206.65687    0.0247079  0.025221611            7 
  698000   0.96379063   -7.1986107    206.33131  0.024633633  0.025200845            4 
  699000   0.97434985   -7.2219939    207.38972  0.024724573   0.02518041            3 
  700000   0.98230581   -7.2166234    207.30248  0.024678867  0.025160061            4 
  701000   0.97405841   -7.2014531    207.47871  0.024664611  0.025139871            5 
  702000   0.98114139   -7.1544322    208.81115  0.024787649  0.025120107            7 
  703000   0.98820318   -7.2072116    208.23104  0.024683622  0.025100134            4 
  704000   0.96204241   -7.2392324      207.503  0.024562382  0.025079762            4 
  705000   0.96248612   -7.1765589    208.60636  0.024657962  0.025059439            3 
  706000   0.98000953   -7.1831825    208.40962  0.024599814  0.025039577            3 
  707000   0.97807148    -7.199871    208.61937  0.024589742  0.025019447            4 
  708000   0.97763616   -7.1759619    208.69076  0.024563413  0.024999465            8 
  709000   0.96877083   -7.1791095    208.54863  0.024512063  0.024979367            6 
  710000    0.9689368   -7.1884042    208.35226   0.02445449  0.024959008            6 
  711000   0.97517126   -7.1990822    208.43288  0.024429546  0.024938717            5 
  712000   0.94801597   -7.1936365     208.3412  0.024384504  0.024918269            6 
  713000   0.98702993   -7.1972436    208.88245  0.024413564  0.024897744            3 
  714000   0.95923491   -7.2450526    208.51351  0.024336311  0.024877057            4 
  715000   0.95530317   -7.2340257    208.61582  0.024314199  0.024856402            8 
  716000   0.97494114   -7.1814505    209.87508  0.024426802  0.024835899            3 
  717000   0.95636468    -7.252621    208.63018  0.024248045  0.024815416            5 
  718000    0.9407202   -7.2325645    209.10084  0.024268899  0.024794694            6 
  719000   0.94534205   -7.2596647    209.18031  0.024244357  0.024773973            7 
  720000   0.97907512   -7.2609596     208.9358  0.024182384  0.024753196            6 
  721000   0.97124497   -7.1509512    210.06276  0.024279098  0.024732559            3 
  722000   0.96636806   -7.2051313    210.24051  0.024265987  0.024711714            5 
  723000   0.98338208   -7.2429024    210.02849  0.024207986  0.024691286            5 
  724000   0.94727968   -7.2083168     210.9206  0.024277232  0.024670678            9 
  725000   0.95290126   -7.2445765    210.05075  0.024143764  0.024650231            5 
  726000     0.954141   -7.2391402    210.14382  0.024121191  0.024629682            4 
  727000   0.96547167   -7.2216867    210.67123  0.024148467  0.024609352            6 
  728000   0.95476384   -7.2648562    211.25024  0.024181575   0.02458897            5 
  729000   0.94344405   -7.2668591    210.75242  0.024091497  0.024568535            8 
  730000   0.94153734   -7.2683714     210.8119  0.024065286  0.024548032            8 
  731000   0.96242951   -7.2125178    211.34482  0.024093117  0.024527661            4 
  732000   0.97515978    -7.216142    211.01623  0.024022795  0.024507407            4 
  733000   0.98156482   -7.2142954    211.85007  0.024084819    0.0244871           10 
  734000   0.96246952   -7.2149932    211.60184  0.024023823  0.024467043            5 
  735000   0.94193025   -7.2505991    211.79542  0.024013086    0.0244468            5 
  736000   0.95503034   -7.2026983    211.59386  0.023957638  0.024426283            5 
  737000   0.95623399   -7.2140624    212.35321  0.024010992  0.024406073            4 
  738000    0.9482508   -7.2529854    212.18866  0.023959876  0.024385866           10 
  739000    0.9544972   -7.2893384    211.58612  0.023859509  0.024365362           18 
  740000    0.9503858   -7.2744447    212.28798  0.023906304  0.024345049            5 
  741000   0.96357924   -7.2968587    212.14314  0.023857753  0.024324633            5 
  742000   0.93422187   -7.2613131    213.51814  0.023980025  0.024304339            6 
  743000   0.94279833   -7.2382856    212.71322  0.023857472   0.02428407            3 
  744000   0.95797537   -7.2620352    213.07986  0.023866471  0.024263858            6 
  745000   0.93980352   -7.2705259    213.18362  0.023846043  0.024243694            5 
  746000   0.96241649   -7.2749953    212.74579  0.023765169  0.024223597            3 
  747000   0.94084486   -7.2259587    213.58597  0.023827083  0.024203738            5 
  748000   0.94589617   -7.2624257    213.91737  0.023832149  0.024183701            5 
  749000   0.94334261   -7.2559299    214.14018   0.02382512  0.024163808           10 
  750000    0.9526855   -7.2847066    213.63695  0.023737439  0.024144009            4 
  751000   0.94607994    -7.277359    214.72893  0.023827001  0.024124273            4 
  752000   0.96126285   -7.2736367    214.15252  0.023731441  0.024104624            6 
  753000   0.95075304   -7.2456618    214.81442  0.023773176  0.024085046            8 
  754000   0.95144757    -7.267829    215.08106  0.023771117  0.024065478           10 
  755000   0.95359605   -7.2509376     214.5422  0.023680155  0.024045836            6 
  756000   0.94672779    -7.283011     214.7709  0.023674041  0.024026265            5 
  757000   0.95436299   -7.2565799    214.95377  0.023662898  0.024006603            6 
  758000   0.94781485   -7.2971461    214.67223  0.023600729  0.023986939            5 
  759000    0.9479154   -7.2372107    215.37317  0.023646593  0.023967465            3 
  760000   0.94810891   -7.2612496    216.06101    0.0236909  0.023948033            7 
  761000   0.96215941     -7.28682    215.63914  0.023613572  0.023928363           11 
  762000   0.96144949   -7.2531778    215.52012  0.023569567  0.023908905           13 
  763000   0.95073979   -7.2934354    215.57163  0.023544302   0.02388938            3 
  764000   0.95152462   -7.2545393    216.26895  0.023589545    0.0238699            4 
  765000   0.94826665   -7.2815687    215.83513  0.023511452  0.023850277            8 
  766000     0.934377   -7.2753698    216.60479   0.02356449  0.023830775           13 
  767000   0.96393539   -7.3173776    216.24205  0.023494355  0.023811208            6 
  768000    0.9670467   -7.2972365    215.34245  0.023366151  0.023791613            3 
  769000   0.92986556    -7.279641    216.21201  0.023429997  0.023772027            7 
  770000   0.89626171   -7.2702389    216.84698  0.023468288  0.023752365            4 
  771000   0.93778796   -7.2875083    216.68497  0.023420338  0.023732892            4 
  772000   0.94523519    -7.329965    216.42103   0.02336151  0.023713224            6 
  773000   0.96657565   -7.3019394    216.15886  0.023303025  0.023693827           11 
  774000   0.95539583    -7.273536     217.2617  0.023391656  0.023674279            4 
  775000   0.93863137     -7.27684    217.04039  0.023337677    0.0236548            4 
  776000   0.97311245    -7.315979    216.92221  0.023294911  0.023635245            2 
  777000    0.9257037   -7.3115501    216.89012  0.023261489  0.023615626            4 
  778000   0.93302769   -7.3073226     217.3861  0.023284715   0.02359596            3 
  779000   0.94049606   -7.2971231    216.86743   0.02319934  0.023576267            6 
  780000   0.93854669   -7.3053053    217.20345  0.023205496  0.023556181           13 
  781000   0.94577518   -7.3025809     217.4485  0.023201931  0.023536247            8 
  782000   0.93343531   -7.2928506    217.68201  0.023197145  0.023516514            6 
  783000   0.94554882   -7.3226462    217.57436  0.023156062  0.023496677            5 
  784000   0.95083916   -7.2793233    218.21976  0.023195128  0.023476836            5 
  785000   0.92676545   -7.3002358    218.23117   0.02316679  0.023457203            5 
  786000   0.95255712   -7.3080743    218.20671  0.023134723  0.023437651            7 
  787000    0.9500497   -7.2818653    218.65441  0.023152733  0.023417975            4 
  788000   0.95073453   -7.2963186    217.41588  0.022992373  0.023398084            4 
  789000   0.94095941   -7.3029052    218.62163  0.023090582  0.023378244            7 
  790000   0.92298293   -7.3129548    218.08937  0.023005208  0.023358264            6 
  791000   0.93308639   -7.3021387    218.49595  0.023018958  0.023338583            6 
  792000   0.93481058   -7.3205215     218.2617  0.022965246  0.023318882            7 
  793000    0.9384429   -7.3465956    218.40944  0.022951812  0.023299076            2 
  794000   0.94419452   -7.3321049    218.52344  0.022934869  0.023279034            3 
  795000   0.93875324   -7.3136747    218.34261  0.022887066  0.023259104            5 
  796000     0.944579   -7.3285763    218.71579  0.022897382  0.023239394            5 
  797000   0.93934785   -7.3051407    218.69274  0.022866242   0.02321952            5 
  798000   0.94925213   -7.3428735    218.75591  0.022844185  0.023199624            4 
  799000   0.93731391   -7.3301643    218.26818  0.022764725  0.023179457            5 
  800000   0.95057706   -7.3677726    218.65337  0.022776393  0.023159172           10 
  801000   0.94031118   -7.3358684    218.68121  0.022750854  0.023138916           10 
  802000   0.94223316   -7.3302176    219.06513  0.022762378  0.023118841            3 
  803000   0.93105559   -7.3139971    218.94021  0.022721068  0.023098963            4 
  804000   0.94560315   -7.2966653      219.857  0.022787832  0.023079154            5 
  805000    0.9100836   -7.3385404    219.43667  0.022716012  0.023059207           13 
  806000   0.93254316   -7.3374046    219.52758  0.022697227  0.023039248            5 
  807000   0.94488363   -7.3343443    219.33478  0.022649192  0.023019376           10 
  808000   0.92714481   -7.3007024    220.12154  0.022702304  0.022999731            4 
  809000   0.90179341    -7.358889    219.52221  0.022612506  0.022980045            6 
  810000   0.95214082    -7.330082    220.31559  0.022666212  0.022960206            4 
  811000   0.92288022   -7.3368008    220.09961  0.022616072  0.022940502           10 
  812000   0.92700851   -7.4022726    220.09763  0.022588016   0.02292076            9 
  813000   0.92093482   -7.3162472    220.61927  0.022613701  0.022900907            9 
  814000   0.93793141   -7.3584132    220.45488  0.022569091   0.02288108           10 
  815000   0.92971574   -7.3141914    221.04014  0.022601241  0.022861614            8 
  816000   0.92190948   -7.3367068    221.04829  0.022574376  0.022842333            7 
  817000   0.93556006    -7.343344    220.72537  0.022513808  0.022823045            5 
  818000   0.93041069   -7.3567466     220.9688  0.022511084  0.022803738           11 
  819000   0.92148756   -7.3321859    221.24978  0.022512187  0.022784363            6 
  820000   0.92149493    -7.368388    221.20322  0.022480002  0.022764996            7 
  821000   0.91885505    -7.373181    221.20602  0.022452905  0.022745256            3 
  822000   0.91103434   -7.3120142    221.80993  0.022486814  0.022725859           14 
  823000   0.91314049   -7.3749911    221.30229  0.022408089   0.02270653            2 
  824000   0.91605914   -7.3208139    222.57238  0.022509343  0.022687059            3 
  825000   0.91377868   -7.3791878    221.09225  0.022332551  0.022667723            4 
  826000   0.91487072    -7.374488    221.31766  0.022328254  0.022648097            4 
  827000   0.95442307   -7.3720165    221.33519  0.022303021  0.022628245            4 
  828000   0.94518265    -7.339273    221.56027  0.022298739  0.022608546            4 
  829000   0.90211779   -7.3594258    221.77829  0.022293756  0.022588702           13 
  830000   0.93800146   -7.3944685    221.29418  0.022218291  0.022568668           11 
  831000   0.92117013   -7.4075863      221.061  0.022168171  0.022548688            5 
  832000   0.92962308   -7.3725915    221.72202  0.022207734  0.022528749            5 
  833000   0.94091135    -7.367233    221.82487  0.022191363  0.022508888           10 
  834000   0.92884964   -7.3814924    221.78714  0.022160985  0.022489031            8 
  835000   0.93467949   -7.3745682    222.49026  0.022204617  0.022469089            7 
  836000   0.93005896   -7.3435007    222.00956  0.022130139  0.022449129            9 
  837000    0.8989842   -7.3531696    222.06613  0.022109332  0.022429259            9 
  838000   0.92069745   -7.3187768    222.75169  0.022151122  0.022409367            6 
  839000   0.93879639   -7.3583875     221.9618  0.022046266  0.022389481            6 
  840000   0.92380909   -7.3767108    221.83769  0.022007707   0.02236942            7 
  841000   0.91711351   -7.4068167    221.81638  0.021979428  0.022349274            5 
  842000   0.92402812   -7.3519561    221.59899  0.021931809  0.022329142           11 
  843000   0.91472174   -7.3874913    222.59028  0.022003784  0.022309205            7 
  844000   0.91530464   -7.4091127    221.84277  0.021903907  0.022289151           14 
  845000   0.90034154   -7.3768205    222.48037  0.021940865  0.022269063            6 
  846000   0.92139943    -7.377657    222.86934  0.021953245  0.022249017            9 
  847000   0.93606183    -7.369725    222.80491  0.021920987  0.022229157           16 
  848000     0.903522   -7.3772579    222.98163  0.021912503  0.022209288            4 
  849000   0.91388727   -7.3796666    222.53166  0.021842526   0.02218962           22 
  850000   0.90568783    -7.391205    222.58788  0.021822341  0.022169815           13 
  851000   0.92090145    -7.361014    223.38525   0.02187478  0.022149928           21 
  852000   0.90919065   -7.3605829    223.37922  0.021848515  0.022130075            4 
  853000   0.91658615   -7.3977293    222.95326  0.021781288  0.022110252            4 
  854000   0.91585968   -7.4220589    224.02034  0.021859908  0.022090365            7 
  855000   0.90543107   -7.4010282    223.51525  0.021785112  0.022070439            9 
  856000   0.90450495   -7.4157575    223.08987  0.021718251  0.022050346            5 
  857000   0.89728974   -7.3839727    223.21161  0.021704746  0.022030438            6 
  858000   0.91670145   -7.3938771     223.3199  0.021689967  0.022010559           12 
  859000   0.90215791   -7.4009174    223.88143  0.021719192  0.021990685            7 
  860000   0.92307786   -7.3966428    223.21682  0.021629537  0.021970876            3 
  861000    0.9026566    -7.406504    223.68785  0.021650005  0.021950918            9 
  862000   0.91667179   -7.4027778    223.36104  0.021593295  0.021931255            4 
  863000   0.89937492   -7.3805919    223.95694  0.021625815   0.02191166            9 
  864000   0.89447902   -7.3813016    224.66436  0.021669016  0.021891925            7 
  865000   0.89610217   -7.4083021    223.99966  0.021579928  0.021872308            6 
  866000   0.90279497   -7.4119033    223.86827  0.021542366  0.021852586           13 
  867000   0.89926038   -7.3913531    224.50796  0.021579004  0.021832948           20 
  868000   0.90614705   -7.4286142    224.79609  0.021581806  0.021813384            7 
  869000   0.90789854   -7.4494679    224.33957  0.021513193  0.021793805           10 
  870000   0.90108495   -7.4142615    224.31725  0.021486326  0.021774039            4 
  871000   0.89362798   -7.3964726    224.12296  0.021443069  0.021754321           10 
  872000   0.89293943   -7.4128509    224.55458  0.021459727  0.021734513            6 
  873000   0.91994497   -7.4188636    225.17241  0.021494121  0.021714768            3 
  874000   0.87984669   -7.3961322    225.50096  0.021500855  0.021695194            4 
  875000   0.89930077   -7.3975511    224.93583   0.02142246  0.021675559            4 
  876000   0.91275826   -7.3859789    225.76536  0.021476917     0.021656           12 
  877000   0.89782221    -7.436488     224.7979  0.021360499  0.021636499            5 
  878000   0.91104757   -7.3876355    226.01401  0.021451595  0.021617215            8 
  879000   0.89756323   -7.3893677    225.55786  0.021383946  0.021597806            5 
  880000   0.87743439   -7.4359178     224.6272  0.021271515  0.021578196            6 
  881000   0.89998487   -7.4224124    225.09304  0.021291434  0.021558515            5 
  882000   0.87989884    -7.416101    224.56143  0.021217067  0.021538769            6 
  883000   0.91148524   -7.4508951    225.42204  0.021274258  0.021519147           10 
  884000   0.89978666   -7.4088418    225.99538  0.021304241   0.02149956            2 
  885000   0.92527955   -7.4169952    225.05454  0.021191576   0.02148006            3 
  886000   0.89341913   -7.3896218    226.01447  0.021257945  0.021460506            9 
  887000   0.90896051   -7.4253037     225.5049  0.021186105  0.021440905            3 
  888000   0.87828798   -7.4117877    225.49962  0.021161751  0.021421429            6 
  889000   0.89943115   -7.4029278    226.06494   0.02119094  0.021402121            6 
  890000   0.89327156   -7.4151787    226.27581  0.021186873   0.02138275            5 
  891000   0.90283262   -7.4370382    225.83959  0.021122296   0.02136332            5 
  892000   0.91812933   -7.4224836    226.10986  0.021123866  0.021343827            5 
  893000   0.88523128   -7.4189171    225.92669  0.021083118  0.021324435            6 
  894000   0.89105994   -7.4231228    226.20834  0.021085789  0.021304979            8 
  895000   0.90566646   -7.4648158    225.60825  0.021006355  0.021285589            4 
  896000   0.91443134   -7.4361527    226.57018  0.021072375  0.021266018            3 
  897000    0.9005361   -7.3986758    226.95568  0.021084697  0.021246613            5 
  898000   0.88756263   -7.4400077    226.71599  0.021038974  0.021227144            6 
  899000   0.88813704    -7.417428    227.22621  0.021062867  0.021207597            8 
  900000   0.92126957   -7.4799597    225.99053  0.020925049   0.02118809            6 
  901000   0.92138645   -7.4518284    226.10642  0.020912544  0.021168767            6 
  902000   0.89193559   -7.4381084    227.22434  0.020992641  0.021149347           20 
  903000   0.88851013   -7.4592912    226.47339  0.020900091  0.021129902            8 
  904000   0.88029757   -7.4185638    226.75861  0.020903264  0.021110723            6 
  905000   0.87625953   -7.4352537    227.39563  0.020938824  0.021091521            6 
  906000   0.87982783   -7.4321272    226.57024  0.020839794  0.021072167            6 
  907000   0.90864848    -7.463237    227.41997  0.020894889   0.02105284            8 
  908000   0.90803656   -7.4684096    227.39375   0.02086947  0.021033349            8 
  909000   0.89875415   -7.4456374    226.93418  0.020804381  0.021013835            6 
  910000   0.90343819   -7.4818623    227.10482  0.020797144  0.020994428            8 
  911000   0.88841696    -7.468676    226.84438  0.020750492  0.020974964            8 
  912000   0.89711277   -7.4598011    227.68312  0.020804379  0.020955634            3 
  913000   0.91280836   -7.4808816    227.20294  0.020737764   0.02093637           16 
  914000   0.90911721   -7.4692756    226.89931  0.020687391  0.020916947            7 
  915000    0.8749334   -7.4674867    227.73684   0.02074106  0.020897505            6 
  916000   0.88376459    -7.483257     227.5758  0.020703767  0.020878144            5 
  917000   0.88875039    -7.470499    227.46323  0.020670958  0.020858893            8 
  918000    0.8865255   -7.4532578    228.21708  0.020716874  0.020839759            9 
  919000   0.89337879    -7.493448     227.2008  0.020602176  0.020820562            5 
  920000   0.89936515   -7.4710669    227.53703  0.020610238  0.020801209           10 
  921000   0.87836419   -7.5012751    226.96073  0.020535716  0.020781952            6 
  922000   0.89164617   -7.4637389    228.48147  0.020650892  0.020762799            4 
  923000   0.86209773   -7.4929938    228.00164  0.020585197  0.020743581           13 
  924000   0.88224658   -7.5364237    227.49181  0.020516938  0.020724351            8 
  925000   0.88247999   -7.4627419    227.77621  0.020520379  0.020705167            9 
  926000   0.88491497   -7.5117836    227.87828  0.020507404  0.020686187            5 
  927000   0.87389201   -7.5160371     227.7959  0.020477877   0.02066716           10 
  928000   0.88320691   -7.4620788    228.32772  0.020503567  0.020648215           12 
  929000   0.87906089   -7.4870161    228.54544  0.020501026  0.020629294           17 
  930000   0.87505862   -7.4874242     228.9963  0.020519382   0.02061044            8 
  931000   0.88759165    -7.508428    228.32973  0.020437677  0.020591565           13 
  932000   0.88437932     -7.52335    228.52854  0.020433525   0.02057272           17 
  933000   0.89567692   -7.5023416    228.73223  0.020429816    0.0205537            4 
  934000   0.85730574   -7.4844859    228.94234  0.020426689  0.020534768            7 
  935000   0.87526385   -7.4880255    229.13189  0.020421737  0.020515776           10 
  936000   0.89680966   -7.5085934    229.57776  0.020439615   0.02049681           20 
  937000   0.86186407   -7.4972739    229.03974  0.020369952  0.020477719           19 
  938000   0.87956106   -7.5430714    228.21017  0.020274536  0.020458656           27 
  939000   0.88056684   -7.5054808    229.05029  0.020327502   0.02043955            8 
  940000   0.89072785   -7.4611993     229.1063  0.020310842  0.020420666            8 
  941000   0.89055515   -7.4793066    229.21936   0.02029927  0.020401815            9 
  942000   0.89468979   -7.4538548    229.37551  0.020291535  0.020383166            6 
  943000   0.88787727   -7.4732302    229.16594  0.020251497  0.020364534            4 
  944000   0.90277083     -7.42978    230.38648  0.020337789  0.020346064            6 
  945000   0.89489621   -7.4981413    230.20715  0.020300455  0.020327491            7 
  946000   0.85941189   -7.4818458    230.03173  0.020263542  0.020309062            7 
  947000   0.86510582   -7.4746454    229.98135  0.020237711  0.020290663            3 
  948000   0.87742886   -7.4991882    230.02909   0.02022056  0.020272303            6 
  949000   0.86137421   -7.5056083     229.6737  0.020168045  0.020253959            6 
  950000   0.88805806   -7.5210462    229.72582  0.020151388  0.020235468           11 
  951000   0.86827479   -7.5167446     229.9661  0.020151253  0.020216979            5 
  952000   0.87393529   -7.5178815    230.57019  0.020182965  0.020198738           13 
  953000    0.8906971    -7.541593    231.06311  0.020204889  0.020180404           11 
  954000    0.8946548   -7.4995816    230.76833   0.02015796  0.020162157            9 
  955000   0.87485558   -7.5038474    230.47192  0.020110988  0.020143889            5 
  956000   0.87980383   -7.5078913    230.65581  0.020105981  0.020125608            8 
  957000   0.85900233   -7.4935411    231.02455   0.02011708  0.020107406            9 
  958000   0.84877571   -7.5002219    230.82522  0.020078742  0.020089119           12 
  959000   0.86392225    -7.519472    230.74277   0.02005064  0.020070952           11 
  960000   0.89462018   -7.4912094    230.80307  0.020034989  0.020052846           10 
  961000   0.87315167    -7.549217    230.84032   0.02001737   0.02003485            6 
  962000     0.881551   -7.5359799    230.86501  0.019998702  0.020016657            7 
  963000   0.89305987   -7.4996046    231.60626  0.020042078  0.019998549           12 
  964000   0.88304174   -7.5117122    231.94554  0.020050617  0.019980552           19 
  965000   0.86615272   -7.5432056    231.05824  0.019953216  0.019962427            5 
  966000   0.86186719   -7.5274402    230.93878  0.019922255  0.019944285            5 
  967000   0.85713657   -7.5239184    231.96135  0.019989775  0.019926218           12 
  968000   0.85819423     -7.56278    231.32502  0.019914344  0.019908165            5 
  969000   0.86409162     -7.55945    231.26213  0.019888384  0.019890084            9 
  970000   0.85486611   -7.5404265    232.26012  0.019953618  0.019872117            9 
  971000   0.87316754   -7.5618033      232.248  0.019932029  0.019854232            5 
  972000   0.89365263   -7.5306339    231.70707  0.019865147  0.019836472            5 
  973000   0.86359489   -7.5549274     231.9942  0.019869322  0.019818622           13 
  974000   0.87075745   -7.5405492    232.31731  0.019876566  0.019800758            9 
  975000     0.856983    -7.526056    232.02674  0.019831345  0.019783086            6 
  976000    0.8571951   -7.5502482    232.94774  0.019889664  0.019765314           10 
  977000   0.86345004   -7.5589087    231.61526  0.019755652  0.019747588           10 
  978000   0.84626854   -7.5534512    232.71029  0.019828757  0.019729829            8 
  979000   0.86562854   -7.5752261    232.34862  0.019777717  0.019712019           10 
  980000    0.8747542   -7.5491301    232.68186  0.019785872  0.019694254           11 
  981000   0.86674148   -7.4942116    232.56044  0.019755389  0.019676583            4 
  982000   0.84002368   -7.5380543    232.33914  0.019716492  0.019658977           10 
  983000   0.85827174   -7.5449241    232.66564  0.019724113  0.019641268           25 
  984000   0.88175269   -7.5581809    232.78318  0.019714023  0.019623618           20 
  985000   0.86855261   -7.5517007    232.59938  0.019678459  0.019606007            7 
  986000   0.87076173   -7.5558579    232.70832  0.019667708  0.019588328           10 
  987000   0.85711261   -7.5565131     233.0926  0.019680226  0.019570658            5 
  988000    0.8620847   -7.5723221    232.51162  0.019611304  0.019552905            4 
  989000   0.85702747   -7.5664349    232.52056  0.019592228  0.019535286            8 
  990000   0.84728222   -7.5770672     233.0578   0.01961766  0.019517705            7 
  991000   0.85212469    -7.535477    233.19714  0.019609581  0.019500033           10 
  992000   0.86095226   -7.5768406    232.76369  0.019553402  0.019482305            5 
  993000   0.86927547   -7.5827213    232.80409  0.019537101  0.019464585           11 
  994000    0.8625585   -7.5555896    233.51663  0.019577182   0.01944694           11 
  995000   0.84904821   -7.5858584    233.12343  0.019524575  0.019429286           22 
  996000   0.85423588   -7.5520593    233.08047  0.019501378    0.0194116           28 
  997000   0.85905264   -7.5881931    232.91457  0.019467951  0.019393911           16 
  998000   0.85792732    -7.566205    233.35776  0.019485451  0.019376257            7 
  999000   0.86630252   -7.5941629    232.53989  0.019397722  0.019358569           17 
 1000000   0.86410264    -7.611271      232.917   0.01940975    0.0193409           17 
 1001000   0.87622316   -7.5975636    232.77931  0.019378897  0.019323222           13 
 1002000   0.85940923   -7.6223344    233.06345  0.019383188  0.019305452           10 
 1003000   0.84445034   -7.6200998    232.56731  0.019322641  0.019287729           17 
 1004000   0.84312578   -7.6444726    232.73217  0.019317079  0.019269895           14 
 1005000   0.87193962   -7.5792076    233.52446  0.019363554  0.019252239            4 
 1006000   0.84575155   -7.6223732    233.21882  0.019318988   0.01923459            6 
 1007000    0.8618054   -7.5915984    233.38357  0.019313436  0.019216906            5 
 1008000   0.83554762   -7.5777173    233.27068  0.019284944  0.019199311            8 
 1009000   0.84326615   -7.5686617    234.02544  0.019328166  0.019181748            7 
 1010000   0.85239101   -7.5657735     233.9931  0.019306362  0.019164174            7 
 1011000   0.85157924   -7.5925183    233.57889  0.019253123   0.01914668            9 
 1012000   0.84292776   -7.6546733    233.37302  0.019217146   0.01912922           16 
 1013000   0.83061731    -7.584458    233.14953  0.019179791  0.019111623            7 
 1014000    0.8420214   -7.5970777    233.78369  0.019212992  0.019094085           13 
 1015000   0.84596046   -7.6045945    233.25396  0.019150572  0.019076605            5 
 1016000   0.85152197   -7.5936074     233.7373  0.019171366  0.019059094           11 
 1017000   0.82921437    -7.579623    233.86444  0.019162934  0.019041659            7 
 1018000   0.82349062   -7.6272276    233.59837  0.019122329  0.019024147            9 
 1019000    0.8479893   -7.6116924     233.7321    0.0191145  0.019006606           17 
 1020000   0.86986912   -7.5972653     233.6326  0.019087631  0.018989115            7 
 1021000   0.83994168   -7.6454413    233.89202  0.019090109  0.018971674           29 
 1022000   0.82926575   -7.6215305    234.54698  0.019124836  0.018954328           22 
 1023000   0.84159893   -7.6272001     233.5701  0.019026564  0.018937013            7 
 1024000   0.83013763   -7.5886864     234.7082  0.019100602  0.018919645           10 
 1025000    0.8482651   -7.5982568    234.54099  0.019068373  0.018902329           10 
 1026000   0.83557116   -7.6074545    234.27123  0.019027878  0.018885023            7 
 1027000   0.82770008   -7.5988175    234.62137  0.019037761  0.018867732           12 
 1028000   0.83888956   -7.5993826    234.16332  0.018982111  0.018850421           10 
 1029000   0.82992869   -7.6326753    234.66627  0.019004395   0.01883308            9 
 1030000   0.85810939   -7.6296445    234.46116  0.018969349  0.018815752            9 
 1031000   0.83972933   -7.6233627    234.25008  0.018933889  0.018798452            7 
 1032000   0.82845356   -7.6446706    234.26342   0.01891662  0.018781106           23 
 1033000   0.84548114   -7.6010652    234.44315  0.018912806  0.018763887            7 
 1034000   0.83270568   -7.6032776    234.50068  0.018899152  0.018746616            7 
 1035000   0.83551359   -7.6165536    234.49174  0.018880172  0.018729441            5 
 1036000   0.83555582    -7.636931    234.14469  0.018834032  0.018712187            9 
 1037000   0.84530428   -7.6224359    234.48546  0.018843255  0.018695023           15 
 1038000   0.84727635   -7.6178401    234.52883  0.018828583   0.01867768           10 
 1039000   0.82571138   -7.6145332    234.21738  0.018785481  0.018660321           11 
 1040000   0.85488672   -7.6132335     234.5069  0.018790617  0.018643092           10 
 1041000   0.83386768   -7.6159948    234.92852  0.018806317  0.018625911            9 
 1042000   0.85094143   -7.6303846    234.69364  0.018769485  0.018608656            5 
 1043000   0.85580796   -7.5927979    235.03141  0.018778476  0.018591443            8 
 1044000   0.84097061   -7.6435177    234.65091  0.018730118  0.018574214            9 
 1045000   0.84946567   -7.6435919    235.07196  0.018745771  0.018557042            9 
 1046000   0.83315094   -7.6315629    235.54023  0.018765155  0.018539895           13 
 1047000   0.84466051   -7.6216612    235.29969  0.018728088  0.018522825           12 
 1048000   0.84026627   -7.6474542    235.62925  0.018736422   0.01850579            6 
 1049000   0.85878395   -7.6456979    235.55289  0.018712496  0.018488842            8 
 1050000    0.8179108   -7.6243332    234.82518  0.018636919  0.018471865            9 
 1051000   0.83773749   -7.6421429    235.60393  0.018680934  0.018454823            6 
 1052000    0.8360186    -7.623146    235.34814  0.018642913  0.018437689            5 
 1053000   0.83776563   -7.6468779    235.60873  0.018645832  0.018420707            8 
 1054000   0.83739805   -7.6387154    235.53163  0.018622046  0.018403767            9 
 1055000   0.84294191   -7.6809701    235.65686  0.018614286  0.018386862           10 
 1056000   0.83421635   -7.6591908     235.1486   0.01855655  0.018369835            6 
 1057000   0.82823431   -7.6610348    234.78809  0.018510571  0.018352744            6 
 1058000   0.82944246   -7.6528349    234.77387  0.018491956  0.018335622            7 
 1059000    0.8397701   -7.6607778    234.96205  0.018489302   0.01831854           15 
 1060000    0.8314168   -7.6310473    235.07577  0.018480799  0.018301538            8 
 1061000   0.82234102   -7.6224732     235.6975  0.018512213  0.018284529           12 
 1062000   0.81513524   -7.6301911    235.51927  0.018480797  0.018267587            8 
 1063000   0.86452893   -7.6644064    235.80195  0.018485571  0.018250577            8 
 1064000   0.81588873   -7.6394118    235.66765   0.01845768   0.01823359            7 
 1065000   0.82703772   -7.6458262    235.16054  0.018400668  0.018216575           16 
 1066000   0.82611202   -7.6517254    235.35394  0.018398526  0.018199608            6 
 1067000   0.82481895    -7.636124    235.31486   0.01837823  0.018182617            6 
 1068000   0.85403453   -7.6434676    235.25779  0.018356569  0.018165567           12 
 1069000   0.84680989   -7.6607917    235.42969  0.018352798  0.018148551           12 
 1070000   0.83461942   -7.6740068    236.12932  0.018390134  0.018131555            9 
 1071000    0.8212723   -7.6749173    235.37923  0.018314599  0.018114614            8 
 1072000   0.83233838   -7.6762526     235.3282  0.018293548  0.018097712           10 
 1073000   0.85703465   -7.6679349    235.65229  0.018301669  0.018080857            7 
 1074000   0.84331015   -7.6614859    235.69853  0.018288216  0.018064012           15 
 1075000   0.82255282   -7.6523167    236.19296  0.018309532  0.018047158           10 
 1076000   0.81835821   -7.6926849    235.96417  0.018274797  0.018030385           23 
 1077000   0.81286721   -7.6588814    235.25244  0.018202758  0.018013528           27 
 1078000   0.81903186   -7.6912539    236.18258  0.018257775   0.01799663           13 
 1079000   0.84831038   -7.6439526    236.05105  0.018230696  0.017979743           24 
 1080000   0.81344867    -7.718897    235.61628  0.018180269  0.017962916           10 
 1081000   0.84069526   -7.6567001    235.53317  0.018157043  0.017946116            8 
 1082000   0.81362598   -7.6547624    236.21533  0.018192801  0.017929298           10 
 1083000   0.78785577   -7.6803729    235.77526   0.01814214   0.01791241           10 
 1084000   0.82559671   -7.6814065    235.91268  0.018135968  0.017895474           12 
 1085000   0.80600937   -7.6806086    235.97597  0.018124115  0.017878598           16 
 1086000   0.80905817    -7.697741    235.89465  0.018101185  0.017861795           16 
 1087000   0.80984299   -7.6809613    235.98494  0.018091455  0.017844987           12 
 1088000   0.81265857    -7.681281    235.60677  0.018045862  0.017828158            6 
 1089000   0.81486363   -7.7078788    235.76067  0.018041068  0.017811356           12 
 1090000   0.81936415   -7.7155565    235.67128  0.018017682  0.017794527           21 
 1091000   0.82493016   -7.6897623    235.25895  0.017969672  0.017777594           21 
 1092000   0.80983869   -7.7156244    235.61088  0.017980073  0.017760657           32 
 1093000   0.82731758   -7.7073343    235.64581  0.017966287  0.017743767           31 
 1094000   0.83733625   -7.6997372    235.81554  0.017962793  0.017726918           15 
 1095000    0.8080819   -7.6805836    236.24422  0.017979012  0.017710125           12 
 1096000   0.82883062   -7.7064911    236.31254  0.017967803  0.017693331           22 
 1097000   0.81012677   -7.6887875    236.11565  0.017936467  0.017676581           10 
 1098000   0.80556326   -7.7108861    235.77074  0.017893954  0.017659788           20 
 1099000   0.80965713   -7.7184541    236.19454  0.017909807  0.017643053           27 
 1100000   0.80728425   -7.7371029    235.93823  0.017874109  0.017626403           14 
 1101000   0.81702929   -7.6967883    236.51118  0.017901239  0.017609746           24 
 1102000   0.82090008   -7.6791476    236.30182  0.017869164  0.017593159           14 
 1103000   0.81300198   -7.6869095    236.59031  0.017874759   0.01757662            9 
 1104000   0.80673546   -7.7079461    236.53631  0.017854492  0.017560102           14 
 1105000   0.79140527   -7.7532356    235.75003  0.017779037  0.017543514           11 
 1106000   0.81321118   -7.7310472    236.04009  0.017784817  0.017526959           20 
 1107000    0.8084177   -7.7376631    236.57217  0.017808806   0.01751041           46 
 1108000   0.80106258   -7.7106271    236.77189  0.017807753   0.01749389           23 
 1109000   0.80318552   -7.7192688    237.02067   0.01781039  0.017477461           42 
 1110000   0.83065814   -7.6929505    236.80597  0.017778226   0.01746104           21 
 1111000   0.79985341   -7.7035885    236.17849  0.017715158  0.017444624           24 
 1112000   0.80972873   -7.7279248    236.30745  0.017708892  0.017428169           43 
 1113000   0.82951023    -7.721099    236.58358  0.017713656  0.017411789           32 
 1114000   0.80744844   -7.7217027    236.61968  0.017700454  0.017395359           23 
 1115000   0.79759715   -7.6965953    237.04407  0.017716298  0.017379036           25 
 1116000   0.79932735   -7.7513637    236.50716  0.017660332   0.01736265           26 
 1117000   0.79884774   -7.7428602    236.55955   0.01764843  0.017346239           19 
 1118000    0.8012532   -7.7025766    236.78235  0.017649251  0.017329845           22 
 1119000   0.83499607   -7.7539325    236.43844  0.017607867  0.017313462           18 
 1120000   0.81760341   -7.7469656    236.81365  0.017620064  0.017297113           29 
 1121000   0.79260259   -7.7610688    236.23835  0.017561578  0.017280757           17 
 1122000   0.78104737    -7.761277    236.22086  0.017544627  0.017264387           15 
 1123000   0.80607228   -7.7467372    236.19132  0.017526812   0.01724801            9 
 1124000   0.80376616   -7.7651808    236.64041  0.017544514  0.017231579            9 
 1125000   0.81555428   -7.7460697    236.71367  0.017534346   0.01721523           14 
 1126000   0.78836529   -7.7510703    236.82692  0.017527155  0.017198895           17 
 1127000   0.81361686   -7.7506125    237.06035  0.017528863  0.017182515           36 
 1128000   0.80985797   -7.7268198    237.13157  0.017518585  0.017166163           23 
 1129000   0.80481882   -7.7687155    237.07329  0.017498767  0.017149883           22 
 1130000   0.81478099   -7.7666337    236.79847  0.017463014  0.017133541           13 
 1131000   0.79377237   -7.7741857    236.20874  0.017404122  0.017117108           27 
 1132000   0.79146467     -7.73935    236.90353  0.017439895  0.017100722           28 
 1133000   0.78649404   -7.7617396    236.57598   0.01740041  0.017084398            8 
 1134000   0.78875251     -7.77585    236.82286  0.017403209  0.017068062           10 
 1135000    0.7918569   -7.7381059    236.61524  0.017372631  0.017051776            7 
 1136000   0.79573575   -7.7803892     236.7705  0.017368728   0.01703541            8 
 1137000   0.80384524    -7.771941    236.35774    0.0173232  0.017019138           15 
 1138000   0.79701753   -7.7613481     236.1487   0.01729267   0.01700285            7 
 1139000    0.7957474    -7.794174    236.15288  0.017277793  0.016986545           16 
 1140000   0.79278527   -7.7319365    237.23261  0.017341565  0.016970287           10 
 1141000   0.80441352   -7.7596228    236.99126   0.01730874  0.016954079           15 
 1142000   0.78834193   -7.7729026    237.27362  0.017314187  0.016937909           11 
 1143000   0.80456604   -7.7538443     236.9577  0.017276006  0.016921805           20 
 1144000   0.79334255   -7.7811771    237.32802   0.01728788  0.016905655            5 
 1145000   0.79629178   -7.7938823    236.14658  0.017186796  0.016889611           22 
 1146000   0.78697277   -7.7664009    236.90377  0.017226859  0.016873446            9 
 1147000    0.7973432   -7.7801562    236.93915  0.017214411  0.016857368           17 
 1148000   0.80905123    -7.761512    237.27701  0.017223941  0.016841263           12 
 1149000   0.79561086   -7.7460397     237.0592  0.017193153  0.016825202           16 
 1150000   0.79518117   -7.7696566    237.18817  0.017187548  0.016809177            9 
 1151000    0.7992433    -7.766799    237.32167  0.017182281  0.016793174           21 
 1152000    0.7864053    -7.742619    236.92887  0.017138952  0.016777229           10 
 1153000   0.79623806   -7.7609057    236.93442  0.017124488  0.016761377           26 
 1154000   0.78053553   -7.7733632     237.5698  0.017155532  0.016745467           16 
 1155000   0.79390974   -7.7774411    237.09749  0.017106601   0.01672954           11 
 1156000   0.78378921   -7.7976193    236.82344  0.017072047   0.01671356           18 
 1157000   0.79247262   -7.7971848    236.78466  0.017054499  0.016697637           14 
 1158000   0.79580136   -7.7866303    237.05059  0.017058908  0.016681822           10 
 1159000   0.79577324   -7.8077966    237.10184  0.017047875  0.016665906           12 
 1160000   0.78497693   -7.7893503    237.46962  0.017059599  0.016649959           12 
 1161000   0.78849306   -7.8118633     236.9855  0.017010156  0.016634026           21 
 1162000   0.79379247    -7.764604    237.49026  0.017031717   0.01661818           17 
 1163000    0.8017636   -7.7944795    237.50904  0.017018418  0.016602422           13 
 1164000   0.77822866   -7.7932659    237.67107  0.017015397  0.016586736           16 
 1165000   0.79376035   -7.7896578    237.10578  0.016960356  0.016571043           33 
 1166000   0.79475565   -7.8101211    237.38244  0.016965583  0.016555323           15 
 1167000   0.78532596   -7.8398358    237.08351    0.0169297   0.01653961           13 
 1168000   0.76802349   -7.7885007    238.12512   0.01698952  0.016523866           14 
 1169000   0.79938641   -7.8067552    237.21297  0.016909964  0.016508102           14 
 1170000   0.80242724   -7.8176535    237.51955  0.016917347  0.016492351            7 
 1171000   0.79160006    -7.787467    237.58166   0.01690732   0.01647663           17 
 1172000   0.79834383   -7.8148037    237.60429  0.016894503  0.016460903           12 
 1173000   0.77923869   -7.7945268    237.71149  0.016887716  0.016445216           18 
 1174000   0.78875992   -7.8386849    237.28578  0.016843113   0.01642958           17 
 1175000   0.76991688   -7.8135572    237.15668  0.016819623  0.016413903           14 
 1176000   0.77151853   -7.8045378    237.23345  0.016810761   0.01639815           19 
 1177000   0.78096716    -7.823829    236.79707  0.016765581  0.016382479           16 
 1178000   0.78993066   -7.8127342    237.45008  0.016797544  0.016366777           22 
 1179000    0.7635152   -7.8343131    237.51712  0.016788035  0.016351088           15 
 1180000   0.75754502   -7.8153546    237.82251  0.016795375   0.01633543           41 
 1181000   0.78294532   -7.8113905    237.61514  0.016766521  0.016319739           25 
 1182000    0.7815917   -7.8293679    237.36873  0.016734964  0.016304011           24 
 1183000   0.77823512   -7.7959961    237.61276  0.016738008  0.016288309           16 
 1184000   0.77079399    -7.820632    237.56717  0.016720662   0.01627268           17 
 1185000   0.78631059   -7.8380026    237.37979  0.016693375  0.016256999           18 
 1186000   0.77517042   -7.8332611    237.22778  0.016668619  0.016241345           15 
 1187000   0.80100479   -7.8221385    237.25137  0.016656232  0.016225626           21 
 1188000   0.76814195   -7.8449079    236.85614  0.016614488  0.016210004           10 
 1189000   0.77852615   -7.8240043    237.36241  0.016635997   0.01619443           20 
 1190000   0.80242855   -7.8293563    237.01921  0.016597984  0.016178849           19 
 1191000   0.77751592   -7.8204223    237.28871  0.016602904  0.016163309           12 
 1192000   0.79083606   -7.8081633    237.28549  0.016588751  0.016147755           33 
 1193000   0.77063528   -7.8522918    237.50137  0.016589925  0.016132179           15 
 1194000   0.76664423   -7.8248472    237.51549  0.016577016  0.016116671           10 
 1195000   0.76400591   -7.8058108    238.03728  0.016599531   0.01610125           16 
 1196000   0.78450917   -7.8374695    237.41415  0.016542234  0.016085866           10 
 1197000   0.77118068   -7.7940256    237.39823  0.016527306  0.016070414            8 
 1198000   0.75923741   -7.8116742    238.12118  0.016563799  0.016054954           12 
 1199000   0.77944635   -7.8223165    237.33276  0.016495188  0.016039556           13 
 1200000   0.77196587   -7.8180241    237.62368  0.016501644  0.016024144           13 
 1201000   0.77079826   -7.8170581    237.84483  0.016503249  0.016008793           12 
 1202000   0.77097178   -7.8336507    237.95458  0.016497128  0.015993491            9 
 1203000   0.78414829   -7.8609362    237.49779  0.016451772  0.015978127           12 
 1204000   0.76939418     -7.84727    237.74664  0.016455332   0.01596281           18 
 1205000     0.769617    -7.836399    238.04828  0.016462537  0.015947497           15 
 1206000   0.76537488    -7.830658    237.54094   0.01641383  0.015932175           19 
 1207000   0.79073465   -7.7957197    238.56465  0.016470909  0.015916907           22 
 1208000   0.77191547    -7.806365    238.18172  0.016430858  0.015901633           12 
 1209000   0.75876575   -7.8213275    237.56957  0.016375074  0.015886321            8 
 1210000   0.77280516   -7.8216833    238.04998  0.016394626  0.015871075           22 
 1211000   0.76539416   -7.8313672     237.9339  0.016373101  0.015855816            8 
 1212000   0.76476943   -7.8678162    237.48861  0.016328975  0.015840544           25 
 1213000   0.77004917   -7.8544613    237.49972  0.016316276  0.015825283           12 
 1214000   0.76671277   -7.8696646    237.86515  0.016327921  0.015810036           11 
 1215000   0.77423692   -7.8432909    238.06338  0.016328078  0.015794773           14 
 1216000   0.76950693   -7.8523407    237.58932  0.016282163  0.015779659            6 
 1217000   0.77029037   -7.8509132    238.05725  0.016300825  0.015764567           19 
 1218000   0.75024954   -7.8479713    238.49576  0.016317444  0.015749486            8 
 1219000   0.76487458   -7.8476274    237.94146  0.016266165  0.015734431            9 
 1220000   0.76222376   -7.8604749    238.33525   0.01627973  0.015719369           11 
 1221000   0.77113805   -7.8519054    238.25147  0.016260679  0.015704361           16 
 1222000   0.77429736   -7.8732485    237.91441  0.016224387  0.015689312           11 
 1223000   0.77896692    -7.843814    238.12633  0.016225561  0.015674245           29 
 1224000   0.77650982   -7.8531564    237.87434  0.016195149   0.01565926           15 
 1225000   0.75977218   -7.8685023    237.91405  0.016184629  0.015644199           27 
 1226000   0.76367872   -7.8626208    237.70088  0.016156939  0.015629148           15 
 1227000   0.75485787   -7.8901027    237.95565  0.016161074  0.015614131           19 
 1228000   0.77534525   -7.8928239    237.88842  0.016143351  0.015599106           29 
 1229000   0.77345848   -7.8906602    237.46204  0.016101305  0.015584074           26 
 1230000   0.76323432   -7.9008554    237.70446  0.016104638  0.015569055           13 
 1231000   0.75553662   -7.9080294    237.20996   0.01605808  0.015554017            8 
 1232000   0.76147586   -7.8740708    237.73226  0.016080374  0.015538941           21 
 1233000   0.79428588   -7.8996111    237.59222  0.016057868  0.015523876           13 
 1234000   0.75148742   -7.9157048    237.94183  0.016068465    0.0155089           14 
 1235000   0.75888856   -7.8453179    237.78233  0.016044692  0.015493952           20 
 1236000   0.75453698   -7.8971639    238.28665  0.016065713  0.015479095           18 
 1237000   0.76065872   -7.8834352    237.84139  0.016022729  0.015464222           12 
 1238000   0.77071309   -7.9117053    238.09273  0.016026705  0.015449349           15 
 1239000   0.77592409   -7.9206867    238.22976  0.016022986  0.015434492           28 
 1240000   0.75607928   -7.8852646    238.26871  0.016012682  0.015419679           23 
 1241000   0.76990651    -7.869107     237.6431  0.015957769  0.015404898           18 
 1242000   0.75114549   -7.9038081    238.34715   0.01599216  0.015390073           18 
 1243000   0.76611562   -7.9079312    238.17204  0.015967555   0.01537519           32 
 1244000   0.74678303   -7.8955517     237.6765  0.015921523  0.015360339           16 
 1245000   0.75638876   -7.9116189    237.86652  0.015921454  0.015345508           21 
 1246000   0.75335262   -7.8924602    237.65473  0.015894511  0.015330628           27 
 1247000   0.74914949   -7.9092189    237.90617  0.015898568  0.015315784           37 
 1248000   0.75265366   -7.9147484    237.94445  0.015888385  0.015300918           23 
 1249000   0.75223867   -7.9319559    237.81718  0.015867172  0.015286066           16 
 1250000   0.74383194   -7.9274168    237.69983  0.015846655  0.015271247           25 
 1251000   0.75849503   -7.9141618    237.61809  0.015828543  0.015256388           41 
 1252000   0.76240166   -7.9185368    237.57396  0.015812963  0.015241556           29 
 1253000   0.75547658   -7.9411382    237.66045  0.015806095  0.015226734           23 
 1254000   0.76493065   -7.9432846    237.37101  0.015774257  0.015211908           29 
 1255000    0.7520566   -7.9117791    237.78675  0.015789293  0.015197133           18 
 1256000   0.72920715   -7.9259255    237.81803  0.015778797   0.01518238           24 
 1257000   0.75402765   -7.9221118    237.91391  0.015772601  0.015167635           22 
 1258000    0.7663829   -7.9093174    237.36372  0.015723617  0.015152896           14 
 1259000   0.75454008   -7.9499712    238.14295  0.015762705  0.015138176           14 
 1260000   0.74694923   -7.9631237    237.49155  0.015707113   0.01512341           24 
 1261000   0.74814843   -7.9382093     237.9783  0.015726824  0.015108665           21 
 1262000   0.74373163   -7.9576147     237.6912  0.015695404  0.015093935           33 
 1263000   0.75513239   -7.9507027    237.14207  0.015646745  0.015079224           27 
 1264000   0.75529747   -7.9321918    237.55256   0.01566143  0.015064525           26 
 1265000   0.74450446   -7.8999177    237.96269  0.015676067  0.015049836           14 
 1266000   0.74600498   -7.9406384    237.73132  0.015648455  0.015035151           10 
 1267000   0.75306958   -7.9346825     237.3341  0.015609978  0.015020491           13 
 1268000   0.74681029   -7.9445853    238.02339  0.015642967    0.0150058           17 
 1269000   0.72831782   -7.9530891    237.41417  0.015590633  0.014991099           23 
 1270000   0.74458208   -7.9368201    237.18213  0.015563132  0.014976438           16 
 1271000   0.75638695   -7.9538776    237.71283  0.015585682  0.014961825           20 
 1272000   0.74875091   -7.9548648    237.52982   0.01556144  0.014947219           30 
 1273000   0.74162621   -7.9371101    238.50568  0.015613098  0.014932666           28 
 1274000   0.73486876   -7.9270016    237.99786  0.015567626  0.014918153           16 
 1275000   0.75622498   -7.9453967    237.76998  0.015540521  0.014903645           11 
 1276000   0.74198829   -7.9358994    237.35555  0.015501277  0.014889176           24 
 1277000   0.73688058   -7.9647281    238.02145  0.015532593  0.014874655           18 
 1278000    0.7602061   -7.9712011    238.09478   0.01552522  0.014860177           13 
 1279000   0.73773149   -7.9536925    238.06403  0.015511078   0.01484574           24 
 1280000   0.73708291   -7.9435498    237.87989  0.015486972  0.014831267           14 
 1281000   0.74193607   -7.9723761    237.51235  0.015450972  0.014816852           26 
 1282000   0.73037292   -7.9463582    237.70034   0.01545114  0.014802429           15 
 1283000   0.74584505   -7.9792416    237.84181  0.015448286   0.01478801           36 
 1284000   0.73286692   -7.9313468    237.78325  0.015432454  0.014773623           12 
 1285000   0.73638062   -8.0097959    237.59516  0.015408247  0.014759206           24 
 1286000   0.74626797   -7.9635129     237.8896  0.015415345  0.014744787           18 
 1287000   0.73691147   -7.9660391    237.47168  0.015376307  0.014730416           25 
 1288000   0.74333444   -7.9498501    238.12195  0.015406441  0.014716109           23 
 1289000   0.73157942   -7.9981319    237.30085  0.015341405  0.014701766           23 
 1290000   0.73969414   -7.9913525    237.66975  0.015353343   0.01468742           28 
 1291000   0.72207624   -7.9917771     237.8341  0.015352059  0.014673055           23 
 1292000   0.73642966   -7.9624906      237.593  0.015324626  0.014658704           54 
 1293000   0.74041525   -7.9925156    237.71628  0.015320719  0.014644384           50 
 1294000   0.74013579   -7.9502128    238.50525  0.015359689   0.01463009           30 
 1295000   0.73183829   -7.9773574    237.72781    0.0152978  0.014615775           64 
 1296000   0.73736087   -7.9970677    237.02667  0.015240912  0.014601474           25 
 1297000   0.74396616   -7.9811697    237.48447  0.015258575  0.014587177           28 
 1298000   0.72294286   -8.0066569    236.79582  0.015202608  0.014572873           31 
 1299000   0.74704232   -7.9990822    237.55185  0.015239405  0.014558623           33 
 1300000   0.72182346   -7.9700438    237.78765  0.015242798  0.014544365           45 
 1301000   0.74300708   -7.9543101    237.52892   0.01521451  0.014530132           33 
 1302000    0.7367295    -8.017898    237.47141  0.015199143  0.014515966           65 
 1303000   0.73466946   -8.0017519    237.49066  0.015188709  0.014501781           69 
 1304000   0.74540971   -7.9938498    237.23427  0.015160677  0.014487579           46 
 1305000   0.73228202   -7.9775162    238.02911  0.015199815  0.014473407           48 
 1306000   0.74161514   -8.0131368    237.42483  0.015149619  0.014459254           20 
 1307000   0.73217904   -8.0167008    237.54267  0.015145541  0.014445108           37 
 1308000   0.73077409   -7.9866513    237.92155  0.015158101  0.014430983           33 
 1309000   0.74895595   -7.9981636    237.31224  0.015107731  0.014416873           32 
 1310000   0.73557331   -8.0303563     237.6009  0.015114561  0.014402738           39 
 1311000   0.71822089    -8.002546    237.07717  0.015069742  0.014388621           47 
 1312000   0.72416373   -7.9783279    237.69956  0.015097787   0.01437451           45 
 1313000    0.7125103   -7.9619331    237.70017  0.015086327  0.014360456           25 
 1314000   0.72569718   -8.0056366    237.56173  0.015066066  0.014346407           20 
 1315000   0.73289032   -7.9737406    237.45262  0.015047694  0.014332331           22 
 1316000   0.71978825   -8.0095206    237.27974  0.015025313  0.014318305           58 
 1317000   0.71117541   -7.9942613    237.26993  0.015013284  0.014304291           33 
 1318000   0.74382154   -7.9955311    237.04538  0.014987695  0.014290238           33 
 1319000   0.72439977   -7.9983595    237.45318  0.015002096  0.014276242           38 
 1320000    0.7175772    -8.020487     237.4165  0.014988415  0.014262259           37 
 1321000   0.70351284   -8.0169209    237.45805  0.014979691  0.014248335           25 
 1322000   0.73075008   -8.0232057     237.1907  0.014951506  0.014234372           49 
 1323000   0.73597772   -8.0136236    237.85449  0.014982016  0.014220417           95 
 1324000   0.71211874   -8.0093445    237.61628  0.014955708  0.014206492           33 
 1325000   0.74442242   -8.0149838    237.40247  0.014930973  0.014192579           37 
 1326000   0.71291159   -7.9955459    237.17928  0.014905687  0.014178695           28 
 1327000   0.72379328   -8.0327133    237.08446  0.014888499  0.014164782           34 
 1328000   0.74367088   -8.0252739    237.44812  0.014900108  0.014150856           24 
 1329000   0.72969115   -8.0364138     237.5472  0.014895109  0.014136967           27 
 1330000   0.72606627   -8.0204787    237.67551  0.014891949  0.014123106           47 
 1331000   0.71214141   -8.0116853    237.90539  0.014895154  0.014109295           45 
 1332000   0.73743016   -8.0141475    237.28497  0.014845156  0.014095495           27 
 1333000   0.74516462   -8.0241725    237.11784  0.014823571  0.014081699           45 
 1334000   0.70899366   -8.0467047    237.25341  0.014820928  0.014067879           28 
 1335000   0.73053017   -8.0289926    237.20527  0.014806821  0.014054085           31 
 1336000   0.71376774   -8.0240612      237.275  0.014800088   0.01404033           28 
 1337000   0.72588612   -8.0537283    237.30756  0.014791047  0.014026582           25 
 1338000   0.72598707   -8.0183578    237.44961   0.01478884   0.01401283           21 
 1339000   0.71535664   -8.0393358     236.7681  0.014735381  0.013999064           21 
 1340000    0.7343579   -8.0204108    237.61701  0.014777177  0.013985336           24 
 1341000   0.71896479   -8.0147467    237.22937  0.014742069  0.013971598           39 
 1342000   0.73183426   -8.0544941    238.07132  0.014783366  0.013957886           44 
 1343000   0.73086865   -8.0449453    237.14088  0.014714624  0.013944164           39 
 1344000   0.71291956   -8.0571622    237.57929  0.014730859  0.013930496           39 
 1345000   0.73258302   -8.0181395    237.62801  0.014722925  0.013916841           42 
 1346000   0.73568625   -8.0357838    237.46973  0.014702187  0.013903198           75 
 1347000   0.71272839   -8.0533685     237.5116  0.014693863  0.013889581           77 
 1348000   0.71019587   -8.0583696    237.22079  0.014664984   0.01387596           72 
 1349000    0.7214763   -8.0380868    237.23807  0.014655181  0.013862358           78 
 1350000   0.71305511   -8.0520078    237.89396  0.014684812   0.01384878           70 
 1351000   0.71165612   -8.0506778    237.43244  0.014645475  0.013835191           77 
 1352000   0.70302183   -8.0717366    236.99272   0.01460754  0.013821612           97 
 1353000   0.73289542   -8.0574477    237.44011  0.014624298  0.013808037           66 
 1354000    0.7104229   -8.0583025    237.59443  0.014622996  0.013794493           42 
 1355000   0.71799094   -8.0652516    237.20729  0.014588394  0.013780973           63 
 1356000   0.72385365   -8.0578448    236.95674  0.014562238   0.01376744          108 
 1357000   0.70428135   -8.0764392    237.10084  0.014560356  0.013753876           55 
 1358000   0.71240193   -8.0646926    237.01528  0.014544384  0.013740322           81 
 1359000   0.70255449   -8.0961964    236.88678  0.014525802  0.013726787           66 
 1360000   0.69176864   -8.0793881    236.99426  0.014521707  0.013713206           72 
 1361000   0.69218582   -8.0685516    236.76014  0.014496702  0.013699668           43 
 1362000     0.707597   -8.0587529    236.89156  0.014494099  0.013686163           84 
 1363000   0.70048165   -8.0647521    237.17568  0.014500836  0.013672661           53 
 1364000    0.7164313   -8.0857723     236.7851  0.014466343  0.013659185           91 
 1365000   0.71166682   -8.0865116    236.77937  0.014455395  0.013645674          130 
 1366000   0.71431159   -8.0901411    236.97388  0.014456679  0.013632184           94 
 1367000   0.72491206   -8.1140352    236.49181  0.014416716  0.013618678           69 
 1368000   0.70267401   -8.0542777    237.23481  0.014451438  0.013605194           93 
 1369000   0.71753151   -8.0970348    237.03996  0.014429021  0.013591723           79 
 1370000   0.72527112   -8.0756162    237.04507    0.0144188  0.013578271           96 
 1371000   0.71142013   -8.0852605    237.53023  0.014437772  0.013564831           59 
 1372000   0.70223668   -8.0927102    236.70816  0.014377318  0.013551416          136 
 1373000   0.69853334    -8.085621    236.70201  0.014366473  0.013538015           86 
 1374000   0.69798214   -8.0786778    237.24331  0.014388847  0.013524623          125 
 1375000   0.71148297   -8.0855126    236.30199  0.014321333  0.013511263          230 
 1376000   0.71114633   -8.1004004    236.79152  0.014340572  0.013497914          103 
 1377000    0.6994597    -8.068705    236.89871  0.014336644  0.013484619           92 
 1378000   0.69584479   -8.1064602     236.8627  0.014324063   0.01347129           96 
 1379000   0.71010313   -8.0854777    237.05286  0.014325167  0.013457974          147 
 1380000   0.72168303   -8.1003511    236.69546  0.014293204   0.01344469          178 
 1381000   0.70222954   -8.1077105    236.62081   0.01427835    0.0134314          135 
 1382000   0.70377866   -8.1024374    236.80658   0.01427922  0.013418146          223 
 1383000   0.69498487   -8.0992246    236.78669  0.014267697  0.013404922           98 
 1384000   0.70282562   -8.0915032    237.09812  0.014276139  0.013391715          174 
 1385000    0.6965243   -8.0840954     236.5447  0.014232533  0.013378513          107 
 1386000   0.69596501   -8.0922961    237.31091  0.014268333  0.013365355          139 
 1387000   0.70470145   -8.1049434    236.75019  0.014224357  0.013352165          100 
 1388000   0.69973904   -8.0893281    237.59481  0.014264818  0.013338998          127 
 1389000   0.70136706   -8.1099401    237.02396    0.0142203  0.013325818           74 
 1390000   0.70737715    -8.122836    236.75382  0.014193874  0.013312621          116 
 1391000   0.69399439   -8.1068559    236.50636  0.014168845  0.013299502           77 
 1392000   0.71633546    -8.104698    236.69107  0.014169724   0.01328636           84 
 1393000    0.6966517   -8.0892628    236.80131  0.014166147  0.013273237           75 
 1394000   0.69270397   -8.0863786    236.83557  0.014158033  0.013260152           78 
 1395000   0.70072642   -8.0925712    236.42565  0.014123396  0.013247122           75 
 1396000    0.6884529   -8.1045387    236.56148  0.014121387  0.013234074          100 
 1397000   0.69249526   -8.1270754    236.25837  0.014093198  0.013220982           65 
 1398000   0.68059765   -8.1234744    236.42645  0.014093136  0.013207895           69 
 1399000   0.68981267   -8.1247669    236.04546  0.014060368  0.013194827          105 
 1400000   0.69907497   -8.1144275    236.69431  0.014088947  0.013181778           92 
 1401000   0.69338848   -8.1104852    236.54543  0.014070035  0.013168752           83 
 1402000   0.69074074   -8.1353899    236.58938  0.014062612  0.013155721           82 
 1403000   0.70968781   -8.1323052    236.55691   0.01405066  0.013142719          134 
 1404000   0.71160737   -8.0974747    236.56006  0.014040839  0.013129712           87 
 1405000   0.70176533   -8.1243179    236.97584  0.014055507  0.013116719           96 
 1406000   0.69377765    -8.111965    236.06283  0.013991396  0.013103742           86 
 1407000    0.7019626   -8.1194333    236.44587  0.014004138  0.013090776          161 
 1408000   0.69030577   -8.1185433    236.74904  0.014012135  0.013077848           94 
 1409000   0.70610185   -8.1177216    236.57146  0.013991688  0.013064916           66 
 1410000   0.69595656   -8.1142144    237.09343  0.014012614  0.013051995           65 
 1411000   0.69494401   -8.1209927     236.6888  0.013978786  0.013039108           73 
 1412000   0.69637164   -8.1187386    236.75317  0.013972685  0.013026222          104 
 1413000   0.67583396   -8.1079457    236.24344  0.013932734  0.013013359           42 
 1414000   0.69718037   -8.1262755    236.42821   0.01393377  0.013000518           85 
 1415000   0.68727017   -8.1171476    236.52003   0.01392933  0.012987675           77 
 1416000   0.67449859   -8.1253276    236.39389   0.01391207  0.012974836           87 
 1417000   0.67848144   -8.1359337    236.28458  0.013895823  0.012962023           77 
 1418000   0.69646245   -8.1123181     236.3292  0.013888646  0.012949224          102 
 1419000   0.69047427   -8.1241055    236.29539  0.013876873  0.012936435           90 
 1420000   0.68872695   -8.1149003    236.71372   0.01389165  0.012923667           76 
 1421000   0.69043528   -8.1096726    236.91563  0.013893715  0.012910931           73 
 1422000   0.68429464   -8.1252242    236.41309  0.013854494  0.012898225           76 
 1423000   0.68974978   -8.1223866    236.68647  0.013860768  0.012885517           95 
 1424000    0.6690498   -8.1330765    236.25779  0.013825947  0.012872823           90 
 1425000   0.68609833   -8.1173714    236.73343   0.01384406  0.012860149           72 
 1426000   0.67789362   -8.1388302    236.48933  0.013820087  0.012847474          122 
 1427000   0.67873566   -8.1395173    236.10278  0.013787829   0.01283482           66 
 1428000   0.69252919   -8.1302625    236.48905  0.013800715  0.012822151           47 
 1429000   0.69040475   -8.1356286    236.44793   0.01378866  0.012809497           75 
 1430000   0.67423998    -8.133519    236.50726  0.013782474  0.012796865           85 
 1431000    0.6765616   -8.1219994    236.40224  0.013766727  0.012784226          163 
 1432000   0.69129221   -8.1461649    236.45154  0.013759982  0.012771586           98 
 1433000   0.68462149   -8.1526234    236.39763  0.013747245  0.012758959          127 
 1434000   0.69239766   -8.1442534    236.69171  0.013754749  0.012746334           89 
 1435000   0.67358741    -8.138095    236.28076  0.013721299  0.012733714          114 
 1436000   0.66716017   -8.2009887     236.1332   0.01370318  0.012721112          123 
 1437000   0.67398818    -8.166666    236.14088   0.01369409  0.012708496           86 
 1438000   0.68195242   -8.1333137    236.57704  0.013709842  0.012695912          100 
 1439000   0.68117553   -8.1338993    236.19024  0.013677915   0.01268336          129 
 1440000   0.68642235   -8.1609473    236.42983  0.013682282  0.012670818          181 
 1441000   0.67735811   -8.1584544    236.32641  0.013666806  0.012658282           88 
 1442000   0.67791688   -8.1490818    236.03924  0.013640733  0.012645759          129 
 1443000   0.67261213   -8.1353069    236.20099  0.013640621  0.012633254          120 
 1444000   0.69271238   -8.1623247    236.44602  0.013645315  0.012620772           84 
 1445000    0.6770825   -8.1788225    236.06156    0.0136137  0.012608311          100 
 1446000   0.68277516   -8.1582051    235.50563  0.013572247  0.012595825          108 
 1447000   0.67982466   -8.1446936    235.97418  0.013589852  0.012583386           87 
 1448000   0.67145796   -8.1788808    236.04401  0.013584485  0.012570945          161 
 1449000   0.67681097   -8.1768966    236.00015  0.013572588  0.012558512          149 
 1450000   0.69012824   -8.1675005    236.01398  0.013564022   0.01254611          134 
 1451000   0.67463042   -8.1613226     235.9579  0.013551453  0.012533725          165 
 1452000   0.67284142   -8.1598102    236.05515  0.013547701  0.012521356          117 
 1453000   0.68165585    -8.165944    236.00728  0.013535632     0.012509           99 
 1454000   0.67449938   -8.1664387    236.11604  0.013532556  0.012496645           87 
 1455000   0.67280117   -8.1760973    235.86041  0.013508614  0.012484267          120 
 1456000   0.65960457   -8.1990662    236.03379   0.01350926  0.012471928          109 
 1457000   0.67035059   -8.1439346    236.02008  0.013499204  0.012459616          230 
 1458000   0.66634216   -8.1601611    235.66688  0.013469758  0.012447285          174 
 1459000   0.66723923   -8.1670773    235.66488  0.013460411  0.012434996          138 
 1460000   0.67354327   -8.1886295    236.02697  0.013471859  0.012422728          104 
 1461000   0.67489834   -8.1558218    235.98523  0.013460257   0.01241049           90 
 1462000   0.66812995   -8.1676909    236.33169  0.013470798  0.012398249           60 
 1463000   0.65549193   -8.1753766    236.30835  0.013460261   0.01238603          156 
 1464000   0.66102675   -8.1661311    235.92321  0.013429145  0.012373799           95 
 1465000   0.66457626   -8.1438078    236.10767  0.013430471  0.012361602          103 
 1466000   0.67555112   -8.1824875    236.20824  0.013427026  0.012349428          111 
 1467000   0.66726989   -8.1811499    236.55638   0.01343765  0.012337268          110 
 1468000   0.67015509   -8.1905812    235.96727  0.013395054  0.012325129          191 
 1469000   0.68813631   -8.1614722    236.02987  0.013389487  0.012312986          116 
 1470000   0.67643128   -8.1519796    235.78757  0.013366642  0.012300884          115 
 1471000   0.66744824   -8.1895849    236.06503  0.013373274  0.012288786           53 
 1472000   0.65765082   -8.1970605    236.21449   0.01337265  0.012276701          109 
 1473000   0.66648541   -8.1731517    236.19183   0.01336229  0.012264633           88 
 1474000      0.65755   -8.1705012    235.85834   0.01333437  0.012252571           97 
 1475000   0.65089578   -8.1679574    236.25156  0.013347546  0.012240519           76 
 1476000    0.6584246     -8.17551    236.13259  0.013331786  0.012228483          143 
 1477000   0.66188183   -8.1982666    235.60827  0.013293177  0.012216454          135 
 1478000   0.68232989   -8.1611521    235.94524  0.013303182  0.012204475           80 
 1479000   0.66713497   -8.1622336    236.02068  0.013298438  0.012192471          152 
 1480000   0.67390406   -8.1848099     235.8923  0.013282224  0.012180471           75 
 1481000   0.67892319   -8.1905951    236.22378  0.013291907  0.012168475          183 
 1482000   0.66382051   -8.2034629    236.27178  0.013285637  0.012156503          104 
 1483000   0.66762453   -8.1970059    235.58785  0.013238247  0.012144562           98 
 1484000   0.66749111   -8.1821347     235.7963  0.013241032  0.012132627          173 
 1485000   0.66644195   -8.1984952    236.05677  0.013246732  0.012120679          116 
 1486000   0.65977733   -8.1889121    235.96481  0.013232661  0.012108748           83 
 1487000   0.66513372   -8.2092478    235.77337  0.013213033  0.012096848           97 
 1488000   0.66060399   -8.1975012    235.92096  0.013212419  0.012084958          158 
 1489000   0.68002501   -8.2223035    235.45751  0.013177608  0.012073098           66 
 1490000   0.66903603   -8.1885059    236.03469  0.013201045  0.012061237           81 
 1491000   0.65295931   -8.2022375    235.48665  0.013161561  0.012049405          105 
 1492000   0.64210009   -8.2004575    235.61782  0.013160066  0.012037554          108 
 1493000   0.67189146   -8.1912871    235.97598  0.013171243  0.012025738          131 
 1494000   0.66738323   -8.1865488    236.10967  0.013169883  0.012013936          104 
 1495000    0.6483265   -8.2069136    235.43539  0.013123489  0.012002131          100 
 1496000   0.66785071   -8.2197522    235.54327  0.013120726  0.011990344           69 
 1497000   0.66176914   -8.2047422    235.82793  0.013127807  0.011978575           81 
 1498000   0.64010182   -8.2009156    235.89818  0.013122952   0.01196682           95 
 1499000   0.65399607   -8.2166182    235.61342  0.013098366  0.011955079           61 
 1500000   0.66067543   -8.2139851    235.90863  0.013106035  0.011943338          115 
 1501000   0.65641476   -8.2167704    235.65093  0.013082996  0.011931615          128 
 1502000   0.66734034   -8.2278642    235.53582  0.013067899  0.011919885           70 
 1503000   0.65206227   -8.2059463    236.24512  0.013098532  0.011908191          186 
 1504000   0.64300372   -8.2250293    235.66231   0.01305753  0.011896511          128 
 1505000   0.63687072   -8.2047524    235.54438  0.013042324  0.011884843           69 
 1506000   0.65021295   -8.2097771    236.09743  0.013064267  0.011873197           47 
 1507000   0.65773769   -8.2382114    235.56036  0.013025899  0.011861562           63 
 1508000   0.64192018   -8.2201988    235.91864   0.01303706  0.011849959           92 
 1509000   0.65479565    -8.212148     235.4569  0.013002921  0.011838344          122 
 1510000   0.65780437   -8.1889323    235.87187  0.013017211  0.011826752          127 
 1511000   0.64358812   -8.2386145    235.58239  0.012992631  0.011815153          106 
 1512000   0.65408786   -8.2335413    235.23244  0.012964751  0.011803567          100 
 1513000   0.65691226   -8.2218642    235.43749  0.012967476  0.011792008           96 
 1514000   0.64748992   -8.2189389    235.57556   0.01296651  0.011780461           91 
 1515000   0.65191403   -8.2143691    235.12556  0.012933199  0.011768909           64 
 1516000   0.63028027   -8.2335345    235.34628  0.012936801  0.011757365          127 
 1517000   0.66137655   -8.2117681    235.52443  0.012938059  0.011745835          108 
 1518000   0.64201097   -8.2409524    235.21237  0.012912405  0.011734325          153 
 1519000   0.64841362   -8.2412302    235.35387  0.012911667  0.011722818           85 
 1520000   0.65984513   -8.2287594    235.73305  0.012923961  0.011711338          133 
 1521000   0.65271058   -8.2326668    235.58417  0.012907307  0.011699866          121 
 1522000   0.65126994   -8.2518689     235.4632  0.012892203  0.011688393          122 
 1523000   0.64247519   -8.2447582     235.3951  0.012880012  0.011676944          156 
 1524000   0.64317411   -8.2468359     235.8726  0.012897671  0.011665508          136 
 1525000   0.64340208   -8.2441211    235.57115   0.01287274  0.011654083          114 
 1526000   0.63485682   -8.2439156    234.99355  0.012832763  0.011642663          134 
 1527000   0.65320385   -8.2506485    235.36476  0.012844617  0.011631244          107 
 1528000   0.62727617   -8.2473376    235.05783  0.012819472  0.011619825          128 
 1529000   0.64952287    -8.258143    235.13088  0.012815069  0.011608416          144 
 1530000   0.64599789   -8.2306635    235.08096  0.012803974  0.011597038          118 
 1531000   0.64348454   -8.2347636    235.03709  0.012793223  0.011585663          155 
 1532000   0.65092709   -8.2351553    235.20562  0.012794039  0.011574306          128 
 1533000   0.64053108   -8.2569853    235.28314  0.012789908  0.011562968          106 
 1534000   0.64438468   -8.2335651    235.38756  0.012787243  0.011551642           87 
 1535000   0.62320743   -8.2388078    235.26628  0.012772328  0.011540318          128 
 1536000   0.64805688   -8.2374101    235.35207  0.012768667  0.011529036          103 
 1537000   0.63944069   -8.2625156    234.75717  0.012728105  0.011517728          132 
 1538000   0.64247771   -8.2385358    234.77088  0.012720572  0.011506436          155 
 1539000   0.63199561   -8.2565851    235.31163  0.012741587  0.011495169           66 
 1540000   0.64167882   -8.2485946    235.22066  0.012728391  0.011483935          108 
 1541000   0.63745556   -8.2435591    235.21336  0.012719736  0.011472693          103 
 1542000   0.63768682   -8.2441073    234.99515  0.012699695  0.011461475           95 
 1543000   0.64725962   -8.2453001    235.43344  0.012715135  0.011450288          129 
 1544000   0.60917522   -8.2518734     235.4649  0.012708598  0.011439107          126 
 1545000   0.63484274   -8.2452484    235.29862  0.012691404  0.011427954           70 
 1546000   0.63273438   -8.2447967    235.44086  0.012690861  0.011416815           68 
 1547000   0.63688848   -8.2714388    235.00784  0.012659332  0.011405674           79 
 1548000   0.62084547   -8.2537528    235.06301  0.012654124  0.011394558           70 
 1549000   0.65619161   -8.2498605    235.08223  0.012646989   0.01138344           79 
 1550000   0.63976311   -8.2528409    235.43339  0.012657709  0.011372358           98 
 1551000   0.63665304   -8.2517484    235.30708  0.012642762  0.011361283          129 
 1552000   0.62817147   -8.2649915    234.99974  0.012618113  0.011350216          162 
 1553000   0.63294025    -8.246348    235.50733  0.012637225  0.011339168          110 
 1554000   0.63968149   -8.2422407    235.12687  0.012608691  0.011328121          138 
 1555000   0.63862339   -8.2526915     235.1816  0.012603515  0.011317089           64 
 1556000   0.64738249   -8.2601096    235.42037  0.012608203  0.011306062          132 
 1557000   0.64018782   -8.2668783    235.09406  0.012582641  0.011295069           96 
 1558000   0.63196296   -8.2673992    235.59013  0.012601098  0.011284073          157 
 1559000    0.6186497    -8.265328    234.99611  0.012561263  0.011273093           95 
 1560000   0.63897452   -8.2638737    234.85432  0.012545637  0.011262135           73 
 1561000   0.63622253   -8.2741403    235.19085  0.012555565  0.011251192           81 
 1562000   0.63033557   -8.2379347    234.93509  0.012533882  0.011240257          163 
 1563000   0.63471365   -8.2508352    235.91545  0.012578132   0.01122934           99 
 1564000   0.62221972     -8.24086    235.16438  0.012530071  0.011218426          172 
 1565000   0.60918894    -8.264751    234.89727  0.012507842  0.011207523          156 
 1566000   0.62690089    -8.266096    235.27978   0.01252021  0.011196638          109 
 1567000   0.62333829   -8.2569003    235.24066  0.012510139  0.011185776          164 
 1568000   0.64500769   -8.2748697    235.19555  0.012499764  0.011174914          140 
 1569000   0.60721783   -8.2580036    234.87098  0.012474558  0.011164065          131 
 1570000   0.62572828   -8.2809039    235.09794  0.012478659  0.011153244          105 
 1571000   0.61580428   -8.2617734    235.40574  0.012487043  0.011142427          104 
 1572000   0.61521743   -8.2534834    235.46034  0.012481994  0.011131614          101 
 1573000   0.61545521   -8.2712976    234.83692  0.012441032  0.011120824          117 
 1574000   0.60975732   -8.2586578    234.88995  0.012435936  0.011110018           91 
 1575000   0.61545818   -8.2742093    235.12324  0.012440383  0.011099237           60 
 1576000   0.63116079   -8.2837412    234.94629  0.012423133   0.01108845           83 
 1577000   0.62222085   -8.2730368     235.0799  0.012422316  0.011077693          131 
 1578000   0.62600639   -8.2674526    235.00895  0.012410697  0.011066932           67 
 1579000   0.61146142   -8.2531474    234.80308  0.012391972  0.011056192          116 
 1580000   0.62540401   -8.2826579    234.81635  0.012384828  0.011045459          105 
 1581000   0.61658109   -8.2662842    235.10674  0.012392301  0.011034725           97 
 1582000   0.62356223   -8.2713521    234.92572  0.012374933  0.011024013          172 
 1583000   0.63073379   -8.2962519    235.35059  0.012389481  0.011013317          104 
 1584000   0.63441281   -8.3005637     234.9541  0.012360801  0.011002637          103 
 1585000   0.62294684   -8.2739247    234.73461  0.012341462  0.010991981           97 
 1586000   0.62832974   -8.2794634    235.25107  0.012360817  0.010981329           84 
 1587000   0.61736109   -8.2922555    234.96636  0.012338078  0.010970694           73 
 1588000   0.62090575   -8.2648827    235.17236  0.012341119  0.010960081          106 
 1589000   0.62144068    -8.285854    234.96194  0.012322317  0.010949461           54 
 1590000   0.61762779   -8.2905117    234.80035  0.012306098  0.010938858          124 
 1591000   0.62208357    -8.277493    235.00062  0.012308853  0.010928272          152 
 1592000   0.61381294   -8.2897055     234.8544  0.012293467  0.010917703          111 
 1593000   0.61050969   -8.2938705    234.68298  0.012276783  0.010907131          124 
 1594000   0.61432896   -8.3003172    234.66042  0.012267902  0.010896572          171 
 1595000   0.61341146    -8.290339     234.7704  0.012265956  0.010886016           70 
 1596000   0.61173653   -8.2925691    235.13628  0.012277375  0.010875479          132 
 1597000   0.60896159   -8.2872845    235.07227  0.012266347  0.010864963           94 
 1598000   0.61709891   -8.2799809    235.04022  0.012256999  0.010854457          197 
 1599000   0.62392564   -8.2949006    234.95251  0.012244763   0.01084396           62 
 1600000   0.62921769   -8.2947111    234.46722  0.012211834  0.010833469          125 
 1601000   0.62208124   -8.2657545    234.77532  0.012220243  0.010823002          104 
 1602000    0.6181407   -8.3119532    234.77405   0.01221255  0.010812558          114 
 1603000    0.6161814   -8.2892209    234.42655  0.012186866  0.010802123          128 
 1604000   0.60965673   -8.2946114    234.29843  0.012172612  0.010791692           91 
 1605000    0.6183814   -8.3036662    235.30382  0.012217229  0.010781274           84 
 1606000    0.6189763    -8.297572     235.1139  0.012199767   0.01077087           76 
 1607000   0.60852613   -8.3058022    235.33161  0.012203464  0.010760479           88 
 1608000   0.61657178   -8.2962213     235.0651  0.012182063  0.010750089           83 
 1609000   0.60615883   -8.3072306    234.79273  0.012160386  0.010739727           97 
 1610000   0.60549111   -8.2881645    235.04443  0.012165861  0.010729364          103 
 1611000   0.60092622   -8.2909083    235.38009  0.012175672  0.010719012          134 
 1612000   0.61374761   -8.3158625      234.513  0.012123294  0.010708677           98 
 1613000   0.61498222   -8.3034602    234.49476  0.012114836  0.010698344          146 
 1614000   0.61058468   -8.3046951    235.07168  0.012137117  0.010688023          133 
 1615000   0.60879435    -8.306911    234.53395  0.012101855  0.010677717          144 
 1616000   0.61088239   -8.3108833    234.95523  0.012116091  0.010667438          103 
 1617000   0.60612318   -8.3042838    234.58305  0.012089417  0.010657158          100 
 1618000   0.62082071   -8.2888292    234.73176  0.012089604  0.010646879          112 
 1619000   0.60077753   -8.2702281    235.23447  0.012108012  0.010636633           87 
 1620000   0.60320474   -8.2819933    234.30076  0.012052508  0.010626402          118 
 1621000   0.60258878   -8.3232981    235.17078    0.0120898  0.010616187           81 
 1622000   0.61743896   -8.2954941    234.83657  0.012065175  0.010605986          150 
 1623000   0.60315278   -8.2973573    234.66091  0.012048722  0.010595776           60 
 1624000   0.60542301   -8.2902611    234.57521  0.012036905  0.010585584          125 
 1625000   0.60065567   -8.3043227    234.81194  0.012041638  0.010575406          124 
 1626000   0.60274513   -8.3250963    234.44833  0.012015597   0.01056523           67 
 1627000   0.61643758   -8.3017971    234.68628    0.0120204  0.010555063           83 
 1628000   0.60011185   -8.2810973     234.8474  0.012021263  0.010544926          106 
 1629000   0.60196629   -8.3023981    234.64413  0.012003485  0.010534795          145 
 1630000    0.6030804   -8.2993477    234.43638    0.0119855   0.01052468           76 
 1631000   0.59872885   -8.3122151    234.80116  0.011996789   0.01051457           78 
 1632000   0.60669553   -8.3104677    234.26104  0.011961859  0.010504489          101 
 1633000   0.60330506   -8.3174761    234.54426  0.011968986   0.01049441           95 
 1634000    0.6022238   -8.3244317    234.45694  0.011957208  0.010484342           81 
 1635000   0.61417604   -8.3067693    234.49434  0.011951801  0.010474287           70 
 1636000   0.61212341   -8.2963345    234.85445  0.011962839  0.010464247          122 
 1637000   0.60441616   -8.3126065     234.6756  0.011946426  0.010454212           87 
 1638000   0.59565544   -8.3238298     234.8653  0.011948784   0.01044419          161 
 1639000   0.59057661   -8.3103981    234.31464  0.011913496  0.010434182           89 
 1640000   0.59895163   -8.3289706    234.26501   0.01190371   0.01042418           62 
 1641000   0.60205195   -8.3311994    234.20632  0.011893475  0.010414183          137 
 1642000   0.59678329   -8.3179854    234.36836  0.011894456  0.010404201          120 
 1643000   0.59137253   -8.3099346    234.32834  0.011885187  0.010394234           98 
 1644000   0.59544334   -8.3194446    234.33453  0.011878271  0.010384271          161 
 1645000   0.59156155   -8.3038429    234.45554   0.01187718  0.010374322           96 
 1646000   0.59799491    -8.328822     234.0888  0.011851397  0.010364393          127 
 1647000   0.59429569   -8.3218035    234.63915  0.011872048  0.010354459          161 
 1648000   0.61274322   -8.3332556    234.33666  0.011849548  0.010344541           76 
 1649000   0.59239041   -8.3137569    234.24087  0.011837521  0.010334637           58 
 1650000     0.592807   -8.3398547    234.39135  0.011837947  0.010324746          101 
 1651000   0.58172927   -8.3199303    234.65162  0.011843914  0.010314868          232 
 1652000   0.59438672   -8.3499607     234.6724  0.011837793     0.010305          160 
 1653000   0.58876799   -8.3221587    234.25473  0.011809575  0.010295133          177 
 1654000   0.58456599   -8.3391703    234.62252  0.011820965    0.0102853          141 
 1655000   0.59399349   -8.3205154    234.51833  0.011808576   0.01027546          119 
 1656000   0.59910833   -8.3266433     234.2783  0.011789367  0.010265636          103 
 1657000   0.59105576   -8.3256586    233.84419   0.01176042   0.01025582          109 
 1658000   0.59210966   -8.3200196    234.91396  0.011807095  0.010246008          121 
 1659000   0.58716078   -8.3290001    234.25846  0.011767052  0.010236212          112 
 1660000   0.58619964   -8.3370597     234.4945  0.011771812  0.010226433          172 
 1661000   0.60253684    -8.336151    234.68742  0.011774404  0.010216661          155 
 1662000   0.61174014   -8.3565832    234.39919  0.011752868  0.010206899          147 
 1663000   0.57225442   -8.3448426    233.93588  0.011722584  0.010197146          164 
 1664000    0.5928137   -8.3482512    234.08572  0.011723043  0.010187409          159 
 1665000   0.59543063   -8.3422551    234.36012  0.011729736  0.010177703          168 
 1666000   0.58402968   -8.3503339     233.6835   0.01168885  0.010167994          107 
 1667000   0.59231685   -8.3413611    234.36728  0.011716021  0.010158319          151 
 1668000   0.59177926   -8.3279821     234.4111  0.011711186  0.010148631          137 
 1669000   0.59533368   -8.3197576    233.98094  0.011682691  0.010138962          153 
 1670000   0.58956456   -8.3141233    234.49268  0.011701232  0.010129306          188 
 1671000   0.58924297   -8.3416447    234.27613   0.01168343  0.010119656          186 
 1672000   0.57796602   -8.3337709    233.89425  0.011657409  0.010110016          113 
 1673000   0.59481309    -8.335849    233.76308  0.011643907   0.01010039          155 
 1674000   0.58295644   -8.3482537    234.08782  0.011653117  0.010090768          123 
 1675000   0.58021568   -8.3290536    234.21421  0.011652448  0.010081157          141 
 1676000   0.58060477   -8.3351182    234.15269  0.011642437  0.010071555           67 
 1677000   0.59243518   -8.3495638    234.28322  0.011641981  0.010061979          114 
 1678000   0.57777035   -8.3754711    233.95712  0.011618848  0.010052408          128 
 1679000   0.59398628   -8.3506408    234.29691  0.011628792  0.010042846          135 
 1680000    0.5778317   -8.3491466    234.13186  0.011613684  0.010033294          114 
 1681000   0.57631777   -8.3585348    234.11187  0.011605784  0.010023767          117 
 1682000   0.57427983   -8.3410767    234.26947  0.011606692  0.010014246          134 
 1683000    0.5737303   -8.3550297    234.46597  0.011609525  0.010004736          170 
 1684000   0.58211698   -8.3465681    234.23887  0.011591393 0.0099952358          146 
 1685000   0.59505374   -8.3658859    233.91521  0.011568507  0.009985748           96 
 1686000    0.5826705   -8.3457403    234.11367  0.011571455 0.0099762931          116 
 1687000   0.57997466   -8.3458829    234.26304  0.011571974 0.0099668266          118 
 1688000   0.59524327   -8.3551188    233.86393  0.011545415 0.0099573863          188 
 1689000   0.57385241   -8.3632298    234.27859  0.011559038 0.0099479467          190 
 1690000   0.57726489   -8.3737476    234.37757  0.011557079 0.0099385038          185 
 1691000   0.58063498   -8.3643204    234.04608  0.011533909 0.0099290896          222 
 1692000   0.58291265   -8.3406107    233.99389  0.011524522 0.0099196849           89 
 1693000   0.57891928   -8.3608258    234.31013  0.011533281 0.0099103043          145 
 1694000   0.57565113   -8.3524614    234.32337  0.011527124 0.0099009236          186 
 1695000   0.58333033   -8.3659513    234.52278  0.011530127  0.009891558          148 
 1696000   0.57007747   -8.3644196    233.93431  0.011494414 0.0098821966          178 
 1697000   0.57922239   -8.3579442    233.91377  0.011486632  0.009872837          285 
 1698000   0.57624205   -8.3667071     234.3548  0.011501511 0.0098634915          120 
 1699000   0.55990992   -8.3784403    233.79252  0.011467163  0.009854143           96 
 1700000    0.5756099   -8.3611461    233.68707  0.011455249 0.0098448099          122 
 1701000   0.58115932   -8.3683709     233.7169  0.011449976  0.009835513          109 
 1702000   0.56808617   -8.3638817    233.81091  0.011447851 0.0098262135           98 
 1703000   0.57231946   -8.3707408     234.0166  0.011451194 0.0098169247           98 
 1704000    0.5853914   -8.3439904    233.94188   0.01144082 0.0098076445          139 
 1705000   0.56892901   -8.3853456    233.97157  0.011435561 0.0097983727          101 
 1706000   0.58239604    -8.369338    233.60215  0.011410812 0.0097891071          120 
 1707000   0.58034602   -8.3575788    233.82528  0.011415021 0.0097798651          127 
 1708000   0.57254731   -8.3699945    233.48132  0.011391556 0.0097706192          177 
 1709000   0.57545585   -8.3862011    233.94424  0.011407462 0.0097613918          215 
 1710000   0.55683606   -8.3813275    233.91852  0.011399538 0.0097521694           69 
 1711000   0.56764555   -8.3904663    233.47658  0.011371351 0.0097429474          146 
 1712000   0.57602695   -8.3709863    233.76998  0.011378991 0.0097337541           82 
 1713000   0.57182097   -8.3849847    234.36898  0.011401488 0.0097245717          141 
 1714000   0.57326547   -8.3653222    233.94371  0.011374159 0.0097154076           84 
 1715000   0.57490668   -8.3686676    233.65229  0.011353367 0.0097062619          122 
 1716000   0.57241133   -8.3832234    233.94707  0.011361066 0.0096971192           96 
 1717000   0.57359046   -8.3802037    234.35525   0.01137426 0.0096879872          133 
 1718000   0.56478285   -8.3875442    233.96342  0.011348633 0.0096788515           96 
 1719000   0.55916969   -8.3839841    233.98804  0.011343225  0.009669731           96 
 1720000     0.568684   -8.3810519    234.14079  0.011344031 0.0096606158           84 
 1721000   0.55973618    -8.381407     233.8995  0.011325755 0.0096515132           98 
 1722000   0.56677488   -8.3887515    233.92275  0.011320303 0.0096424202          127 
 1723000   0.55749308   -8.3866919     233.6353  0.011299831 0.0096333426          105 
 1724000   0.56715225   -8.3591553    233.59653  0.011291402 0.0096242809           96 
 1725000   0.56281036   -8.3811819     233.5801  0.011284063 0.0096152373          108 
 1726000   0.57639684   -8.3574561    233.96605  0.011296159 0.0096062022          113 
 1727000   0.55511891    -8.367335    233.69707  0.011276639 0.0095971636          124 
 1728000   0.56280738   -8.3725834    234.07895   0.01128853 0.0095881243           98 
 1729000   0.56387439   -8.3832007    233.55898  0.011256939 0.0095791128          113 
 1730000    0.5634642   -8.3959862    233.50767  0.011247961 0.0095701103          119 
 1731000   0.55076943     -8.38501    233.65831  0.011248715 0.0095611214          110 
 1732000     0.570112   -8.3874175     233.8509  0.011251487 0.0095521296          147 
 1733000   0.57323957   -8.3714609    233.45494  0.011225954 0.0095431664           95 
 1734000   0.54977595   -8.3876239    233.69036  0.011230794 0.0095341981          151 
 1735000   0.54409588   -8.3819116    233.53627   0.01121692 0.0095252417          183 
 1736000   0.56233215   -8.3777116    233.68232  0.011217469 0.0095163052          158 
 1737000   0.56403388   -8.3987181    233.75633  0.011214562 0.0095073559          125 
 1738000   0.55925912   -8.4127585    233.94789  0.011217294 0.0094984263          111 
 1739000    0.5592162   -8.3750541    233.63406  0.011195805 0.0094895027          101 
 1740000   0.55384566   -8.3842025    233.69186  0.011192139 0.0094806045           91 
 1741000   0.55739822    -8.380379    233.86723  0.011194104 0.0094717176          114 
 1742000   0.56804385   -8.4017881    233.72031   0.01118065  0.009462839          151 
 1743000   0.55736611   -8.3796741    233.70053   0.01117329 0.0094539629           98 
 1744000    0.5621529   -8.3899921    234.08212  0.011185117  0.009445106          123 
 1745000   0.55816962   -8.4014392    233.52436   0.01115207 0.0094362514           80 
 1746000   0.55787245   -8.3887153    233.57012  0.011147868 0.0094274071           99 
 1747000   0.55893943   -8.3829156    233.45909   0.01113619 0.0094185738          115 
 1748000   0.56098735   -8.3799031    233.65712   0.01113926 0.0094097531           80 
 1749000   0.55036362   -8.3888819    233.42766  0.011121958 0.0094009563           77 
 1750000   0.56202144    -8.390926    233.05613  0.011097911 0.0093921462          150 
 1751000   0.56279323   -8.3843626    233.90315  0.011131884 0.0093833618          161 
 1752000    0.5607635   -8.4013357    233.08241  0.011086492 0.0093745822          109 
 1753000   0.55710267   -8.4056934    233.93657  0.011120773 0.0093658076           99 
 1754000    0.5540175   -8.3813101     233.7477  0.011105459 0.0093570485           95 
 1755000   0.55338977   -8.3907481    233.20391   0.01107331 0.0093483108          115 
 1756000   0.54209231   -8.4164444    233.27501  0.011070378 0.0093395705           95 
 1757000   0.55918526   -8.4073756    233.56152  0.011077666 0.0093308404          155 
 1758000   0.55236604   -8.4113967    233.34986  0.011061332 0.0093221202          116 
 1759000   0.56371106   -8.3978395    233.80782   0.01107674 0.0093134188          104 
 1760000   0.55117615   -8.4144616    233.49893  0.011055821 0.0093047118           93 
 1761000   0.54526195   -8.4083646    233.90667  0.011068838 0.0092960227          124 
 1762000    0.5481054   -8.4088427    233.39907  0.011038549 0.0092873422          238 
 1763000   0.54710253   -8.4146485    233.36246  0.011030557  0.009278665          179 
 1764000   0.54204305   -8.3992387    233.18695  0.011016012 0.0092700039          118 
 1765000   0.54993536   -8.4044555    233.73893  0.011035833 0.0092613442          145 
 1766000   0.53969793   -8.4130031    233.49866  0.011018246 0.0092527053          106 
 1767000   0.54699768   -8.4254718    233.50009  0.011012078 0.0092440617           95 
 1768000   0.56147242   -8.4173377    233.05714  0.010984971 0.0092354319          100 
 1769000   0.54229808   -8.4089379    233.59189  0.011003952 0.0092268144           98 
 1770000   0.55120741   -8.3995079    233.33598  0.010985686   0.00921821          133 
 1771000   0.55301042   -8.4175407    233.27552  0.010976638 0.0092096157          130 
 1772000   0.54428643   -8.4167268    233.58221  0.010984867 0.0092010325           97 
 1773000   0.54712344   -8.4151662    233.57164  0.010978175  0.009192458          182 
 1774000   0.54924957   -8.4023141    233.53719  0.010970368 0.0091838909          131 
 1775000    0.5438657   -8.4338888    233.12986  0.010945064 0.0091753316          114 
 1776000   0.54179637   -8.4071662    233.52304   0.01095735 0.0091667852          112 
 1777000   0.53775111   -8.4125416    233.03487   0.01092829 0.0091582595          229 
 1778000   0.55296819   -8.4177184    233.61859  0.010949503  0.009149745           95 
 1779000   0.54853388   -8.4086177    233.17482  0.010922561 0.0091412339          136 
 1780000   0.53942248    -8.412738    233.31841  0.010923147 0.0091327314          132 
 1781000   0.53606662   -8.4361395    233.31069  0.010916652 0.0091242432           92 
 1782000    0.5309879    -8.431587    232.97789  0.010894963 0.0091157573          134 
 1783000   0.55281019   -8.4091169    232.95756  0.010887902 0.0091072734           82 
 1784000    0.5354714   -8.4339896    233.07626  0.010887344 0.0090988136          167 
 1785000   0.54048752    -8.432026    232.94522  0.010875127 0.0090903637           85 
 1786000   0.53190676   -8.4062188    232.98721  0.010870997 0.0090819275          112 
 1787000   0.54269635    -8.435014    233.03126  0.010866968 0.0090734941          238 
 1788000   0.54602946   -8.4266319    233.14842  0.010866351 0.0090650876          102 
 1789000    0.5433106   -8.4371272     233.0373    0.0108551 0.0090566769          175 
 1790000   0.53754479   -8.4058341    232.88342  0.010841872 0.0090482829          248 
 1791000   0.52693582   -8.4167468    233.08643  0.010845265 0.0090398902          187 
 1792000   0.53155583   -8.4188012    233.22613  0.010845709 0.0090315206          149 
 1793000   0.54042593    -8.413521    233.34753  0.010845303 0.0090231541          134 
 1794000   0.54739445   -8.4313807    233.49167  0.010845953 0.0090147979          272 
 1795000   0.53807791   -8.4221402    232.87636  0.010811345 0.0090064547          112 
 1796000   0.54212418   -8.4174268    233.48889  0.010833746 0.0089981287          184 
 1797000    0.5405734   -8.4263632    232.87557  0.010799275  0.008989809          155 
 1798000   0.52697163   -8.4271529    233.30388   0.01081312 0.0089814993          234 
 1799000   0.54372856   -8.4219372    233.36954  0.010810151 0.0089731965          122 
 1800000   0.53454569   -8.4420558     233.0957  0.010791468 0.0089648947          229 
 1801000   0.53043103   -8.4493779    233.19368  0.010790009 0.0089566135          197 
 1802000   0.54153091   -8.4210933     233.3834  0.010792795 0.0089483454          271 
 1803000   0.52572786    -8.425506    233.19457  0.010778082 0.0089400726          103 
 1804000   0.52990878    -8.446545    233.05689  0.010765747 0.0089318204          218 
 1805000   0.53147739   -8.4545753    233.54723   0.01078242 0.0089235707          201 
 1806000   0.53739332   -8.4210157    233.20324  0.010760577 0.0089153356          173 
 1807000   0.53695345   -8.4448748    233.00388  0.010745429 0.0089071078          274 
 1808000   0.52528129   -8.4488849    232.85546  0.010732645 0.0088988984          132 
 1809000    0.5353069   -8.4195786    233.18446  0.010741868 0.0088906988          135 
 1810000   0.53943829   -8.4401702     233.2405  0.010738513 0.0088824949          146 
 1811000   0.52885938   -8.4360047    233.15881  0.010728824 0.0088743126          208 
 1812000   0.52650419   -8.4366975    233.42109  0.010734965 0.0088661376          219 
 1813000    0.5386042   -8.4251183    233.02258  0.010710727 0.0088579744          209 
 1814000   0.53252945   -8.4420856    232.99019  0.010703335 0.0088498165          185 
 1815000   0.52081862   -8.4511376    232.82015   0.01068963 0.0088416776          134 
 1816000    0.5204423   -8.4297134    233.17282  0.010699928 0.0088335393          143 
 1817000   0.52607573   -8.4380357    233.07984  0.010689775 0.0088254221          143 
 1818000   0.53015372   -8.4377713     233.0449  0.010682293 0.0088172925          225 
 1819000   0.53442078   -8.4250295    233.22539  0.010684689 0.0088091842          265 
 1820000   0.53168263    -8.436927    233.06483  0.010671466 0.0088010747          236 
 1821000   0.52287346   -8.4501638     232.8661  0.010656512 0.0087929783          110 
 1822000   0.52825398   -8.4321405    232.93802  0.010653953 0.0087848964          186 
 1823000   0.52972637   -8.4375738    233.44828  0.010671434 0.0087768174          137 
 1824000   0.52910129    -8.450348    232.96186   0.01064336 0.0087687504          151 
 1825000    0.5357554   -8.4552152    232.99155  0.010638883 0.0087606921          185 
 1826000   0.52498759   -8.4422431    232.65736  0.010617806 0.0087526416          137 
 1827000   0.51986349   -8.4335814    232.92077  0.010624009 0.0087446084          128 
 1828000   0.52170033   -8.4452678    232.90199  0.010617341 0.0087365852          233 
 1829000   0.52880018   -8.4588674    232.72065  0.010603274 0.0087285644          134 
 1830000   0.51528311   -8.4403329    232.47156  0.010586136 0.0087205537          144 
 1831000   0.52524645   -8.4448136    232.89228  0.010599503  0.008712553          215 
 1832000   0.50948652   -8.4247585    232.87282  0.010592832 0.0087045547          103 
 1833000   0.52523136   -8.4442831    233.05363  0.010595273 0.0086965713          111 
 1834000   0.52728041   -8.4547623      232.823  0.010579017 0.0086885933          132 
 1835000    0.5205355   -8.4563191    232.57369   0.01056193 0.0086806318          135 
 1836000   0.51808658   -8.4545243    232.65002  0.010559642 0.0086726778          117 
 1837000   0.52083105   -8.4590724    232.76898   0.01055929 0.0086647202          147 
 1838000   0.51898364   -8.4558577      232.387  0.010536226 0.0086567806          185 
 1839000   0.52122843   -8.4491442    232.47319  0.010534402 0.0086488453          153 
 1840000   0.50800756   -8.4649492    232.66741  0.010537473 0.0086409138          181 
 1841000   0.52073666   -8.4350338    232.49157   0.01052379 0.0086329938          162 
 1842000   0.51981048   -8.4531196    233.16212  0.010548413 0.0086250923          199 
 1843000   0.52465941    -8.457412    232.63962  0.010519064 0.0086171867          118 
 1844000   0.52537945   -8.4628817      232.468  0.010505604 0.0086092877          137 
 1845000   0.52314456   -8.4569145    232.61768   0.01050667 0.0086014018          141 
 1846000   0.51710849   -8.4591742    233.06639  0.010521235 0.0085935256          166 
 1847000   0.52063757    -8.469943    232.83275  0.010504997 0.0085856621          153 
 1848000   0.51259355   -8.4547073    232.71068  0.010493808 0.0085778099          128 
 1849000   0.51333793   -8.4587188    232.71299  0.010488236 0.0085699559          149 
 1850000   0.51434932   -8.4675363    232.53166  0.010474399 0.0085621247          165 
 1851000    0.5168982   -8.4473302    233.05508  0.010492305 0.0085543066          162 
 1852000   0.51653871   -8.4628261     232.6404  0.010467981 0.0085464902          189 
 1853000   0.51374322    -8.466091    232.73805  0.010466723 0.0085386815          185 
 1854000   0.51346703   -8.4780954    232.47345  0.010449184 0.0085308809          317 
 1855000   0.51272327   -8.4612548    232.34712  0.010437876 0.0085230981          180 
 1856000   0.50906818   -8.4774938    232.45109   0.01043692 0.0085153235          218 
 1857000    0.5181969   -8.4701604    232.37287   0.01042779 0.0085075553          138 
 1858000   0.51109082   -8.4705931     232.3862  0.010422775 0.0084997985          129 
 1859000   0.50865187   -8.4598806     232.6628  0.010429568 0.0084920517          249 
 1860000   0.52254604   -8.4700627    232.82062  0.010431031 0.0084843055          103 
 1861000   0.51185416   -8.4495696    232.41242  0.010407148 0.0084765759           90 
 1862000   0.52159928   -8.4691793    232.27615   0.01039546 0.0084688535          113 
 1863000   0.49949637   -8.4667801    232.52577  0.010401046  0.008461143           96 
 1864000   0.50862348   -8.4773254    232.35766   0.01038795 0.0084534366          125 
 1865000   0.50803462   -8.4699933    232.73879   0.01039941 0.0084457434          137 
 1866000   0.51410369   -8.4740622    232.93938  0.010402795 0.0084380521           94 
 1867000   0.51244237     -8.45943    232.59007  0.010381631 0.0084303736          146 
 1868000   0.52014401    -8.475772    232.23074  0.010360044 0.0084227146          113 
 1869000   0.49630698   -8.4907251    232.70719  0.010375744 0.0084150512          135 
 1870000   0.51001775   -8.4797429    232.41231  0.010357055 0.0084073965          113 
 1871000    0.5075556   -8.4618681    232.93034  0.010374592 0.0083997554           84 
 1872000   0.50142313   -8.4916322    232.32916  0.010342288 0.0083921263          149 
 1873000   0.50885815   -8.4795051    232.37496  0.010338804 0.0083844946           79 
 1874000   0.50673099    -8.489429    232.96946  0.010359723 0.0083768776          226 
 1875000   0.50431713   -8.4820767    232.84916  0.010348852 0.0083692777           90 
 1876000   0.50290558   -8.4818592    232.59586  0.010332083 0.0083616719           91 
 1877000   0.50791594   -8.4843444    232.18162  0.010308188 0.0083540806          129 
 1878000   0.50076915   -8.4850361    232.50291  0.010316956 0.0083464971          171 
 1879000    0.4954912   -8.4708063    232.74637  0.010322262 0.0083389195          149 
 1880000   0.49716726   -8.4871967    232.47804  0.010304877 0.0083313602          173 
 1881000   0.49437625     -8.49155    232.66519   0.01030769 0.0083238133          115 
 1882000   0.49913964   -8.4716159    232.50059  0.010294925  0.008316272          143 
 1883000   0.50666343   -8.4832881    232.85244  0.010305029 0.0083087387          184 
 1884000   0.51184094   -8.4970505    232.52656  0.010285145 0.0083012021           91 
 1885000   0.50213768   -8.4940774    232.60977  0.010283367 0.0082936877          104 
 1886000   0.50296469   -8.4725728    232.42071  0.010269561 0.0082861743          104 
 1887000   0.49807783    -8.470125    232.20709  0.010254685 0.0082786751           85 
 1888000   0.50053276   -8.4854658    232.52797  0.010263417 0.0082711835          140 
 1889000   0.49989861    -8.491319     232.2287  0.010244781 0.0082637023          152 
 1890000   0.50540829   -8.4701309    232.44561  0.010248925 0.0082562313          102 
 1891000   0.50781951   -8.4915202    232.34593  0.010239112 0.0082487708          108 
 1892000   0.49675956   -8.4854975    232.39974   0.01023607  0.008241312           89 
 1893000   0.49922639   -8.4874828    232.37003  0.010229355 0.0082338701          124 
 1894000   0.49823161   -8.4893272    232.37165  0.010224026 0.0082264346          155 
 1895000   0.48394107    -8.498504    232.46204  0.010222605 0.0082190009           95 
 1896000   0.50151093   -8.5093714    232.62521  0.010224385 0.0082115781          106 
 1897000   0.49214623   -8.4758423    232.49804  0.010213409 0.0082041668          185 
 1898000   0.50534959    -8.508785    232.50942  0.010208527 0.0081967646          112 
 1899000   0.50216758    -8.504026    232.72638  0.010212673 0.0081893697          160 
 1900000    0.4764239   -8.4851536    232.40257  0.010193095 0.0081819888          126 
 1901000   0.50580356   -8.4987364    232.82522  0.010206261 0.0081746133          156 
 1902000   0.49558461   -8.5127425    232.22148  0.010174442 0.0081672413          152 
 1903000   0.48622253   -8.5000656    231.77579  0.010149579 0.0081598723          140 
 1904000   0.50810092   -8.4878395    232.29787  0.010167099   0.00815252          148 
 1905000   0.49655925   -8.4981214    232.06503  0.010151576 0.0081451739           96 
 1906000   0.49633099   -8.5159477    232.17239  0.010150944 0.0081378348          267 
 1907000   0.48897606   -8.4910757    232.04982  0.010140265 0.0081305127          127 
 1908000   0.50549751   -8.5115542    232.14236  0.010138992 0.0081231899          119 
 1909000   0.48179838   -8.4857937    232.28836  0.010140054 0.0081158744           99 
 1910000   0.49401039   -8.5011654    232.56916  0.010146996 0.0081085805          173 
 1911000   0.49557645   -8.5044857    232.65409   0.01014539 0.0081012884          171 
 1912000   0.49117213   -8.4956562    232.16735   0.01011887  0.008094002          162 
 1913000   0.48366679   -8.4884385    231.75886  0.010095786 0.0080867203          102 
 1914000   0.49306186    -8.530139    232.37598   0.01011738 0.0080794514          124 
 1915000   0.48581598   -8.5084691    232.25483  0.010106825  0.008072184          147 
 1916000   0.49272758   -8.5228896    232.28205  0.010102734 0.0080649271           80 
 1917000   0.49486722   -8.4992253    231.89176  0.010080497 0.0080576837          185 
 1918000   0.48813077   -8.5070203    232.23714  0.010090248 0.0080504483          205 
 1919000   0.49025413   -8.5038352    232.20993  0.010083808 0.0080432189          182 
 1920000   0.48787545   -8.5113351    231.77318    0.0100596 0.0080359989          127 
 1921000   0.49531535   -8.4959648     232.4341  0.010083034  0.008028798          166 
 1922000   0.49736985   -8.5213092    232.21378  0.010068236 0.0080216061          125 
 1923000   0.47899956   -8.5263404    232.30244  0.010066842 0.0080144197          111 
 1924000   0.46754785   -8.5202893    232.10355  0.010052995 0.0080072396          211 
 1925000   0.49007038   -8.5021537    231.82498  0.010035713 0.0080000629          222 
 1926000    0.4913621   -8.5236242    232.20168  0.010046802 0.0079928889          140 
 1927000   0.48471448   -8.5302264    232.04485  0.010034806 0.0079857257          156 
 1928000   0.47551471   -8.4944255    231.92545   0.01002444 0.0079785725          166 
 1929000   0.49308202   -8.5080773    232.07255  0.010025599 0.0079714285          232 
 1930000   0.49450386    -8.526764    231.91018  0.010013393 0.0079642911          175 
 1931000   0.47952392   -8.5083417    232.13628  0.010017965 0.0079571634          129 
 1932000   0.48003747   -8.5194805     231.9181  0.010003368 0.0079500482          130 
 1933000   0.48958785   -8.5182008    232.52485  0.010024351 0.0079429467          146 
 1934000   0.47834237   -8.5314027    231.84864  0.009990031 0.0079358469          113 
 1935000    0.4800889   -8.5410096    232.33664  0.010005885 0.0079287569          139 
 1936000   0.48615643   -8.5239807    232.08465 0.0099898694 0.0079216717          165 
 1937000   0.48291754    -8.518623    231.92832 0.0099779866 0.0079145965          141 
 1938000   0.48219283   -8.5115325    231.51689 0.0099551465 0.0079075251          151 
 1939000   0.47060426   -8.5355788    231.49671 0.0099491454   0.00790046          230 
 1940000   0.47203448   -8.5239415    231.79938 0.0099570182 0.0078934045          121 
 1941000   0.48108531   -8.5404842    231.90674 0.0099564975 0.0078863566           99 
 1942000   0.47012019   -8.5373657    232.36617 0.0099710851 0.0078793193          174 
 1943000   0.48014744   -8.5270819     232.1459 0.0099565064  0.007872291          126 
 1944000   0.47973902   -8.5186056    232.22968 0.0099549761 0.0078652796          104 
 1945000   0.47475859   -8.5252767    232.03844 0.0099416641 0.0078582711          133 
 1946000   0.48056717   -8.5345175    231.97678 0.0099339151 0.0078512703          106 
 1947000   0.47257408   -8.5022336    231.96915  0.009928486 0.0078442862          112 
 1948000   0.47532363   -8.5269073     231.7168 0.0099125942 0.0078373017          189 
 1949000   0.46543005   -8.5356185    231.92349 0.0099163457 0.0078303298           95 
 1950000   0.46132584   -8.5388483     231.5964  0.009897282 0.0078233624          109 
 1951000   0.48226225   -8.5322092    232.05192 0.0099116657 0.0078164095          130 
 1952000   0.47244622    -8.540716    232.13282 0.0099100418 0.0078094636          157 
 1953000   0.46144255   -8.5244052    231.77616  0.009889749 0.0078025217          110 
 1954000   0.47320175   -8.5415073    231.89729 0.0098898537 0.0077955889          151 
 1955000    0.4712694   -8.5122404    231.82668  0.009881785 0.0077886658          134 
 1956000   0.47235701   -8.5415792    231.91747 0.0098806013 0.0077817446          148 
 1957000   0.47838443   -8.5329167    231.56672 0.0098606165 0.0077748339          135 
 1958000   0.47085546   -8.5178558    231.82487 0.0098665674 0.0077679307          108 
 1959000   0.46470757   -8.5370178    231.77616  0.009859459  0.007761038          107 
 1960000   0.46773236   -8.5363966    231.90727 0.0098600028 0.0077541535          193 
 1961000   0.47268085   -8.5291216    231.80046 0.0098504359 0.0077472734          246 
 1962000   0.46309483   -8.5381408    231.68697  0.009840595  0.007740403          106 
 1963000   0.46301987    -8.532591    231.54248  0.009829448 0.0077335394          137 
 1964000   0.46499237   -8.5352346    231.63381 0.0098283186 0.0077266742          109 
 1965000   0.47491661   -8.5204006    231.78541 0.0098297461  0.007719824          139 
 1966000    0.4697688   -8.5474505    232.12302 0.0098390564 0.0077129785           90 
 1967000   0.46597805   -8.5394575    232.29591 0.0098413792 0.0077061413          128 
 1968000   0.47336137   -8.5629023     231.7155 0.0098118012 0.0076993164          228 
 1969000   0.46810331   -8.5356129    231.65929 0.0098044392 0.0076924952           90 
 1970000   0.46917993   -8.5378092    231.57291 0.0097958085 0.0076856854          132 
 1971000   0.45608348   -8.5330448    232.10581 0.0098133691 0.0076788809          223 
 1972000   0.46313817   -8.5317829    232.32753 0.0098177624 0.0076720867          117 
 1973000    0.4627852   -8.5440793    231.83032 0.0097917856 0.0076652953          168 
 1974000   0.46250369   -8.5301085    231.45943 0.0097711682 0.0076585186           91 
 1975000   0.46590204   -8.5469445    231.85534 0.0097829256 0.0076517517           94 
 1976000   0.46764383   -8.5528606    231.69734 0.0097713117 0.0076449868           93 
 1977000   0.46925178   -8.5491392    231.60353 0.0097624147 0.0076382258          251 
 1978000   0.47236041   -8.5414398    231.69048 0.0097611426 0.0076314751           86 
 1979000   0.46697031   -8.5498986    232.01478 0.0097698659 0.0076247301          129 
 1980000   0.45841457   -8.5455007    231.97541  0.009763275 0.0076179948          108 
 1981000   0.46209202   -8.5559808    231.59709 0.0097424317  0.007611271           90 
 1982000   0.45482714     -8.52848    231.64593 0.0097395699 0.0076045532           93 
 1983000    0.4640517   -8.5365196    231.80645 0.0097414041 0.0075978412          113 
 1984000   0.45455062   -8.5531213    231.56229 0.0097262385 0.0075911388          110 
 1985000   0.46695212   -8.5585329    231.82208 0.0097322452 0.0075844402          117 
 1986000   0.45621542   -8.5528892    232.06103 0.0097373713  0.007577749          132 
 1987000   0.44352503   -8.5522928    231.29173 0.0097002068 0.0075710667          129 
 1988000   0.46660555   -8.5508928    231.30785 0.0096960033 0.0075643926          176 
 1989000   0.45375544   -8.5371635    231.48075 0.0096983724 0.0075577264          183 
 1990000   0.45552254   -8.5661668    231.67489 0.0097016287 0.0075510719          131 
 1991000   0.45942165   -8.5595007    231.65504 0.0096959251 0.0075444242          186 
 1992000   0.45777828    -8.547944    231.79495 0.0096969107 0.0075377878          121 
 1993000   0.46115117   -8.5453558    232.10132 0.0097048553 0.0075311611          206 
 1994000   0.44983614   -8.5556027    231.73252 0.0096845753  0.007524537           92 
 1995000   0.45944632   -8.5556104    231.47409 0.0096689259 0.0075179194          145 
 1996000   0.45888313   -8.5492738    231.46078  0.009663526 0.0075113078          234 
 1997000   0.45860994   -8.5472643    231.95929 0.0096794896 0.0075047062          167 
 1998000   0.44640952    -8.551843     231.4958 0.0096553135 0.0074981053          130 
 1999000   0.45317102   -8.5719464    231.49206 0.0096503276 0.0074915177          155 
 2000000   0.45443283   -8.5684355    231.66498 0.0096527074 0.0074849388          131 
 2001000   0.45273027   -8.5665588    231.37982 0.0096360079 0.0074783707          125 
 2002000   0.44690451   -8.5745481    231.59894 0.0096403154 0.0074718001          214 
 2003000   0.45286141   -8.5640388     231.5295 0.0096326134 0.0074652515          140 
 2004000   0.44821982   -8.5629602    231.56751 0.0096293875 0.0074587078          188 
 2005000   0.45137031   -8.5594798     231.8663 0.0096370032 0.0074521619          145 
 2006000   0.44678919   -8.5584732    231.28221  0.009607935 0.0074456282          166 
 2007000   0.44914951   -8.5595586    231.63184 0.0096176646 0.0074391004          240 
 2008000   0.45156776   -8.5735144    231.65905 0.0096140045 0.0074325838          119 
 2009000   0.44760044   -8.5667306    231.51545 0.0096032626 0.0074260674          183 
 2010000   0.45736303   -8.5592177    231.55785 0.0096002424 0.0074195626          162 
 2011000   0.45408666   -8.5602389    231.66379 0.0095998585 0.0074130732          118 
 2012000   0.44052481   -8.5741793     231.6104  0.009592876 0.0074065855          186 
Loop time of 5311.14 on 48 procs for 2000000 steps with 4000 atoms

Performance: 65070.731 tau/day, 376.567 timesteps/s
99.4% CPU use with 48 MPI tasks x no OpenMP threads

MPI task timing breakdown:
Section |  min time  |  avg time  |  max time  |%varavg| %total
---------------------------------------------------------------
Pair    | 385.58     | 429.81     | 460.3      |  90.4 |  8.09
Neigh   | 36.785     | 38.324     | 39.822     |  11.5 |  0.72
Comm    | 339.68     | 374.77     | 424.81     | 103.4 |  7.06
Output  | 4.7258     | 4.7284     | 4.7848     |   0.4 |  0.09
Modify  | 4390       | 4411.4     | 4429       |  13.9 | 83.06
Other   |            | 52.16      |            |       |  0.98

Nlocal:        83.3333 ave          88 max          77 min
Histogram: 3 3 3 5 4 3 5 12 3 7
Nghost:        2413.79 ave        2436 max        2396 min
Histogram: 1 4 7 9 8 8 5 1 2 3
Neighs:        16762.6 ave       19299 max       14322 min
Histogram: 2 4 10 2 10 4 5 3 3 5
FullNghs:      33524.8 ave       35579 max       30874 min
Histogram: 2 2 3 8 4 2 11 8 5 3

Total # of neighbors = 1609191
Ave neighs/atom = 402.29775
Neighbor list builds = 106537
Dangerous builds = 1

#clear
#
#next RN
#
#jump SELF
Total wall time: 1:28:34
