
units lj                  # Use reduced LJ style units
atom_style atomic         # Uncharged point particles
atom_modify map hash      # Needed for indexing of clusters etc
                          # Used to be able to find where atoms are in relation to each other.

lattice fcc 1.0 spacing 1 1 1
Lattice spacing in x,y,z = 1.5874011 1.5874011 1.5874011
region box block 0 10 0 10 0 10 units lattice
create_box 2 box
Created orthogonal box = (0.0000000 0.0000000 0.0000000) to (15.874011 15.874011 15.874011)
  3 by 4 by 4 MPI processor grid
create_atoms 1 box
Created 4000 atoms
  using lattice units in orthogonal box = (0.0000000 0.0000000 0.0000000) to (15.874011 15.874011 15.874011)
  create_atoms CPU = 0.002 seconds
set type 1 type/fraction 2 0.94 78393
Setting atom values ...
  3760 settings made for type/fraction
mass 1 1.0
mass 2 1.0
pair_style lj/cut  3.5
pair_modify tail  yes
pair_coeff 1  1  1.0  1.0   # Intearaction between 1 and 1 set with epsilon = 1 and sigma = 1
pair_coeff 1  2  1.5  0.8
pair_coeff 2  2  0.5  0.88

write_data data.0
System init for write_data ...
Neighbor list info ...
  update every 1 steps, delay 10 steps, check yes
  max neighbors/atom: 2000, page size: 100000
  master list distance cutoff = 3.8
  ghost atom cutoff = 3.8
  binsize = 1.9, bins = 9 9 9
  1 neighbor lists, perpetual/occasional/extra = 1 0 0
  (1) pair lj/cut, perpetual
      attributes: half, newton on
      pair build: half/bin/atomonly/newton
      stencil: half/bin/3d
      bin: standard
WARNING: Not all mixed pair coeffs generated from mixing. Use write_data with 'pair ij' option to store all pair coeffs. (../write_data.cpp:312)


#############################
#   M E L T   S Y S T E M   #
#############################

velocity all create 2.4 1741580 mom yes dist gaussian # Assign velocities
                                                    # Temperature 2.4, random number seed, zero linear momentum
                                                                                # Gaussian distribution

timestep 0.002   # simulation timestep
thermo 1000       # output thermodynamic data every 1000 steps bf 100

# Define a fix  in this case with index 1 applied to all
# particles in the simulation. This fix is for simulations
# in the anisotropic NPT ensemble. Note that we use the MTK
# correction.
fix 1 all npt temp 2.4 2.4 0.1 iso 5.68 5.68 0.5 mtk yes tchain 5 pchain 5 # Use NPT ensemble
                                                                         # Set temperature and pressure and damping
                                                                         # Numbers of thermostats in chain and in barostat
run 10000          # run for 10000 steps
Per MPI rank memory allocation (min/avg/max) = 3.642 | 3.644 | 3.648 Mbytes
Step Temp E_pair E_mol TotEng Press Volume 
       0          2.4   -2.9877486            0    0.6113514   -2.2401145         4000 
    1000    2.4055528   -1.9131928            0    1.6942343      5.61124    4096.7747 
    2000    2.3937192   -1.8847103            0    1.7049709    5.7174013    4111.4219 
    3000    2.3815356   -1.8880899            0    1.6833203    5.7198915    4105.0343 
    4000    2.4074485   -1.9511597            0    1.6591103    5.6079862    4066.4655 
    5000    2.4264166   -1.9464202            0    1.6922948    5.6881987    4076.2607 
    6000    2.4185824   -1.8565372            0    1.7704295      5.72026    4133.7507 
    7000    2.4300906   -1.9069105            0    1.7373142    5.6615756    4107.8883 
    8000    2.4233338   -1.9007166            0    1.7333753    6.0489537     4047.997 
    9000     2.488034   -1.9321793            0    1.7989387    5.6915462    4075.0008 
   10000    2.4295781   -1.9047862            0    1.7386698    5.7360713    4095.2379 
Loop time of 2.46216 on 48 procs for 10000 steps with 4000 atoms

Performance: 701821.712 tau/day, 4061.468 timesteps/s
99.6% CPU use with 48 MPI tasks x no OpenMP threads

MPI task timing breakdown:
Section |  min time  |  avg time  |  max time  |%varavg| %total
---------------------------------------------------------------
Pair    | 1.0355     | 1.1215     | 1.2152     |   3.5 | 45.55
Neigh   | 0.20407    | 0.2127     | 0.22869    |   1.1 |  8.64
Comm    | 0.75641    | 0.85827    | 0.98425    |   5.2 | 34.86
Output  | 0.00024085 | 0.00024635 | 0.00031757 |   0.0 |  0.01
Modify  | 0.20311    | 0.25426    | 0.30088    |   6.2 | 10.33
Other   |            | 0.01514    |            |       |  0.61

Nlocal:        83.3333 ave          93 max          72 min
Histogram: 1 2 4 6 6 9 8 7 4 1
Nghost:        1613.31 ave        1644 max        1595 min
Histogram: 6 8 11 3 5 5 4 2 3 1
Neighs:        9305.29 ave       10232 max        7765 min
Histogram: 2 1 2 1 8 8 8 3 6 9

Total # of neighbors = 446654
Ave neighs/atom = 111.66350
Neighbor list builds = 907
Dangerous builds = 213

# Equilibrate just above the melting temperature to avoid step fn in T

fix 1 all npt temp 1.25 1.25 0.1 iso 5.68 5.68 0.5 mtk yes tchain 5 pchain 5
run 2000
Per MPI rank memory allocation (min/avg/max) = 3.643 | 3.645 | 3.649 Mbytes
Step Temp E_pair E_mol TotEng Press Volume 
   10000    2.4295781   -1.9047862            0    1.7386698    5.7360713    4095.2379 
   11000    1.2410852   -2.8512484            0  -0.99008599    5.7425826    3201.3379 
   12000     1.249742   -2.8668614            0  -0.99271715    5.8183221    3183.2628 
Loop time of 0.594665 on 48 procs for 2000 steps with 4000 atoms

Performance: 581167.214 tau/day, 3363.236 timesteps/s
99.6% CPU use with 48 MPI tasks x no OpenMP threads

MPI task timing breakdown:
Section |  min time  |  avg time  |  max time  |%varavg| %total
---------------------------------------------------------------
Pair    | 0.26181    | 0.28428    | 0.32013    |   2.1 | 47.80
Neigh   | 0.039231   | 0.041115   | 0.047731   |   0.7 |  6.91
Comm    | 0.18094    | 0.21961    | 0.24696    |   2.8 | 36.93
Output  | 5.4361e-05 | 6.4606e-05 | 8.5647e-05 |   0.0 |  0.01
Modify  | 0.040703   | 0.044864   | 0.047983   |   1.0 |  7.54
Other   |            | 0.004736   |            |       |  0.80

Nlocal:        83.3333 ave          92 max          75 min
Histogram: 1 2 10 4 12 3 4 7 4 1
Nghost:        1920.73 ave        1941 max        1897 min
Histogram: 2 2 1 4 14 5 7 7 2 4
Neighs:        11994.2 ave       13592 max       10310 min
Histogram: 2 0 6 8 10 4 6 7 3 2

Total # of neighbors = 575723
Ave neighs/atom = 143.93075
Neighbor list builds = 144
Dangerous builds = 13

#############################
# L I N E A R  Q U E N C H  #
#############################

# Define solid atoms. This closely follows ten Wolde  Ruiz-Montero and Frenkel  Faraday Discuss  1996  104  93-110
# Compute components of the per-atom q6 vector
compute q6 all orientorder/atom degrees 1 6 components 6 nnn NULL cutoff 1.3 # compute the Q6 parameter.
                                                                             # Use all neighbours within 1.3 unit cell.

# get number of connections
compute coord_number all coord/atom orientorder q6 0.5

# An atom is solid if it has 8 or more connections (of a possible 14)
variable is_solid atom c_coord_number>=8
group solid dynamic all var is_solid    # Must be dynamic to update
dynamic group solid defined

# do clustering
compute cluster solid cluster/atom 1.3 # Create a cluster where all atoms within are solid and max 1.3 units from another member

# define chunks one chunk per cluster
compute clus_chunks solid chunk/atom c_cluster nchunk every compress yes  # Says which atoms are in which chunk

# count the size of each chunk
compute size_chunks solid property/chunk clus_chunks count


# Find the maximum entry in the vector of chunk sizes
variable max_n equal max(c_size_chunks)


# Thermo style which includes this variable
# thermo_style custom step temp pe vol v_max_n

thermo ${N}  # Print the thermo information every 100 steps
thermo 1000  

# Reset the npt fix at a lower temperature (below freezing)
fix 1  all npt temp  ${temp} ${temp}  0.1  iso  5.68  5.68  0.5  mtk yes tchain  5  pchain  5
fix 1  all npt temp  0.45 ${temp}  0.1  iso  5.68  5.68  0.5  mtk yes tchain  5  pchain  5
fix 1  all npt temp  0.45 0.45  0.1  iso  5.68  5.68  0.5  mtk yes tchain  5  pchain  5

dump dmp2 all dcd ${N} traj.dcd
dump dmp2 all dcd 1000 traj.dcd


compute msd all msd com yes
variable twopoint equal c_msd[4]/6/(step*dt+1.0e-6)
fix 9 all vector 10 c_msd[4]
variable fit equal slope(f_9)/6/(10*dt)
thermo_style custom step temp pe c_msd[4] v_twopoint v_fit v_max_n

fix 1 all npt temp 1.25 ${temp} 0.1 iso 5.68 5.68 0.5 mtk yes tchain 5 pchain 5
fix 1 all npt temp 1.25 0.45 0.1 iso 5.68 5.68 0.5 mtk yes tchain 5 pchain 5
run 5000000 # 5000000  # Run for this many steps
Neighbor list info ...
  update every 1 steps, delay 10 steps, check yes
  max neighbors/atom: 2000, page size: 100000
  master list distance cutoff = 3.8
  ghost atom cutoff = 3.8
  binsize = 1.9, bins = 8 8 8
  4 neighbor lists, perpetual/occasional/extra = 1 3 0
  (1) pair lj/cut, perpetual
      attributes: half, newton on
      pair build: half/bin/atomonly/newton
      stencil: half/bin/3d
      bin: standard
  (2) compute orientorder/atom, occasional
      attributes: full, newton on
      pair build: full/bin/atomonly
      stencil: full/bin/3d
      bin: standard
  (3) compute coord/atom, occasional
      attributes: full, newton on
      pair build: full/bin/atomonly
      stencil: full/bin/3d
      bin: standard
  (4) compute cluster/atom, occasional
      attributes: full, newton on
      pair build: full/bin/atomonly
      stencil: full/bin/3d
      bin: standard
Per MPI rank memory allocation (min/avg/max) = 9.818 | 9.825 | 9.831 Mbytes
Step Temp PotEng c_msd[4] v_twopoint v_fit v_max_n 
   12000     1.249742   -2.8668614 9.0180607e-30 6.2625419e-32 8.3333333e+20            1 
   13000    1.2338258     -2.86683    1.1012687 0.0070594147  0.093850613            1 
   14000    1.2356303   -2.8453913    2.3001754   0.01369152  0.097429652            1 
   15000    1.2364143   -2.8615783     3.428897  0.019049427  0.096863229            2 
   16000     1.271026   -2.8742971    4.6552568  0.024246128  0.097221985            1 
   17000     1.248544   -2.8368177    5.9483628   0.02915864   0.09888105            3 
   18000    1.2533493   -2.8666838    7.1626191  0.033160273   0.10017698            2 
   19000    1.2310793   -2.8338871    8.3039669  0.036420906   0.10030674            2 
   20000    1.2366076   -2.8700108    9.4621169  0.039425486    0.1000125            1 
   21000    1.2322294   -2.8749759    10.596905  0.042051209    0.0997071       -1e+20 
   22000    1.2467144   -2.8484298    12.052478  0.045653325   0.10002853            1 
   23000    1.2435323    -2.857862    13.108089  0.047493074   0.10032797            1 
   24000     1.263029   -2.8767306    14.271955  0.049555397   0.10015581            2 
   25000    1.2497302   -2.8485079    15.520837  0.051736124   0.10006272            2 
   26000    1.2501269   -2.8824414    16.751649  0.053691181   0.10017106            2 
   27000    1.2442523   -2.8911864    17.951474  0.055405782   0.10012891            3 
   28000     1.247708   -2.8540835    18.997935  0.056541471   0.10016497            1 
   29000    1.2354121   -2.8770356    20.330394  0.058420672  0.099987411            1 
   30000    1.2277089    -2.869478    21.623302  0.060064728  0.099996067            4 
   31000    1.2733864   -2.8586179    22.897042  0.061551186   0.10015913            2 
   32000    1.2525519   -2.8622941    24.348655  0.063407955   0.10048087            2 
   33000    1.2533524   -2.8457478    25.599928  0.064646282   0.10095245            3 
   34000    1.2382883   -2.8785015    26.848949  0.065806248   0.10125113            2 
   35000    1.2588234   -2.8758913    27.992443  0.066648673   0.10154046            2 
   36000     1.277864   -2.8760815    29.069858  0.067291338   0.10160151            2 
   37000    1.2436436   -2.8763413    30.460909   0.06860565   0.10169145            2 
   38000     1.261084   -2.8744306     31.24537  0.068520548    0.1016315            1 
   39000    1.2407885   -2.8949443    32.471702  0.069383977   0.10149553            1 
   40000    1.2466626   -2.8674456    33.360522  0.069501087   0.10137419            3 
   41000    1.2616626   -2.8887662    34.517441  0.070157399   0.10119678            1 
   42000    1.2567497    -2.883855    35.904794   0.07123967   0.10101702            1 
   43000    1.2338376   -2.8801113    37.253451  0.072196609   0.10079876            2 
   44000    1.2207977   -2.8747654    38.128043  0.072212202   0.10065471            6 
   45000    1.2287516   -2.8690416    39.299895  0.072777583   0.10053109            1 
   46000    1.2503141   -2.8919694    40.664402  0.073667395   0.10042974            1 
   47000    1.2638409   -2.8644824    41.753025  0.074030186   0.10030301            1 
   48000     1.261869   -2.8672539    42.958622   0.07458094   0.10020238            3 
   49000     1.253698   -2.8866927    43.956586  0.074756099   0.10009648            4 
   50000    1.2048689   -2.8556546    45.347691  0.075579485   0.10005386            2 
   51000    1.2378836     -2.89787    46.587307  0.076123049   0.10002437            2 
   52000    1.2463013   -2.8695396     47.72469  0.076481874  0.099956028            1 
   53000    1.2357657   -2.8999697    48.866238  0.076833706  0.099885614            3 
   54000    1.2564706   -2.8731075     50.07807  0.077280972  0.099835832            2 
   55000    1.2295236   -2.8865622     51.01147  0.077290106  0.099708996            2 
   56000    1.2536062    -2.887983    52.192222  0.077666996  0.099583582            1 
   57000    1.2587338   -2.8765406    53.297695  0.077920607  0.099422364            2 
   58000    1.2342087   -2.8649492    54.600197  0.078448559  0.099301721            4 
   59000    1.2547778   -2.8866693    55.439079  0.078303783  0.099214554            2 
   60000    1.2822362   -2.9087488    57.115714   0.07932738  0.099115472            1 
   61000     1.241505   -2.8636573    58.015587  0.079256265   0.09905369            2 
   62000    1.2556266   -2.8790305    59.140823  0.079490353  0.099027708            1 
   63000    1.2320005   -2.8719221    60.776121  0.080391694  0.099010679            1 
   64000    1.2385654   -2.8690472    61.953361  0.080668438  0.099015236            1 
   65000    1.2614487   -2.8827596    63.277277  0.081124714  0.099009311            2 
   66000     1.241692   -2.9112261    64.398952  0.081311807  0.099013999            5 
   67000    1.2219619   -2.8573277    65.919993   0.08199004  0.099065519            4 
   68000    1.2554718   -2.8726172    67.595424  0.082837529  0.099132024            2 
   69000     1.257161   -2.8618492    68.666808  0.082930927  0.099225716            1 
   70000    1.2264309   -2.8996294    69.065608  0.082220962  0.099275978            2 
   71000    1.2681932   -2.8507504     70.33742  0.082555656  0.099293534            1 
   72000     1.272581   -2.8697026    71.736195  0.083028002  0.099308514            1 
   73000    1.2566818   -2.8791547    72.571249  0.082843891  0.099320838            1 
   74000     1.244348   -2.8470853    73.685056  0.082978666  0.099317219            1 
   75000    1.2475681   -2.8605863    75.225259  0.083583621  0.099301927            2 
   76000    1.2300717   -2.8942916    76.265289  0.083624219  0.099295384            1 
   77000     1.231563   -2.8815641    77.168091  0.083515249  0.099282737            2 
   78000    1.2250327    -2.853115    78.932416  0.084329503  0.099290868            2 
   79000    1.2168155   -2.8605196    80.256336  0.084658581   0.09930632            1 
   80000    1.2049275   -2.8605118    81.625962  0.085027044   0.09934951            1 
   81000      1.23683   -2.8562593    82.994432  0.085385218  0.099391408       -1e+20 
   82000    1.2401629   -2.9099231    83.400803  0.084756913  0.099419553            2 
   83000    1.2266609   -2.8576712    85.518015   0.08586146  0.099480534            1 
   84000    1.2642014   -2.8703179    86.782994   0.08609424  0.099545234            2 
   85000    1.2210268   -2.8976812    88.339226  0.086607084  0.099626412            1 
   86000    1.2490757   -2.8886453    89.355709  0.086584989  0.099711944            3 
   87000    1.2494446    -2.895784    90.462223  0.086649639  0.099786844            2 
   88000    1.2413965   -2.8520503    91.834388  0.086964382  0.099870155            1 
   89000    1.2342838   -2.8743323    93.376091  0.087430796   0.09995696            1 
   90000    1.2676275    -2.864075      94.4648  0.087467407   0.10003961            1 
   91000     1.244813   -2.8811991    95.051904  0.087043867   0.10009843            1 
   92000    1.2224626   -2.8866081    96.275746  0.087206291   0.10011589            2 
   93000    1.2294692   -2.8873665    97.491411  0.087357895   0.10013306            1 
   94000    1.2600308   -2.8884319    98.571149   0.08738577   0.10014364            1 
   95000    1.2356287   -2.9035353    99.995867  0.087715673   0.10015073            2 
   96000    1.2272211   -2.8515454    101.35864   0.08798493   0.10015083       -1e+20 
   97000    1.2537697   -2.8974222    102.30659  0.087892259   0.10016279            2 
   98000    1.2221406    -2.891335     103.1693  0.087728992   0.10018447            1 
   99000    1.2108735    -2.865546    105.02831  0.088407666   0.10021475            1 
  100000    1.2322961   -2.8805483     105.8326  0.088193836   0.10024878            2 
  101000    1.2388943   -2.8836445    106.56502  0.087924936   0.10026039            1 
  102000    1.2334605   -2.8749893    107.84742  0.088110636   0.10023827            4 
  103000    1.2508179   -2.8854431    108.36064  0.087670418   0.10020541            1 
  104000    1.2402519   -2.8768038    109.47265  0.087718471   0.10017158            3 
  105000     1.221836   -2.8812026    110.97019  0.088071575   0.10012844            5 
  106000    1.2616086    -2.890511    111.87074  0.087948692   0.10008951            2 
  107000    1.2548156   -2.8707507     113.1777  0.088144625   0.10004626            2 
  108000     1.238572   -2.9027954       113.74  0.087762342   0.10000645            1 
  109000    1.2315309   -2.8762676    115.12585  0.088016708  0.099955113            1 
  110000    1.2647717   -2.8953235    115.95779  0.087846809  0.099886242            1 
  111000    1.2152322   -2.8930762    116.39804  0.087385913  0.099807777            2 
  112000    1.2258258   -2.8755621    117.63744  0.087527857  0.099727482            4 
  113000    1.2155378   -2.8949424     118.9281  0.087705086  0.099647997            1 
  114000    1.2232961   -2.8978671      120.011  0.087727342  0.099572418            1 
  115000    1.2284616   -2.8692805    122.26652   0.08859893  0.099508035            2 
  116000    1.2276293   -2.9201061    122.72568  0.088164999  0.099433331            2 
  117000    1.2420023   -2.9034465    123.20845  0.087755307  0.099356164            1 
  118000    1.2220745   -2.8901719    123.98033  0.087556733  0.099266368            1 
  119000    1.2479149   -2.9009071      125.609  0.087961483  0.099170622            1 
  120000    1.1951654   -2.8616649    127.73296  0.088703447  0.099079242            2 
  121000    1.2266943   -2.8658156    128.18608  0.088282423  0.098994074            2 
  122000     1.229936    -2.896076    128.60432  0.087844482  0.098904607            1 
  123000     1.224513   -2.8758971    129.97064  0.088055987  0.098822936            1 
  124000    1.2167649   -2.8713377    131.15835  0.088144051  0.098756544            4 
  125000    1.2103607    -2.896458    132.77794  0.088518623  0.098688971            2 
  126000    1.2433854   -2.8450805    134.02575  0.088641366  0.098635637            1 
  127000    1.2265322    -2.876199     135.4832  0.088899734  0.098580949            2 
  128000    1.2292842   -2.8635515    136.33042  0.088756783  0.098524965            2 
  129000    1.2366492    -2.886971    137.10007  0.088565933  0.098475339            2 
  130000    1.2286206    -2.910817    138.27234  0.088636112  0.098420916            2 
  131000     1.245413   -2.8746743      139.183  0.088538807   0.09835386            2 
  132000     1.244715   -2.8932802    139.98877  0.088376751   0.09828585            1 
  133000    1.2430712   -2.8360298    141.12205  0.088422336  0.098200347            2 
  134000    1.2272422   -2.9042174    141.70535  0.088125216  0.098118924            2 
  135000     1.230901   -2.8805497     143.4718  0.088562837  0.098037516            1 
  136000     1.239928   -2.8844045     144.3414  0.088444486  0.097962196            1 
  137000    1.2198756   -2.9340242    144.33317  0.087793896  0.097883621            2 
  138000    1.2379035   -2.9166106    146.04864  0.088193625  0.097800149            2 
  139000     1.236097    -2.873941    147.34476  0.088336186  0.097722855            1 
  140000    1.2191488   -2.9072047    148.28951  0.088267565  0.097635427            1 
  141000    1.2356206   -2.9060032    149.47885  0.088344477  0.097560104            3 
  142000    1.2436326   -2.9162281    151.05904  0.088649672   0.09749063            2 
  143000    1.2368177    -2.871538    152.80922  0.089049663  0.097431634            1 
  144000     1.234969   -2.9079431    152.69533  0.088365352  0.097373715            2 
  145000     1.248438   -2.8862074    153.98563  0.088497487  0.097317188            3 
  146000    1.2415347   -2.8906228    155.50246   0.08875711   0.09725826            2 
  147000    1.1888305   -2.8958161     156.6454  0.088801245  0.097199682            2 
  148000    1.2403618   -2.8908588    157.31274  0.088576993  0.097139884            2 
  149000    1.2380164   -2.8728021    158.47088  0.088630244  0.097083249            1 
  150000    1.2284108   -2.8802243    159.97068  0.088872599   0.09702319            1 
  151000    1.1967381   -2.8923471     160.7033  0.088688355  0.096957775            1 
  152000    1.2099116   -2.8545703    161.30581    0.0884352   0.09690086            2 
  153000    1.2259477   -2.8763032    163.12275  0.088846815  0.096839442            2 
  154000    1.2571602   -2.8902088    164.36681  0.088943076  0.096789866            1 
  155000    1.2128976   -2.8828472    165.42794  0.088939752  0.096734716            2 
  156000     1.219742   -2.9051077    166.04531   0.08869942  0.096676118            1 
  157000    1.2214191    -2.905833    167.28572  0.088792844  0.096619358            1 
  158000    1.2076446    -2.906395    168.07104  0.088645064  0.096561841            4 
  159000      1.21464   -2.8623474    169.88108  0.089036207  0.096503456            1 
  160000    1.2252202   -2.8945566    171.29179  0.089214473  0.096449465            2 
  161000    1.2464332   -2.9218338    171.61713  0.088828739  0.096402153            3 
  162000    1.2369708   -2.9069213    173.10937  0.089048028  0.096349628            2 
  163000    1.2440046   -2.9157242    173.73986  0.088824058  0.096296859            1 
  164000    1.2596435   -2.8557799    175.20917  0.089029049  0.096245332            1 
  165000    1.2412496   -2.9025664    176.79619  0.089291004  0.096193043            2 
  166000    1.2333414   -2.8907156    176.87733  0.088793839  0.096132632            2 
  167000    1.2455991    -2.880319    177.73109  0.088688167  0.096072968            1 
  168000    1.2086946   -2.9033187    178.26832  0.088426745  0.096011656            1 
  169000    1.2132553   -2.9059003    179.65158  0.088585591  0.095949705            1 
  170000    1.2114392   -2.9049494    180.86594  0.088659776  0.095895773            1 
  171000    1.2197739   -2.8825604    183.14383  0.089251381  0.095843775            1 
  172000    1.2272082   -2.8797432    184.77233  0.089521477  0.095801701            1 
  173000    1.2081556   -2.9315855    184.22761  0.088741624  0.095760376            2 
  174000    1.2312366   -2.9314983    185.28457  0.088737823  0.095720708            1 
  175000    1.2035401   -2.9136542       187.42  0.089247618  0.095680419            1 
  176000    1.2302063   -2.8913464    188.75125  0.089370858  0.095650076            1 
  177000    1.2096899     -2.89861    189.81333  0.089365976  0.095621719            2 
  178000    1.2121276   -2.9398272    190.71315  0.089285181  0.095591909            2 
  179000    1.2206956   -2.8660318    192.52145  0.089628237  0.095563315            2 
  180000    1.2358364   -2.9081318    193.17888  0.089434666  0.095536119            3 
  181000    1.1948963   -2.9103115    194.48364  0.089541271  0.095517556            1 
  182000    1.2272669   -2.9258707     193.6644  0.088674175  0.095491307            1 
  183000    1.2241426   -2.9024489    196.94062  0.089681522  0.095468045            1 
  184000    1.2237524    -2.883766    197.86336  0.089612029  0.095449198            4 
  185000    1.2146447   -2.9073094    198.88889  0.089589588  0.095435043            3 
  186000    1.2229804   -2.8801046    201.15705  0.090124126  0.095429246            1 
  187000    1.2315949   -2.9048309    201.81296  0.089934473  0.095421971            1 
  188000    1.1999771   -2.8928312    202.22492  0.089638706  0.095410574            1 
  189000    1.2086028   -2.9218992    203.58203  0.089762798  0.095386583            2 
  190000    1.2214605   -2.8813757    205.47657  0.090121301  0.095369982            2 
  191000    1.2391008   -2.8832108    206.16803  0.089951148  0.095349865            3 
  192000    1.2070164    -2.905702    206.12279  0.089463018  0.095325483            1 
  193000    1.2269513   -2.8986552    208.11517  0.089859744  0.095296326            3 
  194000    1.2199693   -2.8885461    208.68101  0.089639609  0.095271367            2 
  195000    1.2421318   -2.8978074    210.12475  0.089796902  0.095241962            2 
  196000    1.2153908   -2.8680526    210.63651  0.089556341  0.095211977            2 
  197000    1.2441596   -2.9138737    211.62963   0.08952184  0.095175358            1 
  198000    1.2595121   -2.8949354     211.9206  0.089192171  0.095136101            1 
  199000    1.2251797   -2.8931137     212.4512  0.088966163  0.095097201            1 
  200000    1.2064347   -2.9173628     213.5643  0.088985125  0.095052626            4 
  201000    1.2343341   -2.9054118      215.189  0.089216005  0.095007431            2 
  202000    1.1842304   -2.9134359    215.05964  0.088720973    0.0949585            3 
  203000    1.2281566    -2.925257    216.58461   0.08890994  0.094903019            1 
  204000    1.2117539   -2.9450713    217.49687   0.08884676  0.094853823            2 
  205000    1.2211001   -2.9068901    218.66119  0.088886661  0.094799046            3 
  206000    1.2196763   -2.8819836     219.1636  0.088658415  0.094740698            2 
  207000    1.2294643   -2.8881478    219.57161  0.088394366  0.094675944            1 
  208000    1.2258817   -2.9191946    220.39838  0.088300632  0.094612807            1 
  209000    1.2205543   -2.8900908    221.17671  0.088188479  0.094548608            2 
  210000    1.1939506   -2.9075217    222.63105  0.088345656  0.094486017            1 
  211000    1.1993833    -2.900585    223.17224  0.088140696  0.094423093            1 
  212000    1.2395249   -2.8950062    224.05402   0.08807155   0.09435595            1 
  213000    1.2054407   -2.9245089    224.88613  0.087983619   0.09429277            1 
  214000    1.2298982   -2.8504288     227.2336  0.088486605  0.094230544            1 
  215000    1.2126013   -2.9539556    228.05029  0.088391586  0.094176291            2 
  216000    1.2448107   -2.9169749    229.71323  0.088623932  0.094123663            3 
  217000    1.2079356   -2.9089382    230.93548  0.088684899  0.094081356            1 
  218000    1.2338088   -2.8866069    232.33923  0.088814689  0.094040634            1 
  219000    1.2267014   -2.9386884    232.42397  0.088441388  0.093992995            1 
  220000    1.2135266   -2.8774906    233.13049  0.088307005  0.093945598            1 
  221000    1.2354158   -2.8885304    235.69033  0.088872672  0.093904568            3 
  222000    1.2061401   -2.9176701    237.12525   0.08901098  0.093865338            4 
  223000     1.233358   -2.8920537    237.64041  0.088804339  0.093828378            2 
  224000    1.1877698   -2.9177816    238.95097  0.088895451  0.093784412            2 
  225000    1.1947943   -2.9176758    240.30456  0.089001687  0.093744136            1 
  226000    1.2024914   -2.9012691    241.71536  0.089128082  0.093700975            1 
  227000    1.1959042     -2.92149    242.09102  0.088873357  0.093669604            3 
  228000    1.2114583   -2.9321569     243.8402  0.089122881  0.093647898            2 
  229000    1.2148498   -2.9334822    245.07118  0.089181652  0.093624751            1 
  230000    1.2423778   -2.8923297    247.61221   0.08971457  0.093607842            3 
  231000    1.2317399   -2.9184529    249.03792  0.089840519  0.093595587            2 
  232000    1.2166614   -2.9165723     248.2438   0.08916803   0.09357957            2 
  233000    1.2055203   -2.8946621    249.67577  0.089297484  0.093562622            1 
  234000    1.2201533   -2.9244779    251.12332  0.089431383  0.093545577            3 
  235000    1.1938426   -2.9302178    252.84627  0.089661799  0.093537594            1 
  236000    1.2079943   -2.9062395    254.21483  0.089765125   0.09352796            2 
  237000    1.2098583   -2.8763271    256.57287  0.090215494  0.093520814            2 
  238000    1.2114962   -2.9143834    256.23546  0.089718298  0.093508519            2 
  239000     1.239322   -2.9150564    257.32008  0.089721088   0.09349674            2 
  240000    1.2230645   -2.8857111    258.73598  0.089838881  0.093485286            4 
  241000    1.2152163   -2.9262253    259.72386  0.089807697  0.093477499            1 
  242000    1.1793538   -2.9017434    261.92137  0.090193308   0.09347538            2 
  243000    1.2441848   -2.9160032    263.18977  0.090257124  0.093472371            1 
  244000    1.1936588   -2.9011855    264.90648  0.090473523  0.093471019            2 
  245000    1.2186681   -2.8955368    265.69946  0.090373965  0.093472264            3 
  246000    1.2071265   -2.9011027    266.69036  0.090342263  0.093470909            2 
  247000    1.2186885   -2.8862015    267.74461   0.09033219  0.093471453            2 
  248000    1.2018122   -2.9098099    267.56402  0.089907266  0.093474563            3 
  249000    1.2240385   -2.8991163    268.95146   0.09001053   0.09347419            3 
  250000    1.1905746   -2.9146281    269.10301  0.089701004  0.093470372            2 
  251000    1.2155033   -2.9212569    271.55775  0.090158614  0.093466825            3 
  252000    1.2268822   -2.9035104    271.99831  0.089946529  0.093459145            2 
  253000    1.2267304   -2.9309906    271.65396  0.089477588  0.093445475            4 
  254000    1.1880932   -2.9218096    274.09229  0.089925293  0.093432147            1 
  255000    1.2070835    -2.927927    275.20005  0.089934658  0.093420119            1 
  256000    1.2065139   -2.9505033    274.70219  0.089421287  0.093403597            1 
  257000    1.2089172   -2.9147709    275.68543  0.089392163  0.093384087            2 
  258000    1.1802753    -2.947545    276.64342  0.089355109  0.093362467            2 
  259000    1.2088822   -2.9093813    278.73996  0.089684673  0.093343346            2 
  260000    1.1991283   -2.9058374    279.20489  0.089488746  0.093328372            2 
  261000     1.229383   -2.8942456    281.87727  0.089999128  0.093316515            2 
  262000    1.2460699   -2.9260495    283.42213  0.090146986  0.093313221            1 
  263000    1.1940635    -2.907147     284.2813  0.090076457  0.093304649            2 
  264000    1.2169067   -2.9040513     286.3869  0.090399904  0.093299791            3 
  265000    1.1991163    -2.895438    285.63658  0.089822823  0.093300163            1 
  266000    1.1793013   -2.9242521    287.18895  0.089971476  0.093294233            1 
  267000     1.210865   -2.9101304    288.80159  0.090137825  0.093287872            2 
  268000    1.2188285     -2.89012     289.8281  0.090120678   0.09328095            2 
  269000    1.2020558   -2.9256207    290.12749  0.089878405  0.093274602            2 
  270000    1.1887317   -2.9371913     290.7219   0.08972898  0.093263685            2 
  271000    1.2423243    -2.914571    291.63754  0.089679441  0.093255236            2 
  272000    1.1751919   -2.9469912    292.85791  0.089723624  0.093245489            3 
  273000    1.2229282   -2.9192863    295.13926   0.09009135  0.093231373            2 
  274000    1.1781546   -2.8858252    296.11894  0.090060504  0.093216901            1 
  275000    1.2117335   -2.9076613    295.99631   0.08969585  0.093197828            1 
  276000    1.2082568    -2.906937    298.08302   0.09000091  0.093180004            2 
  277000    1.2194629   -2.9177475    298.14704   0.08969526  0.093160884            2 
  278000    1.1920306   -2.9220884    299.02482  0.089635739  0.093142758            1 
  279000     1.218842   -2.8962978    299.76079  0.089534285  0.093124305            2 
  280000    1.2247287   -2.9416439    300.72893  0.089502656  0.093106373            3 
  281000     1.212174   -2.8958492    302.26706  0.089640289  0.093090396            1 
  282000    1.1957371    -2.895471    303.51326   0.08969068  0.093074612            1 
  283000    1.2263976   -2.9294396    302.94201  0.089205539  0.093054963            2 
  284000    1.1977966   -2.9182226    304.81727  0.089441687  0.093036058            1 
  285000    1.2005845   -2.9200114    305.80544  0.089416796  0.093018116            3 
  286000    1.2019314   -2.9208921    306.90852   0.08942556  0.092999699            1 
  287000    1.1946161    -2.922553     308.5024   0.08957677  0.092986198            3 
  288000    1.2197489   -2.9284827    310.19338  0.089755028  0.092974686            1 
  289000    1.2171666    -2.937277    310.64685  0.089575216  0.092962188            2 
  290000    1.2032497    -2.939396    312.14961  0.089698162   0.09294972            1 
  291000    1.2265244   -2.9276001    313.18786  0.089687246  0.092934132            1 
  292000    1.2118276   -2.9155897    314.46941  0.089745837  0.092920599            3 
  293000    1.2138734   -2.9189073    317.84089  0.090398433  0.092909012            1 
  294000    1.2177641   -2.9241886    316.75422  0.089782943  0.092898415            2 
  295000    1.2095346    -2.939725    317.71467  0.089749906  0.092885362            1 
  296000    1.1915855   -2.9013391    320.04526  0.090102833  0.092871949            2 
  297000    1.1999398   -2.9362858    321.22553   0.09013062  0.092860764            1 
  298000     1.203167   -2.9252895    322.56835  0.090203677  0.092851901            4 
  299000    1.2730111   -2.9077654    322.69268  0.089936643   0.09284532            1 
  300000    1.2142222   -2.8730145    323.74061  0.089927948  0.092835596            1 
  301000    1.2139617   -2.9429799    324.86882  0.089941533  0.092828415            1 
  302000    1.1903347   -2.9102928    324.87813  0.089646283  0.092814146            2 
  303000    1.1993679   -2.8929915    327.08515  0.089957412  0.092801278            1 
  304000     1.229388   -2.9306782     328.1301  0.089947945  0.092790871            1 
  305000    1.1939526   -2.9697125    327.67034  0.089527416  0.092779862            3 
  306000    1.1976453   -2.9394365    330.13888  0.089907101  0.092770803            1 
  307000    1.1729037   -2.9090791    331.63852  0.090021314    0.0927608            1 
  308000    1.1964481   -2.9060103    332.59086  0.089986704  0.092751655            2 
  309000    1.2197602   -2.9138679    334.62195  0.090243244  0.092745317            3 
  310000    1.2177815   -2.9430901    333.13603  0.089552697  0.092733211            2 
  311000    1.2134993   -2.9144689     336.8503  0.090259994  0.092723264            3 
  312000    1.2346209   -2.9154748    336.37585  0.089843976  0.092712895            1 
  313000    1.1903751   -2.9165768    337.31183  0.089806132  0.092705015            1 
  314000    1.2129025   -2.9247014    338.53224  0.089844013  0.092691939            5 
  315000    1.1918391   -2.9371753    340.67801  0.090126457  0.092686272            1 
  316000    1.1833658   -2.9122002    340.57515  0.089814122   0.09267558            3 
  317000    1.1744847   -2.9081719    342.41966  0.090015683   0.09266549            3 
  318000    1.2093159   -2.9126298    341.41602  0.089469606  0.092655295            2 
  319000    1.2142838   -2.9049774    346.34623  0.090477072  0.092646542            1 
  320000     1.222898   -2.9306175    344.63157  0.089747804  0.092639954            2 
  321000    1.1978464   -2.9085924    347.21087  0.090137816  0.092635289            1 
  322000    1.2015826   -2.9308592    347.23206  0.089863369   0.09262809            3 
  323000    1.2147261   -2.9073672    350.27566  0.090370398  0.092622303            1 
  324000    1.1655474   -2.9298676    350.37483  0.090116984  0.092618444            4 
  325000    1.2193791    -2.896697    353.55778  0.090655841  0.092612861            3 
  326000    1.2039603   -2.9395176    350.94631  0.089710201  0.092607912            1 
  327000    1.1904886   -2.9172873    353.10827  0.089986817   0.09260473            3 
  328000    1.1821004   -2.9202238    354.71052  0.090119541  0.092599691            1 
  329000     1.214191   -2.9278012    357.79117   0.09062593  0.092596147            1 
  330000    1.1948372   -2.9056834    357.22551  0.090208462   0.09259228            1 
  331000    1.2133904     -2.91241    357.83409  0.090089146  0.092591216            2 
  332000    1.2125104   -2.9313768    360.13042  0.090394181  0.092589563            4 
  333000    1.1955665     -2.90524    360.77307   0.09028355  0.092587387            2 
  334000     1.209263   -2.9241348    363.48012  0.090688652   0.09258783            2 
  335000    1.1937836   -2.8868421    364.33777  0.090631286  0.092586653            1 
  336000    1.1760353   -2.9457312    363.15312  0.090067737  0.092587504            5 
  337000    1.1817622   -2.9084334    367.17481  0.090794958  0.092589736            1 
  338000    1.1999813   -2.9510018    366.83336  0.090442149  0.092588233            1 
  339000    1.2041108   -2.9095152     366.9078  0.090193657  0.092588707            1 
  340000    1.2218629   -2.9479043    368.94894  0.090428662  0.092588366            2 
  341000    1.1915681   -2.9320531     369.6699  0.090339663  0.092586338            2 
  342000    1.2038549    -2.934622    371.93632  0.090627758  0.092584682            2 
  343000    1.2177193   -2.9579942    371.80347   0.09033126  0.092583942            1 
  344000    1.1889952   -2.9329082    374.39309     0.090696  0.092580959            2 
  345000    1.1860309   -2.9214155    374.19695  0.090385736  0.092580928       -1e+20 
  346000    1.1809796   -2.9049747    375.23715  0.090375037  0.092578623            2 
  347000    1.2002644   -2.9416891     375.8158  0.090253555  0.092574484            1 
  348000    1.1822634   -2.9507038    377.08456  0.090298027  0.092569243            3 
  349000    1.1915221   -2.9467856    378.69784  0.090424508  0.092567622            3 
  350000    1.1792248   -2.9548284    379.58125  0.090376488  0.092565242            1 
  351000    1.2001737   -2.9315484    380.51549  0.090340808  0.092562881            3 
  352000    1.2099443   -2.9244248    380.26446  0.090024731  0.092558956            2 
  353000    1.2012925   -2.9420491    382.17725  0.090221257  0.092553786            4 
  354000    1.1941423   -2.9364053    382.95893  0.090150407  0.092547728            2 
  355000    1.1963976   -2.9501599    385.83231  0.090570965  0.092543973            1 
  356000    1.1842759   -2.9335452    386.14608  0.090390001  0.092538964            1 
  357000    1.1850286   -2.9259379    387.14279  0.090369466  0.092535102            2 
  358000    1.2088023   -2.9139192     388.3023  0.090386941  0.092530926            3 
  359000    1.2155935   -2.9586976    387.45071  0.089937491  0.092524598            3 
  360000    1.1988891   -2.9423671    390.85434  0.090475542  0.092519475            1 
  361000    1.1705194   -2.9148941    391.17512  0.090298966  0.092510881            1 
  362000    1.2071762   -2.9252679    390.13705  0.089810555  0.092505281            1 
  363000    1.2084175   -2.9648888    392.63758  0.090137186  0.092499571            2 
  364000    1.1849911   -2.9413391    394.21557  0.090250817  0.092491315            2 
  365000    1.2011027   -2.9412043    395.42947  0.090280701  0.092484571            1 
  366000    1.2092178   -2.9036748    397.36263  0.090474187  0.092481003            2 
  367000    1.2029837   -2.8989622     396.5491  0.090042939  0.092476204            1 
  368000    1.2124824   -2.9559353    398.30423  0.090195705  0.092472735            2 
  369000     1.199247    -2.958657    399.15773  0.090144023  0.092466947            4 
  370000    1.2062194   -2.9280999    402.20148  0.090585918  0.092463355            1 
  371000    1.1619233   -2.9275531    401.68157  0.090224971  0.092461473            2 
  372000    1.1907304   -2.9612453    403.22408  0.090327975   0.09245829            4 
  373000    1.2050108   -2.9348559    407.17175  0.090967773  0.092453303            3 
  374000    1.2331671   -2.9507149    406.28138  0.090526154  0.092449859            1 
  375000    1.1811116   -2.9549657    406.51029  0.090335621  0.092449387            4 
  376000    1.1788195   -2.9421941    407.98419  0.090422027  0.092450807            2 
  377000    1.2053516   -2.9385341    409.47664  0.090512078  0.092451213            2 
  378000    1.1700438   -2.9734873    409.29307  0.090232158  0.092448888            1 
  379000    1.2102003   -2.9341315    410.25485  0.090205551  0.092447595            2 
  380000    1.1869131   -2.9511936    414.48584  0.090896017  0.092445615            1 
  381000    1.1966135    -2.949554    412.96589  0.090324998  0.092442798            2 
  382000    1.2022112   -2.9181779    416.12869  0.090778511  0.092442677            1 
  383000    1.1518763   -2.9041578    415.69602   0.09044735  0.092442935            2 
  384000    1.1951108   -2.9374359    419.35493  0.091005844   0.09244446            2 
  385000    1.1647757   -2.9496221    419.42695  0.090785053  0.092448997            3 
  386000    1.1927111   -2.9196679    420.54031  0.090790223   0.09245263            1 
  387000     1.175937   -2.9097951    422.14197  0.090900511  0.092456493            2 
  388000     1.175266   -2.9044935    422.13467  0.090664663  0.092458468            5 
  389000    1.1780866   -2.9244838     425.3076  0.091111311  0.092463713            3 
  390000    1.1802383   -2.9437722    425.17405  0.090849157  0.092466784            2 
  391000    1.2039123   -2.9586997    427.80492  0.091177519  0.092470593            1 
  392000    1.1848954   -2.9038828    426.79924  0.090731131  0.092474856            2 
  393000     1.203445    -2.916573    429.24871   0.09101966  0.092476435            2 
  394000     1.202104   -2.9453109    431.63013   0.09129233  0.092479381            1 
  395000    1.1692079   -2.9363776    428.38797  0.090377208  0.092482351            1 
  396000    1.2163219   -2.9243275    432.71149  0.091058815  0.092485114            1 
  397000    1.1972966   -2.9635676     431.7766  0.090633207  0.092486841            2 
  398000    1.2084397   -2.9332097    433.47015  0.090760081  0.092487617            1 
  399000    1.1900086   -2.9605923    432.33709  0.090295967  0.092487014            2 
  400000     1.169423   -2.9265015    434.57472    0.0905364  0.092483003            2 
  401000    1.2012242   -2.9194656    436.47374  0.090705266  0.092480357            1 
  402000    1.1861566   -2.9322406    438.08134  0.090812882  0.092479284            1 
  403000    1.1950569   -2.9260364    438.85326  0.090747158  0.092477096            2 
  404000    1.1711885   -2.9520187    437.35267   0.09021301   0.09247484            1 
  405000    1.2195589   -2.9572066    439.70247  0.090473759  0.092472888            2 
  406000    1.1824975   -2.9332272    441.52004  0.090623982  0.092471927            2 
  407000    1.2038831   -2.9434082    441.00202  0.090295254  0.092470289            4 
  408000    1.1808547   -2.9322027    444.98496  0.090887451  0.092468479            2 
  409000     1.169627    -2.945564    443.03084  0.090267082  0.092467927            2 
  410000    1.2141131   -2.9330383    448.21228  0.091100056  0.092467642            4 
  411000    1.2030499   -2.9494568    447.97005  0.090829289  0.092469622            2 
  412000    1.1696992   -2.9231434     448.2912  0.090673787  0.092471973            2 
  413000    1.1898573   -2.9275855    450.55496  0.090911008  0.092475508            1 
  414000    1.1872375   -2.9277823    454.02171  0.091389234  0.092480854            2 
  415000    1.1638051   -2.9442732    454.35832  0.091236609  0.092485635            5 
  416000    1.1795265   -2.9327292    455.47795  0.091241576  0.092491562            1 
  417000    1.1760739   -2.9199773    458.24891  0.091576521  0.092499908            2 
  418000    1.1948414   -2.9374737    456.10707  0.090930437  0.092506876            2 
  419000    1.1761334   -2.9432422    460.73958  0.091634761  0.092515542            1 
  420000    1.1817581   -2.9487495    461.27365  0.091522549  0.092524632            2 
  421000    1.1807183   -2.9345532     464.2213  0.091888618  0.092536528            3 
  422000    1.1961093   -2.9631012    461.33166  0.091100249  0.092549042            2 
  423000    1.1774096   -2.9422265    464.22229  0.091454352  0.092558078            1 
  424000    1.1957569   -2.9189328    465.76117   0.09154111  0.092567466            1 
  425000    1.2036066   -2.9239972    467.58266  0.091682874   0.09257842            1 
  426000    1.1536683   -2.9070891    471.71201  0.092275432  0.092589994            1 
  427000    1.1819436   -2.9450644    469.71273  0.091669151  0.092602993            2 
  428000     1.169797   -2.9334262    470.48249  0.091604846  0.092616423            2 
  429000    1.1805333   -2.9519198    472.47557  0.091778472  0.092629649            4 
  430000    1.2103523   -2.9159384    475.06699  0.092067246   0.09264363            1 
  431000    1.1711752   -2.9566679    474.10391  0.091667423  0.092654928            1 
  432000    1.1842079   -2.9543554    476.48448  0.091914444  0.092668763            1 
  433000    1.1669363   -2.9297065    477.88079  0.091970899  0.092683336            1 
  434000    1.2295982   -2.9406094    477.92182  0.091766863  0.092696678            1 
  435000    1.1641934   -2.9593331    479.32567  0.091824841  0.092709853            3 
  436000    1.1922465   -2.9768195    482.07527  0.092139769  0.092722974            4 
  437000    1.1817173   -2.9210865    483.21632  0.092146515  0.092735837            1 
  438000    1.1800153   -2.9376917    485.24995   0.09232305  0.092753962            2 
  439000    1.1801975   -2.9594066    486.48855  0.092347863  0.092771381            3 
  440000    1.1705051   -2.9717328    487.75004  0.092376901  0.092790595            2 
  441000    1.1898397   -2.9434973    489.29363  0.092459114  0.092807351            2 
  442000    1.1672197   -2.9371673    491.08068  0.092586855  0.092826612            1 
  443000    1.1698978   -2.9492944    490.73925  0.092313628  0.092845035            2 
  444000    1.1693298   -2.9432946    493.74592   0.09267003  0.092863448            4 
  445000    1.1699716   -2.9504999    493.27077  0.092372803  0.092881806            1 
  446000    1.1764129   -2.9617911    494.86252  0.092463101  0.092897421            1 
  447000    1.1968121   -2.9767471    496.30926  0.092525962  0.092912516            1 
  448000    1.2029736   -2.9459943    495.37522  0.092145688  0.092928997            1 
  449000    1.1436087   -2.9368174    496.98576  0.092239375  0.092943989            2 
  450000    1.1742248   -2.9367906    498.33523  0.092284302  0.092958513            1 
  451000    1.1829504    -2.938474    503.14748  0.092968862  0.092975819            6 
  452000    1.1743311   -2.9535335     502.6359   0.09266886  0.092991895            1 
  453000    1.1815024   -2.9404688    503.17912  0.092564224  0.093008181            1 
  454000    1.1687531   -2.9745701    503.18039  0.092360571  0.093025225            1 
  455000    1.1965821   -2.9344432    507.43731  0.092937235  0.093042173            1 
  456000    1.1686753   -2.9571667    505.73109  0.092421618  0.093057517            1 
  457000     1.220829   -2.9691488    506.57425  0.092373131  0.093069028            1 
  458000    1.1710166   -2.9539023     507.8867  0.092410243  0.093081771            1 
  459000    1.2061779    -2.981606    509.46639  0.092495713  0.093096162            2 
  460000    1.1674691   -2.9304876    510.72038  0.092521808  0.093109513            2 
  461000    1.2042728   -2.9549526    509.55071  0.092109673  0.093121952            1 
  462000      1.16438   -2.9722852    509.47375   0.09189642  0.093132708            2 
  463000    1.1669586   -2.9890908    511.03346  0.091978664  0.093144085            2 
  464000    1.1785326   -2.9398268    513.57246  0.092236433  0.093152285            2 
  465000    1.1860481   -2.9454482    513.35972   0.09199995  0.093160839            2 
  466000    1.1825256   -2.9352687    515.01414  0.092098379  0.093166684            1 
  467000    1.1686489   -2.9459109    516.09571  0.092094167  0.093174945            1 
  468000    1.1741381   -2.9716467    516.80248  0.092023233  0.093181512            3 
  469000    1.1933802   -2.9224841    516.74457  0.091816732  0.093189126            2 
  470000    1.1728979   -2.9535949    517.49831  0.091755019  0.093197848            1 
  471000    1.1768406   -2.9678237    518.89711  0.091807698  0.093204035            1 
  472000    1.1782503   -2.9306367    520.90064  0.091966921   0.09320958            2 
  473000    1.1550525   -3.0011556    521.46131  0.091871266  0.093215946            2 
  474000    1.1978879   -2.9598285    522.69342  0.091894062  0.093221168            1 
  475000    1.1775616   -2.9543261    522.88804  0.091734744  0.093226345            2 
  476000      1.17709   -2.9660162    526.54241  0.092181795  0.093229164            3 
  477000    1.1783218   -2.9516648    525.66638  0.091835496  0.093234646            2 
  478000    1.2051916   -2.9706308     524.9082  0.091511193  0.093238836            2 
  479000    1.1813814   -2.9256656    529.63742  0.092142905  0.093243363            1 
  480000    1.1580202   -2.9459817     529.0783  0.091853871   0.09324632            2 
  481000    1.1794021   -2.9465905    529.41696   0.09172158  0.093247751            1 
  482000    1.1698058   -2.9500525    529.24692  0.091501887  0.093245956            3 
  483000    1.1720578   -2.9594746    531.22284  0.091653354  0.093245524            3 
  484000     1.155261   -2.9524675    532.94418  0.091760362  0.093246324            2 
  485000    1.1803035   -2.9108162    532.42617   0.09148216  0.093245631            1 
  486000    1.1629853   -2.9819339    532.92943  0.091380218  0.093241975            1 
  487000     1.178233   -2.9445986    533.95655  0.091368334  0.093240322            1 
  488000    1.1713286   -2.9460063     535.0246  0.091363491  0.093237968            1 
  489000     1.188579   -2.9715177    536.59365  0.091444044  0.093235311            2 
  490000    1.1782284   -2.9540802     538.6626  0.091609286  0.093232648            2 
  491000    1.1464274   -2.9601268    536.71408  0.091092003  0.093228275            2 
  492000    1.1835863   -2.9525725    537.91176  0.091109716  0.093224384            3 
  493000    1.1745864    -2.959082    538.76949  0.091069894  0.093219353            3 
  494000    1.1741608   -2.9783082    540.47441  0.091173147  0.093211264            1 
  495000    1.1893064   -2.9842539    537.90905   0.09055708  0.093205135            2 
  496000    1.1616973    -2.959568    542.80685  0.091197388   0.09320003            3 
  497000    1.1819374   -2.9621625    542.53625   0.09096852  0.093195023            3 
  498000    1.1853968   -2.9599917    542.01218  0.090698157  0.093190824            2 
  499000    1.1768014   -2.9992319    543.12796  0.090702732  0.093183804            1 
  500000      1.18683   -2.9632062    545.34981  0.090891634  0.093177015            1 
  501000    1.1629527   -2.9393939    548.48229  0.091231252  0.093169649            1 
  502000     1.167587   -2.9536884    549.95447  0.091293902  0.093162634            3 
  503000    1.1794969   -2.9533508     548.0922  0.090803876  0.093155045            2 
  504000    1.1605564   -2.9582774    552.68476  0.091383061  0.093147539            3 
  505000    1.1725095   -2.9708769    549.42678  0.090664485  0.093138122            2 
  506000    1.1524498   -2.9601928    553.08323  0.091087488  0.093130914            1 
  507000    1.1711132    -2.984828    549.94042  0.090391259   0.09312023            1 
  508000    1.1874039    -2.963467    552.53075  0.090638247  0.093112018            2 
  509000    1.1666706   -2.9520933     554.8291   0.09083646  0.093104664            4 
  510000    1.1723108   -2.9550823     553.6402  0.090464085  0.093095306            2 
  511000     1.165428   -2.9426245    557.05545  0.090844007  0.093086819            1 
  512000    1.1434862   -2.9379588    557.88715  0.090801946  0.093079362            2 
  513000    1.1740877   -2.9615691    560.03706  0.090974182   0.09307288            1 
  514000    1.1566881    -2.915907    563.98707  0.091437592  0.093067602            8 
  515000    1.1916942   -2.9714988    562.87336  0.091079832  0.093058849            1 
  516000    1.1686826   -2.9480165    562.72163  0.090878816  0.093050366            2 
  517000    1.1590799   -2.9529467    563.66487  0.090855072  0.093041516            1 
  518000    1.1617068   -2.9698044     563.2192  0.090607979  0.093032763            2 
  519000    1.1674737   -2.9471162    566.89257  0.091023213  0.093024784            2 
  520000    1.1577553   -2.9518004    566.41798  0.090772112  0.093015912            3 
  521000    1.1719707   -2.9597972    566.26968  0.090574166  0.093006223            2 
  522000    1.1857514   -2.9617603    570.89355  0.091138817  0.092995885            2 
  523000    1.1716054   -2.9492534    570.31374  0.090872171  0.092987341            1 
  524000    1.1524475    -2.992985    568.27182  0.090374016   0.09297745            2 
  525000    1.1638404   -2.9396569    571.08058  0.090647711  0.092967552            2 
  526000     1.182382   -2.9579278    572.68659  0.090729814  0.092957423            2 
  527000    1.1459523   -2.9511931    574.01265  0.090767338  0.092947332            4 
  528000    1.1559313   -2.9750891    575.72257  0.090865305  0.092938294            4 
  529000    1.1488061   -2.9590159    577.73839  0.091011088  0.092930305            1 
  530000    1.1698778   -2.9750296    577.79008  0.090847497  0.092923239            3 
  531000    1.1596593   -2.9423635    578.22943  0.090745359  0.092915377            3 
  532000    1.1759411   -2.9783191    579.92328  0.090840113  0.092907632            2 
  533000    1.1832204   -2.9816119    580.63073  0.090780288  0.092901215            2 
  534000    1.1546019   -2.9899643    579.58693  0.090447398  0.092893855            1 
  535000    1.1599533   -2.9606312    583.95801  0.090959192  0.092885907            1 
  536000    1.1593574   -2.9715847    583.58235  0.090731087   0.09287717            2 
  537000    1.1668742   -2.9609621    585.66004   0.09088455  0.092868868            2 
  538000    1.1725016   -2.9715401    587.34484  0.090976586  0.092861024            3 
  539000    1.1370786   -2.9761785    588.22452  0.090943803  0.092853231            2 
  540000     1.152974   -2.9746971    586.82083  0.090558769  0.092846517            1 
  541000    1.1729663   -2.9573197     590.8063  0.091005283  0.092840584            2 
  542000    1.1423415   -2.9653253    589.84272  0.090689225  0.092834383            1 
  543000    1.1796817   -2.9556275    593.98861  0.091158473  0.092827229            1 
  544000    1.1602816   -2.9703826    592.44451  0.090754367  0.092818498            2 
  545000    1.1743041   -2.9758391    590.07103  0.090224929  0.092811834            4 
  546000    1.1949358   -2.9671904     595.0591  0.090820985  0.092802249            3 
  547000    1.1682155   -2.9286289    596.87985  0.090932335  0.092795507            2 
  548000     1.163673   -2.9766193    597.18274  0.090812461    0.0927877            1 
  549000    1.2023254   -2.9385033    598.37844  0.090828543   0.09277853            2 
  550000    1.1888059   -2.9545153    599.31805  0.090805765  0.092768456            1 
  551000    1.1353639   -2.9688696    600.56857  0.090830092  0.092756791            2 
  552000    1.1548355   -2.9606869     597.9203  0.090265745  0.092745728            2 
  553000    1.1574637   -2.9693292     599.7262  0.090374653  0.092735781            1 
  554000    1.1756295   -2.9580769    600.95966   0.09039706   0.09272506            1 
  555000    1.1638836   -2.9479348    602.51175   0.09046723   0.09271506            2 
  556000    1.2025873   -2.9841848    604.05093  0.090535211  0.092705027            2 
  557000      1.17721   -2.9388611    605.45124  0.090582172  0.092693922            3 
  558000    1.1514219    -2.971362    606.44545  0.090568316  0.092684102            1 
  559000    1.1205633   -3.0037982    605.83153  0.090314777  0.092673009            3 
  560000    1.1360666   -2.9778508    611.44849  0.090989358  0.092660945            2 
  561000    1.1541036   -2.9725537    607.25921  0.090204873  0.092652103            2 
  562000    1.1826694   -2.9551605    609.70147  0.090406505  0.092642264            2 
  563000    1.1410458   -2.9935759     609.5411  0.090222187  0.092632386            2 
  564000    1.1744296    -2.930387    614.15362  0.090743737   0.09262238            1 
  565000    1.1584797   -2.9684472    615.45697  0.090775364  0.092613787            2 
  566000    1.1546504    -2.962368     616.1775  0.090721069  0.092606437            2 
  567000    1.1745957   -3.0155693    617.22605  0.090715175  0.092598811            3 
  568000    1.1720771   -2.9595339    619.32677  0.090863669  0.092590937            1 
  569000    1.1474465   -2.9631045    618.25156  0.090546508   0.09258243            1 
  570000    1.1526625   -2.9648289    620.19432  0.090671684  0.092574483            3 
  571000    1.1588917   -2.9702579    620.84374  0.090607667  0.092567044            3 
  572000    1.1421483    -2.973404    619.75885  0.090291207  0.092557788            2 
  573000    1.1203619   -2.9732893    620.18568  0.090195707  0.092546887            2 
  574000    1.1616282   -2.9901205    621.43226   0.09021955  0.092535334            2 
  575000    1.1562963   -2.9551042    624.65829  0.090530187  0.092522401            2 
  576000    1.1643346   -2.9962454    623.38156  0.090188304   0.09250971            1 
  577000     1.150815   -2.9933729    624.02998  0.090125647  0.092495609            2 
  578000    1.1600225   -2.9426026    626.92331  0.090386867  0.092482086            2 
  579000    1.1638928   -2.9869749    626.53504  0.090174877  0.092467773            3 
  580000    1.1680233   -2.9970412    626.87895  0.090068815  0.092453633            3 
  581000    1.1717014   -2.9881514    626.84321  0.089908664  0.092438549            1 
  582000    1.1648412   -2.9374863    629.24278  0.090097764   0.09242478            2 
  583000    1.1172974   -2.9494649    631.87397  0.090319321  0.092411388            3 
  584000    1.1566008   -2.9484517    635.85823  0.090733195  0.092398088            1 
  585000    1.1594773   -2.9851025    632.03073  0.090032867  0.092384981            1 
  586000    1.1478829   -2.9658595     630.9345  0.089723336  0.092371802            1 
  587000    1.1364818   -2.9741204    634.05771  0.090013871  0.092357251            2 
  588000    1.1848392   -2.9725467     636.3237  0.090181931  0.092343802            1 
  589000    1.1685212   -2.9463314    633.53264  0.089633933  0.092328353            2 
  590000    1.1791714   -2.9810403    633.82894  0.089523861  0.092312648            3 
  591000    1.1555557   -2.9754619    636.60318  0.089763562   0.09229752            1 
  592000    1.1600308   -2.9708922    633.55258  0.089182514  0.092280683            3 
  593000    1.1495694   -2.9648962    635.17016  0.089259438  0.092263578            3 
  594000    1.1523924   -2.9603387    638.98179  0.089643909  0.092246691            4 
  595000     1.152085   -2.9846299    640.57091  0.089715814  0.092229317            4 
  596000    1.1538774   -2.9893807    640.36281  0.089536187  0.092210969            2 
  597000    1.1711822   -2.9947667    639.70451  0.089294321  0.092193283            3 
  598000    1.1448535   -2.9758334    640.79745  0.089297303   0.09217422            2 
  599000    1.1747791   -2.9656552    643.11698  0.089470921  0.092157894            1 
  600000    1.1629375   -2.9553591    641.43899  0.089088748  0.092140853            1 
  601000    1.1531098   -2.9886999    645.98653  0.089571067  0.092122714            2 
  602000     1.148339   -2.9926066    647.10497    0.0895771  0.092105349            1 
  603000    1.1713051   -2.9897905    647.83549  0.089529504  0.092089163            2 
  604000    1.1323548    -2.983567    650.43247  0.089739579  0.092072562            2 
  605000    1.1696705   -2.9820413    648.91065  0.089381632  0.092056235            2 
  606000    1.1542927   -2.9735889    651.20698  0.089549914  0.092038577            2 
  607000    1.1732882   -3.0084905    648.41694  0.089019349  0.092018828            2 
  608000    1.1559369   -2.9875653    651.04525  0.089233176   0.09199931            1 
  609000    1.1599305   -2.9635187    651.66167     0.089171  0.091979659            3 
  610000    1.1503977   -3.0005375    652.13043  0.089088856  0.091959963            2 
  611000     1.133159    -3.012827    653.50235  0.089130162   0.09194032            1 
  612000    1.1378998   -2.9951486    654.65474  0.089141441  0.091920337            1 
  613000    1.1244092   -2.9933184    655.17193  0.089066331  0.091902408            2 
  614000    1.1558724   -3.0308115    656.88529  0.089153812  0.091882071            2 
  615000    1.1524356   -2.9799898    656.22908   0.08891993  0.091863192            4 
  616000     1.170239   -2.9974943    657.59105  0.088959829  0.091845646            1 
  617000    1.1458915   -2.9528522    662.10767  0.089425671  0.091828452            4 
  618000    1.1283581    -2.959945    662.71926  0.089363438  0.091812346            4 
  619000    1.1814006   -2.9610482    663.95275   0.08938513  0.091795889            1 
  620000    1.1491348   -2.9879338    663.61952  0.089196173  0.091781611            1 
  621000    1.1417144   -2.9640379    668.80947   0.08974899  0.091766189            2 
  622000     1.139472    -3.010735    664.78536  0.089065563  0.091750495            1 
  623000     1.134524   -2.9983228    672.60069   0.08996799  0.091734861            1 
  624000    1.1635126   -3.0050415    669.27599  0.089379806  0.091719738            2 
  625000    1.1641988   -2.9870275    671.61253  0.089548338  0.091704324            2 
  626000    1.1490767   -3.0206723    670.48867   0.08925568  0.091689791            3 
  627000    1.1547794   -2.9705732    673.75428  0.089547352  0.091674081            2 
  628000    1.1527345   -2.9763459    676.04783  0.089709107  0.091659954            2 
  629000    1.1895565   -2.9778004    674.04855  0.089301609  0.091645879            1 
  630000    1.1577305   -2.9836849    675.39394  0.089337822  0.091629775            2 
  631000    1.1359112   -2.9803173    671.78747  0.088719951  0.091613741            2 
  632000    1.1500489   -2.9997171    676.43016  0.089191741   0.09159704            4 
  633000    1.1409668   -3.0075993    677.71824   0.08922041   0.09157978            1 
  634000    1.1465631   -2.9827314    676.07353  0.088863503  0.091564067            4 
  635000    1.1754944   -2.9767997    679.41463  0.089162025  0.091545434            1 
  636000    1.1513129   -2.9955077    681.40757  0.089282962  0.091529036            1 
  637000    1.1523854   -2.9928669    679.99827  0.088958434  0.091512942            1 
  638000    1.1436723   -2.9803685    680.47873  0.088881756  0.091495754            1 
  639000    1.1497114   -2.9764974    684.15992  0.089222733   0.09147884            1 
  640000    1.1713573    -3.012908      681.032  0.088676041  0.091461676            2 
  641000    1.1627585   -2.9953185    686.90575   0.08930132  0.091444635            2 
  642000    1.1413558   -3.0074929    683.10862  0.088669343  0.091427233            2 
  643000    1.1520534   -2.9712865    687.87109  0.089148664  0.091409944            3 
  644000     1.160485   -3.0009839    684.80037  0.088612885  0.091392671            1 
  645000    1.1423263   -2.9712424    689.85824  0.089128971  0.091375186            1 
  646000    1.1587272   -3.0002363    689.59824  0.088957462   0.09135863            2 
  647000     1.179555   -3.0245105    691.29734  0.089038812  0.091342278            3 
  648000    1.1363769   -2.9800469    690.45564  0.088793164  0.091327585            2 
  649000     1.184944   -2.9476327    693.06101  0.088990885  0.091313223            2 
  650000    1.1562622   -2.9642349    701.57989   0.08994614  0.091299228            1 
  651000    1.1320909   -3.0379369    695.02082  0.088968359  0.091284396            3 
  652000    1.1600145   -2.9705351    696.13177  0.088973897  0.091270254            3 
  653000    1.1454178   -2.9622451     697.7984  0.089050331  0.091254978            3 
  654000     1.140441   -2.9849057    697.93066  0.088931021  0.091240149            2 
  655000    1.1168082   -2.9970384    699.70395  0.089020858  0.091225722            1 
  656000    1.1500309   -2.9847436    702.70901  0.089266897  0.091211345            2 
  657000    1.2055024   -3.0072972    700.80951  0.088890095  0.091197932            1 
  658000    1.1279412   -3.0036906    706.20421  0.089438223  0.091186277            1 
  659000    1.1724999   -2.9707702    705.42529  0.089204007    0.0911736            1 
  660000    1.1213079   -2.9856598    707.60247  0.089343746  0.091160037            2 
  661000    1.1653734   -2.9963699    706.50126   0.08906975  0.091146478            3 
  662000    1.1577305   -3.0043852     707.1294  0.089014275  0.091131193            5 
  663000     1.185891   -2.9939469    707.53569  0.088931082  0.091117101            3 
  664000    1.1355258   -2.9604699    710.82749  0.089210278  0.091103872            1 
  665000    1.1625219   -2.9931079    710.82135  0.089075357  0.091090206            3 
  666000     1.157329   -2.9902831    712.08135  0.089099268  0.091075461            2 
  667000    1.1334866   -2.9679531    713.49168  0.089141889  0.091060699            3 
  668000    1.1356043   -2.9955715    714.77817  0.089168933  0.091046245            2 
  669000    1.1228313   -2.9970952     713.5899   0.08888763  0.091032504            1 
  670000     1.122805   -2.9922455    715.99458  0.089054053  0.091020234            2 
  671000    1.1432477   -2.9908177    717.46309  0.089103712  0.091006888            2 
  672000    1.1542556   -2.9899322    718.54592  0.089105397  0.090993813            3 
  673000     1.154668    -3.007279     717.8287  0.088884187  0.090980814            2 
  674000    1.1609735   -2.9919712    722.63312  0.089346331  0.090967774            2 
  675000    1.1253524   -3.0049739    720.37854  0.088935622  0.090953965            1 
  676000    1.1708117   -2.9711887    722.80435    0.0891031  0.090941606            1 
  677000    1.1556241   -3.0009627    722.65117   0.08895263  0.090929421            2 
  678000    1.1345751   -3.0039995    722.09047  0.088752516  0.090916645            1 
  679000    1.1486855   -3.0128687    724.68362  0.088940061  0.090902002            1 
  680000    1.1455244     -2.98836    724.21853  0.088752271  0.090888236            1 
  681000    1.1372854   -2.9670659    726.23856  0.088869133  0.090874305            2 
  682000    1.1264216   -2.9965455    731.02589  0.089323789  0.090861138            1 
  683000    1.1369048    -3.006529    730.22177  0.089094896  0.090848043            2 
  684000    1.1141438   -3.0024458    726.48595  0.088509497  0.090832313            4 
  685000    1.1583217   -3.0075989    731.79724  0.089026428  0.090818661            5 
  686000    1.1508846   -2.9896301    734.83494  0.089265663  0.090804517            3 
  687000    1.0995528   -2.9935773    736.27162  0.089309997  0.090791842            3 
  688000    1.1310049   -3.0265324    732.93931  0.088776563  0.090778946            4 
  689000    1.1186286   -2.9652635    733.45378   0.08870994  0.090764206            3 
  690000    1.1292781   -2.9940154    736.73511  0.088977671  0.090750404            2 
  691000     1.132017   -2.9776298    739.03099  0.089125783  0.090736645            1 
  692000    1.1387265   -2.9798371      739.647   0.08907117  0.090723624            3 
  693000    1.1691293   -2.9847381    739.03827  0.088869441  0.090709935            1 
  694000     1.132972   -2.9901204     738.4499  0.088670738  0.090694934            1 
  695000    1.1393764   -3.0207616    738.39033  0.088536011  0.090680226            2 
  696000    1.1423519   -2.9997149    742.36648  0.088884876  0.090666844            5 
  697000    1.1468243   -3.0178042    737.19236  0.088138733  0.090652089            1 
  698000    1.1365169   -2.9676115    742.61227  0.088659536   0.09063746            2 
  699000    1.1344579   -3.0042284     740.8274   0.08831991  0.090623336            2 
  700000    1.1667511   -2.9892452    740.62184  0.088169267  0.090608382            2 
  701000    1.1514397   -2.9775319    747.03923  0.088806375  0.090593595            1 
  702000    1.1486269   -3.0274646    744.15966  0.088338041  0.090577572            3 
  703000     1.141579   -2.9791541    745.12374  0.088326664  0.090559807            2 
  704000    1.1412076   -2.9805003    748.89565  0.088647685   0.09054298            2 
  705000    1.1036546   -2.9840618    748.35843  0.088458443  0.090526235            3 
  706000    1.1484573   -3.0237712    748.15335  0.088308941  0.090510086            2 
  707000    1.1352847   -2.9918756    745.66369  0.087890581  0.090493028            3 
  708000    1.1444695   -2.9916026    751.53437  0.088457435  0.090476039            4 
  709000    1.1248038   -2.9655439    749.23678  0.088062621  0.090458597            3 
  710000    1.1195241   -2.9777484     750.3644  0.088070939  0.090442619            2 
  711000    1.1491934   -3.0035865    752.75928  0.088227764  0.090425522            2 
  712000     1.157955   -2.9983005    750.94798  0.087891851  0.090408621            1 
  713000    1.1399344    -3.014968    749.48698  0.087597824  0.090391391            1 
  714000    1.1649364   -2.9967352    756.16459  0.088254504  0.090373409            1 
  715000    1.1102748   -2.9932247    756.78425  0.088203293  0.090356496            3 
  716000    1.1478667   -2.9877836    757.92242  0.088212572  0.090341006            1 
  717000    1.1392029   -3.0391823     756.1284  0.087881032  0.090324034            1 
  718000     1.133336   -2.9872219    755.60639  0.087698049  0.090307612            2 
  719000    1.1727532   -2.9935105    761.38088   0.08824535  0.090290738            2 
  720000    1.1360655   -2.9872069    759.45899  0.087900346  0.090274065            2 
  721000    1.1503835   -2.9673752    761.47039  0.088010909  0.090257155            4 
  722000    1.1314726   -2.9795867    765.10593  0.088308626  0.090240035            1 
  723000    1.1675336   -3.0042652     762.4607  0.087881593  0.090222278            4 
  724000    1.1647961   -3.0158075     761.9087  0.087696673  0.090203072            2 
  725000    1.1401113   -3.0028624     763.9213  0.087807045    0.0901848            4 
  726000    1.1346373   -3.0217079    764.13292  0.087710391  0.090166745            1 
  727000    1.1474261   -3.0009941    763.33727   0.08749854  0.090147816            1 
  728000    1.1498117   -3.0003426    766.96337  0.087793426  0.090128766            1 
  729000    1.1889285   -3.0006394     769.8526  0.088003269   0.09011012            1 
  730000    1.1466348    -3.003183    768.91843  0.087776076  0.090091053            3 
  731000    1.1400844   -2.9885491    768.39458  0.087596282  0.090072292            1 
  732000    1.1236838    -2.994288    772.78844  0.087976825  0.090054746            3 
  733000    1.1258524   -3.0023681    773.48835  0.087936375  0.090038102            3 
  734000    1.1238615   -3.0114887    772.80995  0.087739549  0.090019325            2 
  735000    1.1188363   -3.0017257     774.6584   0.08782975  0.090002207            2 
  736000    1.1174291   -2.9950957    774.97044  0.087745747  0.089985815            3 
  737000    1.1207919   -3.0107357    775.09376  0.087640633  0.089969117            2 
  738000    1.1555929   -3.0091295    778.97599  0.087960252  0.089952478            3 
  739000     1.128622   -2.9828192    779.14612   0.08786041  0.089934995            1 
  740000    1.1293202   -3.0163616    777.00241  0.087500272  0.089917462            1 
  741000    1.1269445   -2.9862528    779.91837  0.087710118   0.08989994            2 
  742000    1.1154794   -3.0340056    777.61297  0.087332993  0.089881657            2 
  743000    1.1142959   -2.9964313    780.58849   0.08754918  0.089863147            2 
  744000    1.1550507    -2.989012    780.03585  0.087369607  0.089845622            1 
  745000    1.1241785   -3.0068107    783.44679  0.087633869  0.089826734            1 
  746000    1.1366921   -2.9743119    782.15251  0.087371817  0.089807441            1 
  747000    1.1201497    -3.029846    783.22922  0.087374969  0.089789947            3 
  748000    1.1331352   -3.0239638    783.60925  0.087300495  0.089772163            4 
  749000    1.1443118   -2.9959592    785.64796  0.087410765  0.089754762            1 
  750000     1.091899    -3.023678    785.36975  0.087263305  0.089737339            2 
  751000      1.15051   -2.9977572    788.92389  0.087541488  0.089719877            2 
  752000    1.1604341   -3.0213043    794.05522  0.087993708  0.089703552            2 
  753000    1.1291978   -3.0170471      792.246  0.087676626  0.089686804            1 
  754000    1.0934347   -3.0135399    793.05711   0.08764999  0.089668533            2 
  755000    1.1207421   -3.0053153    793.13741  0.087542761  0.089651123            1 
  756000    1.1548601   -3.0170408    790.59746  0.087146986  0.089632645            3 
  757000    1.1100698   -3.0030471    794.76978  0.087491169  0.089614565            1 
  758000    1.1465951   -2.9698729    797.60429  0.087687367  0.089596497            2 
  759000    1.1263493   -3.0109321    794.03609  0.087180072  0.089578366            3 
  760000     1.130134   -3.0122936    796.66245  0.087353338  0.089559871            2 
  761000    1.1337895   -2.9753322     800.3267  0.087639805  0.089541775            2 
  762000    1.1517681   -2.9817257      797.151  0.087177493  0.089523883            2 
  763000    1.1330143   -3.0303973    799.44724  0.087314028  0.089505566            2 
  764000    1.1259075   -3.0231758     798.9139  0.087141569  0.089486813            1 
  765000    1.1278627   -2.9933994    802.66668  0.087436458  0.089467722            1 
  766000    1.1197088   -3.0508918    797.54497  0.086765118  0.089449185            4 
  767000    1.1657319   -3.0169711    800.05263   0.08692445  0.089430667            1 
  768000    1.1213092   -3.0075279    801.85164  0.087006471  0.089412798            2 
  769000      1.12469   -2.9895989    804.38799  0.087168183  0.089394166            1 
  770000    1.1166444    -2.991014    807.79595  0.087423804  0.089375703            1 
  771000    1.1084742   -2.9863795    807.71903    0.0873021  0.089357237            2 
  772000    1.1144869   -3.0204129    808.25963  0.087247369  0.089338645            3 
  773000    1.1454762   -3.0012943    810.91876  0.087421169  0.089319704            1 
  774000     1.135925   -3.0343738    810.23189  0.087234268  0.089300436            2 
  775000    1.1258323   -3.0029264    807.33141  0.086809829  0.089282108            2 
  776000    1.1222377   -3.0118276    811.01791  0.087093848  0.089263412            1 
  777000    1.1259822    -3.021099    816.26384  0.087544384  0.089245612            2 
  778000    1.1299375   -3.0359915    808.10781  0.086558249    0.0892276            2 
  779000    1.1321508   -3.0309104    813.19111  0.086990919  0.089209554            2 
  780000    1.1431035   -3.0035719    813.57866  0.086920797  0.089191615            1 
  781000    1.1225842   -3.0077657    818.56912  0.087341988  0.089174116            2 
  782000    1.1250117   -3.0371538    818.13183  0.087183699  0.089157317            4 
  783000    1.1319215   -3.0033622    821.56549  0.087437792    0.0891408            3 
  784000    1.1256966   -2.9987382    823.24164  0.087504426  0.089125746            2 
  785000    1.1005224   -2.9876135    822.79732  0.087345788  0.089110184            2 
  786000     1.157409   -3.0242455    825.30022  0.087500023   0.08909555            3 
  787000    1.1092615   -3.0231781    823.82212  0.087232329  0.089079501            1 
  788000    1.1325523   -3.0231435    823.67097  0.087105644  0.089063781            2 
  789000    1.1061873   -3.0098917    829.04562  0.087562909  0.089048456            2 
  790000    1.1031458   -3.0022317    827.79452  0.087320097  0.089033191            3 
  791000    1.1566441   -3.0611526    826.08777  0.087029895  0.089017211            1 
  792000    1.1080716    -3.006474    831.73379  0.087514077  0.089002054            3 
  793000    1.1214225   -3.0222208    831.40634  0.087369308  0.088986965            2 
  794000    1.1349892   -3.0064389    833.52336  0.087481461  0.088971418            1 
  795000    1.1450259   -3.0396225    832.48291   0.08726236  0.088955403            3 
  796000    1.1341807   -3.0087989    832.55527  0.087160308  0.088939269            3 
  797000    1.1027184   -2.9986224    835.85686  0.087396159  0.088923339            2 
  798000    1.1352163   -3.0070023    831.44458  0.086825875  0.088907023            1 
  799000    1.1242314   -2.9920027    835.31929  0.087121328  0.088891277            1 
  800000    1.1280353   -3.0223659     837.4767  0.087237157    0.0888759            1 
  801000    1.1426498   -3.0332844    835.67456  0.086940757  0.088859926            1 
  802000    1.1367774   -2.9817892    839.02612  0.087180603  0.088845452            1 
  803000    1.1353233    -3.014511    834.18777  0.086569923  0.088830259            3 
  804000    1.1298808   -3.0247915    839.29304  0.086991401  0.088815432            2 
  805000    1.1300479   -3.0018632    841.21118  0.087081903  0.088799391            1 
  806000    1.1096981   -3.0283034     840.7463  0.086925796  0.088784201            1 
  807000    1.1349743   -3.0346473    839.70534  0.086710588  0.088768493            1 
  808000    1.1218307   -3.0134163    842.46252  0.086887637  0.088753513            2 
  809000    1.1166663   -3.0428977    842.20425  0.086753631  0.088739232            1 
  810000    1.1217254   -3.0422246    846.38986  0.087077146  0.088724682            1 
  811000    1.1222812   -3.0302634    848.38312  0.087174591  0.088710683            2 
  812000    1.1387388   -3.0449513    849.96546  0.087229624  0.088697065            2 
  813000    1.1210822   -3.0190819    850.78387  0.087206219  0.088684148            4 
  814000    1.1070568   -3.0294723    854.33521  0.087462655  0.088670327            1 
  815000    1.1419945   -3.0022011    855.34695  0.087458788   0.08865748            2 
  816000    1.1214052   -3.0389567    856.42037  0.087461231  0.088643869            2 
  817000     1.079504   -3.0216896    853.49535   0.08705583  0.088629459            1 
  818000    1.1669365   -3.0109174    855.79851  0.087184037  0.088614846            3 
  819000    1.1240961   -2.9854645    855.39529  0.087036558  0.088599301            3 
  820000    1.1287365   -3.0286192     858.4969   0.08724562  0.088584345            1 
  821000    1.1320537   -3.0152579    855.15927  0.086800575  0.088568533            3 
  822000    1.1567074   -3.0017924     855.5576  0.086735361   0.08855171            1 
  823000    1.0952301   -3.0328066    854.19293  0.086491791  0.088534692            1 
  824000    1.1266855   -3.0244082    856.06505  0.086576158  0.088518701            1 
  825000    1.1055247    -3.069313    855.15619  0.086379413  0.088501948            1 
  826000    1.0835558   -3.0282292    856.57082  0.086417557  0.088484985            4 
  827000    1.1211634   -3.0189971    859.45723  0.086603913  0.088467871            3 
  828000    1.1210246   -3.0096107    861.14193  0.086668874  0.088450847            2 
  829000    1.1073024   -3.0277621    858.62348  0.086311166    0.0884342            1 
  830000    1.1262547   -3.0376025    859.69813  0.086315073     0.088418            1 
  831000     1.137785   -3.0293468    864.08471  0.086651094  0.088402328            5 
  832000    1.1194019   -3.0060559    863.85174  0.086523612  0.088387387            1 
  833000    1.1327535   -3.0505145    865.92174  0.086626825  0.088373101            1 
  834000    1.1086367   -3.0443754     866.1146  0.086542226  0.088358777            2 
  835000     1.103456    -2.994559     871.6409  0.086990109  0.088343641            2 
  836000    1.0933966    -3.026743    875.70147  0.087290817  0.088328516            2 
  837000    1.1442399    -3.031898     871.9595  0.086813969  0.088313946            3 
  838000    1.1309042   -3.0170876    872.28859  0.086743098  0.088299122            1 
  839000    1.1250949   -3.0711622    872.24345  0.086635225  0.088284708            3 
  840000    1.0894295   -3.0162422    873.54872  0.086661579  0.088269778            3 
  841000    1.1033081   -3.0290819    878.04222  0.087003787  0.088255431            2 
  842000    1.1074767   -3.0544108    872.27211  0.086329386  0.088240822            1 
  843000    1.1176585   -3.0347791    880.01731  0.086992617  0.088227559            3 
  844000    1.1278204   -3.0566732    878.98272  0.086787393  0.088215164            2 
  845000    1.1081424   -3.0179806    881.41929  0.086924979  0.088202411            1 
  846000    1.1094328   -3.0203052     883.5644  0.087033531  0.088190333            1 
  847000    1.0992391   -3.0127317    879.91549  0.086571772  0.088177689            1 
  848000    1.1196714   -3.0087797     883.1717  0.086789672  0.088164973            2 
  849000    1.1453698   -3.0316469    882.31888  0.086603738  0.088151843            1 
  850000    1.1281373   -3.0350832    883.50943  0.086618571   0.08813846            2 
  851000    1.1311269   -3.0324544    881.72899  0.086342439  0.088123976            1 
  852000    1.0816497   -3.0118823    888.04189  0.086858557  0.088109328            2 
  853000    1.1228318    -3.018117    884.17646    0.0863791  0.088095017            6 
  854000    1.0947533   -2.9931932    893.10525  0.087149224  0.088081565            1 
  855000    1.1156601   -3.0273362    887.71211  0.086521648  0.088067372            2 
  856000     1.111703    -3.029036    891.52599   0.08679186   0.08805538            3 
  857000    1.1311597    -3.009649    892.86463  0.086820754  0.088041497            2 
  858000    1.1060192    -3.040435     889.6182  0.086404254  0.088028279            1 
  859000    1.0900048   -3.0270502    893.15507  0.086646786  0.088014961            3 
  860000    1.0894125   -3.0421387    893.09879   0.08654058  0.088001475            4 
  861000    1.1090343   -3.0083736     899.4993  0.087059552   0.08798852            2 
  862000    1.0906696   -3.0199193    899.45879  0.086954639  0.087976335            2 
  863000    1.1179413   -3.0076365     899.0331  0.086812775   0.08796428            1 
  864000    1.1291269   -3.0540999    895.65869  0.086386834  0.087951688            3 
  865000    1.1237945   -3.0471419    897.77592  0.086490937  0.087939082            4 
  866000    1.1055079   -3.0180802    899.90486  0.086595925  0.087927278            2 
  867000    1.1140298   -3.0031154    905.00033  0.086985806  0.087916075            2 
  868000    1.0867159   -3.0337915    906.78893  0.087057308  0.087905315            1 
  869000    1.1297765   -3.0414347    904.89704  0.086775704   0.08789262            5 
  870000    1.1075121   -3.0217837     905.1242   0.08669772  0.087880033            1 
  871000    1.1240409   -3.0404531     903.4224  0.086435361  0.087866868            3 
  872000    1.1204443   -3.0363767    904.67258  0.086455712  0.087853818            3 
  873000    1.1175726   -3.0617602    903.22381  0.086218386  0.087840404            2 
  874000      1.09123   -3.0332637     906.0954  0.086393535  0.087826098            1 
  875000    1.1085412   -3.0035965    907.98033  0.086474317  0.087811776            3 
  876000     1.132287   -3.0211677    908.48347  0.086423465  0.087798063            3 
  877000     1.097527   -3.0368181    910.34629  0.086501928  0.087784578            1 
  878000    1.1094472   -3.0159894    910.79025  0.086445544  0.087769973            4 
  879000    1.1040584   -3.0527012    909.51276  0.086226087  0.087755714            3 
  880000    1.1149741   -3.0415519    912.51751  0.086412643  0.087741438            1 
  881000      1.12509   -3.0387265     910.2677   0.08610175  0.087727295            2 
  882000    1.1201036   -3.0308721    911.49598  0.086120179  0.087713168            3 
  883000    1.1085073   -3.0649499    910.61296  0.085939313   0.08769899            2 
  884000    1.1045218   -3.0273487    917.10286  0.086453889  0.087685083            8 
  885000    1.1115259   -3.0389211    920.58473  0.086684061  0.087672115            3 
  886000    1.0829857   -3.0084644    918.28876  0.086370274   0.08765844            1 
  887000    1.1244318   -3.0360526    918.90397    0.0863307  0.087644549            2 
  888000    1.1288014   -3.0531047     915.4113  0.085905715  0.087630109            4 
  889000     1.106442   -3.0583122    916.81591  0.085940749  0.087615839            2 
  890000    1.1280689   -3.0231654    927.32377  0.086828068  0.087602372            1 
  891000    1.1027699   -3.0026463    923.91271  0.086411589  0.087588838            2 
  892000    1.1323315   -3.0502948    924.21002  0.086342491  0.087576336            1 
  893000    1.0897386   -3.0580276    927.92312  0.086592303  0.087563356            1 
  894000    1.1302206   -3.0325407    929.00759  0.086596532  0.087551577            2 
  895000    1.0921731   -3.0582256    930.44412  0.086633531  0.087540215            1 
  896000    1.1215139   -3.0514741    928.35445  0.086342489  0.087528339            2 
  897000    1.1264979   -3.0530062    929.05249  0.086311082  0.087516682            3 
  898000    1.1110668   -3.0435461    931.16127  0.086410659  0.087506287            1 
  899000     1.102577   -3.0325123    932.26902  0.086417225  0.087495326            1 
  900000    1.1032676    -3.035187    932.85799   0.08637574  0.087484579            2 
  901000    1.0785522   -3.0649454     932.2591  0.086224482  0.087472593            2 
  902000    1.1289587   -3.0444257    936.40485  0.086511904   0.08746078            2 
  903000    1.0924611   -3.0420921    936.00456  0.086379158  0.087449848            2 
  904000    1.0911562   -3.0247855    940.18539  0.086669007  0.087438431            4 
  905000    1.0761999   -3.0366862    939.15282   0.08647816  0.087426862            2 
  906000    1.1090019   -3.0206802    939.34979  0.086400827  0.087415402            1 
  907000    1.1315345   -3.0294893    941.33833   0.08648827  0.087404226            1 
  908000    1.1064789   -3.0412459    939.35206  0.086210725  0.087392137            2 
  909000    1.0992743   -3.0292626    942.18269  0.086375384  0.087380948            2 
  910000    1.1002229   -3.0371656    941.10834  0.086182082  0.087369606            2 
  911000    1.0997688   -3.0649347    942.43278  0.086208633  0.087357583            3 
  912000    1.1043712   -3.0256608    941.08644  0.085991085  0.087345829            1 
  913000    1.1252141   -3.0291369    946.28398  0.086371302  0.087334023            1 
  914000    1.0935988   -3.0584324    949.12275  0.086535626  0.087321641            7 
  915000    1.0885029   -3.0461604     947.8263  0.086322978  0.087309869            1 
  916000    1.1233281   -3.0378341    948.10227  0.086253846  0.087297659            3 
  917000    1.1325232   -3.0378636    946.96281  0.086056235  0.087285635            2 
  918000    1.0802656   -3.0203067    949.98966   0.08623726  0.087274204            3 
  919000    1.0911717   -3.0546557    948.32731  0.085992683  0.087262226            2 
  920000    1.1006798   -3.0633641    949.24162   0.08598203  0.087250172            1 
  921000    1.1049948   -3.0321698    946.19554   0.08561306  0.087238387            1 
  922000    1.0798271   -3.0341134    953.87531  0.086214327  0.087226872            4 
  923000    1.1181671   -3.0097734      954.026  0.086134525  0.087214905            2 
  924000    1.1011001   -3.0543152    959.72592  0.086555368   0.08720365            3 
  925000    1.1134329   -3.0726387    955.80157   0.08610825  0.087193122            2 
  926000     1.102266   -3.0376292    961.38452  0.086517685  0.087181473            1 
  927000    1.0917701   -3.0743313    955.64405  0.085908311  0.087170124            2 
  928000    1.1035002   -3.0498479    960.09571  0.086215491  0.087158066            2 
  929000    1.0927511   -3.0523772    961.51419  0.086249928  0.087146531            2 
  930000     1.102399   -3.0372439    961.40238  0.086147166  0.087135239            3 
  931000      1.09065   -3.0372638    961.12753  0.086030033  0.087124195            2 
  932000    1.1108777     -3.03627    964.11104  0.086204492  0.087112842            2 
  933000    1.0935615   -3.0235586    965.77629  0.086260833  0.087101455            2 
  934000    1.1216727   -3.0418534    963.84171  0.085995869  0.087089232            1 
  935000    1.1004969   -3.0323027    970.54284  0.086501144  0.087076863            2 
  936000    1.1096928   -3.0452419    968.08423  0.086189835   0.08706548            1 
  937000    1.1147987   -3.0560188    968.39034  0.086125075  0.087053599            2 
  938000    1.1015852    -3.010335    972.27569  0.086378437  0.087041878            1 
  939000    1.1191304   -3.0497105    970.65527   0.08614264  0.087030133            1 
  940000    1.1059908   -3.0753149    973.13503  0.086270836  0.087018066            2 
  941000      1.09887    -3.051422    967.71008  0.085698732  0.087004765            1 
  942000    1.0972764   -3.0510421    972.03503   0.08599036   0.08699145            2 
  943000     1.091874   -3.0369152    970.10702  0.085728793  0.086978598            3 
  944000    1.1205045   -3.0380896    971.48458  0.085759585  0.086964715            2 
  945000    1.1087297   -3.0382509    973.61346  0.085856566   0.08695104            1 
  946000    1.1011356   -3.0348005    972.16938  0.085638599  0.086937215            2 
  947000    1.1146102   -3.0565938    971.90903  0.085525258  0.086923166            6 
  948000     1.090843   -3.0501246    974.23294  0.085639323  0.086909737            3 
  949000    1.1010763   -3.0614457    974.99255  0.085615784   0.08689569            2 
  950000    1.0944988   -3.0579911    974.17908  0.085454305  0.086881445            3 
  951000    1.0955848   -3.0244385    979.96945  0.085871841  0.086867211            1 
  952000    1.1041125   -3.0298753    975.07801  0.085353467  0.086853206            2 
  953000    1.0879985   -3.0038312    977.84703  0.085506036  0.086839371            1 
  954000    1.1241196   -3.0462908    978.19213  0.085446552  0.086825634            2 
  955000    1.0961995   -3.0411015    979.65548  0.085484772   0.08681114            1 
  956000    1.0926202   -3.0650044    979.99716  0.085425136  0.086796885            1 
  957000    1.1019973   -3.0606498    980.71958  0.085398779  0.086783259            2 
  958000    1.1245705    -3.045166     984.0252  0.085597182  0.086769223            1 
  959000     1.105393   -3.0349637    984.89339  0.085583367  0.086754304            4 
  960000    1.0998291   -3.0628814    983.29363   0.08535535   0.08673956            3 
  961000    1.1071221   -3.0606168    982.15179  0.085167516  0.086725502            2 
  962000     1.099913   -3.0359327    986.38413  0.085445611  0.086710964            2 
  963000    1.0801145   -3.0656173    987.94495  0.085491948  0.086696377            2 
  964000    1.0903712   -3.0609672    988.27831  0.085432081  0.086682029            2 
  965000    1.1121482   -3.0554576    986.72279  0.085209222  0.086667326            1 
  966000    1.0904229   -3.0545767     987.5387  0.085191399   0.08665222            1 
  967000    1.1178235   -3.0644881    990.76828  0.085381617  0.086637282            3 
  968000     1.092854   -3.0631945    988.71642  0.085116772   0.08662274            2 
  969000    1.1029291   -3.0369981    988.95305  0.085049282  0.086609059            2 
  970000     1.083564   -3.0481581    988.27672  0.084903499  0.086594092            1 
  971000    1.0926708   -3.0513508    993.86053  0.085295274  0.086579126            4 
  972000     1.104164   -3.0655504    993.28568  0.085158237  0.086564517            3 
  973000    1.0865727   -3.0328327    998.13433  0.085485982  0.086549953            1 
  974000    1.0991147   -3.0427891    997.81628  0.085371002  0.086534496            1 
  975000    1.1068579   -3.0401703    997.06479  0.085219213  0.086520494            3 
  976000    1.1108439   -3.0869626    993.82279  0.084855088  0.086506164            2 
  977000    1.0844991   -3.0674767    998.62054   0.08517746  0.086491884            1 
  978000    1.0906528   -3.0499021    995.70536   0.08484197  0.086477569            3 
  979000    1.0910997   -3.0390433     1001.166  0.085220119  0.086463347            3 
  980000    1.1014101   -3.0522053    1003.4593   0.08532817  0.086448638            1 
  981000    1.0892069   -3.0492302    1004.3474  0.085316635  0.086433964            1 
  982000    1.1063845    -3.072098    997.71942  0.084667296  0.086419031            1 
  983000    1.1016218   -3.0466888    997.75631  0.084584292  0.086404455            2 
  984000    1.0874961   -3.0485453    1000.2817  0.084712205  0.086389379            3 
  985000    1.0937493   -3.0823569    1000.6503  0.084657384  0.086374551            3 
  986000    1.0948173   -3.0678035    1002.7687  0.084750564  0.086359395            3 
  987000    1.1052964    -3.055279    1003.7962  0.084751455   0.08634384            4 
  988000    1.1032206   -3.0473813    1009.6531  0.085159672  0.086328452            2 
  989000    1.1051408   -3.0617138    1001.4734  0.084384341  0.086312999            2 
  990000    1.0901269   -3.0657522    1005.7145  0.084656101  0.086296924            4 
  991000    1.0842953   -3.0459531    1006.3724  0.084626002  0.086280769            4 
  992000    1.1174705   -3.0830554    1003.5496  0.084303566   0.08626518            2 
  993000    1.0875745   -3.0442581    1011.6678   0.08489995  0.086248724            2 
  994000    1.0961509   -3.0756889    1011.1153  0.084768215  0.086233355            2 
  995000    1.0677517    -3.053669    1012.5575  0.084803812  0.086216336            3 
  996000    1.0661399   -3.0217502    1014.0287   0.08484176  0.086200469            1 
  997000    1.1189346   -3.0575861    1010.5822  0.084468591  0.086183961            3 
  998000    1.0884849   -3.0799933    1014.7289  0.084730202  0.086167655            2 
  999000    1.0945699   -3.0807076    1011.0413  0.084337778  0.086151505            3 
 1000000    1.1102426   -3.0630726     1016.968  0.084747335   0.08613585            2 
 1001000    1.0961269   -3.0700077     1018.086  0.084755747  0.086119691            3 
 1002000    1.0779207   -3.0220587    1017.6736  0.084636859  0.086103864            3 
 1003000    1.0827677   -3.0358412     1017.684  0.084553344   0.08608833            1 
 1004000    1.0884749   -3.0556716    1019.4762  0.084617882  0.086072647            1 
 1005000    1.0833581   -3.0537834    1021.7783  0.084724571   0.08605657            5 
 1006000    1.0832738   -3.0588488    1020.7535  0.084555457  0.086039626            2 
 1007000    1.0849096    -3.058747    1016.9728  0.084158621  0.086023003            1 
 1008000    1.0869753     -3.03652    1021.1898  0.084423761  0.086007438            3 
 1009000    1.0955017   -3.0853799    1018.2159  0.084094477  0.085991558            1 
 1010000    1.0881853   -3.0413639    1024.6498   0.08454206   0.08597499            1 
 1011000    1.0916209   -3.1116116    1021.8906  0.084231007   0.08595922            1 
 1012000     1.090689   -3.0456028    1021.2982  0.084098994  0.085943232            4 
 1013000    1.0793257   -3.0407251    1030.2431  0.084751819   0.08592783            3 
 1014000    1.0883714   -3.0890335    1027.1098  0.084410733   0.08591234            3 
 1015000     1.098591   -3.0620573    1028.7131  0.084459205  0.085896465            3 
 1016000    1.1077961   -3.0480966    1034.7852  0.084874112  0.085880991            1 
 1017000    1.1011708   -3.0592185    1030.1808  0.084413374  0.085865158            5 
 1018000    1.0752272   -3.0537594    1030.3504  0.084344338  0.085849325            1 
 1019000    1.0719417    -3.040798    1032.4905  0.084436579  0.085833719            3 
 1020000    1.0887533   -3.0748809    1032.1685  0.084327489  0.085817968            2 
 1021000    1.0948132   -3.0860204    1029.2867  0.084009689  0.085801495            2 
 1022000    1.1063282   -3.0484654    1032.1509  0.084161032  0.085785427            2 
 1023000    1.0752141   -3.1087326    1036.3133  0.084417833  0.085768901            2 
 1024000    1.1098759   -3.0713954    1032.3231   0.08401067  0.085753171            5 
 1025000    1.1006089   -3.0436554    1037.1801  0.084323586  0.085737364            2 
 1026000    1.0780207   -3.0765581    1035.2974  0.084088483  0.085721116            5 
 1027000    1.0804247   -3.0635726    1036.0107  0.084064488  0.085704818            1 
 1028000    1.0742982   -3.0529001    1035.5892  0.083948542  0.085688684            2 
 1029000    1.0880367   -3.0545819    1043.5877  0.084514716  0.085673419            1 
 1030000    1.0609091    -3.052542    1040.3277  0.084168905  0.085658073            2 
 1031000    1.0757385   -3.0204539    1045.0159  0.084466206  0.085643629            3 
 1032000    1.0897155   -3.0413281    1043.1865  0.084236635  0.085628727            2 
 1033000    1.0706333   -3.0642202    1043.1997  0.084156156  0.085613662            5 
 1034000    1.0901429    -3.061027    1047.1273    0.0843913  0.085598167            2 
 1035000    1.0571146    -3.067733    1047.7245  0.084357853  0.085582337            1 
 1036000    1.0798881   -3.0501046    1045.2783  0.084079658  0.085566074            2 
 1037000    1.0931281   -3.0551127    1045.2101  0.083993095  0.085549536            1 
 1038000    1.0979928    -3.071477    1046.9262  0.084049949  0.085533348            2 
 1039000    1.1097609   -3.0749305     1047.103  0.083983239  0.085517433            2 
 1040000    1.0734628   -3.0752317    1048.4706  0.084012063  0.085501752            2 
 1041000    1.0999794   -3.0695116    1047.3025  0.083837855  0.085486047            2 
 1042000    1.0916985   -3.0564042    1055.4074  0.084405581  0.085470256            2 
 1043000    1.0860667   -3.0485032    1050.7122  0.083949517  0.085455089            1 
 1044000    1.0895409   -3.0402531    1057.4341   0.08440566  0.085439723            2 
 1045000    1.0675532   -3.0865176    1051.7826  0.083874214  0.085423998            2 
 1046000    1.1097692   -3.0619892    1053.9283  0.083964969  0.085408616            3 
 1047000    1.0741098   -3.0250228    1056.5035  0.084089742  0.085392854            3 
 1048000    1.0726093   -3.0422739    1057.0896  0.084056104  0.085377599            1 
 1049000    1.0850367   -3.0829283    1055.5124  0.083850683  0.085362032            2 
 1050000    1.0728098    -3.070671    1058.3109  0.083992932  0.085346976            1 
 1051000      1.08599   -3.0777072    1058.8479  0.083955587  0.085331724            2 
 1052000    1.0939285   -3.0621258    1058.3549  0.083836733  0.085315873            5 
 1053000    1.0783568   -3.0835404     1060.528  0.083929089  0.085299697            2 
 1054000    1.0780338    -3.107819    1057.2576  0.083590889  0.085283852            2 
 1055000    1.0871326   -3.0764539    1058.3968  0.083601644  0.085267948            2 
 1056000    1.0733073   -3.0742669    1060.2856  0.083671526  0.085251178            2 
 1057000    1.0814542   -3.0843242    1058.8116  0.083476157  0.085234684            3 
 1058000    1.0926328   -3.0448549    1065.7693  0.083945281  0.085218146            1 
 1059000    1.0684488   -3.0791469    1060.1239  0.083421775  0.085202382            3 
 1060000    1.0795593   -3.0613358    1062.1798  0.083504703  0.085186234            2 
 1061000    1.1077215   -3.0614406    1065.0937  0.083654862  0.085170927            3 
 1062000    1.1103516   -3.0873696    1068.2596  0.083824511  0.085155425            3 
 1063000    1.0927725   -3.0867223    1072.1477  0.084050462  0.085139736            1 
 1064000    1.0702442   -3.0680409    1070.3465  0.083830397  0.085123807            2 
 1065000      1.08688    -3.054852    1070.3924  0.083755272  0.085108019            2 
 1066000    1.0781487   -3.0759607     1073.314  0.083905098   0.08509207            3 
 1067000    1.0837732   -3.0517024    1068.4689  0.083448057  0.085076806            2 
 1068000    1.0792662   -3.0749096     1070.789  0.083550952  0.085062028            1 
 1069000    1.0968252    -3.085267    1076.6898  0.083932784  0.085046998            3 
 1070000    1.0551023   -3.1056606    1073.7445  0.083624961  0.085032795            4 
 1071000    1.0851632   -3.0340523    1078.1625   0.08389064  0.085017335            2 
 1072000    1.0631126   -3.0727067      1077.86   0.08378887  0.085002644            2 
 1073000    1.0847996   -3.0870152    1079.4792  0.083836535  0.084987371            4 
 1074000    1.0987401   -3.0391072    1075.4565  0.083446344  0.084972338            2 
 1075000    1.0942368   -3.0964287    1077.0255  0.083490346  0.084957021            6 
 1076000    1.0777693   -3.0711159    1082.0034  0.083798279  0.084941729            1 
 1077000    1.0854043   -3.0544197    1081.3281  0.083668218  0.084926493            2 
 1078000    1.0827299   -3.0873025     1078.542  0.083375234  0.084910997            3 
 1079000    1.0660514   -3.0934014    1083.0649  0.083647271  0.084895296            2 
 1080000    1.0497042   -3.0681136     1083.574  0.083609108  0.084880542            2 
 1081000    1.0561603   -3.0559267    1086.5726  0.083762922   0.08486527            1 
 1082000    1.0880277   -3.0724332    1084.8795  0.083555103  0.084850381            3 
 1083000    1.0678488   -3.0355587    1087.9799  0.083716518  0.084835152            3 
 1084000    1.0594013   -3.0717414    1087.9037  0.083633433  0.084819826            2 
 1085000    1.0987207   -3.0832554    1077.3892  0.082748785  0.084804071            1 
 1086000    1.0701468   -3.0621203    1086.9149  0.083403539  0.084787945            1 
 1087000     1.102963   -3.0820157    1083.5584  0.083069488  0.084771174            1 
 1088000    1.0770063   -3.0607923    1090.3848  0.083515993  0.084755476            4 
 1089000    1.0765337   -3.0820102    1089.8914  0.083401543  0.084739954            2 
 1090000    1.0580086   -3.0636431    1089.9499  0.083329503  0.084724431            2 
 1091000    1.0591144    -3.055774    1093.6664  0.083537003  0.084709397            1 
 1092000    1.0890025   -3.0719566    1086.5707  0.082919012  0.084693898            1 
 1093000     1.082159   -3.0852498    1094.7896  0.083469779  0.084678691            5 
 1094000    1.0998681   -3.0812902    1094.7887  0.083393408  0.084663065            2 
 1095000    1.0852357   -3.0729181    1097.5215   0.08352523  0.084647361            2 
 1096000    1.0768223   -3.0813006     1095.107  0.083265431  0.084632246            5 
 1097000    1.0814225   -3.0735302    1096.8353  0.083320819   0.08461697            4 
 1098000    1.0739317   -3.0656625       1098.6  0.083378874  0.084601741            4 
 1099000      1.07956   -3.0560834    1102.0999  0.083568387  0.084586292            1 
 1100000    1.0682552   -3.0958907    1097.9178  0.083175594  0.084571379            4 
 1101000    1.0694738   -3.0539482    1105.4326   0.08366883  0.084557004            3 
 1102000    1.1099183   -3.0878795    1101.7507  0.083314478   0.08454284            5 
 1103000    1.0816645   -3.0456815    1105.5941  0.083529324   0.08452902            5 
 1104000    1.0877962   -3.0913798    1106.6773  0.083535427  0.084515797            2 
 1105000    1.0934078    -3.090306    1105.7121  0.083387034   0.08450166            2 
 1106000    1.0699818   -3.0565318    1109.7041  0.083612423  0.084487821            3 
 1107000    1.0674892   -3.0696451    1111.0641  0.083639275  0.084474118            4 
 1108000    1.0561541   -3.0831209    1106.6183  0.083229418  0.084460385            2 
 1109000    1.0777405   -3.0618398     1107.023  0.083184776  0.084447105            2 
 1110000    1.0656615   -3.0912469    1111.2689  0.083428597  0.084433285            2 
 1111000    1.0617522    -3.098232    1102.8079  0.082718867   0.08441905            2 
 1112000    1.0794246    -3.070344      1115.24  0.083576138  0.084405866            2 
 1113000    1.0705015   -3.0568441    1120.2999  0.083879899  0.084392678            4 
 1114000    1.0827203   -3.0662629    1115.4341  0.083440609  0.084379454            2 
 1115000    1.0573781   -3.0773395    1116.5893  0.083452114  0.084366181            1 
 1116000    1.0801827   -3.0567747    1121.7696   0.08376416  0.084352998            3 
 1117000    1.0736204   -3.0827425    1112.9308  0.083029755  0.084339918            3 
 1118000    1.0577762   -3.0682456    1120.1563  0.083494061  0.084326999            2 
 1119000    1.0701001   -3.0632037    1124.0068  0.083706194  0.084314304            3 
 1120000     1.090494   -3.0597875    1122.7014  0.083534328  0.084301021            2 
 1121000    1.0494049   -3.0910292    1122.9248   0.08347642  0.084287191            2 
 1122000    1.1114319   -3.0816714    1120.9869  0.083258091  0.084272851            3 
 1123000    1.0522526   -3.0740088    1122.2623  0.083278592  0.084258606            2 
 1124000    1.0625524   -3.1027916    1120.0823  0.083042875  0.084244745            3 
 1125000    1.0915504   -3.0820039    1121.5484  0.083077658  0.084231449            2 
 1126000    1.1054207    -3.076142    1123.9005  0.083177956  0.084217578            2 
 1127000    1.0579168   -3.0619864    1128.6287  0.083453767   0.08420304            1 
 1128000    1.0820782   -3.0656569    1123.8638   0.08302776  0.084188575            3 
 1129000    1.0642176   -3.0764902     1126.259  0.083131012  0.084173546            3 
 1130000    1.0615712   -3.0907542    1127.3391  0.083137101  0.084159117            1 
 1131000    1.0869628   -3.0606797    1127.3293  0.083062874  0.084144233            1 
 1132000    1.0862859   -3.0712441    1123.8946  0.082736644  0.084129467            2 
 1133000     1.080962   -3.0864283     1129.341   0.08306421  0.084113936            1 
 1134000    1.0439717   -3.1008354    1124.8202  0.082658742  0.084099003            3 
 1135000    1.0383235     -3.09982     1127.242  0.082763728  0.084084438            2 
 1136000    1.0777396   -3.0658189    1129.5025  0.082856696  0.084069129            5 
 1137000     1.049254   -3.1125373    1128.8495  0.082735963  0.084054019            1 
 1138000    1.0588113   -3.0642178    1126.4978  0.082491049  0.084038944            4 
 1139000    1.0752187   -3.0864785     1131.735  0.082801802  0.084023851            2 
 1140000    1.0638559   -3.0853864    1132.6109  0.082793197   0.08400885            2 
 1141000    1.0630293    -3.062499    1136.9417  0.083036937  0.083994153            4 
 1142000    1.0745159   -3.0773595    1134.1422  0.082759937  0.083979473            3 
 1143000     1.044973   -3.1027681    1132.6315  0.082577392  0.083963755            1 
 1144000    1.0765956   -3.0874156    1135.6874  0.082727809  0.083948444            6 
 1145000    1.0533424   -3.0558632    1133.8116  0.082519037  0.083933454            3 
 1146000     1.100239   -3.0417919    1143.6219  0.083160408  0.083918149            1 
 1147000    1.0843632   -3.0750538    1139.7642  0.082807629  0.083902812            2 
 1148000    1.0972386   -3.0740601    1140.0911  0.082759227     0.083888            1 
 1149000    1.0692765   -3.0804619    1136.4433  0.082422637  0.083873354            1 
 1150000     1.067898   -3.0974704    1139.2921  0.082557399  0.083857802            1 
 1151000    1.0451234   -3.0916528    1144.2912  0.082847608  0.083842061            4 
 1152000    1.0699344   -3.0706868    1140.6193   0.08251008  0.083826508            4 
 1153000     1.079274   -3.0515805    1142.0728  0.082543567  0.083811199            2 
 1154000    1.0429051   -3.0872271    1143.3825  0.082566617  0.083796052            2 
 1155000    1.0608937   -3.0988044    1143.3249  0.082490974  0.083780609            3 
 1156000    1.0719404   -3.0732472    1147.1089  0.082692393  0.083765334            2 
 1157000    1.0598628   -3.0863199    1146.8071  0.082599186    0.0837506            2 
 1158000    1.0938895   -3.0799854    1148.3685   0.08264022  0.083736136            5 
 1159000    1.0864488   -3.0952228    1152.2003  0.082844425  0.083722171            2 
 1160000    1.0438891   -3.0901177    1151.6673  0.082734718  0.083708644            2 
 1161000    1.0640013   -3.1098258    1146.7797  0.082312642  0.083694352            3 
 1162000    1.0746035   -3.0812404    1152.6229  0.082660847   0.08368057            1 
 1163000    1.0580415   -3.0868812    1156.1345  0.082841396  0.083666857            2 
 1164000    1.0798607   -3.0993895    1156.2142  0.082775928  0.083652909            2 
 1165000    1.0665094   -3.1324967    1150.7761  0.082315888  0.083639115            3 
 1166000    1.0705234   -3.0740906    1158.2159  0.082777009  0.083625286            4 
 1167000    1.0707236   -3.0695719    1153.7923  0.082390192  0.083612174            2 
 1168000    1.0576703   -3.0747413    1158.7894  0.082676186  0.083598423            2 
 1169000    1.0654949   -3.0793206    1162.7007  0.082884278  0.083585227            1 
 1170000    1.0743966   -3.0555463    1162.7465  0.082816704  0.083571905            1 
 1171000    1.0757198    -3.099708    1163.7351  0.082816336  0.083559017            2 
 1172000    1.0660648   -3.1187801    1160.1932  0.082493828  0.083545742            2 
 1173000    1.0472961   -3.0958032    1165.8335  0.082824203  0.083532551            2 
 1174000    1.0486832   -3.1031901    1164.6998  0.082673183  0.083519489            3 
 1175000    1.0523105   -3.0564865    1166.9001  0.082758874  0.083507014            1 
 1176000     1.080528    -3.080429    1165.7258  0.082605284  0.083494498            3 
 1177000    1.0592371   -3.1060669    1164.3176  0.082435398  0.083480933            2 
 1178000    1.0529709   -3.1162524    1161.7308   0.08218243  0.083467281            1 
 1179000    1.0690051   -3.1110289    1167.0516  0.082488807  0.083453461            2 
 1180000    1.0575117   -3.1069651    1168.6254   0.08253004  0.083440235            2 
 1181000    1.0487328    -3.114126    1170.8991    0.0826206  0.083426793            3 
 1182000    1.0494463   -3.0984094    1166.2494  0.082222887  0.083413443            2 
 1183000    1.0706626   -3.0996727    1170.0883  0.082423804  0.083400143            2 
 1184000    1.0677684   -3.0933209     1171.527   0.08245545   0.08338741            1 
 1185000    1.0925917   -3.0778483    1176.9021  0.082763862  0.083374406            5 
 1186000    1.0383094   -3.1049656     1169.078  0.082144322  0.083361498            2 
 1187000    1.0491538   -3.0829738     1182.133  0.082991644  0.083348372            6 
 1188000    1.0617871   -3.0755608    1183.2308  0.082998792  0.083335534            3 
 1189000    1.0734782    -3.123743    1177.8073   0.08254887  0.083322824            1 
 1190000    1.0323585   -3.0842525    1181.3566  0.082728053  0.083309624            4 
 1191000    1.0682675   -3.0986975    1181.9185  0.082697907  0.083296456            2 
 1192000    1.0566832   -3.0775412    1176.7152  0.082264768  0.083283581            5 
 1193000    1.0542634   -3.0833556    1181.1587  0.082506193  0.083270882            3 
 1194000    1.0566201   -3.0903407    1179.4015  0.082314451  0.083257687            2 
 1195000    1.0433984   -3.0739603    1184.7212  0.082616545  0.083244527            3 
 1196000    1.0770176   -3.0912315     1185.898   0.08262946  0.083231933            4 
 1197000    1.0475987   -3.1131295    1182.3613  0.082314212  0.083218857            4 
 1198000    1.0655342   -3.0930489     1184.124  0.082368115  0.083205497            1 
 1199000    1.0497625   -3.0999412    1186.3241   0.08245233  0.083192524            1 
 1200000    1.0618797   -3.1053489     1186.471  0.082393816  0.083179741            4 
 1201000    1.0515852   -3.0480821    1192.3161  0.082730789  0.083167196            4 
 1202000    1.0665556   -3.0983299      1188.19  0.082375901   0.08315525            4 
 1203000    1.0500887   -3.0982734    1190.7254  0.082483057  0.083142931            1 
 1204000    1.0349502   -3.1029202    1190.5104  0.082399667  0.083130213            4 
 1205000    1.0660103   -3.1075375    1193.0324  0.082505698  0.083117733            2 
 1206000     1.041739   -3.1016701    1195.3682  0.082598688  0.083104767            1 
 1207000    1.0501881    -3.063807    1194.6995  0.082484084  0.083092545            1 
 1208000    1.0451241   -3.0885444    1199.1184   0.08272064  0.083079724            1 
 1209000    1.0729034   -3.1026473    1197.5866  0.082546633  0.083067423            2 
 1210000    1.0432427   -3.0785765    1195.4044   0.08232813  0.083054836            3 
 1211000    1.0571466   -3.0937383    1194.7521  0.082215256  0.083042091            1 
 1212000    1.0751891   -3.1276904    1195.3834  0.082190824  0.083029354            2 
 1213000    1.0657516   -3.0922248    1198.8654  0.082362281  0.083015821            1 
 1214000    1.0401642   -3.1078454    1198.0799  0.082240518  0.083002567            3 
 1215000    1.0408127    -3.124015    1201.5694  0.082412164  0.082988966            2 
 1216000     1.063896   -3.1088591    1198.0134  0.082100697  0.082976482            2 
 1217000    1.0664821   -3.0789992    1201.1635  0.082248942  0.082963677            1 
 1218000    1.0574248   -3.1112116    1201.7847  0.082223913  0.082950783            3 
 1219000    1.0405044   -3.1555645    1198.7819  0.081951184  0.082937913            3 
 1220000    1.0562937   -3.1138435    1202.5999  0.082144803  0.082924693            2 
 1221000    1.0385828   -3.1026259    1204.6692  0.082218755  0.082911952            1 
 1222000    1.0479205   -3.1264178    1200.8558  0.081891423  0.082899351            1 
 1223000    1.0808543   -3.1076907    1205.1923  0.082119947  0.082886566            1 
 1224000    1.0734501   -3.0977559    1203.7237  0.081952867  0.082874056            3 
 1225000    1.0745672    -3.111119    1206.8597    0.0820993  0.082861785            3 
 1226000    1.0600416   -3.1072178     1213.947  0.082514067  0.082849064            2 
 1227000    1.0550128   -3.1015125    1207.5885  0.082014973  0.082837248            1 
 1228000    1.0563352   -3.1365229     1214.215  0.082397866  0.082825362            2 
 1229000    1.0555622   -3.1009864    1216.6701  0.082497295  0.082813874            5 
 1230000    1.0720996   -3.1141049    1211.4548  0.082076881  0.082801393            3 
 1231000    1.0668005   -3.1146903    1211.1411   0.08198897  0.082789564            3 
 1232000    1.0099083   -3.0990455    1214.9542  0.082180346  0.082777812            2 
 1233000    1.0573825   -3.0694709     1216.165  0.082195528  0.082765967            3 
 1234000    1.0268418   -3.0908274    1221.2364  0.082471391  0.082754233            3 
 1235000    1.0704677   -3.0906369    1220.7012  0.082368499  0.082742387            2 
 1236000    1.0721732     -3.09533    1222.0682  0.082394027  0.082730586            2 
 1237000    1.0605761   -3.0541348    1225.1841  0.082537328  0.082718224            1 
 1238000    1.0714759   -3.1136244    1217.4175  0.081947869  0.082706836            1 
 1239000     1.042718   -3.0836183    1222.0524  0.082193465  0.082694739            2 
 1240000    1.0641614   -3.1355085    1219.1176  0.081929946  0.082682424            2 
 1241000     1.044545   -3.1029982    1219.8951  0.081916134  0.082669633            2 
 1242000    1.0899594   -3.0957116    1219.5272  0.081825495   0.08265684            4 
 1243000    1.0732294   -3.0978542    1221.9849  0.081924439  0.082644247            3 
 1244000    1.0450579   -3.1078405    1222.3778  0.081884903  0.082631298            5 
 1245000    1.0359676    -3.109629     1223.092  0.081866937  0.082618604            3 
 1246000    1.0476285   -3.1227007    1216.5705  0.081365068    0.0826052            2 
 1247000    1.0338382   -3.1147086    1223.7702  0.081780956   0.08259186            3 
 1248000    1.0506853   -3.1079568    1227.2152  0.081945458  0.082578489            2 
 1249000    1.0416398   -3.0822202    1227.6189  0.081906785  0.082565502            3 
 1250000     1.058498    -3.131597    1220.2979   0.08135319  0.082552276            3 
 1251000     1.045977   -3.1082912    1229.9116  0.081928564   0.08253913            2 
 1252000    1.0536243   -3.1059551    1227.9527  0.081732739  0.082526609            5 
 1253000    1.0615927   -3.1141283    1230.3808  0.081828996  0.082513924            1 
 1254000    1.0658491    -3.116375    1231.0022  0.081805039  0.082500704            1 
 1255000    1.0264941   -3.1182255    1227.9506  0.081537224   0.08248711            2 
 1256000    1.0379414    -3.100755    1232.9736  0.081805574  0.082474692            2 
 1257000    1.0656755   -3.0993293    1233.8525  0.081798762  0.082461739            3 
 1258000    1.0370909   -3.1079011    1239.8897   0.08213366  0.082448834            3 
 1259000    1.0292866   -3.1146346    1231.4412  0.081509216  0.082435991            1 
 1260000    1.0439529   -3.1367233    1229.4867   0.08131526  0.082422623            4 
 1261000    1.0512433    -3.088106    1239.7214  0.081927133  0.082409518            3 
 1262000    1.0549094   -3.0999871    1235.7795  0.081601918  0.082396752            1 
 1263000    1.0281323   -3.1000985    1235.0671  0.081490307  0.082383691            2 
 1264000    1.0376383   -3.0985634     1237.942  0.081615376  0.082370176            3 
 1265000    1.0447428   -3.1272375    1237.3891  0.081514432  0.082357208            2 
 1266000    1.0573644   -3.1176469    1236.5174  0.081392668  0.082344012            2 
 1267000    1.0342349   -3.1161896    1240.2568  0.081574377  0.082330829            4 
 1268000    1.0346347   -3.1171001    1242.9654  0.081688055  0.082317679            2 
 1269000    1.0589031   -3.1185438    1240.7113  0.081475656  0.082304072            4 
 1270000    1.0588501   -3.1333434    1240.0774  0.081369907  0.082291007            3 
 1271000    1.0260845    -3.122214    1243.9755  0.081561468  0.082277543            1 
 1272000     1.033378   -3.1191586    1242.2947  0.081387233  0.082264129            2 
 1273000    1.0153813   -3.0936641    1243.6072  0.081409215  0.082250562            1 
 1274000    1.0190023   -3.0963224    1247.8178  0.081620735  0.082236978            2 
 1275000    1.0206103   -3.1271198    1244.5526  0.081343309  0.082223262            1 
 1276000    1.0536249   -3.1350514     1241.111  0.081054791  0.082209699            2 
 1277000    1.0562086   -3.1279211    1246.3041  0.081330207  0.082196179            1 
 1278000    1.0657064   -3.1120078    1251.6137  0.081612787  0.082183055            3 
 1279000    1.0510564   -3.1223701    1247.5049   0.08128127  0.082169827            3 
 1280000    1.0318653   -3.1097394    1256.7537  0.081819904  0.082156875            2 
 1281000    1.0234377   -3.0701213    1249.8459  0.081306654  0.082143908            2 
 1282000    1.0584658    -3.107482    1254.1179  0.081520922  0.082131074            4 
 1283000    1.0280151   -3.1012084    1256.9918  0.081644053  0.082118725            2 
 1284000    1.0706779   -3.0961473    1257.6778  0.081624986  0.082106074            2 
 1285000    1.0619373   -3.1037146    1252.5646  0.081229868  0.082092739            2 
 1286000     1.036739   -3.1210539    1256.2365  0.081404648  0.082079558            5 
 1287000    1.0631078   -3.1159144    1257.4044  0.081417017  0.082066021            2 
 1288000    1.0631092   -3.1279444    1259.7922  0.081508294  0.082052518            3 
 1289000    1.0517683   -3.1211371    1255.0339   0.08113744   0.08203889            5 
 1290000    1.0208144    -3.104857    1259.8638  0.081386553  0.082025118            3 
 1291000    1.0397688   -3.1173674    1254.7676  0.080994554  0.082012181            3 
 1292000    1.0409695   -3.1042357    1259.9685  0.081267317  0.081998712            1 
 1293000     1.037528   -3.0889359    1262.7972  0.081386775  0.081984934            1 
 1294000    1.0518623   -3.1077304    1261.4494  0.081237084   0.08197099            2 
 1295000    1.0389498   -3.1315192    1263.0816  0.081279384  0.081957171            1 
 1296000     1.052365   -3.1036086    1261.6485  0.081124515   0.08194323            5 
 1297000    1.0409742   -3.1315922    1259.9177  0.080950762  0.081929741            3 
 1298000    1.0248883   -3.1318443    1263.7568  0.081134875  0.081915561            3 
 1299000    1.0691298   -3.1027847    1259.1204  0.080774981   0.08190103            3 
 1300000    1.0136065   -3.1218489    1265.6686    0.0811326  0.081887399            3 
 1301000    1.0603542    -3.122132    1261.3806  0.080795583  0.081873245            2 
 1302000    1.0348141   -3.1271092    1262.8158  0.080825387  0.081858841            2 
 1303000    1.0877032   -3.0993634    1270.2213  0.081236973  0.081844161            3 
 1304000    1.0273694   -3.1524054    1261.1386  0.080594237  0.081829345            3 
 1305000    1.0493305   -3.1488768    1266.2633  0.080859727  0.081814837            5 
 1306000    1.0318064   -3.1310841    1263.1153  0.080596941  0.081800216            2 
 1307000    1.0415476   -3.1199885    1269.5554  0.080945896  0.081785714            1 
 1308000    1.0494583   -3.1324177     1264.651  0.080571548  0.081771147            2 
 1309000     1.029392   -3.1172453    1265.8556  0.080586684  0.081756889            2 
 1310000    1.0200277   -3.1282122    1271.0498  0.080855584  0.081742312            2 
 1311000    1.0295166   -3.1311855    1270.0137  0.080728052  0.081728024            2 
 1312000     1.027996   -3.1168618    1276.1606  0.081056947  0.081713473            1 
 1313000    1.0374605   -3.1022187    1272.3869  0.080755708  0.081699148            2 
 1314000    1.0531905   -3.1479096    1267.3452  0.080374507  0.081685001            3 
 1315000    1.0434482   -3.1156448     1274.702  0.080779592  0.081670169            3 
 1316000    1.0501029   -3.1331813    1271.6216  0.080523148  0.081655631            3 
 1317000    1.0183639   -3.1079765    1274.2247  0.080626722  0.081640987            2 
 1318000    1.0262502   -3.1394243    1271.5634  0.080397279   0.08162713            2 
 1319000    1.0362007    -3.113354    1280.0014  0.080869431  0.081612698            4 
 1320000    1.0535168   -3.1176033    1280.1405  0.080816953  0.081598951            3 
 1321000    1.0459891   -3.1405738     1274.928   0.08042695  0.081585094            1 
 1322000    1.0361727   -3.1123179    1282.3942  0.080836749  0.081570855            2 
 1323000     1.042696   -3.1233966    1279.6005   0.08059968  0.081556926            1 
 1324000    1.0207452   -3.1035571    1283.0066  0.080753184  0.081542891            3 
 1325000    1.0459332   -3.1086702    1281.9246   0.08062419  0.081528836            1 
 1326000    1.0069319   -3.1098077    1282.2207  0.080581993   0.08151455            3 
 1327000     1.042982   -3.1355694    1282.5341   0.08054095  0.081500584            2 
 1328000    1.0482326   -3.1397754    1284.0447  0.080575092  0.081486967            7 
 1329000    1.0483997   -3.1145885    1281.2065  0.080336503  0.081472635            3 
 1330000    1.0292168   -3.1563485    1283.1649  0.080398801   0.08145855            2 
 1331000    1.0374263   -3.1350334    1287.1224  0.080586173  0.081444197            2 
 1332000     1.038118   -3.1280205    1287.7363  0.080564083  0.081429547            6 
 1333000    1.0476985   -3.1143839    1281.3471   0.08010422  0.081415157            1 
 1334000    1.0477895   -3.1641081    1284.2981  0.080228516  0.081400248            2 
 1335000     1.035681   -3.1201705    1290.0509  0.080527525  0.081385411            2 
 1336000    1.0370102   -3.1087575    1294.1263  0.080721453  0.081371268            2 
 1337000    1.0243175   -3.1209568    1289.7552  0.080388634  0.081356952            4 
 1338000    1.0255513   -3.1543551    1288.8086  0.080269592  0.081342587            3 
 1339000    1.0243944   -3.1222236    1294.0917  0.080538444  0.081328327            2 
 1340000    1.0466373   -3.1373523    1292.2829  0.080365854   0.08131434            4 
 1341000    1.0292008   -3.0905784    1296.6889  0.080579724  0.081299787            3 
 1342000    1.0545223   -3.1600337    1291.8554  0.080219536  0.081285144            3 
 1343000    1.0374452   -3.1423051    1298.9523  0.080600166    0.0812707            3 
 1344000    1.0387287   -3.1448356    1298.5082  0.080512662  0.081256629            3 
 1345000    1.0417161   -3.1330189    1301.2062  0.080619965   0.08124245            4 
 1346000    1.0616934   -3.1117671    1300.1291  0.080493384  0.081228935            2 
 1347000    1.0342453   -3.1271308    1306.1952  0.080808911  0.081215186            2 
 1348000    1.0187331   -3.1463009    1300.6355  0.080405263  0.081201442            5 
 1349000    1.0588397   -3.1195587    1299.2768  0.080261724  0.081188244            1 
 1350000    1.0453946   -3.1190271    1305.5253   0.08058798  0.081174995            4 
 1351000    1.0288556    -3.126026    1303.0902  0.080378128  0.081161683            4 
 1352000    1.0350621   -3.1322159    1305.2628  0.080452587  0.081148554            2 
 1353000    1.0438171   -3.1166499     1308.419  0.080587519  0.081135223            2 
 1354000    1.0348481   -3.1206533      1305.58  0.080353275   0.08112137            3 
 1355000    1.0326484   -3.1442077    1305.1473   0.08026736  0.081107346            2 
 1356000    1.0424837   -3.1238117    1306.8073  0.080310185  0.081093761            3 
 1357000    1.0206659   -3.1358673    1304.7229  0.080122996  0.081080177            2 
 1358000    1.0156305   -3.1270332    1309.2754   0.08034336   0.08106668            1 
 1359000    1.0195805   -3.1257636    1307.3803  0.080168032  0.081053427            4 
 1360000    1.0327624   -3.1066692    1310.8226  0.080320012   0.08103997            4 
 1361000     1.026281   -3.1430045    1313.4185  0.080419945  0.081026953            2 
 1362000    1.0236256   -3.1589857    1308.1278   0.08003719  0.081014013            4 
 1363000    1.0368675   -3.1631113    1312.2103  0.080228068  0.081001033            2 
 1364000    1.0407204   -3.1422864    1316.8563  0.080453099  0.080987781            2 
 1365000    1.0438481   -3.1261545    1313.4963  0.080189031  0.080974863            2 
 1366000     1.029187   -3.1422828    1319.6476  0.080505585   0.08096197            2 
 1367000    1.0379819   -3.1349416    1313.1219  0.080048883  0.080949041            2 
 1368000    1.0348839   -3.1302771    1320.3042  0.080427886  0.080935376            3 
 1369000     1.055794   -3.0978224    1322.4544  0.080500025  0.080922689            3 
 1370000    1.0270744   -3.1440585    1317.1603  0.080119238  0.080910083            1 
 1371000    1.0420739   -3.1114063    1322.3962  0.080379056  0.080896609            2 
 1372000    1.0303909   -3.1298483    1325.6381  0.080517378  0.080882945            8 
 1373000    1.0462879   -3.1400588    1318.0881  0.080000491  0.080869688            1 
 1374000    1.0333103   -3.1411452    1321.2634  0.080134848  0.080856728            2 
 1375000    1.0281118   -3.1445697    1323.8701  0.080234549  0.080843664            3 
 1376000    1.0218347    -3.127394     1316.329  0.079719535  0.080830048            3 
 1377000    1.0451752   -3.1221136    1326.4302  0.080272947  0.080817264            3 
 1378000    1.0289052   -3.1005071     1324.181  0.080078676  0.080804233            3 
 1379000    1.0269131    -3.134771    1326.4751  0.080159239  0.080791346            2 
 1380000    1.0474481    -3.128253    1332.6464  0.080473816  0.080778143            1 
 1381000    1.0453095   -3.1192597    1333.4633  0.080464838  0.080765958            3 
 1382000     1.051802    -3.155855    1326.7695  0.080002986  0.080753363            2 
 1383000    1.0471534   -3.1220319    1335.1651  0.080451016  0.080741094            2 
 1384000    1.0213707   -3.1225022    1331.9526   0.08019946  0.080728916            2 
 1385000    1.0255914    -3.128027    1338.0989  0.080511368  0.080716661            4 
 1386000    1.0429353   -3.1570777     1333.004  0.080146948  0.080704294            4 
 1387000    1.0283421   -3.1226341    1339.3243  0.080468896  0.080691423            2 
 1388000     1.007943   -3.1308121    1333.9963  0.080091037  0.080678664            2 
 1389000    1.0440202   -3.1296292    1334.5611  0.080067262  0.080665993            1 
 1390000    1.0252142   -3.1481247    1333.9253  0.079971543  0.080653681            1 
 1391000    1.0295065   -3.1376554    1344.0039  0.080517848    0.0806415            2 
 1392000    1.0390017   -3.1284225    1338.7071  0.080142908  0.080629741            2 
 1393000    1.0491305   -3.1154417    1345.5451   0.08049444  0.080617611            2 
 1394000     1.031542   -3.1632749    1342.9059   0.08027893  0.080605959            4 
 1395000    1.0405153   -3.1411569    1349.1813  0.080596256   0.08059476            2 
 1396000    1.0529469   -3.1299314    1346.4862   0.08037764  0.080583842            3 
 1397000    1.0105549   -3.1481344    1345.1956  0.080243115  0.080572207            2 
 1398000    1.0166167   -3.1489683    1344.7754  0.080160671  0.080560763            4 
 1399000    1.0185116   -3.1509332    1346.7307  0.080219844  0.080549329            1 
 1400000    1.0197759   -3.1478801    1346.3287  0.080138616    0.0805378            3 
 1401000    1.0293378   -3.1417988    1349.3952   0.08026381  0.080526248            2 
 1402000    1.0215236   -3.1317433    1351.2053   0.08031415  0.080513993            2 
 1403000     1.037596   -3.1597243    1353.7878  0.080410298  0.080502182            1 
 1404000    1.0255118   -3.1489727      1349.64   0.08010684  0.080490594            2 
 1405000    1.0053438   -3.1279185     1354.793  0.080355455  0.080478717            2 
 1406000    1.0442938   -3.1572426    1346.1917  0.079788508  0.080466634            3 
 1407000    1.0356475   -3.1293151    1345.8144  0.079709451  0.080454015            4 
 1408000    1.0296113   -3.1422749    1350.4792  0.079928928  0.080441619            2 
 1409000    1.0295432   -3.1551556    1346.5346  0.079638905  0.080428852            5 
 1410000     1.011904   -3.1278726     1355.113  0.080089422  0.080415725            1 
 1411000    1.0340751   -3.1527696    1348.3207  0.079631508  0.080402769            6 
 1412000    1.0290996   -3.1625462    1348.4567  0.079583136  0.080389622            2 
 1413000    1.0333879   -3.1284272    1354.8273  0.079902527  0.080376506            3 
 1414000    1.0258043   -3.1251175    1355.8924   0.07990879  0.080363735            3 
 1415000    1.0340856   -3.1569183    1351.8312  0.079613147  0.080350243            3 
 1416000    1.0337235   -3.1435753    1350.9909  0.079507471  0.080336681            3 
 1417000    1.0106134   -3.1398283    1354.4664  0.079655754  0.080322731            2 
 1418000     1.025819   -3.1403634    1351.7193  0.079438135  0.080309302            3 
 1419000    1.0139635    -3.161433    1352.3387  0.079418529  0.080295913            3 
 1420000    1.0302291   -3.1496365    1357.5545  0.079668691  0.080282492            2 
 1421000    1.0129808   -3.1190497     1353.738  0.079388809  0.080269295            4 
 1422000    1.0373362   -3.1372538    1356.1932  0.079476861  0.080255724            3 
 1423000    1.0376553   -3.1541863    1353.1636  0.079243592   0.08024214            4 
 1424000    1.0045729   -3.1338803    1355.3794  0.079317612  0.080228332            5 
 1425000    1.0460986   -3.1436978    1358.0178  0.079416248  0.080214685            2 
 1426000    1.0229241   -3.1369788    1370.5202  0.080091175  0.080201512            2 
 1427000    1.0131328   -3.1302931    1356.1496  0.079195841  0.080188516            2 
 1428000    1.0096194   -3.1733024    1356.5989  0.079166603  0.080174503            2 
 1429000    1.0196034   -3.1522506    1358.5547  0.079225257  0.080160253            2 
 1430000    1.0208947   -3.1620428    1360.4963  0.079283002  0.080146633            2 
 1431000    1.0276928   -3.1144457    1367.9632  0.079662425  0.080132751            1 
 1432000    1.0439524   -3.1476527    1368.2838  0.079625455  0.080119113            2 
 1433000    1.0349023   -3.1498182    1370.0082  0.079670165  0.080105767            3 
 1434000    1.0207173   -3.1305996    1355.8685  0.078792914  0.080092091            2 
 1435000    1.0195147   -3.1385425    1365.7041  0.079309182  0.080078657            2 
 1436000    1.0228574   -3.1762557    1363.9235  0.079150623  0.080065416            2 
 1437000     1.047987   -3.1304549    1370.0362  0.079450024  0.080052148            1 
 1438000    1.0268406   -3.1535853    1374.4038  0.079647876  0.080039177            2 
 1439000    1.0260077   -3.1624496    1367.9537  0.079219001  0.080026011            3 
 1440000    1.0317411   -3.1411282    1375.9361  0.079625931  0.080012605            1 
 1441000    1.0141107   -3.1202992    1368.8625  0.079161608  0.079999544            2 
 1442000    1.0155285    -3.138978    1372.2878  0.079304657  0.079986544            2 
 1443000    1.0168044   -3.1509132     1371.638  0.079212174  0.079973406            1 
 1444000    1.0326452   -3.1202187    1376.8473  0.079457949  0.079959869            3 
 1445000    1.0256301   -3.1416725     1374.505  0.079267877  0.079946618            2 
 1446000    1.0233458   -3.1533328    1378.0944  0.079419915  0.079933514            3 
 1447000    1.0320227   -3.1620539    1373.9064  0.079123844  0.079920663            2 
 1448000    1.0279818   -3.1528223     1377.558  0.079279352  0.079907639            2 
 1449000    1.0150738   -3.1376512    1379.9199  0.079360475  0.079894645            2 
 1450000    1.0146191   -3.1497579    1377.4358  0.079162974  0.079881219            3 
 1451000    1.0465042   -3.1552218    1378.1827  0.079151317  0.079867935            3 
 1452000    1.0286319   -3.1618916    1377.0785  0.079033434  0.079854725            3 
 1453000   0.99922917   -3.1140943    1381.8394   0.07925209  0.079841483            2 
 1454000    1.0127078   -3.1659524    1381.3552  0.079169828   0.07982816            2 
 1455000    1.0176487   -3.1444026    1380.5337   0.07906837  0.079814982            3 
 1456000    1.0322414   -3.1557834    1382.3495  0.079117988  0.079801576            3 
 1457000    1.0010585   -3.1668551    1382.3893  0.079065962   0.07978821            3 
 1458000    1.0159373   -3.1625724    1381.5642  0.078964575  0.079774828            1 
 1459000    1.0150656   -3.1626703    1383.3378  0.079011756  0.079761265            3 
 1460000    1.0185352   -3.1430972    1390.0131  0.079338648  0.079747447            1 
 1461000    1.0272443   -3.1610026    1380.2057  0.078724941  0.079734017            2 
 1462000    1.0056417   -3.1807667     1380.255  0.078673905  0.079720015            1 
 1463000    1.0251819   -3.1542765    1385.5621  0.078922423  0.079705685            1 
 1464000    1.0262514   -3.1775153    1380.6881  0.078591079  0.079692249            2 
 1465000    1.0145505   -3.1622749    1389.1491   0.07901872  0.079678403            4 
 1466000    1.0035708   -3.1482652    1382.8587  0.078607246  0.079664239            1 
 1467000     1.022861   -3.1227539    1388.7911  0.078890653  0.079650387            3 
 1468000    1.0072156   -3.1607145    1386.1369  0.078686244  0.079636341            3 
 1469000    1.0097199   -3.1286547    1382.9926  0.078454313  0.079622183            2 
 1470000    1.0374953   -3.1199326    1393.6255  0.079003715  0.079607931            2 
 1471000    1.0180474   -3.1668793    1387.7035  0.078614519   0.07959381            1 
 1472000    1.0409327   -3.1457089    1387.6369  0.078557341  0.079579221            2 
 1473000    1.0224423   -3.1586201    1387.2026  0.078479441  0.079564786            3 
 1474000    1.0317007   -3.1431216     1391.316  0.078658752  0.079550494            2 
 1475000    1.0145675   -3.1585659    1394.6366  0.078793029  0.079536822            3 
 1476000    1.0114746    -3.162054     1391.558  0.078565832  0.079522757            2 
 1477000    1.0144143    -3.164023    1396.4225  0.078787095  0.079509224            4 
 1478000    1.0299635   -3.1331807    1395.2226  0.078666136  0.079495454            2 
 1479000    1.0217807   -3.1460375     1399.413  0.078849056  0.079481598            4 
 1480000    1.0154789   -3.1834943    1394.9542   0.07854472  0.079467863            7 
 1481000    1.0153959   -3.1922101    1398.8655  0.078711765   0.07945379            4 
 1482000     1.024648   -3.1567851    1394.9328  0.078437519  0.079440236            4 
 1483000      1.02454   -3.1648416    1394.5104  0.078360889  0.079426375            3 
 1484000      1.02257    -3.161274    1398.2591  0.078518594  0.079412338            2 
 1485000    1.0139694   -3.1888375    1404.6732  0.078825656  0.079398588            3 
 1486000    1.0235172   -3.1645692    1399.3866  0.078476143  0.079384546            2 
 1487000    1.0161563   -3.1698469    1402.3939    0.0785919  0.079370649            3 
 1488000    1.0000744   -3.1534975    1401.3014  0.078477903  0.079356619            1 
 1489000    1.0241738    -3.140341    1407.4081  0.078766965  0.079342344            3 
 1490000    1.0166534   -3.1589336    1404.8048    0.0785685  0.079328114            3 
 1491000   0.99860807   -3.1669354    1407.7092  0.078678133  0.079313676            6 
 1492000    1.0090227   -3.1467698    1403.2212  0.078374732  0.079299213            6 
 1493000     1.029479   -3.1608868    1406.0782  0.078481702  0.079284729            2 
 1494000     1.016838   -3.1490758    1408.4789  0.078563078   0.07927063            2 
 1495000    1.0101366   -3.1348382     1409.654  0.078576032  0.079256051            3 
 1496000    1.0128815   -3.1475409    1400.2594   0.07800019  0.079241782            3 
 1497000   0.99349476    -3.153225    1406.3451  0.078286859  0.079227854            2 
 1498000    1.0155261   -3.1679275    1406.1343  0.078222868  0.079213707            2 
 1499000    1.0151692   -3.1669564    1405.4549  0.078132914  0.079199486            3 
 1500000   0.99611966   -3.1704045    1406.8114  0.078156191  0.079184898            2 
 1501000    1.0020351   -3.1686438    1412.7803  0.078435503  0.079170474            2 
 1502000    1.0208023   -3.1277499    1412.0162   0.07834089  0.079156232            2 
 1503000    1.0351614    -3.136522    1412.2079  0.078299395  0.079142144            2 
 1504000    1.0306086   -3.1570642    1419.3694   0.07864414  0.079128088            2 
 1505000    1.0010501   -3.1628605    1414.3505  0.078313982  0.079114265            2 
 1506000      1.01628   -3.1563809    1418.2209  0.078476148  0.079100804            7 
 1507000   0.99867772   -3.1628528    1410.9686  0.078023035  0.079086982            2 
 1508000    1.0253292   -3.1676426    1420.1673  0.078479626  0.079073347            2 
 1509000    1.0161145   -3.1787694    1414.1475  0.078095178  0.079059797            5 
 1510000    1.0186199   -3.1578318    1417.7919  0.078244586  0.079045976            3 
 1511000    1.0028981    -3.122997    1420.1249  0.078321469  0.079032171            3 
 1512000    1.0148025    -3.177662     1418.894  0.078201832  0.079018449            2 
 1513000    1.0003877   -3.1761941      1416.49  0.078017735  0.079004585            3 
 1514000     1.015657   -3.1828478    1426.9402  0.078541403  0.078990883            3 
 1515000    1.0164728   -3.1951619    1421.6241  0.078197146  0.078977015            2 
 1516000    1.0117196   -3.1701646    1421.9098  0.078161268  0.078963525            3 
 1517000    1.0203029   -3.1712926    1422.9515  0.078166968  0.078949972            2 
 1518000    1.0144567   -3.1788064    1424.3506  0.078192279  0.078936354            1 
 1519000    1.0266533   -3.1398898    1426.7172  0.078270637  0.078922702            2 
 1520000   0.99639651   -3.1666921    1427.8179   0.07827949  0.078908914            5 
 1521000    1.0392571   -3.1609025    1432.7886  0.078500361  0.078895551            3 
 1522000    1.0284104   -3.1646414    1423.9654  0.077965691  0.078882461            2 
 1523000    1.0103543   -3.1802965    1427.1882   0.07809084  0.078868875            1 
 1524000   0.99064708   -3.1546946    1433.4902  0.078384195  0.078855113            3 
 1525000    1.0004931   -3.1554447     1425.585  0.077900817  0.078841389            2 
 1526000    1.0268742   -3.1647552    1432.5248  0.078228745  0.078827515            4 
 1527000   0.99704379   -3.1736014    1427.4595  0.077901083  0.078813648            1 
 1528000    1.0011401   -3.1721936    1431.4312  0.078066712  0.078799603            3 
 1529000    1.0044046   -3.1853156    1430.0702  0.077941477  0.078785336            2 
 1530000    1.0184638   -3.1931706    1428.1068  0.077783596  0.078771422            2 
 1531000   0.98753312   -3.1789498    1434.1655  0.078062569  0.078757408            2 
 1532000    1.0108871   -3.1644935    1432.5411  0.077923252  0.078743472            3 
 1533000    1.0075613   -3.1698398    1428.6705  0.077662018  0.078729021            4 
 1534000    1.0189422   -3.1510825    1438.3161  0.078135379  0.078715497            2 
 1535000     1.008055   -3.1449173    1435.4423  0.077928464  0.078701484            6 
 1536000    1.0126304   -3.1813308    1436.9135  0.077957544  0.078687064            1 
 1537000    1.0177152   -3.2099223    1433.3486  0.077713545  0.078672424            3 
 1538000    1.0143845   -3.1570688    1436.0857  0.077811317  0.078657993            2 
 1539000    1.0092105   -3.1687593    1435.5399  0.077731203  0.078643635            4 
 1540000    1.0003427   -3.1697791    1439.6122  0.077901095  0.078629357            1 
 1541000   0.99366186   -3.1644914    1442.1154   0.07798591  0.078615188            2 
 1542000   0.99698299   -3.1856602    1433.9437  0.077493713  0.078600319            2 
 1543000    1.0292222   -3.1642551    1436.1551  0.077562926  0.078585275            3 
 1544000    1.0146874   -3.1628849    1436.2652  0.077518632  0.078570776            3 
 1545000    1.0177651   -3.1586865    1438.7539   0.07760269  0.078556099            1 
 1546000    1.0025261   -3.1916248    1438.2247  0.077523973  0.078541721            2 
 1547000   0.98461996   -3.1908935     1443.405  0.077752911  0.078527544            3 
 1548000    1.0082651   -3.1807728    1444.2451  0.077747907  0.078513179            1 
 1549000    0.9988325   -3.1676781    1442.8027  0.077620114  0.078498915            2 
 1550000    1.0056984   -3.1356437    1447.0157   0.07779654   0.07848462            6 
 1551000   0.99558445   -3.1661871    1443.6988  0.077568172  0.078470206            2 
 1552000    1.0220293   -3.1817478    1442.8082   0.07747037  0.078456185            2 
 1553000     0.981738   -3.1576882     1453.509  0.077994685  0.078442322            1 
 1554000    1.0031887   -3.1634498    1445.1958  0.077498704  0.078428075            3 
 1555000   0.99664868   -3.1802024    1445.0784  0.077442573  0.078413477            1 
 1556000    1.0075917   -3.1674392    1447.7324  0.077534939  0.078398745            1 
 1557000    1.0195143    -3.183601    1445.6622  0.077374344  0.078384178            5 
 1558000   0.99733775    -3.156103    1456.2232  0.077889561  0.078369751            2 
 1559000    1.0064412   -3.1861657    1450.8717  0.077553543   0.07835523            2 
 1560000   0.98393499   -3.1630249    1444.1823  0.077146488  0.078340494            2 
 1561000    1.0083147   -3.1610366    1447.3446   0.07726589  0.078325596            4 
 1562000   0.98644441   -3.1929469    1449.8771  0.077351529  0.078310435            2 
 1563000    1.0115047   -3.1978903    1449.3515  0.077274018  0.078295632            2 
 1564000    1.0077197   -3.1878817    1458.5464  0.077714535  0.078281127            4 
 1565000   0.99354579   -3.1639772    1454.1178  0.077429064  0.078266543            2 
 1566000   0.99519226   -3.1353031    1460.2649  0.077706731  0.078252165            2 
 1567000    1.0035769    -3.177989     1448.478  0.077030313  0.078237504            2 
 1568000    1.0079796   -3.1564448     1451.821  0.077158852  0.078222844            2 
 1569000   0.99185428   -3.1762047    1456.1603  0.077340145  0.078208186            5 
 1570000     1.003722   -3.1562542    1457.3744  0.077355329  0.078193988            2 
 1571000    1.0127124   -3.1967771    1451.6953  0.077004841  0.078179864            2 
 1572000    1.0109579   -3.1941104    1456.5647   0.07721399  0.078165281            3 
 1573000   0.99441742    -3.170181    1458.3222  0.077258009  0.078151574            3 
 1574000   0.99848474   -3.1950325    1461.2578   0.07736435  0.078137376            1 
 1575000   0.97543151   -3.1845786    1461.6072  0.077333716  0.078122793            4 
 1576000   0.99701165   -3.1718493    1459.7365  0.077185728  0.078108575            1 
 1577000    1.0205768   -3.1735745    1459.0784  0.077102006  0.078094386            2 
 1578000    1.0245302   -3.1924972    1463.3348  0.077277927  0.078080266            2 
 1579000    1.0015351   -3.1861416    1463.4371  0.077234384  0.078066018            4 
 1580000    0.9957907   -3.1903197    1465.9722  0.077319209  0.078051655            1 
 1581000     0.991614   -3.1780204    1465.1534  0.077227144  0.078037444            2 
 1582000   0.99584148   -3.1557029    1475.2791   0.07771171  0.078023671            3 
 1583000   0.98336104   -3.1812237    1464.7331  0.077107448  0.078009392            3 
 1584000     1.005597   -3.1606873    1472.9557  0.077491356  0.077994877            1 
 1585000    1.0184177   -3.1577712    1470.7088  0.077324331  0.077980754            4 
 1586000    1.0035152   -3.2039309     1462.326  0.076835119  0.077966251            4 
 1587000   0.98451177   -3.1685038     1477.169  0.077566111  0.077952056            2 
 1588000    1.0050491   -3.1950372    1469.0395  0.077090655  0.077938027            2 
 1589000   0.98879072   -3.1804713     1471.777  0.077185705  0.077924227            1 
 1590000    1.0008872   -3.1742967    1468.7246   0.07697718  0.077910419            3 
 1591000   0.99204671   -3.1875785     1467.883  0.076884717  0.077896156            2 
 1592000    1.0010246   -3.1741185    1471.4339  0.077022296   0.07788236            3 
 1593000   0.99589247   -3.1662137    1475.4025   0.07718155  0.077868492            2 
 1594000      1.00288   -3.2074801    1469.0459  0.076800809  0.077854395            2 
 1595000    1.0084102   -3.1746071    1471.6276  0.076887547  0.077840303            1 
 1596000   0.98538619   -3.1636453     1479.068  0.077227862   0.07782641            2 
 1597000   0.97041158   -3.1882652    1480.8506   0.07727252  0.077812194            4 
 1598000   0.99856173   -3.1744793     1484.731  0.077426522  0.077798267            4 
 1599000   0.99298329   -3.1860456    1479.4002  0.077100284  0.077784177            3 
 1600000   0.98069718   -3.2051288    1477.1761  0.076936254  0.077769858            2 
 1601000   0.97494712   -3.2020611     1475.648  0.076808659  0.077755628            1 
 1602000   0.97245907   -3.1791508     1481.315  0.077055505  0.077741502            2 
 1603000   0.99308296   -3.1608686    1480.9592  0.076988935  0.077727494            6 
 1604000    1.0178288   -3.1999356    1480.5862  0.076921563  0.077713756            2 
 1605000    1.0014497   -3.2018049    1482.9717  0.076997492  0.077699826            2 
 1606000   0.99311035   -3.1731002    1481.7271  0.076884967  0.077685594            4 
 1607000   0.98301543   -3.1783043    1486.4797  0.077083579  0.077671578            2 
 1608000   0.97902072   -3.1914683    1488.8788  0.077159973  0.077657475            2 
 1609000    1.0010642   -3.1675191    1486.5273  0.076990225  0.077643495            3 
 1610000   0.98004483   -3.1761559    1487.0881  0.076971435  0.077630326            2 
 1611000   0.98629158   -3.1896677    1486.3633  0.076886163  0.077616338            2 
 1612000    1.0052503   -3.1963227    1488.8899  0.076969082  0.077602377            2 
 1613000   0.97864276   -3.1981972    1488.4611   0.07689921  0.077588461            4 
 1614000   0.99822712   -3.1869503    1480.2652  0.076428396  0.077574303            4 
 1615000   0.98794529   -3.1726406    1484.3403  0.076591345  0.077560074            4 
 1616000   0.97970945   -3.1495466     1492.603   0.07697004  0.077546123            2 
 1617000    1.0122125   -3.1962084     1490.038  0.076790251   0.07753207            3 
 1618000   0.98225875   -3.1972211    1491.5432  0.076820314  0.077518155            1 
 1619000   0.98446823   -3.1690067    1495.8969  0.076996957  0.077503988            2 
 1620000    1.0141517   -3.2061246    1488.6828  0.076578335  0.077489865            4 
 1621000   0.97978736   -3.1726507    1492.6991  0.076737565  0.077475734            2 
 1622000    1.0083788   -3.1954118     1493.814  0.076747535  0.077461942            4 
 1623000    0.9827104   -3.1776468    1493.5524  0.076686817  0.077447559            2 
 1624000   0.99452081   -3.1853784     1497.291  0.076831435  0.077433288            4 
 1625000   0.98604625    -3.195064    1493.2346  0.076576131  0.077419052            2 
 1626000   0.98076201   -3.1897522    1501.4803  0.076951635  0.077404748            2 
 1627000    1.0144256   -3.1922237    1498.8427  0.076769244  0.077390725            3 
 1628000   0.99056756   -3.1742514    1498.5383  0.076706506  0.077376963            2 
 1629000    1.0110873   -3.1908064    1498.6988  0.076667627   0.07736308            3 
 1630000    0.9899177   -3.1612799    1499.0789  0.076640024  0.077349351            3 
 1631000    0.9713029   -3.1710635    1499.4706  0.076613052  0.077335586            2 
 1632000   0.99317677   -3.1872295    1504.5367   0.07682479  0.077321744            5 
 1633000   0.99805761   -3.1863096    1503.6599     0.076733  0.077307587            3 
 1634000   0.97650653   -3.2034597    1497.9766  0.076396194  0.077293875            2 
 1635000    0.9904974   -3.1616263    1499.9816  0.076451662  0.077279747            4 
 1636000   0.98523745    -3.204654    1498.8152  0.076345515  0.077265535            2 
 1637000   0.97651848   -3.1918841    1502.0812  0.076465138  0.077250962            3 
 1638000   0.99438008   -3.1838978    1505.3518  0.076584848  0.077236892            1 
 1639000   0.98776569   -3.2047123    1506.1893  0.076580707  0.077222599            1 
 1640000   0.99122513   -3.2107266     1505.989  0.076523832  0.077208563            3 
 1641000    1.0078625   -3.2000967    1508.3494  0.076597065  0.077194087            4 
 1642000   0.99323102   -3.1968464    1507.2111  0.076492644  0.077180098            4 
 1643000    1.0274125   -3.2102126    1502.2869  0.076196334  0.077166174            3 
 1644000   0.99548071   -3.1708966    1507.6937   0.07642405  0.077152064            2 
 1645000   0.99562742   -3.2009291    1504.7771  0.076229843  0.077137947            1 
 1646000   0.98831924   -3.2321622    1510.3796  0.076467175  0.077123596            1 
 1647000    1.0073973   -3.2069215    1507.3114  0.076265503  0.077109193            2 
 1648000   0.98695829   -3.1404205    1512.6547  0.076489416  0.077095201            4 
 1649000   0.98560912   -3.1925965    1511.2412  0.076371598  0.077080819            2 
 1650000   0.99172181   -3.1920468    1505.7379   0.07604737  0.077066685            3 
 1651000    0.9927776   -3.1377621    1512.9345  0.076364553  0.077052334            2 
 1652000   0.99552865   -3.2104831    1508.3668  0.076087913   0.07703784            3 
 1653000    1.0155877   -3.1572266    1507.4031  0.075993298  0.077023465            5 
 1654000   0.99081029   -3.1680047    1512.1811  0.076188082  0.077008994            4 
 1655000   0.95393934   -3.2028652    1512.8599  0.076176226  0.076994466            2 
 1656000   0.97066343   -3.1966288    1505.5236   0.07576105    0.0769797            2 
 1657000   0.97904998   -3.1779633    1517.6641  0.076325893  0.076965345            4 
 1658000   0.99807108   -3.1903486    1509.2726   0.07585809  0.076950687            3 
 1659000   0.99621658   -3.1847307    1513.9337    0.0760465  0.076935881            2 
 1660000   0.98753971   -3.2173778    1507.8581  0.075695689  0.076920925            4 
 1661000   0.95344538   -3.1878495    1515.1993  0.076018427  0.076905818            1 
 1662000    1.0135536   -3.2097438    1516.8953  0.076057729  0.076891154            3 
 1663000   0.99887901   -3.1862002    1521.9572  0.076265644  0.076876685            2 
 1664000   0.96156702   -3.1637651     1524.694  0.076356871  0.076862837            3 
 1665000    1.0045089   -3.1829961    1517.9613  0.075974039  0.076848417            2 
 1666000   0.99522401   -3.1999428    1525.4362  0.076302333   0.07683439            5 
 1667000   0.97074967   -3.1948743    1515.6173   0.07576571  0.076820008            4 
 1668000   0.97493299   -3.1715821    1523.2636  0.076102297  0.076805958            1 
 1669000   0.98239946   -3.1731624    1519.8542  0.075886471  0.076791739            6 
 1670000   0.96708453    -3.199064    1527.3202   0.07621358  0.076777381            5 
 1671000   0.98158474   -3.1786166    1522.5894  0.075932049  0.076763193            4 
 1672000    1.0042302   -3.1931958    1520.6438  0.075789661  0.076749129            5 
 1673000    0.9780566   -3.2064245    1523.2954  0.075876439  0.076735259            3 
 1674000   0.98358803   -3.1986705    1522.1486  0.075774022   0.07672109            3 
 1675000   0.96886755   -3.1929683    1530.3698  0.076137801  0.076707721            2 
 1676000   0.96236377   -3.2023522    1531.1774  0.076132526  0.076693916            3 
 1677000    1.0012592    -3.184099    1532.3345  0.076144629  0.076680473            2 
 1678000   0.99664675   -3.2067729    1529.4204  0.075954527  0.076666623            2 
 1679000   0.97892529    -3.210197    1531.5962  0.076017282  0.076652551            5 
 1680000   0.96198913   -3.2124689    1525.4779  0.075668547   0.07663881            1 
 1681000   0.98327818   -3.1862864    1532.2404  0.075958772  0.076624837            1 
 1682000   0.97662895    -3.205873    1532.5299  0.075927956  0.076611034            1 
 1683000   0.96926584   -3.1868905    1531.7637  0.075844903   0.07659716            2 
 1684000   0.97847419    -3.168243    1535.9166  0.076005374  0.076583097            2 
 1685000   0.97634461   -3.1857333    1536.8543  0.076006644  0.076569432            3 
 1686000   0.96588852   -3.1966824    1535.2186  0.075880711   0.07655553            3 
 1687000    1.0133244    -3.208468    1535.4218  0.075845773  0.076541795            2 
 1688000   0.99900417   -3.2177669    1537.6282  0.075909765  0.076528011            2 
 1689000   0.96843992   -3.1933203    1541.4524  0.076053501  0.076514182            4 
 1690000   0.98524902   -3.1935338    1544.3146  0.076149636  0.076500586            2 
 1691000   0.98440942   -3.1918454    1539.7329  0.075878812  0.076486757            3 
 1692000   0.97069707   -3.2126904    1540.2403  0.075858961   0.07647286            3 
 1693000    0.9850748   -3.1939258     1538.358    0.0757215  0.076459493            5 
 1694000   0.98445185   -3.2182458     1540.975  0.075805541  0.076445768            6 
 1695000   0.95992828   -3.1899904    1539.5312  0.075689831  0.076431701            2 
 1696000   0.98242538   -3.2138524     1537.106  0.075526043  0.076417616            3 
 1697000   0.97136402   -3.1766749    1541.8112  0.075712589  0.076403807            2 
 1698000   0.97575978   -3.2136844    1542.6353  0.075708444  0.076389367            4 
 1699000   0.97894548   -3.1971144     1542.187  0.075641899  0.076375414            5 
 1700000   0.97763898   -3.2086102    1541.8736   0.07558204  0.076361447            3 
 1701000   0.97692881   -3.1960576    1543.3236  0.075608642  0.076347508            2 
 1702000   0.96673712   -3.1886501    1545.1579  0.075654027  0.076333454            5 
 1703000   0.97410814   -3.2234686    1552.5353  0.075970605  0.076319337            3 
 1704000   0.96996341   -3.2232558    1546.2104  0.075616706  0.076305723            2 
 1705000    0.9921781   -3.1941584    1551.8982  0.075850353  0.076292011            2 
 1706000   0.97333512   -3.2320193    1549.3278  0.075680333  0.076278009            3 
 1707000   0.98851775   -3.2011395     1552.888  0.075809803  0.076264304            5 
 1708000   0.99922443   -3.2033196    1551.6628  0.075705641   0.07625038            2 
 1709000   0.99094965   -3.1893483    1554.9503  0.075821643  0.076236693            2 
 1710000   0.98499109   -3.1992163    1550.3183  0.075551573  0.076222846            3 
 1711000   0.99056591   -3.2075503    1554.5703   0.07571451  0.076209135            2 
 1712000   0.97334983   -3.2390856    1553.1165  0.075599518  0.076195319            1 
 1713000     0.966462   -3.2029225    1553.5628  0.075577095  0.076181127            2 
 1714000   0.99072656   -3.2120808    1555.9486  0.075648997  0.076167215            4 
 1715000   0.97940364   -3.2359418     1550.247  0.075327845  0.076153311            2 
 1716000   0.99136001   -3.1964694    1552.3077  0.075384018  0.076139415            2 
 1717000   0.98986811   -3.1988467    1563.5082  0.075883722  0.076125357            2 
 1718000   0.97142219   -3.2294878    1555.4307  0.075447746  0.076111534            4 
 1719000   0.95957081   -3.1938632    1555.9278  0.075427951  0.076097728            1 
 1720000    0.9962862   -3.1916142    1566.0427   0.07587416  0.076084068            4 
 1721000    0.9873728   -3.2012178     1565.336  0.075795854  0.076070356            4 
 1722000    0.9797823    -3.194683    1559.4667  0.075467802  0.076056616            2 
 1723000   0.98613348   -3.1975472    1559.4536   0.07542337  0.076042386            6 
 1724000   0.96736375   -3.2007852    1558.9831  0.075356878    0.0760285            3 
 1725000   0.97194865   -3.1979799    1558.5106  0.075290366  0.076014789            3 
 1726000   0.96465763   -3.2356045    1560.6556  0.075350308  0.076001349            2 
 1727000   0.96741582   -3.1959685    1566.2984  0.075578959    0.0759879            4 
 1728000   0.98650696    -3.217707    1565.3178  0.075487933  0.075974635            1 
 1729000   0.95496808   -3.2308603    1566.3135  0.075492266  0.075961117            2 
 1730000   0.99064841   -3.2166489    1564.2125  0.075347421  0.075947683            2 
 1731000   0.98285467   -3.1979898    1564.5077  0.075318104   0.07593453            3 
 1732000   0.98385219   -3.1910107      1572.75  0.075671188  0.075921472            4 
 1733000   0.97616281    -3.204904    1574.1595  0.075695304   0.07590852            2 
 1734000   0.97846902   -3.2190646    1574.9603  0.075690134  0.075895661            1 
 1735000   0.95756484   -3.2241646    1574.6303  0.075630656  0.075882427            2 
 1736000   0.95674453   -3.2197999    1572.9935  0.075508523  0.075869283            2 
 1737000   0.97860605   -3.1930523    1571.4822  0.075392546  0.075856333            1 
 1738000   0.96650945   -3.2200984    1574.7425  0.075505491  0.075842993            4 
 1739000   0.96770188   -3.1772612    1570.0018  0.075234897  0.075829804            2 
 1740000    1.0024322   -3.1956652    1574.3774  0.075401218   0.07581653            4 
 1741000    0.9445517   -3.2173991    1571.7793   0.07523355   0.07580332            5 
 1742000    0.9648028   -3.2012483    1576.8049  0.075430774  0.075789837            3 
 1743000   0.97898678    -3.227664    1580.2376  0.075551618  0.075776625            3 
 1744000   0.96350603   -3.2322524    1573.6162  0.075191904  0.075763047            2 
 1745000   0.99146371   -3.2077061    1576.5523  0.075289032  0.075749278            2 
 1746000    0.9606793   -3.2246499    1571.9696  0.075027184  0.075735482            4 
 1747000    0.9903483   -3.2216165    1578.1295   0.07527807  0.075722209            2 
 1748000   0.96658793   -3.2306268    1579.6474   0.07530737  0.075708629            3 
 1749000   0.96426183   -3.2428109    1575.6015  0.075071542  0.075694973            2 
 1750000   0.99254865   -3.1981319    1575.2765  0.075013169  0.075681347            6 
 1751000    0.9543734    -3.211501    1581.7069   0.07527636  0.075667947            2 
 1752000    1.0016916   -3.2152604    1581.5926  0.075227956  0.075654816            4 
 1753000   0.98235838   -3.2402676    1583.3189  0.075267106  0.075641397            2 
 1754000   0.97314649   -3.2128284    1582.8317  0.075201051  0.075628014            2 
 1755000   0.97574398   -3.2406777    1581.6073   0.07510006    0.0756145            2 
 1756000   0.97703425   -3.2222259    1588.9705  0.075406726   0.07560087            3 
 1757000   0.97692458   -3.2178114     1580.722  0.074972586  0.075587379            2 
 1758000   0.98713312    -3.238673    1582.4734  0.075012959  0.075573805            3 
 1759000   0.96050528   -3.2261449    1581.6041  0.074929133  0.075560273            2 
 1760000   0.96984712   -3.2058135    1586.0793  0.075098453  0.075546524            1 
 1761000   0.97033843   -3.2360808    1585.1202  0.075010419  0.075533209            2 
 1762000   0.95075786   -3.2202756    1584.4248  0.074934961  0.075519444            1 
 1763000   0.98084032   -3.2036872    1582.0486  0.074780138  0.075505876            3 
 1764000   0.96758436   -3.2312215    1586.7593  0.074960287  0.075492085            3 
 1765000   0.97243304   -3.2302327    1590.0092  0.075071254   0.07547872            3 
 1766000   0.95715898   -3.2193039    1589.7761  0.075017748  0.075464982            1 
 1767000   0.98212974   -3.2507129    1587.3706  0.074861845  0.075451252            2 
 1768000   0.97826991   -3.1813237    1587.6316  0.074831806  0.075437818            2 
 1769000     0.978951   -3.2227914    1588.0088  0.074807272  0.075424467            3 
 1770000    0.9630163   -3.2257278    1585.9191  0.074666622  0.075410855            1 
 1771000   0.97060964   -3.2133499     1589.228  0.074780163  0.075397048            4 
 1772000   0.96543556   -3.2078116    1582.7829   0.07443486  0.075383073            2 
 1773000   0.97309054    -3.228616    1594.5577  0.074946309  0.075369021            3 
 1774000   0.97568112   -3.2218222    1589.0173  0.074643806  0.075355122            2 
 1775000   0.96226991   -3.2412404    1587.0911  0.074511321  0.075341295            3 
 1776000   0.95999979    -3.230179    1592.3725   0.07471718  0.075327721           10 
 1777000    0.9442354   -3.2233557    1595.5628   0.07482474  0.075314107            4 
 1778000   0.95740331   -3.2419221    1593.9303  0.074706144  0.075300671            2 
 1779000   0.98446372   -3.2015963    1604.6138  0.075164597  0.075287262            5 
 1780000   0.96626328   -3.2241658     1594.114  0.074630803   0.07527355            5 
 1781000   0.98219286   -3.2320171     1596.071  0.074680469  0.075259934            2 
 1782000   0.96476938   -3.2137519    1604.1371  0.075015763  0.075246357            3 
 1783000   0.97084647   -3.2131788    1598.4233  0.074706642  0.075232819            3 
 1784000   0.92929533   -3.2322026    1602.9938  0.074878262  0.075219483            2 
 1785000   0.97201282   -3.2140985    1602.6353  0.074819575  0.075205872            1 
 1786000      0.97321    -3.193095    1598.8997  0.074603382  0.075192249            2 
 1787000   0.96762286   -3.2523885    1601.8883  0.074701002   0.07517881            3 
 1788000   0.98589672   -3.2408112    1602.5513  0.074690124  0.075165366            4 
 1789000   0.99580997   -3.2249319    1600.4164   0.07454893  0.075151974            4 
 1790000   0.97394283   -3.2207702     1606.025  0.074768391   0.07513843            2 
 1791000   0.96381388   -3.2385543    1601.7945  0.074529804  0.075125162            5 
 1792000   0.95654728   -3.2269013    1606.2345  0.074694685  0.075112231            3 
 1793000   0.97337249   -3.2483989    1606.3736  0.074659489  0.075099158            1 
 1794000   0.96972035   -3.1881538    1610.7936  0.074823191  0.075086112            4 
 1795000   0.96127585   -3.2296945    1611.3609   0.07480784   0.07507319            4 
 1796000   0.97530527    -3.223338    1612.0517  0.074798241  0.075059947            1 
 1797000    0.9590989   -3.1949365    1613.4022  0.074819244  0.075046898            4 
 1798000   0.97006802   -3.2285597    1620.0253  0.075084597  0.075033974            4 
 1799000   0.95226611   -3.2288832    1612.4359  0.074691307  0.075020884            2 
 1800000    0.9759182   -3.2579548     1611.444  0.074603888  0.075008074            3 
 1801000   0.95789978   -3.2406938    1609.5039  0.074472697  0.074994821            3 
 1802000   0.99070012   -3.2355411    1608.2479  0.074373285  0.074981379            2 
 1803000   0.96058435   -3.2153637    1616.8441  0.074729345  0.074968263            3 
 1804000   0.96659355   -3.2420222    1617.1601  0.074702517  0.074955188            2 
 1805000   0.97743801   -3.2237051    1612.8154  0.074460544  0.074941953            1 
 1806000   0.96679382   -3.2241767    1611.4741  0.074357424  0.074928715            2 
 1807000   0.95593988   -3.2352868    1613.1632  0.074394172  0.074915453            3 
 1808000   0.95171004   -3.2436112    1616.9885  0.074529338  0.074901986            6 
 1809000   0.95266542    -3.218411    1617.9565  0.074532729   0.07488875            2 
 1810000   0.94676349   -3.2394094    1615.9747  0.074400308  0.074875221            4 
 1811000   0.95544529   -3.2238747    1619.6521  0.074528441  0.074861685            4 
 1812000   0.96791636   -3.2318601    1614.8919  0.074268391  0.074848211            5 
 1813000    0.9576078   -3.2308938    1613.2961  0.074154078  0.074834943            3 
 1814000   0.97183968   -3.2545388    1615.5982  0.074218954  0.074821275            5 
 1815000   0.97053959   -3.2383065    1617.8679  0.074282273  0.074807976            3 
 1816000   0.95966746   -3.2778925    1617.3603  0.074218076  0.074794414            2 
 1817000   0.97373658   -3.2013395    1621.2876  0.074357345  0.074781001            6 
 1818000   0.96695965   -3.2366166    1621.4898  0.074325717  0.074767711            4 
 1819000   0.97713024   -3.1991359    1619.5285  0.074195001   0.07475416            4 
 1820000   0.95381927   -3.2391937    1617.5497  0.074063631  0.074740439            3 
 1821000   0.96040518   -3.2199653    1615.8352  0.073944498  0.074726669            2 
 1822000   0.97098097   -3.2051055    1627.4925  0.074437087  0.074713112            2 
 1823000   0.96317808   -3.2283109    1623.2134   0.07420065  0.074699543            2 
 1824000   0.95907194   -3.2399156    1620.2265  0.074023508  0.074685803            4 
 1825000   0.95290916   -3.2229949    1622.7398  0.074097709  0.074671947            4 
 1826000   0.96767227   -3.2068995    1627.0778  0.074255104  0.074658347            3 
 1827000   0.95831258    -3.220285    1625.3779  0.074136921   0.07464475            4 
 1828000   0.96169888    -3.225406    1622.1317  0.073948383  0.074630918            4 
 1829000   0.94196617   -3.2524848    1613.9769  0.073536399  0.074616619            4 
 1830000   0.96539464   -3.2367948    1626.5172  0.074067267  0.074602261            6 
 1831000   0.93834835   -3.2245196    1622.1509  0.073828095  0.074587938            3 
 1832000   0.98966861   -3.2129106    1620.3254  0.073704758  0.074573706            4 
 1833000   0.96390857   -3.2168198    1622.8729  0.073780365  0.074559473            2 
 1834000   0.96114411   -3.2458977    1625.7388  0.073870358   0.07454494            2 
 1835000   0.96477231   -3.2097805    1632.9759  0.074158759   0.07453072            2 
 1836000   0.94587301   -3.2275335    1628.2861  0.073905506  0.074516907            2 
 1837000   0.97466455   -3.2430763    1625.3686  0.073732925  0.074502723            2 
 1838000   0.94206189   -3.2553119      1624.47  0.073652068  0.074488532            5 
 1839000   0.96113002   -3.2526775    1628.1906  0.073780614  0.074473978            4 
 1840000    0.9515863   -3.2388128    1634.8768  0.074043335  0.074459626            3 
 1841000   0.98383968   -3.2376571    1634.3071  0.073977328  0.074445301            4 
 1842000   0.93836601   -3.2455647    1627.0779   0.07361011  0.074431035            5 
 1843000   0.95714802   -3.2113415    1638.4806  0.074085758  0.074416638            7 
 1844000   0.95912108   -3.2195197    1633.6647  0.073827941  0.074402555            1 
 1845000   0.97345402   -3.2563661    1629.3084  0.073591165  0.074388432            4 
 1846000   0.95738594   -3.2511639    1631.5941  0.073654485  0.074374377            2 
 1847000   0.95997772   -3.2513003    1629.7342  0.073530688  0.074360096            2 
 1848000   0.97906311   -3.2723371    1626.7564  0.073356619  0.074345832            2 
 1849000   0.97983414   -3.2351368    1636.3125  0.073747635  0.074331479            2 
 1850000   0.93137457   -3.2092516    1632.9884  0.073558034   0.07431735            2 
 1851000   0.92971115   -3.2502348    1630.8741  0.073423107  0.074303366            2 
 1852000   0.95527276   -3.2258153    1638.3397  0.073719391  0.074289112            3 
 1853000   0.95058524    -3.250741    1633.4041  0.073457639  0.074274668            3 
 1854000   0.94337679   -3.2435892    1629.9103  0.073260981  0.074260481            2 
 1855000   0.95386234   -3.2246975    1633.4175  0.073379045   0.07424608            6 
 1856000   0.96217352   -3.2497453    1632.5591  0.073300965  0.074231772            4 
 1857000   0.95621704   -3.2281089    1647.1026  0.073914138  0.074217527            2 
 1858000   0.94220093   -3.2363059    1639.4882  0.073532841  0.074203716            3 
 1859000   0.97160706   -3.2235171     1647.046  0.073832078  0.074189773            7 
 1860000   0.94973045   -3.2444494    1641.7353  0.073554451  0.074175894            3 
 1861000   0.93785907   -3.2895545    1643.4737   0.07359277  0.074161483            2 
 1862000    0.9652362   -3.2582605    1645.3168  0.073635734  0.074147398            2 
 1863000   0.95794938   -3.2626008    1636.5642  0.073204695  0.074133168            4 
 1864000   0.93811822    -3.218123    1647.7064  0.073663554  0.074119021            4 
 1865000   0.93913544   -3.2429864     1640.455  0.073300044  0.074105113            3 
 1866000   0.97054571   -3.2451041    1652.3484  0.073791908   0.07409104            3 
 1867000   0.96942522   -3.2681554    1641.1589  0.073252941  0.074076864            1 
 1868000   0.97081449   -3.2599514    1642.9159  0.073292108  0.074062421            2 
 1869000   0.94011762   -3.2488349    1644.1259  0.073306842  0.074048301            2 
 1870000   0.93790064   -3.2643126    1645.3875  0.073323863  0.074033929            4 
 1871000   0.93829427   -3.2415476    1643.8705  0.073217107  0.074019176            2 
 1872000   0.96985623   -3.2617932     1644.582  0.073209667  0.074004674            3 
 1873000   0.94520294   -3.2447063    1645.0966  0.073193479  0.073990341            1 
 1874000   0.95699324    -3.242183    1652.1297   0.07346717  0.073975904            3 
 1875000   0.94658304   -3.2187413    1647.6777  0.073230118  0.073961668            5 
 1876000   0.94865686   -3.2360361    1649.0169  0.073250573  0.073947351            3 
 1877000   0.96712056   -3.2359781    1647.6324  0.073150079  0.073932974            2 
 1878000   0.94538566   -3.2495172    1651.0465  0.073262622  0.073918847            2 
 1879000   0.96459482    -3.239782    1655.5597  0.073423792  0.073904411            4 
 1880000   0.94706593   -3.2250501    1646.3764  0.072977677  0.073890222            6 
 1881000   0.93215134   -3.2235423    1658.0725   0.07345705  0.073875788            2 
 1882000   0.93774915   -3.2460343    1650.7565  0.073094071  0.073861404            3 
 1883000    0.9453339    -3.248687    1661.0729  0.073511811  0.073846774            2 
 1884000   0.93626253   -3.2507303    1648.5678  0.072919666  0.073832252            3 
 1885000   0.95384114   -3.2285215    1651.6235  0.073016068  0.073817612            5 
 1886000   0.94824935    -3.262921     1655.322  0.073140776  0.073803092            5 
 1887000   0.93679224   -3.2433738    1653.2537  0.073010673  0.073788356            3 
 1888000   0.94489959   -3.2357962    1660.6812  0.073299842  0.073773992            2 
 1889000   0.93964924   -3.2434691     1656.484  0.073075877  0.073759852            4 
 1890000   0.94377385   -3.2539432    1658.7385  0.073136618  0.073745631            3 
 1891000    0.9431204   -3.2433445    1654.8852  0.072928131  0.073731295            4 
 1892000   0.96373061   -3.2519959    1651.6135  0.072745485  0.073716946            3 
 1893000   0.95188418   -3.2378505    1659.7971  0.073067316  0.073702637            7 
 1894000   0.94042495   -3.2616276    1654.7373  0.072806113  0.073688457            3 
 1895000   0.94264797   -3.2188723    1658.5266  0.072934329  0.073673983            2 
 1896000   0.92012464   -3.2228842    1661.9716  0.073047276  0.073660056            2 
 1897000   0.95052516    -3.256994    1661.3755  0.072982582  0.073646104            4 
 1898000   0.96289986   -3.2658356     1660.815  0.072919522  0.073631988            3 
 1899000    0.9458893   -3.2450994    1664.9483    0.0730625  0.073617955            3 
 1900000   0.94307269   -3.2618027    1662.2339  0.072904998  0.073603847            4 
 1901000   0.92107094   -3.2637307     1658.608  0.072707698  0.073589452            2 
 1902000   0.95683284   -3.2398379    1665.3013  0.072962729  0.073575468            2 
 1903000   0.93342845   -3.2590503    1664.6056  0.072893922   0.07356124            2 
 1904000   0.95496415   -3.2741493    1665.0933  0.072876984  0.073547583            6 
 1905000   0.95746519    -3.239899    1669.5954   0.07303567  0.073533589            4 
 1906000   0.96684112   -3.2502669    1669.2673  0.072983003  0.073519795            2 
 1907000   0.94949366   -3.2556642    1671.7187  0.073051856  0.073506002            2 
 1908000   0.92023528   -3.2325954    1668.9085  0.072890832   0.07349212            3 
 1909000   0.94617295   -3.2732681    1667.7504  0.072802096  0.073478154            4 
 1910000   0.96034025   -3.2444608    1675.7269  0.073111992  0.073464515            2 
 1911000   0.95773418   -3.2462723    1674.2241  0.073008203  0.073451093            1 
 1912000    0.9484464   -3.2535722    1674.0851  0.072963959  0.073437154            3 
 1913000   0.95946212    -3.244424    1677.7164  0.073084005  0.073423192            3 
 1914000   0.93667252   -3.2468308    1674.3396  0.072898799  0.073409273            6 
 1915000    0.9345424   -3.2640203    1666.5593  0.072522162  0.073395064            3 
 1916000   0.95720627   -3.2519219    1674.4929   0.07282937   0.07338089            3 
 1917000   0.95706345   -3.2299787    1675.7258  0.072844976  0.073367299            1 
 1918000   0.92655227   -3.2521335    1673.9514  0.072729902  0.073353713            1 
 1919000   0.96752137   -3.2655452    1673.7721  0.072684216  0.073339748           11 
 1920000   0.93710729   -3.2395068    1676.4814  0.072763949  0.073325674            3 
 1921000   0.95666694   -3.2212583    1681.1382  0.072928083  0.073312166            2 
 1922000   0.94610704   -3.2588872    1679.2732  0.072809277  0.073298351            3 
 1923000   0.94245104   -3.2393811    1683.9461  0.072973915  0.073284543            1 
 1924000     0.932366   -3.2340418    1681.3167  0.072822103  0.073271104            5 
 1925000   0.94080893   -3.3001524    1678.5886  0.072666171  0.073257454            3 
 1926000   0.95254984   -3.2576091    1682.3405  0.072790782  0.073244087            2 
 1927000   0.93739995   -3.3056599    1686.6194  0.072938048  0.073230453            8 
 1928000   0.93547825   -3.2415014    1684.3324  0.072801367  0.073216826            2 
 1929000   0.91340974   -3.2891058    1671.7777  0.072221258  0.073202987            3 
 1930000    0.9461807   -3.2391227    1675.8902  0.072361408  0.073189065            2 
 1931000   0.94802794   -3.2383788    1681.6018  0.072570422  0.073175076            2 
 1932000   0.95854224   -3.2531894    1681.6418  0.072534583  0.073160967            4 
 1933000   0.92788338   -3.2484757    1683.2655  0.072567058  0.073146799            2 
 1934000   0.94107986   -3.2422926    1683.5146  0.072540271  0.073132913            4 
 1935000   0.95317065   -3.2333563    1684.0097  0.072524106  0.073118821            3 
 1936000   0.96525874    -3.249784    1685.7256  0.072560504  0.073104691            5 
 1937000   0.95605856   -3.2459325    1693.2068  0.072844898   0.07309071            2 
 1938000   0.93899005   -3.2799597    1682.0642   0.07232818  0.073076572            3 
 1939000   0.93831134   -3.2691245    1686.0479  0.072462091  0.073062555            2 
 1940000   0.93741286   -3.2709032    1683.7958  0.072327997    0.0730483            4 
 1941000    0.9580709   -3.2595235    1690.1444    0.0725633  0.073034228            5 
 1942000   0.95833159   -3.2557854    1688.1309  0.072439536  0.073020173            5 
 1943000   0.91347741   -3.2565807    1689.2999  0.072452389  0.073006532            5 
 1944000   0.95457143   -3.2257714    1694.1268  0.072622032   0.07299284            2 
 1945000   0.95497346   -3.2473733    1686.9551  0.072277424  0.072978959            3 
 1946000   0.92126489   -3.2569486    1691.0151  0.072414146  0.072965047            1 
 1947000   0.94458921   -3.2606728    1685.8434  0.072155597  0.072951157            2 
 1948000   0.92374413   -3.2750579    1689.1924  0.072261823  0.072937023            5 
 1949000   0.94821523    -3.237299    1689.6309  0.072243495  0.072922991            2 
 1950000   0.93083915   -3.2330462    1692.5743  0.072332234  0.072908983            8 
 1951000   0.91545025   -3.2435042    1686.5927  0.072039668  0.072894734            3 
 1952000   0.92546372   -3.2482678     1684.352  0.071907103  0.072880471            3 
 1953000   0.94280688    -3.260834    1691.2578  0.072164953  0.072866488            2 
 1954000   0.95885719   -3.2460631    1697.0752  0.072376118  0.072852411            2 
 1955000   0.92178015   -3.2446155    1697.7588  0.072368235  0.072838351            2 
 1956000   0.95512442   -3.2785583     1693.195  0.072136802  0.072824229            5 
 1957000   0.94730628   -3.2634289    1694.0375  0.072135814  0.072810111            2 
 1958000   0.94661758   -3.2760658    1689.4421  0.071903393   0.07279551            3 
 1959000   0.94735982   -3.2620156    1692.4758  0.071995736  0.072781037            5 
 1960000   0.93290912   -3.2668281    1696.2515  0.072119535  0.072766521            4 
 1961000   0.91779939   -3.2831129     1690.845  0.071853008  0.072752047            5 
 1962000   0.91883707   -3.2604193    1696.5574  0.072059015  0.072737652            3 
 1963000   0.94369862   -3.2875391    1693.5187  0.071893307  0.072723077            3 
 1964000    0.9483874   -3.2612853    1703.6668  0.072287289  0.072708716            2 
 1965000   0.96272877    -3.248259    1701.7247  0.072168139  0.072694595            2 
 1966000    0.9398365   -3.2316306    1698.6583  0.072001455  0.072680526            6 
 1967000   0.96256157   -3.2601126    1695.3197  0.071823406  0.072666299            4 
 1968000   0.94621066   -3.2704761    1705.5252  0.072219053  0.072652122            4 
 1969000   0.95022934   -3.2792046    1700.3986  0.071965407  0.072637876            2 
 1970000   0.91891732   -3.2808635    1691.8472  0.071567141  0.072623637            3 
 1971000   0.91995281   -3.2662278    1701.0172  0.071918537   0.07260917            5 
 1972000   0.92143312   -3.2691244    1702.3998   0.07194049  0.072595064            2 
 1973000   0.95342801   -3.2733524    1700.9517  0.071842868  0.072580655            4 
 1974000   0.97190597   -3.2772045    1700.3656  0.071781729  0.072566446            3 
 1975000   0.94035181   -3.2726471    1704.3814  0.071914829   0.07255218            6 
 1976000   0.93236739     -3.26591    1706.1453  0.071952821  0.072537807            2 
 1977000   0.94658879   -3.2687471     1704.587   0.07185074  0.072523812            4 
 1978000    0.9431162   -3.2804453    1696.0574  0.071455062  0.072509842            5 
 1979000   0.93658336    -3.263564    1710.3807  0.072022094  0.072495618            4 
 1980000   0.91013977   -3.2470285    1707.3125  0.071856585  0.072481768            2 
 1981000   0.91940319   -3.2776193    1699.9573  0.071510907  0.072467691            4 
 1982000   0.92702328    -3.267522    1702.9816  0.071601984  0.072453573            6 
 1983000   0.92384812   -3.2487554    1709.3542  0.071833676   0.07243971            2 
 1984000   0.94361073   -3.2672306    1708.7752  0.071773153  0.072425761            6 
 1985000   0.92075608   -3.2441694    1712.7564  0.071904133  0.072411765            2 
 1986000   0.92189002   -3.2612211    1714.5155  0.071941736  0.072397915            4 
 1987000    0.9371203    -3.243436    1715.8042   0.07195958  0.072384176            5 
 1988000   0.93335187   -3.2894027    1714.5269   0.07186984  0.072370239            3 
 1989000   0.94202996   -3.2506128    1716.6585  0.071923013  0.072356054            4 
 1990000   0.92982805   -3.2617182    1707.5574  0.071505755  0.072341835            4 
 1991000   0.90724708   -3.2529615    1717.7813   0.07189776  0.072328053            2 
 1992000   0.92569171   -3.2765414      1714.03  0.071704737   0.07231409            5 
 1993000   0.94898677   -3.2743055     1713.388  0.071641915  0.072300059            4 
 1994000   0.94040151   -3.2962787     1716.093  0.071719031  0.072285915            2 
 1995000   0.93900222   -3.2860997    1716.8289  0.071713823   0.07227189            4 
 1996000   0.94154556    -3.276315     1714.321  0.071573187  0.072257864            5 
 1997000   0.94758716    -3.270706    1714.8263  0.071558435  0.072243801            2 
 1998000   0.93291275   -3.2696277    1721.0004   0.07178013  0.072229691            4 
 1999000   0.94042682   -3.2370944    1721.9841  0.071785232  0.072215894            3 
 2000000   0.91934113    -3.259268    1722.7584  0.071781599  0.072201996            4 
 2001000   0.93662559   -3.2865743    1721.9502  0.071712069  0.072187882            2 
 2002000   0.92557438   -3.2666332    1719.2083  0.071562117  0.072173941            3 
 2003000   0.92911559   -3.2751644    1724.1637  0.071732554  0.072160121            2 
 2004000   0.93813367   -3.2485818    1726.1346  0.071778717  0.072146393            9 
 2005000   0.95593403   -3.3099439    1724.3373  0.071668215  0.072132627            7 
 2006000   0.93737904   -3.3040118    1720.4211  0.071469802  0.072118784            2 
 2007000   0.93766571    -3.278244    1721.8836  0.071494919  0.072104939            2 
 2008000   0.92723296   -3.2785638    1722.0522   0.07146631   0.07209121            4 
 2009000   0.91284513   -3.2652737    1727.2104  0.071644697   0.07207766            4 
 2010000    0.9374253   -3.2726889    1721.4072  0.071368458   0.07206411            3 
 2011000   0.94210182   -3.2751425     1728.475  0.071625851   0.07205009            2 
 2012000    0.9504122   -3.2693399    1729.9046  0.071649463  0.072036219            4 
 2013000   0.92488367   -3.2584116    1723.8682  0.071363974  0.072022512            4 
 2014000   0.94805547   -3.2584516    1729.3187  0.071554069  0.072008762            1 
 2015000   0.90453023   -3.2792326    1727.1754  0.071429919  0.071995079            6 
 2016000   0.94151795    -3.265998    1728.7847  0.071461008  0.071981036            3 
 2017000   0.93170663   -3.2616133    1725.0316  0.071270517     0.071967            2 
 2018000   0.95318309   -3.2771067    1727.5407  0.071338815  0.071952916            2 
 2019000    0.9499042   -3.2756855    1726.0402  0.071241547  0.071938982            3 
 2020000   0.93888084   -3.2666498    1727.4874  0.071265981  0.071924804            4 
 2021000   0.93875619   -3.2410759    1739.1644  0.071712206  0.071910698            2 
 2022000    0.9038335   -3.3343668    1726.3438  0.071148359  0.071896697            2 
 2023000   0.93038028   -3.3049882    1728.2559  0.071191954   0.07188239            5 
 2024000   0.91894473   -3.2943938    1735.8643  0.071470038  0.071868122            5 
 2025000     0.921712   -3.2610879    1730.4952  0.071213795  0.071853954            2 
 2026000   0.92326912   -3.2755078    1737.1626  0.071452887  0.071840013            3 
 2027000   0.91658622   -3.2712944    1732.1286  0.071210683  0.071825766            3 
 2028000   0.93173319   -3.2887309    1732.5339  0.071192222  0.071811757            4 
 2029000    0.9126387   -3.2779676    1735.1233  0.071263484  0.071797769            3 
 2030000    0.9182924   -3.2526939    1738.1414  0.071352276  0.071783833            2 
 2031000   0.92233512   -3.2866356    1734.1665  0.071154052  0.071769516            2 
 2032000   0.91256859   -3.2935389    1734.7516  0.071143027  0.071755294           13 
 2033000   0.91443291   -3.2748023    1730.1412  0.070919053  0.071741142            3 
 2034000   0.90236933   -3.2535096    1742.4532   0.07138861  0.071727101            4 
 2035000   0.89877823   -3.2771892    1736.9672  0.071128878  0.071713002            2 
 2036000   0.93415276   -3.2690593    1739.6651  0.071204368  0.071699234            2 
 2037000   0.92544742   -3.3010121    1741.1699  0.071230973  0.071685225            2 
 2038000   0.92076004   -3.2639483    1737.8975  0.071062213  0.071671205            4 
 2039000   0.92170844   -3.2773869    1743.0278  0.071237036  0.071657379            4 
 2040000   0.92032926   -3.2753975    1740.1162  0.071083177  0.071643449            4 
 2041000    0.9202506   -3.2812914    1746.2787  0.071299965  0.071629716            3 
 2042000   0.92722173   -3.2761507    1739.9958  0.071008643  0.071616133            3 
 2043000   0.92838502   -3.3190965    1747.3395  0.071273435  0.071602354            2 
 2044000   0.92223179   -3.2882161    1742.4361  0.071038654  0.071588353            2 
 2045000   0.91346395   -3.2659428    1744.9491  0.071106319  0.071574524            3 
 2046000    0.9391471   -3.2595698    1753.4407  0.071417427  0.071560655            2 
 2047000   0.93022778   -3.2844793    1748.7078  0.071189864  0.071546788            4 
 2048000    0.9261414   -3.2836217    1743.7993  0.070955374  0.071532736            2 
 2049000   0.94046992   -3.2850059    1742.2752  0.070858758  0.071518511            3 
 2050000   0.94509973   -3.2796167    1741.2553  0.070782737  0.071504348            2 
 2051000   0.94208829   -3.2780037    1741.6786  0.070765422  0.071490098            2 
 2052000   0.91271868   -3.2908655    1740.9639  0.070701914  0.071475941            2 
 2053000   0.92984251   -3.2745676    1748.6276  0.070978551  0.071461608            1 
 2054000   0.92730971   -3.2828954    1748.5516   0.07094091  0.071447531            1 
 2055000   0.92451808   -3.3072206     1745.079   0.07076557  0.071433465            3 
 2056000   0.92361943   -3.2943783     1743.912  0.070683853   0.07141936            3 
 2057000   0.93498769   -3.3024632    1751.4607  0.070955303   0.07140545            2 
 2058000   0.91532691   -3.2847775    1744.7238  0.070648032  0.071391601            2 
 2059000   0.94388653   -3.2793772    1757.9838  0.071150387  0.071377911            2 
 2060000   0.92539582   -3.2822503    1759.2807  0.071168311  0.071364414            2 
 2061000   0.89993835   -3.2895007    1754.2061    0.0709286  0.071350722            4 
 2062000    0.9268634   -3.2809016    1752.8992  0.070841383  0.071336933            6 
 2063000   0.92817498   -3.2516364    1756.2008  0.070940411  0.071323178            4 
 2064000   0.91972459   -3.2973452    1750.1965  0.070663619  0.071309737            2 
 2065000   0.91413738   -3.2591754    1758.8476  0.070978513  0.071295811            6 
 2066000   0.93957623   -3.2952349    1757.0594   0.07087203  0.071282049            2 
 2067000   0.90985528   -3.2761083    1757.9188  0.070872393  0.071268227            4 
 2068000    0.9226223   -3.2773519    1753.4976  0.070659963  0.071254519            4 
 2069000   0.94529967   -3.2608383     1756.936  0.070764298  0.071240826            3 
 2070000   0.92855393   -3.2987983    1759.9228  0.070850356  0.071227193            2 
 2071000   0.92830667   -3.2913357     1754.185  0.070585265  0.071213426            1 
 2072000   0.91567962   -3.2897362    1760.7492  0.070815202  0.071199833            3 
 2073000   0.94080129   -3.2853932    1759.1347  0.070716139  0.071186017            2 
 2074000   0.92342124   -3.2741646    1759.4498  0.070694703  0.071172316            6 
 2075000   0.92581118   -3.2849389    1753.8096  0.070434119  0.071158532            2 
 2076000   0.91060978    -3.293402    1763.7344  0.070798589   0.07114453            5 
 2077000   0.90762387   -3.2669732    1763.4814  0.070754347  0.071130613            2 
 2078000   0.91962264   -3.2620525    1767.0274  0.070862504  0.071116964            2 
 2079000   0.91786627   -3.2803969    1758.6279   0.07049174  0.071103147            3 
 2080000   0.92014504   -3.2818038    1763.6895  0.070660636  0.071089245            1 
 2081000   0.91140487   -3.2957004    1762.9662  0.070597718  0.071075246            6 
 2082000   0.93804237   -3.2880371    1761.5132   0.07050565  0.071061494            2 
 2083000     0.903117   -3.2945777    1763.2831  0.070542612  0.071047463            3 
 2084000   0.91861532    -3.292317    1760.3387  0.070391024  0.071033422            5 
 2085000   0.92241765   -3.2954541    1762.9453  0.070461441    0.0710194            3 
 2086000   0.91808973   -3.2922695    1765.4501  0.070527728  0.071005652            3 
 2087000   0.92095501   -3.3017925     1762.119  0.070360924  0.070991957            4 
 2088000   0.92238594   -3.2764087    1765.8051   0.07047434  0.070977927            3 
 2089000   0.90690555   -3.2933862    1762.3089  0.070301137  0.070963905            2 
 2090000   0.91958103   -3.2624695    1770.6038  0.070598239  0.070949939            4 
 2091000   0.88437599   -3.2730655    1772.3072  0.070632363   0.07093608            4 
 2092000   0.92571879     -3.27169    1768.8234  0.070459822  0.070922051            1 
 2093000   0.90905846   -3.2871152    1769.0599  0.070435577  0.070908282            2 
 2094000   0.91920774   -3.3144857    1763.4302  0.070177896  0.070894168            3 
 2095000   0.91346866   -3.2764298    1766.9231  0.070283339  0.070880113            2 
 2096000   0.90200199   -3.3158809    1771.1466  0.070417726  0.070866031            1 
 2097000   0.90599381   -3.2924365    1767.2816  0.070230552   0.07085216            2 
 2098000   0.93563849   -3.3060745    1761.1907  0.069955144  0.070838161            5 
 2099000   0.92066889   -3.2979209    1768.1682  0.070198834  0.070824108            5 
 2100000   0.90959527   -3.2746626    1770.8704  0.070272637  0.070810009            3 
 2101000   0.92965148   -3.3328247    1771.9459  0.070281845  0.070796015            8 
 2102000   0.90565188   -3.3031007    1768.1233  0.070096864  0.070781677            4 
 2103000   0.87726851   -3.2650316    1772.9551  0.070254996  0.070767426            2 
 2104000   0.93139957   -3.2865072    1768.4097  0.070041576  0.070753084            6 
 2105000   0.90844434   -3.2746538    1776.6928  0.070336216  0.070738763            4 
 2106000   0.91058163   -3.3058789    1767.6394  0.069944579  0.070724705            4 
 2107000   0.92022751   -3.2846792    1772.9645  0.070121996  0.070710354            4 
 2108000   0.91810659   -3.2687587    1778.8132   0.07031994  0.070696104            2 
 2109000   0.92845387    -3.298771    1775.0297  0.070137099  0.070681879            4 
 2110000   0.90138507   -3.2787337     1775.308  0.070114851  0.070667389            6 
 2111000   0.92013317   -3.3029031    1776.0682  0.070111646  0.070653073            2 
 2112000   0.91480487   -3.2712999    1780.2197  0.070242256    0.0706388            2 
 2113000   0.93177141   -3.2819314    1778.5241  0.070142141  0.070624507            3 
 2114000   0.92403893   -3.2895357    1772.5036  0.069871635  0.070610334            3 
 2115000   0.88643682   -3.2965088    1781.3534   0.07018729  0.070595895            3 
 2116000   0.90603674   -3.2805712    1777.9227  0.070019011  0.070581595            7 
 2117000   0.92878577    -3.290609    1779.0406  0.070029939  0.070567492            7 
 2118000    0.9246445   -3.2861657    1775.4007  0.069853664  0.070553407            5 
 2119000   0.89295699    -3.319986    1774.7805  0.069796306  0.070539243            5 
 2120000   0.91287614   -3.2819191    1781.9456  0.070045032  0.070524726            2 
 2121000   0.91820243   -3.2795764    1778.1163  0.069861556  0.070510402            3 
 2122000    0.9082436   -3.3005765    1778.1378  0.069829477  0.070496388            5 
 2123000   0.91101213   -3.3004185    1783.8609  0.070021231   0.07048224            2 
 2124000    0.9143115   -3.3241017    1780.0277  0.069837872   0.07046832            4 
 2125000   0.89588529   -3.3129565     1785.946  0.070037098  0.070454152            7 
 2126000   0.92420231   -3.2853866    1780.9226   0.06980725   0.07044023            4 
 2127000   0.90648081   -3.3085645    1779.6411  0.069724224  0.070425843            3 
 2128000   0.93226633   -3.3110841    1790.4716  0.070115586  0.070411456            4 
 2129000   0.89862333   -3.3180546    1780.3723  0.069687345  0.070397276            5 
 2130000   0.89035275   -3.2988275    1781.1036   0.06968324  0.070382855            2 
 2131000   0.90403977   -3.2739271    1784.1252  0.069768699  0.070368486            2 
 2132000   0.90694967   -3.3037229    1783.6229  0.069716344  0.070353962            3 
 2133000   0.91544669   -3.3164455    1787.7471  0.069844783  0.070339429            2 
 2134000    0.9241909   -3.2941638    1788.0773   0.06982495   0.07032508            5 
 2135000   0.90604111   -3.3012262    1787.5359  0.069771112  0.070310921            2 
 2136000   0.90059346   -3.2947313    1786.6815  0.069705115  0.070296692            3 
 2137000   0.88857482   -3.2998225    1787.5257  0.069705417   0.07028247            2 
 2138000   0.91027099   -3.3147649    1784.8255  0.069567568  0.070268002            2 
 2139000   0.91180221   -3.3161544    1787.2363  0.069628966  0.070253738            3 
 2140000   0.91385951   -3.2902123    1785.8758   0.06954345  0.070239363            3 
 2141000   0.88244102   -3.3078209    1789.2638   0.06964284  0.070225204            3 
 2142000   0.89155016   -3.2693518    1786.5548  0.069504934  0.070211198            3 
 2143000   0.89167187   -3.2992055    1789.1149  0.069572051  0.070197119            2 
 2144000   0.90265828   -3.3346933    1783.9059  0.069337139  0.070182674            4 
 2145000   0.92076994   -3.2998442    1793.2968   0.06966965  0.070168275            5 
 2146000   0.90843588   -3.3180098    1785.5735  0.069337275  0.070153966            2 
 2147000   0.88952202   -3.3017523    1791.2764  0.069526332  0.070139536            3 
 2148000   0.91666669    -3.307941    1785.1833  0.069257577  0.070124974            3 
 2149000   0.91445024   -3.2835148    1791.5425  0.069471943  0.070110365            2 
 2150000   0.90362624   -3.3056463    1789.3715  0.069355486  0.070095894            4 
 2151000   0.90118017    -3.297359    1786.5024  0.069212086   0.07008139            3 
 2152000   0.90503078   -3.3038963    1787.1941  0.069206713  0.070066531            3 
 2153000   0.89357371     -3.29544    1789.4227  0.069260827  0.070051971            4 
 2154000   0.89148968   -3.2981697    1793.1276  0.069372007    0.0700375            5 
 2155000   0.92508963   -3.3146201     1793.616  0.069358702  0.070022868            3 
 2156000   0.89583308   -3.3031306    1793.0776   0.06930572  0.070008228            3 
 2157000   0.93761913   -3.3220201    1798.4943   0.06948286  0.069993818            3 
 2158000   0.92167101   -3.3120965    1790.6725  0.069148615  0.069979331            3 
 2159000   0.89610081   -3.3055693    1795.1183  0.069288185  0.069964636            2 
 2160000   0.90504105   -3.3151263    1797.7736  0.069358549  0.069949972            4 
 2161000   0.89799323   -3.3064489     1789.865  0.069021479   0.06993527            3 
 2162000   0.90601287   -3.2934152    1790.0296  0.068995899  0.069920825            7 
 2163000   0.88007442   -3.2869576    1797.9442  0.069268924  0.069906359            2 
 2164000   0.91310486   -3.2969429    1797.0611  0.069202908   0.06989173            3 
 2165000    0.8862875   -3.3085601    1798.4357  0.069223853  0.069877088            2 
 2166000   0.89297355   -3.2943729    1796.5161   0.06911804  0.069862548            2 
 2167000   0.90161631   -3.3189342    1794.2809   0.06900019  0.069847799            3 
 2168000   0.91976815   -3.3128478    1798.7191  0.069138955  0.069832865            3 
 2169000   0.88857637   -3.3340116    1795.1384  0.068969509  0.069818046            5 
 2170000   0.89128136   -3.2797584    1804.9087  0.069312929  0.069803415            2 
 2171000   0.89063789   -3.3072634    1801.4805  0.069149414  0.069788952            3 
 2172000   0.90475265   -3.3161466    1798.7708  0.069013612  0.069774429            4 
 2173000   0.91020203   -3.3231231     1801.302  0.069078924  0.069759825            3 
 2174000    0.9136459    -3.286956    1807.3109  0.069277481   0.06974528            3 
 2175000   0.89010546   -3.3298991    1803.5421   0.06910123  0.069730786            4 
 2176000   0.91512516   -3.3331664    1797.0669  0.068821494  0.069716066            3 
 2177000   0.90925625   -3.2981881    1796.9542  0.068785568  0.069701536            2 
 2178000   0.89655357   -3.2824348    1798.8335   0.06882589  0.069686746            3 
 2179000   0.87528574   -3.2840884    1804.7605  0.069020977   0.06967213            6 
 2180000   0.91409934   -3.3349809    1804.2786  0.068970896  0.069657554            3 
 2181000   0.90607236   -3.3228655     1798.303  0.068710951  0.069642886            7 
 2182000   0.91485094   -3.2865633    1807.2389  0.069020735  0.069628365            2 
 2183000    0.9054042   -3.3050656    1806.0116  0.068942266  0.069613679            5 
 2184000   0.89703701   -3.2898195    1806.4192  0.068926251  0.069599144            5 
 2185000    0.8908042    -3.314738    1802.8578  0.068758879  0.069584527            9 
 2186000   0.91619756   -3.3356549     1807.951  0.068921586  0.069569892            5 
 2187000   0.89060539   -3.3136395     1810.622  0.068991847  0.069555262            5 
 2188000    0.9027946   -3.3282356     1808.009  0.068860793  0.069540777            4 
 2189000   0.92107219   -3.2931734    1811.1432  0.068948654  0.069526164            3 
 2190000   0.88486631   -3.3320411    1808.7881  0.068827555  0.069511415            5 
 2191000   0.89006797   -3.3118677    1804.5182  0.068633737   0.06949669            6 
 2192000   0.88927397   -3.3352486    1807.8609  0.068729505  0.069481815            3 
 2193000   0.90359797     -3.27605      1811.94  0.068853169  0.069467036            2 
 2194000   0.91173283   -3.3018964    1814.2803  0.068910676  0.069452341            3 
 2195000   0.89601138   -3.3278573    1808.2077  0.068648735  0.069437588            3 
 2196000   0.88841252   -3.3332092    1809.2387    0.0686566  0.069422788            5 
 2197000   0.90025465   -3.2771317    1815.8528  0.068876224  0.069407984            2 
 2198000   0.89805814   -3.3212181    1804.3708  0.068409568  0.069393298            4 
 2199000   0.88438205   -3.3077715    1809.3001   0.06856526  0.069378429            2 
 2200000   0.89536021   -3.3043881    1813.0261  0.068675229  0.069363818            2 
 2201000   0.90037047   -3.3091619    1810.6285  0.068553254  0.069349024            3 
 2202000   0.90814446    -3.316165    1810.5526  0.068519246  0.069334182            8 
 2203000    0.8970274   -3.3212833    1805.2663   0.06828818   0.06931934            4 
 2204000   0.90734591   -3.3223632    1809.2302   0.06840707  0.069304648            6 
 2205000   0.91174815   -3.3039663    1811.4819  0.068461145  0.069289854            5 
 2206000   0.88987447   -3.3322473    1811.6672  0.068437112  0.069275274            3 
 2207000   0.91263852   -3.2973732    1811.3562  0.068394358   0.06926048            5 
 2208000   0.90418608   -3.3104838    1821.1002  0.068731136  0.069245832            3 
 2209000   0.91018558   -3.2991054    1828.1633  0.068966474  0.069231326            6 
 2210000   0.90373184   -3.3222273    1821.3638  0.068678876  0.069216779            5 
 2211000   0.90929674    -3.322336    1821.4367  0.068650561  0.069202442            2 
 2212000   0.91575158   -3.3087355    1820.0543  0.068567445  0.069187925            2 
 2213000   0.89711718    -3.307092    1820.4116  0.068549916  0.069173634            4 
 2214000   0.88197198   -3.2841986    1820.0746  0.068506269  0.069159392            4 
 2215000   0.89878311   -3.3184766    1824.3991  0.068638039  0.069145085            4 
 2216000   0.90858882   -3.3350748    1822.8656  0.068549398  0.069130838            2 
 2217000   0.91314035   -3.3461853    1819.8108  0.068403655  0.069116619            3 
 2218000    0.9052888   -3.3247334    1827.6791  0.068668438  0.069102336            3 
 2219000   0.89116175   -3.2822731    1827.4223  0.068627848  0.069088283            8 
 2220000   0.89487931   -3.3084972    1832.3475  0.068781815  0.069074122            5 
 2221000   0.91235392   -3.3163314    1821.6837  0.068350731  0.069059749            4 
 2222000   0.89347109   -3.3244577    1833.0246  0.068745296  0.069045492            3 
 2223000   0.91999647   -3.3197639    1824.3973  0.068390961  0.069031113            7 
 2224000   0.88296196   -3.3271836    1825.6769  0.068408156  0.069016947            4 
 2225000   0.89296227    -3.329065    1825.4638  0.068369432  0.069002784            5 
 2226000   0.89671555   -3.3205504    1827.3902  0.068410833  0.068988477            2 
 2227000    0.9068431   -3.3248036    1830.3947  0.068492544  0.068974136            4 
 2228000    0.9086065   -3.3330437    1832.5531  0.068542529  0.068959863            4 
 2229000   0.88967678   -3.3113874    1832.1545  0.068496878  0.068945661            4 
 2230000    0.8953835   -3.3095623    1827.3448  0.068286426  0.068931354            2 
 2231000   0.88962444   -3.3079295    1828.2045  0.068287933   0.06891717            5 
 2232000   0.87763076   -3.3070054    1834.9713  0.068509979  0.068902989            4 
 2233000   0.90402386   -3.3384428    1831.6699  0.068356093  0.068888795            6 
 2234000   0.90820195   -3.3104757    1829.0405  0.068227414  0.068874801            5 
 2235000   0.88590941    -3.310035    1835.3131  0.068430764  0.068860582            2 
 2236000   0.88212684   -3.3479315     1830.392  0.068216756  0.068846674            4 
 2237000   0.90771403   -3.3364796    1834.9722  0.068356883  0.068832518            4 
 2238000   0.90755346   -3.3103389    1835.5642  0.068348385  0.068818409            2 
 2239000   0.89090817   -3.3285615    1838.6234  0.068431718  0.068804334            6 
 2240000   0.89692054   -3.3285705    1840.2187  0.068460518  0.068790272            2 
 2241000   0.89014627   -3.3252638    1837.8606   0.06834228  0.068776582            2 
 2242000   0.87773735   -3.3347891    1846.6229  0.068637486  0.068762601            4 
 2243000   0.90402015    -3.351562     1839.301  0.068334855  0.068748669            3 
 2244000   0.90928431   -3.3168904    1843.0701  0.068444375  0.068734627            3 
 2245000   0.87981148   -3.2947913    1841.6603  0.068361555  0.068720903            2 
 2246000     0.898829   -3.3053971    1836.7049  0.068147257  0.068706978            2 
 2247000   0.86584369   -3.2851015    1835.1574   0.06805954  0.068693041            2 
 2248000   0.88528152   -3.3254086    1846.4078  0.068446314  0.068679372            3 
 2249000    0.9121115   -3.3085009    1839.0201  0.068142143  0.068665442            2 
 2250000   0.87609855   -3.3423975     1843.495  0.068277594  0.068651415            3 
 2251000   0.90495427   -3.3341284    1844.4857  0.068283937  0.068637606            4 
 2252000    0.9125541   -3.3347685     1842.313  0.068173217  0.068623586            4 
 2253000   0.87580406   -3.3270163    1848.7726  0.068381882  0.068609695            3 
 2254000   0.89476482   -3.3108018    1847.0095  0.068286359  0.068595856            4 
 2255000   0.87668153   -3.2990962     1849.449   0.06834623  0.068581958            4 
 2256000   0.90729048   -3.3401673    1839.3552  0.067943084  0.068568042            2 
 2257000   0.86758557   -3.3241938    1845.5674   0.06814235  0.068554085            6 
 2258000   0.88795268    -3.321536    1844.7355  0.068081469  0.068539962            3 
 2259000   0.89066847   -3.3086096    1846.5788   0.06811933  0.068525958            4 
 2260000   0.88366122   -3.3295256    1846.6594  0.068092162  0.068511734            4 
 2261000   0.89370069   -3.3281898    1847.5254  0.068093963    0.0684977            5 
 2262000   0.87751157    -3.317487    1851.7156  0.068218228  0.068483428            4 
 2263000   0.88483903    -3.321821    1850.1015  0.068128644  0.068469439            4 
 2264000   0.87878795   -3.3205335    1845.6851  0.067935994  0.068455246            4 
 2265000   0.89660534   -3.3284362    1846.9852  0.067953833  0.068441248            3 
 2266000   0.89566993   -3.3210185    1856.8398  0.068286252  0.068427252            3 
 2267000   0.89711452   -3.3210076    1847.1949  0.067901591  0.068413404            4 
 2268000   0.88172064   -3.2846653    1855.9339  0.068192751  0.068399673            2 
 2269000    0.8886641   -3.3291239    1856.7111  0.068191239  0.068385922            4 
 2270000   0.88488302    -3.305149    1860.3195  0.068293668  0.068372462            2 
 2271000   0.88326021   -3.3580918    1845.2382  0.067710193  0.068358478            3 
 2272000   0.87499487   -3.3172901    1848.3498  0.067794519  0.068344572            5 
 2273000   0.86918294   -3.3358183    1853.5107  0.067953906  0.068330694            5 
 2274000   0.89580214   -3.3329922    1854.6578  0.067966059  0.068316988            3 
 2275000   0.87178156   -3.3348841    1861.2282  0.068176856  0.068303268            3 
 2276000   0.89323184   -3.3082481    1850.4433  0.067752023  0.068289657            2 
 2277000   0.89131659   -3.3126213    1858.9167  0.068032378  0.068276327            4 
 2278000   0.89914837   -3.3332676    1854.9226  0.067856403   0.06826264            2 
 2279000   0.87636673   -3.3569378    1855.4939  0.067847516  0.068248978            3 
 2280000   0.87215164    -3.330897    1857.5503   0.06789292   0.06823518            3 
 2281000   0.89579225   -3.3335319    1862.4633  0.068042644  0.068221492            4 
 2282000   0.89429998    -3.313365    1854.2885  0.067714306  0.068207754            1 
 2283000   0.90384078   -3.3101874    1858.8106  0.067849709  0.068194074            4 
 2284000   0.89485662   -3.3268677    1858.5568   0.06781074  0.068180145            4 
 2285000    0.8886931   -3.3268184    1862.8291  0.067936873  0.068166334            5 
 2286000   0.88105387   -3.3114693    1867.6846  0.068084159  0.068152774            3 
 2287000    0.8892424   -3.3613503    1863.9712  0.067919081  0.068139105            2 
 2288000   0.87416897   -3.3626781    1855.3479  0.067575318  0.068125392            2 
 2289000   0.89140012   -3.3182806    1866.1512    0.0679391  0.068111517            3 
 2290000    0.8699672   -3.3233166    1859.9093  0.067682287  0.068097814            2 
 2291000   0.90188882   -3.3237382    1860.7409  0.067682996  0.068083993            6 
 2292000   0.89972576   -3.3256137    1865.0901  0.067811595   0.06807024            3 
 2293000   0.86221813   -3.3453256    1861.5029  0.067651653    0.0680566            2 
 2294000   0.89121239   -3.3396448    1864.0919  0.067716211  0.068042923            2 
 2295000   0.90286205   -3.3335644    1861.1521   0.06757996  0.068029228            2 
 2296000   0.88576098   -3.3556597    1863.2071  0.067625111  0.068015672            5 
 2297000   0.87499997   -3.3437538      1870.66  0.067866057  0.068002004            5 
 2298000   0.89389807   -3.3279158    1868.1986  0.067747266  0.067988287            4 
 2299000   0.89063219   -3.3094055    1866.7463  0.067665153  0.067974698            4 
 2300000   0.89441261    -3.339901    1865.7802  0.067600732  0.067960986            3 
 2301000   0.87086752   -3.3331678    1863.8574  0.067501718  0.067947256            3 
 2302000   0.87536501    -3.344804    1872.5171  0.067785879  0.067933605            2 
 2303000    0.8911596   -3.3347099    1871.9867  0.067737251   0.06791985            4 
 2304000   0.90258713   -3.3393223    1869.4282  0.067615313  0.067906548            2 
 2305000    0.8777312   -3.3411559    1872.9337  0.067712717  0.067893127            4 
 2306000    0.8760433   -3.3496834    1866.4481  0.067448976  0.067879562            3 
 2307000   0.90158976   -3.3311321    1869.2072  0.067519404  0.067866104            3 
 2308000   0.87043659   -3.3375641    1878.3009  0.067818489   0.06785278            5 
 2309000   0.87795948   -3.3230648    1874.1235  0.067638353   0.06783934            2 
 2310000   0.87455259   -3.3445791    1871.7435  0.067523215  0.067826352            3 
 2311000   0.89367803   -3.3268294    1879.6361    0.0677786  0.067813163            2 
 2312000   0.87847632   -3.3466492    1878.4423  0.067706255  0.067800105            2 
 2313000   0.89448673   -3.3433424    1877.0962  0.067628484  0.067787073            3 
 2314000   0.88075229   -3.3237955     1885.213  0.067891567  0.067774101            3 
 2315000   0.87077405   -3.3746038    1877.7168  0.067592399  0.067760914            6 
 2316000    0.8667446   -3.3328975    1878.7183  0.067599248  0.067747687            2 
 2317000   0.86363955   -3.3354852    1880.2274  0.067624349  0.067734499            3 
 2318000    0.8713447   -3.3295019    1881.5495  0.067642705  0.067721252            4 
 2319000   0.88052721   -3.3131821    1880.7913  0.067586292  0.067708235            9 
 2320000   0.88465047   -3.3593722    1877.9027  0.067453402  0.067695018            4 
 2321000   0.90367945   -3.3677699    1880.4462   0.06751566   0.06768183            2 
 2322000   0.90611639   -3.3614559    1881.3968  0.067520701  0.067668628            3 
 2323000   0.88269213   -3.3238788    1880.5994   0.06746303  0.067655538            2 
 2324000   0.88922124    -3.346041    1873.6513  0.067184859  0.067642416            7 
 2325000   0.86315988   -3.3297073    1880.1572  0.067389146   0.06762905            3 
 2326000   0.88036839   -3.3209355    1884.9851  0.067533143  0.067615835            4 
 2327000   0.89407269   -3.3326335    1884.3184  0.067480246   0.06760266            6 
 2328000   0.87872447   -3.3582788    1886.5982  0.067532866  0.067589665            3 
 2329000   0.87052093   -3.3378765    1882.2192  0.067347187  0.067576444            3 
 2330000   0.87978015    -3.330034    1886.6292  0.067476007  0.067562988            2 
 2331000   0.89291343   -3.3657247    1882.9853  0.067316793  0.067549476            4 
 2332000   0.88096619   -3.3618209    1880.8302  0.067210914  0.067536072            5 
 2333000   0.86554099   -3.3794741    1877.8027  0.067073964  0.067522327            3 
 2334000    0.8875659   -3.3629222    1875.2306  0.066953393  0.067508646            2 
 2335000    0.8828482   -3.3400491    1889.9397  0.067449668  0.067494944            3 
 2336000   0.87804463   -3.3776033    1885.7355  0.067270815  0.067481436            6 
 2337000   0.87792034   -3.3539786    1892.7498  0.067492148  0.067467948            8 
 2338000   0.88388095   -3.3360864    1882.6285  0.067102528   0.06745461            4 
 2339000   0.87208129    -3.341802    1892.5251  0.067426433  0.067441061            4 
 2340000   0.87934143   -3.3655538    1882.5072  0.067040855  0.067427699            2 
 2341000   0.86107632   -3.3440751    1889.7699   0.06727075  0.067414293            2 
 2342000   0.88799813   -3.3838315    1881.8939  0.066961781  0.067400756            4 
 2343000   0.89317901   -3.3400627    1889.6845  0.067210291  0.067387231            3 
 2344000   0.86939556   -3.3327015    1890.8669  0.067223651   0.06737377            3 
 2345000   0.88618267   -3.3709189    1893.5701   0.06729105  0.067360263            4 
 2346000   0.86264977    -3.347127    1886.3568  0.067006138   0.06734668            3 
 2347000   0.87230968    -3.352147    1887.3609  0.067013241  0.067333021            4 
 2348000   0.88391787   -3.3568811     1888.096   0.06701079  0.067319365            5 
 2349000   0.87223265   -3.3504828    1893.3475  0.067168564  0.067305904            2 
 2350000   0.88135538   -3.3565853    1886.2948  0.066889886  0.067292357            3 
 2351000   0.88836549   -3.3618738    1890.3288  0.067004425  0.067278648            3 
 2352000   0.86733593    -3.355266    1887.3053  0.066868811  0.067265135            2 
 2353000   0.84985507   -3.3654367    1890.3241  0.066947304  0.067251573            3 
 2354000   0.87097691   -3.3818332    1888.1546  0.066842064  0.067238112            3 
 2355000   0.86779468   -3.3386804     1890.282  0.066888961  0.067224633            2 
 2356000   0.87277849   -3.3405385    1895.4379  0.067042935  0.067211374            3 
 2357000   0.88437784   -3.3312435    1891.2214  0.066865417  0.067198104            2 
 2358000   0.87345118   -3.3379867    1887.9551  0.066721624  0.067184582            3 
 2359000   0.88013773   -3.3437981    1891.7024  0.066825716  0.067171032            3 
 2360000   0.89188035   -3.3505606    1893.8585  0.066873534  0.067157423            1 
 2361000   0.86697532   -3.3586022    1890.8566  0.066739258  0.067143752            3 
 2362000   0.86586226   -3.3381359    1894.0188  0.066822567  0.067129957            2 
 2363000   0.85880039   -3.3594032    1894.0546   0.06679555  0.067116368            4 
 2364000   0.88726602   -3.3370927    1895.6838  0.066824724  0.067102771            5 
 2365000   0.86392291   -3.3695232    1895.3251  0.066783832  0.067089004            3 
 2366000   0.85104393   -3.3354521    1900.0056  0.066920457  0.067075506            2 
 2367000   0.87446687   -3.3520506    1897.2262  0.066794333  0.067062002            3 
 2368000   0.86476263   -3.3457131    1892.1645  0.066587997  0.067048425            5 
 2369000   0.84924376   -3.3732206    1900.9709  0.066869668  0.067034883            2 
 2370000   0.87900695   -3.3790882    1898.5217  0.066755335   0.06702137            7 
 2371000   0.85731864   -3.3502509    1903.2833  0.066894534  0.067007873            4 
 2372000   0.86434572   -3.3636653    1910.7686  0.067129309  0.066994413            2 
 2373000   0.86679722   -3.3174907     1910.163  0.067079751  0.066981192            3 
 2374000   0.86448957   -3.3542032    1907.4996  0.066958004  0.066967993            4 
 2375000   0.87626583   -3.3479197    1896.3775  0.066539563  0.066954884            3 
 2376000   0.88467351    -3.361368    1899.6818  0.066627448  0.066941471            5 
 2377000    0.8535052   -3.3337435    1905.4563   0.06680186  0.066928089            6 
 2378000   0.88321026   -3.3692568    1910.6399  0.066955422  0.066914887            2 
 2379000   0.86478647   -3.3417908    1902.3316  0.066636247  0.066901635            2 
 2380000   0.87524192   -3.3590687    1905.8288    0.0667307  0.066888412            4 
 2381000   0.85079007   -3.3394959     1905.746  0.066699775  0.066875165            6 
 2382000   0.87620791    -3.349673    1903.9212  0.066607935  0.066862114            4 
 2383000   0.86415471   -3.3450491     1910.823  0.066821338  0.066848973            3 
 2384000   0.87393307   -3.3701309    1904.9237  0.066587096  0.066835822            4 
 2385000   0.86436682   -3.3503002    1905.3268  0.066573262  0.066822757            1 
 2386000   0.87711791   -3.3659915     1903.043  0.066465596  0.066809483            3 
 2387000   0.85294178   -3.3680923    1908.4973  0.066628169   0.06679619            3 
 2388000   0.85719422   -3.3501892    1911.1812  0.066693928  0.066782994            6 
 2389000   0.86834373    -3.330657     1910.217  0.066632377  0.066769791            4 
 2390000   0.87120299    -3.339296    1912.2561  0.066675595  0.066756499            4 
 2391000   0.85924634   -3.3525998    1912.4853  0.066655699  0.066743306            3 
 2392000   0.86240531   -3.3388244    1913.3444  0.066657761  0.066730068            4 
 2393000   0.86563795   -3.3621524    1909.9275  0.066510918  0.066716952            4 
 2394000    0.8531421     -3.34974    1915.7862  0.066687071  0.066703868            3 
 2395000   0.87007505   -3.3761756     1916.855  0.066696415  0.066690894            4 
 2396000   0.85580604    -3.351463    1914.2341  0.066577425  0.066677772            3 
 2397000   0.86428749   -3.3631797    1916.0777  0.066613742  0.066664844            5 
 2398000   0.87342374   -3.3668728    1915.2255  0.066556349  0.066651643            2 
 2399000   0.85803981   -3.3934623    1916.8898  0.066586419  0.066638456            3 
 2400000   0.87825054   -3.3418804    1916.7478  0.066553744   0.06662512            5 
 2401000   0.84395894   -3.3598723    1916.3186  0.066511126  0.066611891            4 
 2402000   0.87962286   -3.3585789     1914.876  0.066433389  0.066598879            4 
 2403000   0.86728611   -3.3815623    1918.2204  0.066521722  0.066585658            4 
 2404000    0.8590528   -3.3751285    1915.6605  0.066405313   0.06657259            6 
 2405000   0.84713715   -3.3673727    1917.0466  0.066425732  0.066559487            2 
 2406000   0.87142649    -3.352972    1916.6885  0.066385718  0.066546336            2 
 2407000   0.87928546   -3.3545711    1920.6814   0.06649638  0.066533119            3 
 2408000   0.85789306   -3.3675118    1923.9166  0.066580724  0.066519886            3 
 2409000   0.87681943   -3.3648106    1917.0708  0.066316274  0.066506483            8 
 2410000   0.85952311   -3.3816735    1915.4339  0.066232154  0.066493137            6 
 2411000   0.86626367   -3.3718339    1918.1495  0.066298546  0.066479722            4 
 2412000   0.87271046    -3.364983    1918.2923  0.066275992  0.066466074            4 
 2413000   0.85531418   -3.3943757    1920.0192  0.066308165  0.066452546            4 
 2414000   0.87729544   -3.3747196    1920.9922  0.066314286  0.066439227            5 
 2415000   0.87001464   -3.3510274    1921.0973  0.066290451  0.066425763            6 
 2416000   0.85836886   -3.3873066    1921.8274  0.066288198  0.066412392            2 
 2417000   0.86586039   -3.3591276    1923.2498  0.066309813  0.066399064            6 
 2418000   0.85277833     -3.36937     1918.925   0.06613334  0.066385694            4 
 2419000   0.87267489   -3.3559002    1923.7979  0.066273872  0.066372406            1 
 2420000   0.86573038   -3.3662699    1923.6686   0.06624203   0.06635926            2 
 2421000   0.85365515   -3.3507165    1928.7034  0.066387974  0.066346139            4 
 2422000   0.85922924   -3.3602041    1927.7656  0.066328297  0.066333065            2 
 2423000    0.8753392   -3.3872604    1918.8462   0.06599416  0.066319886            4 
 2424000    0.8602339    -3.370928    1928.0942  0.066284868  0.066306611            2 
 2425000   0.85924479   -3.3843797    1915.9742  0.065841039   0.06629321            2 
 2426000   0.86302127    -3.379516      1926.14  0.066163093  0.066279943            4 
 2427000    0.8544035   -3.3728853    1927.2457  0.066173798  0.066266769            2 
 2428000   0.85947919   -3.3854938     1930.811  0.066268911  0.066253471            2 
 2429000   0.83860916   -3.3635192    1923.9037  0.066004655  0.066240365            3 
 2430000   0.85114507    -3.393103    1924.3727  0.065993576  0.066227167            5 
 2431000   0.86555152   -3.3664811    1929.2794   0.06613463  0.066213822            3 
 2432000   0.86274491   -3.3529128    1930.3531  0.066144227  0.066200563            3 
 2433000    0.8762706   -3.4039676    1923.7086  0.065889458  0.066187425            8 
 2434000   0.85793944   -3.3427005    1942.1134  0.066492517   0.06617421            6 
 2435000   0.87265497   -3.3623014    1927.2094  0.065955148  0.066161127            7 
 2436000   0.86019334   -3.3567849    1926.0072  0.065886945   0.06614781            2 
 2437000   0.85604072   -3.3780034     1922.176  0.065728903  0.066134393            2 
 2438000   0.86979692   -3.3741454    1928.4925  0.065917846  0.066121017            3 
 2439000   0.85600831   -3.3791055    1928.7237  0.065898718  0.066107804            3 
 2440000   0.86804537   -3.3835009    1929.8862  0.065911415  0.066094741            2 
 2441000   0.87403195   -3.3918961    1935.1924  0.066065561  0.066081478            6 
 2442000   0.85452083   -3.3712956     1935.107  0.066035594  0.066068397            3 
 2443000   0.87216131   -3.3818574    1927.8454  0.065760862  0.066055319            2 
 2444000   0.86819207   -3.3788439    1936.3801  0.066024963  0.066042212            4 
 2445000   0.87294823   -3.3789149    1930.8726  0.065810245  0.066029088            4 
 2446000   0.85996321   -3.3638832    1934.8273  0.065918075  0.066015826            4 
 2447000   0.84764081   -3.3900254    1937.9286  0.065996752  0.066002869            3 
 2448000   0.86860646   -3.3876565    1936.0984   0.06590749  0.065989913            5 
 2449000   0.86340485   -3.3542452    1939.1372  0.065983979  0.065976806            4 
 2450000   0.85205311   -3.3881804    1943.7387   0.06611356  0.065963725            3 
 2451000   0.84204333   -3.3733173    1933.3316   0.06573275  0.065950795            4 
 2452000   0.87291988   -3.3737185    1940.6296  0.065953971  0.065937689            4 
 2453000   0.86217898   -3.3787155    1937.2648  0.065812773   0.06592464            6 
 2454000   0.87905588   -3.3831641    1938.9026  0.065841573  0.065911734            2 
 2455000   0.87199782   -3.3691953    1939.2123  0.065825266  0.065898666            6 
 2456000   0.84446047   -3.3488691    1944.4958  0.065977734  0.065886047            3 
 2457000   0.87143033   -3.3789864     1945.724   0.06599254  0.065873207            3 
 2458000   0.85263905   -3.4000929    1943.4499  0.065888592  0.065860323            7 
 2459000   0.85067943   -3.3774382    1946.3284  0.065959347  0.065847373            3 
 2460000   0.85071091   -3.4001042    1938.9061  0.065681102  0.065834323            3 
 2461000   0.84137009   -3.3690172    1949.0897  0.065999246  0.065821499            3 
 2462000   0.84685174   -3.3736356     1953.122  0.066108922   0.06580872            3 
 2463000    0.8551317   -3.3729515    1944.6818  0.065796516  0.065795951            2 
 2464000   0.86176227   -3.3722296    1938.6581   0.06556609  0.065783145            3 
 2465000   0.86730501   -3.3424955    1945.9342   0.06578547   0.06577035            5 
 2466000   0.87070444   -3.3935886    1950.2278  0.065903886  0.065757454            3 
 2467000   0.86547105   -3.3937023    1943.7004  0.065656681  0.065744281            4 
 2468000   0.85918909   -3.3802985    1945.8854  0.065703855  0.065731466            3 
 2469000   0.85616406   -3.3815892    1942.6834   0.06556917  0.065718296            4 
 2470000   0.85792802   -3.3830428    1941.3863  0.065498862  0.065705131            6 
 2471000   0.86516048   -3.3999572    1940.3727  0.065438172  0.065691876            2 
 2472000   0.85834765   -3.3913282    1952.0731  0.065806133  0.065678914            3 
 2473000   0.86598327   -3.3704566    1948.6913  0.065665563  0.065665806            2 
 2474000   0.85787705   -3.3847212    1945.2755  0.065523966  0.065652858            3 
 2475000   0.85844402   -3.4059735    1952.1751    0.0657298  0.065639612            3 
 2476000   0.84939945   -3.3925652    1947.1299  0.065533452  0.065626565            4 
 2477000   0.86019358   -3.4061384    1939.1006  0.065236865  0.065613451            7 
 2478000   0.84985406   -3.3872806    1953.3786  0.065690699  0.065600504            6 
 2479000   0.85674752   -3.3629644    1946.7517  0.065441431  0.065587424            3 
 2480000   0.85482912   -3.3916285    1946.4716  0.065405631  0.065574337            3 
 2481000   0.85362756   -3.3871837    1948.6594  0.065452756  0.065561332            4 
 2482000   0.86460834   -3.3900115    1943.0943  0.065239535  0.065548346            1 
 2483000   0.84748976   -3.3759882    1949.9424  0.065443093   0.06553515            3 
 2484000   0.85790199   -3.3803522    1950.2778  0.065427999  0.065522155            4 
 2485000   0.85851004   -3.3467497    1956.9988  0.065627057  0.065509316            4 
 2486000   0.83827145   -3.3894844    1943.8739  0.065160696  0.065496322            3 
 2487000   0.85367458   -3.3807223    1947.6099  0.065259679   0.06548313            6 
 2488000    0.8549754   -3.3814004    1953.9494  0.065445786   0.06547013            3 
 2489000   0.86327121   -3.3820896    1952.5234   0.06537175  0.065457187            4 
 2490000   0.85151077   -3.3854667    1955.9274  0.065459418  0.065444229            4 
 2491000   0.84541957   -3.3835809    1954.7047  0.065392235   0.06543138            6 
 2492000   0.87664723   -3.3672117    1951.5096  0.065259151  0.065418666            5 
 2493000   0.82602486   -3.4006959    1952.3454  0.065260911  0.065405789           11 
 2494000   0.85033657   -3.3840698     1955.431  0.065337844  0.065392879            7 
 2495000   0.87239174    -3.382486    1948.0089  0.065063758  0.065380102            3 
 2496000   0.83825466   -3.3808272     1962.232  0.065512554  0.065367257            2 
 2497000   0.85346933   -3.4019707    1958.5087  0.065362057  0.065354337            4 
 2498000   0.85904949   -3.4034168    1953.7742  0.065177951  0.065341227            2 
 2499000   0.84536944   -3.3825773    1957.7871  0.065285686  0.065328244            4 
 2500000   0.84663112   -3.3708596    1954.4537  0.065148456  0.065315187            2 
 2501000   0.84140798   -3.3602538    1950.3907  0.064987028  0.065302061            2 
 2502000   0.85334157    -3.375889    1959.4494   0.06526277  0.065288867            5 
 2503000    0.8668965   -3.4034352     1952.167  0.064994241  0.065275649            5 
 2504000   0.86708911   -3.3766883    1953.4485  0.065010932  0.065262388            4 
 2505000   0.87552783   -3.3811808    1956.1595  0.065075167  0.065249123            2 
 2506000   0.85105858   -3.3904426    1959.3503  0.065155305  0.065235882            4 
 2507000   0.86208984   -3.3936768    1955.2598  0.064993347  0.065222655            4 
 2508000   0.84447554   -3.4037126    1952.7706  0.064884724  0.065209401            4 
 2509000   0.84599594   -3.3926393    1958.1071  0.065036107  0.065196101            2 
 2510000   0.85037504   -3.3644745    1955.3585  0.064918942   0.06518276            2 
 2511000   0.85587812   -3.3828161    1953.8062  0.064841569  0.065169297            5 
 2512000   0.84231419   -3.3895832    1959.3286  0.064998958  0.065156091            6 
 2513000   0.84116959   -3.3803651    1955.9041  0.064859533  0.065142677            2 
 2514000    0.8599313     -3.37494    1956.7086  0.064860401   0.06512944            2 
 2515000   0.83922334   -3.3899305    1957.3865  0.064857073  0.065116008            9 
 2516000   0.85965559   -3.4222542    1957.9284  0.064849246  0.065102715            4 
 2517000   0.84116195   -3.3811572    1966.2327   0.06509842  0.065089261            3 
 2518000   0.84834057   -3.4055781    1953.2667  0.064643458   0.06507589            4 
 2519000   0.85511141   -3.4158661    1956.2518  0.064716549   0.06506259            2 
 2520000   0.86545308   -3.3741971    1957.4719  0.064731214  0.065049244            7 
 2521000   0.85083222   -3.3922896    1964.9115  0.064951458  0.065035753            7 
 2522000   0.85782424   -3.3988228    1961.2151  0.064803566  0.065022567            3 
 2523000   0.84720949   -3.4105785    1969.3637  0.065047024  0.065009384            4 
 2524000   0.83711545   -3.3885279    1965.8001  0.064903596  0.064996144            3 
 2525000   0.84169735   -3.4260684    1960.1747  0.064692235  0.064982852           11 
 2526000   0.86066796   -3.3733603    1969.0462  0.064959297  0.064969783            3 
 2527000    0.8481621   -3.3956401    1965.6265  0.064820819   0.06495686            4 
 2528000   0.82917987   -3.4249892    1972.0519  0.065006986  0.064943802            5 
 2529000   0.86452883   -3.3796157    1969.4966  0.064897079  0.064930648            2 
 2530000   0.84204553   -3.4182516    1971.9372  0.064951819  0.064917538            2 
 2531000   0.84634895   -3.3885526    1970.1446  0.064867134  0.064904467            3 
 2532000   0.85151199   -3.3714374    1961.4878  0.064556603  0.064891387            5 
 2533000   0.85438772   -3.4019519    1966.0142  0.064680029  0.064878292            6 
 2534000   0.84930269    -3.400915    1964.2308  0.064595858  0.064864975            7 
 2535000   0.82317648   -3.3783487    1972.4501   0.06484057  0.064851743            5 
 2536000   0.83795015   -3.3732645    1971.8208  0.064794322  0.064838673            6 
 2537000    0.8413855    -3.390522    1974.2524  0.064848652  0.064825197            4 
 2538000   0.85320282   -3.3966644    1971.4496  0.064731073  0.064811978            3 
 2539000   0.85054325   -3.4103735    1970.1029  0.064661378  0.064798848            6 
 2540000   0.83409087   -3.3883414    1968.8352   0.06459433  0.064785597            3 
 2541000   0.86760278   -3.4041093    1958.7421    0.0642379  0.064772149            6 
 2542000   0.86135708   -3.3981264    1965.5467  0.064435704  0.064758833            3 
 2543000   0.83671256   -3.4007364    1970.9317   0.06458683  0.064745713            3 
 2544000   0.84682308   -3.4110117    1969.6249  0.064518634  0.064732378            2 
 2545000    0.8594809   -3.3984626    1973.3098  0.064613941  0.064719062            4 
 2546000   0.83267993   -3.3894886    1969.9087  0.064477243  0.064705868            8 
 2547000   0.83940192   -3.4235211    1970.9147  0.064484841  0.064692402            2 
 2548000   0.82957368   -3.4074276    1971.1681  0.064467822  0.064678954            6 
 2549000   0.84139185   -3.4091144    1972.7044  0.064492756  0.064665794            3 
 2550000   0.85975364   -3.3875292    1973.1301  0.064481377   0.06465271            5 
 2551000   0.81695394   -3.3644716    1979.2159  0.064654903  0.064639695            2 
 2552000   0.86860875   -3.4104466    1973.6447  0.064447647  0.064626541            4 
 2553000   0.83292679    -3.400987    1976.5898  0.064518534  0.064613361            2 
 2554000   0.82451482    -3.420354    1972.8934  0.064372664  0.064600099            3 
 2555000   0.84024322   -3.4208226    1975.0045  0.064416325  0.064586823            3 
 2556000   0.84478245   -3.3889989    1973.9732  0.064357497  0.064573878            2 
 2557000   0.83604867   -3.4186236    1976.7984  0.064424404  0.064560857            3 
 2558000   0.85343103   -3.4145034    1980.7684  0.064528552  0.064547607            6 
 2559000   0.83055059   -3.4109207    1975.4773   0.06433103  0.064534404            6 
 2560000   0.83675976   -3.4127723    1974.0748  0.064260248  0.064521171            3 
 2561000   0.83354213   -3.3929472    1979.5451  0.064413157  0.064507895            2 
 2562000   0.81419273   -3.3749486    1986.3659  0.064609873  0.064494872            4 
 2563000   0.84498046   -3.4040907    1976.3111  0.064257741  0.064481863            5 
 2564000   0.84369252   -3.3864089    1982.1583  0.064422723  0.064468689            7 
 2565000   0.85915658   -3.3902467    1982.7779  0.064417736  0.064455566            3 
 2566000   0.83237841   -3.3972105    1976.7348  0.064196375  0.064442395            7 
 2567000   0.84448294    -3.399324    1979.7222  0.064268349  0.064429311            3 
 2568000   0.83289168   -3.4109737    1972.0864  0.063995535  0.064416215            4 
 2569000   0.85137091   -3.4197906    1977.4227  0.064143724  0.064402888            5 
 2570000   0.82822693   -3.3964348     1977.435  0.064119163  0.064389618            4 
 2571000   0.83231626   -3.4017836    1982.8852  0.064270881   0.06437655            3 
 2572000   0.85641843   -3.3989689      1985.09  0.064317328  0.064363414            3 
 2573000   0.84699869   -3.3726525    1981.0272  0.064160747  0.064350279            6 
 2574000   0.84801241    -3.393995    1988.8672   0.06438964  0.064337328            2 
 2575000   0.86492208   -3.4232839    1980.1341  0.064082009  0.064324188            6 
 2576000   0.81893243   -3.3967158    1980.6383  0.064073445  0.064310949            4 
 2577000   0.85169377   -3.3979013     1981.562  0.064078451  0.064297773            5 
 2578000    0.8515535   -3.4027003    1988.1534  0.064266659   0.06428465            5 
 2579000   0.82749024   -3.4100671    1983.8834  0.064103767  0.064271509            4 
 2580000   0.84743717    -3.402464    1984.1698  0.064088173  0.064258331            2 
 2581000   0.84021725    -3.401239    1983.7421  0.064049532  0.064245222            5 
 2582000   0.84924967   -3.4022673    1983.9221  0.064030535  0.064232197            3 
 2583000   0.83172423   -3.4130482    1992.8724  0.064294501  0.064218975            4 
 2584000   0.84541272    -3.386018    1987.6513  0.064101241  0.064205965            5 
 2585000   0.84764781   -3.3865191    1991.6549  0.064205509  0.064193106            4 
 2586000   0.84129986   -3.4051282    1992.8172  0.064218135  0.064180116            5 
 2587000   0.81982182     -3.38467    1990.0343  0.064103669  0.064167284            4 
 2588000   0.84897704   -3.4023092    1988.6761  0.064035165  0.064154283            2 
 2589000   0.84645713   -3.3889414    1990.9124  0.064082412  0.064141224            3 
 2590000    0.8446027   -3.3941032    1991.5719  0.064078889  0.064128146            3 
 2591000   0.84258455   -3.3895187    1991.2233  0.064042948   0.06411506            4 
 2592000   0.83555235   -3.4113296    1988.5608  0.063932639  0.064101942            6 
 2593000   0.82633088   -3.4161401    1993.7625  0.064075156  0.064088869            5 
 2594000   0.85218588   -3.3922155     1997.702  0.064177011  0.064075895            2 
 2595000   0.84309384   -3.4038821    1988.9703  0.063871877  0.064062722           16 
 2596000   0.83665238   -3.3707005    1999.9085  0.064198398  0.064049502            3 
 2597000   0.84109094   -3.3936706    1992.6371  0.063940351  0.064036197            5 
 2598000    0.8476108   -3.4098295     1987.369   0.06374676  0.064023032            6 
 2599000   0.84597553   -3.3901408     2001.741  0.064183051  0.064009847            3 
 2600000   0.83587454   -3.4164299    1994.7356  0.063933833  0.063996696            3 
 2601000   0.84867206   -3.4278799     1997.794   0.06400724  0.063983373            6 
 2602000    0.8400149    -3.433335    1992.0904  0.063799974    0.0639703            1 
 2603000   0.82168684   -3.4102624    2004.4138   0.06416999  0.063957247            4 
 2604000   0.82636374     -3.41269    1999.6715  0.063993582  0.063944169            6 
 2605000   0.83294057   -3.4283652    1997.2828  0.063892605   0.06393105            4 
 2606000   0.83186468   -3.4176125    1994.8964  0.063791775  0.063918103            3 
 2607000   0.82719248   -3.4064636    1994.7167   0.06376156  0.063905107            4 
 2608000   0.83460381   -3.4212121      1995.39  0.063758627  0.063892049            3 
 2609000   0.84116118   -3.3994685    1991.5493  0.063611516   0.06387901            3 
 2610000   0.83403251   -3.3934683    1998.2958  0.063802548  0.063865742            7 
 2611000   0.84947381   -3.3867442    1999.1065  0.063803987  0.063852686            3 
 2612000   0.80205391   -3.4176706    2000.9391  0.063838028  0.063839493            4 
 2613000   0.84198759    -3.417145    1998.6276  0.063739877  0.063826454            3 
 2614000   0.85255693   -3.4304882     2000.592  0.063778116  0.063813498            5 
 2615000   0.83228615   -3.4325997    2000.9943  0.063766548  0.063800521            4 
 2616000   0.83426732   -3.4095643    1998.4402  0.063660812  0.063787516            6 
 2617000   0.82080013   -3.4487467    1996.2214  0.063565831  0.063774517            4 
 2618000   0.83562828   -3.4292511    2004.5138  0.063805508  0.063761572            3 
 2619000   0.83538424   -3.4178886    2001.9054  0.063698149  0.063748658            3 
 2620000   0.83974015   -3.4047446     2008.187  0.063873631  0.063735841            4 
 2621000   0.82806649   -3.4188567    2005.5924  0.063766767  0.063723056            4 
 2622000   0.82304885   -3.4360748    2007.8032  0.063812713  0.063710369            6 
 2623000   0.83018832   -3.4142929    2008.5787  0.063813022  0.063697577            5 
 2624000   0.83831979   -3.4121949    2012.2073  0.063903941   0.06368477            4 
 2625000   0.83116751   -3.3821492    2012.1645  0.063878237  0.063672075            7 
 2626000    0.8288905   -3.4119234    2011.4162  0.063830167  0.063659417            8 
 2627000   0.84066785   -3.4239006     2011.724  0.063815634  0.063646648            3 
 2628000   0.82377796   -3.4220794    1999.5378  0.063404928  0.063633939            5 
 2629000   0.83146473   -3.4050522    2006.0341  0.063586728  0.063621027            3 
 2630000   0.81683609    -3.441616    2005.3842  0.063541958  0.063608111            5 
 2631000    0.8421748   -3.3984138    2003.6683  0.063463457  0.063595399            4 
 2632000   0.82902036   -3.4417305    2009.1672   0.06361345  0.063582612            6 
 2633000   0.82953197    -3.383579    2012.1938  0.063685082   0.06356983            5 
 2634000   0.81932769   -3.4291613    2007.2692  0.063505099  0.063557171            3 
 2635000    0.8275124   -3.4276078    2008.2198  0.063511062  0.063544475            2 
 2636000   0.83255601   -3.4090734    2010.5905  0.063561917  0.063531801            3 
 2637000    0.8056319   -3.4308915    2012.6741  0.063603655  0.063519142            5 
 2638000    0.8289245   -3.4228694    2014.9696   0.06365206  0.063506514            3 
 2639000   0.81396406   -3.4286033    2018.9985  0.063755163  0.063493894            5 
 2640000    0.8362289   -3.4014921     2017.295  0.063677242  0.063481336            6 
 2641000   0.82771505   -3.3930996    2019.8735  0.063734492  0.063468911            7 
 2642000   0.85057836   -3.4219493    2018.0838  0.063653917  0.063456635            7 
 2643000   0.83675838   -3.4043881    2013.5993  0.063488439  0.063444147            5 
 2644000   0.82474201   -3.4060834    2017.7022  0.063593741  0.063431601            2 
 2645000   0.83603849    -3.409715    2023.7174  0.063759211  0.063419141            2 
 2646000   0.81515467   -3.4305244    2016.1357  0.063496339  0.063406567            9 
 2647000   0.82470567   -3.4270332    2023.2205  0.063695394  0.063394079            3 
 2648000   0.81017463   -3.4320588     2022.775   0.06365732  0.063381638            5 
 2649000   0.82178522   -3.3984036    2025.1965  0.063709467  0.063369313            5 
 2650000   0.82613312   -3.4223054    2021.8911   0.06358148  0.063356966            4 
 2651000   0.82745936   -3.4213739    2025.5765  0.063673347  0.063344714            3 
 2652000    0.8368345   -3.4522659    2023.8363  0.063594654  0.063332377            4 
 2653000   0.83482373   -3.4269325    2025.5933  0.063625873  0.063319918            3 
 2654000   0.81472075    -3.424524    2029.9859  0.063739822  0.063307665            8 
 2655000   0.84137118   -3.4251809    2023.3472  0.063507445  0.063295278            4 
 2656000   0.83433811   -3.3999429    2030.6994  0.063714212   0.06328285            4 
 2657000   0.83248708    -3.414302    2022.6985  0.063439295  0.063270458            5 
 2658000   0.84302028   -3.4219231    2032.4092  0.063719878  0.063258054            5 
 2659000   0.83665495   -3.4151591    2026.2236  0.063502056   0.06324577            6 
 2660000   0.82301044   -3.4137633    2025.6305  0.063459602  0.063233452            5 
 2661000   0.82273649    -3.422894    2028.8845  0.063537658  0.063221126            3 
 2662000    0.8141362   -3.3913068    2035.5146  0.063721343  0.063208862            2 
 2663000   0.81348106   -3.4379239    2024.8118  0.063362493  0.063196498            3 
 2664000   0.82598501   -3.4378692    2027.7145  0.063429507  0.063184078            2 
 2665000   0.82861042   -3.4166929    2030.5944  0.063495761  0.063171787            4 
 2666000   0.83720451   -3.4240823    2027.3788  0.063371432  0.063159543            4 
 2667000   0.82749459   -3.4383698    2027.5098  0.063351762  0.063147175            4 
 2668000   0.82230919   -3.4069249    2026.1237  0.063284724  0.063134877            3 
 2669000   0.84040431   -3.4328047    2030.2528  0.063389935  0.063122623            3 
 2670000   0.79785878   -3.4078241    2032.3816  0.063432634  0.063110258            2 
 2671000    0.8168803   -3.4042071    2032.0861  0.063399667  0.063098121            5 
 2672000   0.80789141   -3.4397778    2026.3818  0.063198034  0.063085882            2 
 2673000   0.84884916   -3.4009316    2043.8403  0.063718679  0.063073531            4 
 2674000   0.81610854   -3.4191287    2040.2429  0.063582738  0.063061592            2 
 2675000   0.85163015   -3.4221997     2032.005  0.063302337  0.063049346            3 
 2676000   0.81195585   -3.4336325    2032.5453  0.063295507  0.063037206            4 
 2677000   0.83569007   -3.3979329     2030.967  0.063222732  0.063025102            7 
 2678000   0.84250984   -3.4368936    2034.4724  0.063308203  0.063012862            8 
 2679000   0.82527688   -3.4440852    2037.9896  0.063393979  0.063000674            2 
 2680000   0.82637336   -3.4180389    2035.6372  0.063297177  0.062988454            6 
 2681000   0.82334035   -3.4131608    2042.6747  0.063492314  0.062976244            3 
 2682000   0.84211402   -3.4061699    2036.9707   0.06329141  0.062964145            4 
 2683000   0.82239782   -3.4359891    2041.7589   0.06341654  0.062952072            4 
 2684000   0.82884766   -3.4280465    2039.2441  0.063314832  0.062940095            2 
 2685000   0.82710324     -3.43207    2040.2739  0.063323214  0.062928097            2 
 2686000   0.82659164   -3.4433386     2044.674  0.063436152  0.062916105            6 
 2687000   0.83180576   -3.4312072     2044.617  0.063410774  0.062904251            3 
 2688000   0.82083573   -3.4357721    2039.5802  0.063231034  0.062892277            4 
 2689000    0.8147317   -3.4662054    2038.9724  0.063188683  0.062880204            7 
 2690000   0.83077549   -3.4245313    2038.0998   0.06313816  0.062868195            3 
 2691000   0.84026396   -3.4502463    2045.1082  0.063331729  0.062856031            2 
 2692000   0.84130341   -3.4242373    2042.3147  0.063221728  0.062843969            8 
 2693000   0.82385946   -3.4389118    2046.3948  0.063324509  0.062831951            3 
 2694000   0.81249921   -3.4322104     2038.688  0.063062609  0.062819754            8 
 2695000   0.81073174    -3.402849    2042.6016  0.063160222  0.062807684            5 
 2696000    0.8069273   -3.4297471    2045.7512   0.06323415  0.062795762            5 
 2697000   0.83424165   -3.4253909    2041.8624  0.063090545  0.062783667            4 
 2698000   0.80431412   -3.4365866    2036.5271  0.062902368  0.062771444            5 
 2699000   0.82925603   -3.4124057    2042.1971  0.063054127   0.06275922            3 
 2700000   0.81066983   -3.4443114    2036.5184  0.062855507  0.062746985            5 
 2701000   0.83848912   -3.4323897     2037.854  0.062873441  0.062734559            7 
 2702000   0.80802008   -3.4141023    2045.0492  0.063072082  0.062722127            2 
 2703000   0.82110222   -3.4264491    2038.0647  0.062833416  0.062709813            5 
 2704000   0.81835643   -3.4402744    2045.8713  0.063050768  0.062697444            4 
 2705000   0.82561025   -3.4291147    2041.6699  0.062898027  0.062685265            3 
 2706000   0.83783542   -3.4458276    2039.5112  0.062808303  0.062672821            3 
 2707000   0.81325493   -3.4539421    2041.2174  0.062837624  0.062660512            3 
 2708000   0.82579522   -3.4262138    2050.4794  0.063099439  0.062648162            2 
 2709000   0.81127966   -3.4365468    2045.3923  0.062919658   0.06263582            5 
 2710000   0.81888063    -3.425885    2048.0902  0.062979404  0.062623387            3 
 2711000   0.80235427    -3.440112    2049.3719  0.062995571  0.062611251            5 
 2712000   0.81705176   -3.4560472    2046.7141  0.062890675  0.062598836           10 
 2713000   0.82904916   -3.4543235    2040.4461  0.062674964  0.062586457            3 
 2714000   0.81892918   -3.4589016    2045.4357  0.062805075  0.062573966            7 
 2715000   0.84368896   -3.4549902    2050.8118  0.062946956  0.062561633            9 
 2716000   0.82835829   -3.4423857    2049.8057  0.062892908  0.062549325            2 
 2717000   0.82362093   -3.4507674    2047.2108  0.062790172   0.06253697            6 
 2718000   0.81561944   -3.4158356    2048.0407  0.062792516  0.062524678            3 
 2719000   0.84200905   -3.4331048    2048.8019  0.062792752  0.062512436            3 
 2720000   0.82971839   -3.4294663    2041.8083  0.062555401   0.06250007            9 
 2721000   0.81813471   -3.4324782    2047.1235  0.062695194   0.06248782            6 
 2722000   0.83702204   -3.4217877    2046.3218  0.062647619  0.062475542            2 
 2723000   0.80557817   -3.4383067    2046.4024  0.062627079  0.062463166            3 
 2724000   0.81125333   -3.4462451    2045.3581   0.06257214  0.062450897            2 
 2725000   0.81497497   -3.4468722    2047.2416  0.062606776  0.062438503            5 
 2726000   0.80317638   -3.4441536    2050.7711  0.062691706  0.062426136            2 
 2727000   0.80492852   -3.4708206    2049.2555  0.062622401  0.062413839            8 
 2728000   0.81317834   -3.4380226    2047.6594   0.06255069  0.062401533            3 
 2729000   0.81170823   -3.4435765    2055.3632  0.062763014  0.062389279            5 
 2730000   0.83874128   -3.4287223    2059.0555  0.062852731  0.062377114            4 
 2731000   0.81844678   -3.4274796    2063.1239  0.062953861  0.062365034            3 
 2732000   0.82157169   -3.4780426    2056.0357  0.062714609  0.062352946            8 
 2733000   0.80108113   -3.4233238    2059.6596  0.062802159  0.062340834            5 
 2734000   0.81912971   -3.4474899    2058.7028  0.062750025  0.062328806            4 
 2735000   0.80627885   -3.4536492    2052.0185  0.062523416   0.06231669            5 
 2736000   0.81277522   -3.4440989    2055.7404  0.062613926  0.062304601            4 
 2737000   0.79340184    -3.437864    2054.7337  0.062560398  0.062292484            9 
 2738000   0.81621664   -3.4637732    2061.0086   0.06272853  0.062280269            8 
 2739000   0.80887637   -3.4526318    2059.3215  0.062654298  0.062268103            7 
 2740000    0.8151149   -3.4634989    2062.3732  0.062724245  0.062255932            2 
 2741000   0.80794775   -3.4647556    2066.0233  0.062812336  0.062243992            2 
 2742000   0.79956524   -3.4508914    2062.3153  0.062676736   0.06223226            5 
 2743000   0.82158265   -3.4447443    2063.7867  0.062698588  0.062220314            5 
 2744000   0.82286189   -3.4238382    2068.1389  0.062807913  0.062208396            4 
 2745000   0.81210469   -3.4570852     2060.628  0.062557012  0.062196505            4 
 2746000   0.80905206   -3.4509918    2065.9847  0.062696792   0.06218468            4 
 2747000   0.81615123   -3.4568464    2068.5569     0.062752  0.062172913            2 
 2748000    0.8192749   -3.4565077    2055.3065  0.062327343  0.062160977            5 
 2749000   0.81012229   -3.4632726    2062.5216  0.062523391   0.06214903            4 
 2750000   0.82659299    -3.434568    2061.1098  0.062457873  0.062137013            3 
 2751000   0.82411083   -3.4450127    2065.2356  0.062560149  0.062125079            6 
 2752000   0.81132417   -3.4503326    2061.8414  0.062434636  0.062113199            4 
 2753000   0.84049031   -3.4814418    2059.6886  0.062346792  0.062101019            4 
 2754000   0.82402444   -3.4454448    2067.6554   0.06256522  0.062088839            5 
 2755000   0.80036676   -3.4297973     2061.963  0.062370326  0.062076744            4 
 2756000   0.81332509   -3.4383369    2058.5776   0.06224533  0.062064696            4 
 2757000   0.82301767   -3.4570243    2061.8078   0.06232039  0.062052529            7 
 2758000   0.82859023   -3.4368163    2064.2602  0.062371894  0.062040412            4 
 2759000   0.81047036   -3.4427994    2066.5034   0.06241704  0.062028307            7 
 2760000   0.80648488   -3.4350901     2068.579  0.062457096  0.062016193            5 
 2761000   0.81657749   -3.4541606    2067.2922  0.062395635  0.062004224           10 
 2762000   0.82242302   -3.4526119    2067.4702  0.062378417  0.061992251            6 
 2763000   0.79451537   -3.4606255    2064.9239  0.062279043  0.061980235            9 
 2764000   0.80782124   -3.4598504    2071.1226  0.062443399  0.061968179            3 
 2765000   0.82829433   -3.4504385    2078.7866  0.062651795   0.06195627            7 
 2766000   0.80926693   -3.4490158    2071.8017  0.062418706  0.061944215            3 
 2767000    0.7909799   -3.4066208    2077.2515   0.06256028  0.061932246            3 
 2768000   0.81018853   -3.4416368    2069.1163  0.062292759  0.061920317            3 
 2769000   0.80079702   -3.4361169    2070.2022  0.062302944  0.061908332            3 
 2770000   0.81087593   -3.4448939    2071.0894  0.062307141  0.061896358            3 
 2771000   0.79608919   -3.4511093    2069.6861  0.062242454  0.061884267            4 
 2772000   0.80318458   -3.4757833    2070.9299  0.062257394  0.061872146            6 
 2773000   0.81142914   -3.4748801    2063.9897  0.062026378  0.061860155            4 
 2774000   0.81003304   -3.4547009    2065.2058   0.06204055  0.061848119            3 
 2775000   0.83637819   -3.4473741    2075.4753  0.062326585  0.061836082            2 
 2776000   0.81952521    -3.444147    2072.3112   0.06220915  0.061824171            6 
 2777000   0.79296927   -3.4558028    2073.9949  0.062237273  0.061812206            2 
 2778000   0.80947126   -3.4650923    2069.2678  0.062073067  0.061800104            5 
 2779000   0.78717318   -3.4407765    2073.7751  0.062185891  0.061788054            5 
 2780000   0.82216897   -3.4609243    2066.9508  0.061958957  0.061775814            3 
 2781000   0.80717854   -3.4422564     2077.832  0.062262736  0.061763714            8 
 2782000   0.79522789   -3.4595677    2078.8002  0.062269357  0.061751788            5 
 2783000   0.80716741    -3.448473    2073.0257  0.062074072  0.061739867            3 
 2784000   0.80393399   -3.4642486    2080.6105   0.06227881  0.061727928            3 
 2785000   0.81181066   -3.4610852    2072.8236  0.062023446  0.061715937            2 
 2786000    0.8070725   -3.4467713    2076.0349  0.062097239  0.061703845            5 
 2787000   0.80697554   -3.4535577    2074.5636  0.062030964   0.06169187            5 
 2788000   0.79839053   -3.4370806    2075.0801  0.062024153  0.061679903            3 
 2789000   0.79727488   -3.4365796    2076.2299   0.06203627    0.0616679            7 
 2790000   0.79523013   -3.4520033    2079.8772  0.062122975   0.06165592            2 
 2791000   0.81434504   -3.4541036     2081.245  0.062141556  0.061643769            3 
 2792000   0.82463219   -3.4587181    2075.1034  0.061935991  0.061631694            2 
 2793000   0.80021583   -3.4383573    2078.6251  0.062018889  0.061619754            7 
 2794000   0.80115315   -3.4511617    2084.7798  0.062180261  0.061607777            8 
 2795000   0.79297739   -3.4679872    2081.7229  0.062066872  0.061595633            3 
 2796000   0.81868099   -3.4444982    2083.2523  0.062090257  0.061583646            4 
 2797000   0.79099905   -3.4434813     2081.271  0.062009028  0.061571576            2 
 2798000   0.80766574   -3.4552578     2083.058  0.062040089  0.061559548            5 
 2799000   0.79860948    -3.455077    2084.7733  0.062068993  0.061547658            5 
 2800000   0.79032582    -3.466865    2077.3158  0.061824875  0.061535743            5 
 2801000   0.80748452   -3.4508103    2076.8978  0.061790367  0.061523792            4 
 2802000   0.79821044   -3.4741123    2080.6413  0.061879649  0.061511901            4 
 2803000   0.80804162   -3.4505345    2080.1281  0.061842314  0.061499915            4 
 2804000   0.81447842   -3.4750292    2078.2429  0.061764233  0.061488053            3 
 2805000   0.79402379   -3.4664757    2089.8437  0.062086858  0.061476157            6 
 2806000   0.77840279   -3.4539083    2093.2137  0.062164818  0.061464477            2 
 2807000   0.78765791   -3.4919072    2085.5948  0.061916484  0.061452537            9 
 2808000   0.80612986   -3.4692857    2080.6688  0.061748242  0.061440577            3 
 2809000   0.79833048   -3.5061905    2074.8665  0.061554126  0.061428504            3 
 2810000   0.79272396   -3.4595494    2090.0483  0.061982452   0.06141653            4 
 2811000   0.81188262   -3.4488447    2092.8596  0.062043746  0.061404725           10 
 2812000   0.79334873   -3.4658843    2088.1994  0.061883575  0.061392862            4 
 2813000   0.80111878   -3.4654965     2086.878  0.061822431  0.061380988            3 
 2814000   0.78679814   -3.4576817    2088.7484  0.061855853  0.061369069            6 
 2815000   0.80675007    -3.456893    2092.3697  0.061941081  0.061357111            8 
 2816000    0.7774361   -3.4621521     2078.162  0.061498639  0.061345133            5 
 2817000    0.7924603   -3.4792032    2082.6565  0.061609765  0.061333027            2 
 2818000   0.80662927   -3.4538293    2092.6796  0.061884304  0.061321104            7 
 2819000   0.78281716    -3.455376    2091.3932  0.061824324  0.061309142            7 
 2820000   0.78971144   -3.4671989    2093.2428  0.061857055  0.061297198            6 
 2821000   0.82366855   -3.4513047    2084.8003  0.061585735  0.061285292            5 
 2822000   0.80009201   -3.4667916    2085.2367  0.061576797  0.061273346            6 
 2823000    0.7975651   -3.4558268    2084.9128  0.061545424  0.061261392            3 
 2824000   0.80983195   -3.4371925    2087.7941  0.061608656   0.06124947            5 
 2825000   0.80100267   -3.4674229    2089.0111  0.061622746  0.061237637            4 
 2826000    0.7939515   -3.4487456    2098.5896  0.061883394  0.061225825            3 
 2827000   0.82006178   -3.4520763    2097.0651  0.061816563  0.061214028            3 
 2828000   0.79629068   -3.4474345     2091.824  0.061640263  0.061202213            6 
 2829000   0.79866094    -3.468397    2100.5903  0.061876703   0.06119025            1 
 2830000   0.80522998   -3.4474117    2094.5693  0.061677542  0.061178392            4 
 2831000   0.79325533   -3.4554136     2095.039  0.061669581  0.061166716            5 
 2832000   0.80026161   -3.4786575    2090.9416  0.061527236  0.061154949            5 
 2833000   0.79743651   -3.4793601    2094.7662  0.061618019  0.061142966            7 
 2834000    0.8028357   -3.4507685    2102.3711    0.0618199  0.061131073            4 
 2835000    0.8022166   -3.4398622    2098.8195  0.061693695    0.0611192            2 
 2836000   0.81118003   -3.4500581     2089.415  0.061395598  0.061107353            7 
 2837000   0.81055317   -3.4623514    2098.9288  0.061653413  0.061095441            4 
 2838000   0.80045865   -3.4358952    2098.5269  0.061619888  0.061083807            4 
 2839000   0.79795024   -3.4866699    2093.8143  0.061459854  0.061071957            2 
 2840000   0.78592981   -3.4863215    2101.9189  0.061676024  0.061060084            6 
 2841000   0.82029244   -3.4605751    2103.9856  0.061714935  0.061048355            5 
 2842000   0.80721561   -3.4506809    2102.5991  0.061652566  0.061036726            4 
 2843000   0.79337451   -3.5038538    2103.2591  0.061650225  0.061024927            3 
 2844000   0.80412415   -3.4534414    2095.1839  0.061391932  0.061013049            3 
 2845000   0.78693241   -3.4588012    2099.4326  0.061494804   0.06100136            3 
 2846000   0.78638612   -3.4845491    2101.8184  0.061543054  0.060989542            9 
 2847000   0.78540604    -3.463069    2099.4862  0.061453172  0.060977696            2 
 2848000    0.7742754   -3.4857292    2096.4729  0.061343424  0.060966039            5 
 2849000   0.80316164   -3.4671073    2107.6409  0.061648559  0.060954253            4 
 2850000   0.80188546   -3.4602702    2103.0134  0.061491619  0.060942507            7 
 2851000    0.7954928   -3.4992031    2099.8054  0.061376284  0.060930687            2 
 2852000   0.78774813   -3.4752457    2108.8735  0.061619726   0.06091903            3 
 2853000   0.77997767   -3.4787482    2103.5378  0.061442277  0.060907135            2 
 2854000   0.77694257   -3.4984003    2101.5845  0.061363714  0.060895342            6 
 2855000   0.79337814   -3.4556491    2106.1689  0.061476034  0.060883523            4 
 2856000   0.78225786   -3.4759026    2104.8669  0.061416516  0.060871814            3 
 2857000   0.79174335   -3.4591549    2107.2967  0.061465895  0.060860069            3 
 2858000   0.79205633   -3.4940072    2101.5571  0.061277034  0.060848237            4 
 2859000   0.79724184   -3.4930872    2099.2971  0.061189724  0.060836536            5 
 2860000   0.79777096   -3.4962351    2104.0862  0.061307873  0.060824804            5 
 2861000   0.80109556   -3.4781692    2104.5929  0.061301203  0.060813262            3 
 2862000   0.78088503   -3.4660767      2109.95  0.061435766  0.060801518            7 
 2863000   0.78662263   -3.4673934    2100.1787  0.061129896  0.060789809            2 
 2864000   0.82206553   -3.4806864    2102.6448  0.061180306  0.060778188            3 
 2865000   0.80445525   -3.4897699    2106.7333  0.061277875  0.060766563            2 
 2866000   0.78710903   -3.4679708    2103.7181  0.061168822  0.060754923            7 
 2867000   0.78652918   -3.4366243    2114.2984  0.061455016  0.060743463            6 
 2868000   0.80017471   -3.4459481    2120.5747  0.061615955  0.060731902            5 
 2869000   0.80057555    -3.495477    2107.2925  0.061208683    0.0607202            2 
 2870000   0.79495095   -3.4548433    2114.4283   0.06139455  0.060708556            6 
 2871000   0.80249179   -3.4521707    2111.5449  0.061289472  0.060697005            4 
 2872000   0.79683538   -3.4906153    2107.1545   0.06114074  0.060685463            3 
 2873000   0.78732329   -3.4821312     2108.568  0.061160461  0.060673865            5 
 2874000   0.80039651   -3.4406263    2113.5489  0.061283603   0.06066225            7 
 2875000   0.79421768   -3.4761084    2109.4172  0.061142528  0.060650615            5 
 2876000   0.78671171   -3.4574315    2108.7211  0.061101097   0.06063897            5 
 2877000   0.78579782   -3.4770627    2115.1997  0.061267514  0.060627443            4 
 2878000   0.77641182   -3.4642402    2110.3561   0.06110598  0.060615904           11 
 2879000   0.77230378   -3.4871667    2107.1675  0.060992461  0.060604191            1 
 2880000    0.7869137   -3.4750026    2109.6687  0.061043655  0.060592551            2 
 2881000   0.80555221   -3.4937958    2107.9145  0.060971725  0.060580963            4 
 2882000   0.78724953   -3.4986254    2105.0441  0.060867572  0.060569301            7 
 2883000   0.78836809   -3.4696867    2118.6111  0.061238615  0.060557799            7 
 2884000   0.79278408   -3.4927467    2112.1176  0.061029749  0.060546228            3 
 2885000   0.78875822   -3.4995993    2122.9716  0.061322115  0.060534589            2 
 2886000   0.79918178   -3.4752959    2112.8281  0.061007973  0.060523187            4 
 2887000   0.78543541   -3.4952215    2114.8866  0.061046258  0.060511538            3 
 2888000   0.78707102   -3.4822224    2118.6633  0.061134098  0.060499807            8 
 2889000   0.79720077   -3.4703182     2113.335  0.060959243  0.060488078            3 
 2890000    0.7878988   -3.5114908    2117.4508  0.061056829   0.06047642            3 
 2891000   0.78777824   -3.4886018    2119.5914  0.061097412  0.060464727            5 
 2892000   0.78493032   -3.4767826    2118.5537  0.061046384  0.060453062            2 
 2893000   0.77216437   -3.5057458    2109.6365   0.06076842  0.060441344            3 
 2894000   0.78326016   -3.4933579    2118.4507  0.061001231  0.060429588            5 
 2895000   0.77595097   -3.4764998    2118.4283  0.060979513  0.060418053            6 
 2896000    0.7877038   -3.4532105    2125.4089  0.061159327  0.060406392            2 
 2897000   0.78004053   -3.4650862    2121.2412  0.061018331   0.06039475            4 
 2898000   0.79355788    -3.474034    2119.3299  0.060942312  0.060383082            4 
 2899000   0.79586821   -3.4696503      2125.48  0.061098081  0.060371506            6 
 2900000   0.78574168    -3.495353    2126.6688  0.061111172  0.060360031            5 
 2901000   0.80083774    -3.467357    2124.3852  0.061024508  0.060348472            5 
 2902000   0.77649835   -3.4913211    2120.3255  0.060886902  0.060337004            3 
 2903000   0.78496625   -3.4829754     2121.769  0.060907365  0.060325464            3 
 2904000    0.7972596   -3.4869889    2121.2362  0.060871103  0.060314094            5 
 2905000   0.77540148   -3.4769591    2129.2796  0.061080883  0.060302668            6 
 2906000   0.77766825   -3.4745047    2122.7644  0.060873032  0.060291165            4 
 2907000   0.79134442   -3.4829594    2128.5253  0.061017238  0.060279681            3 
 2908000   0.78741788   -3.5006133    2127.3149   0.06096157  0.060268311            5 
 2909000   0.79014127   -3.4688579    2125.6187  0.060892021  0.060256791            3 
 2910000   0.76692483    -3.494884    2127.0907   0.06091325  0.060245425            4 
 2911000   0.77727521   -3.4958434    2127.8052  0.060912778  0.060233935            4 
 2912000   0.77525974   -3.4743372    2124.4657  0.060796293  0.060222462            8 
 2913000   0.78533031   -3.5080607    2126.8859  0.060844659  0.060211075            5 
 2914000   0.79965626   -3.5003539    2128.7294  0.060876498  0.060199662            7 
 2915000   0.78943836   -3.5131499    2125.1993  0.060754698  0.060188165            6 
 2916000   0.78523562   -3.4795299    2133.9753  0.060984661   0.06017671            4 
 2917000    0.7795715   -3.4872062    2136.1314  0.061025353  0.060165317            2 
 2918000   0.78207885   -3.5005871    2126.6875  0.060734735  0.060153819           10 
 2919000   0.78527078   -3.4739479    2129.4186  0.060791899  0.060142354            5 
 2920000   0.78327645   -3.4737655    2126.8884   0.06069887  0.060130875            5 
 2921000   0.78415595   -3.4792234    2132.1869   0.06082925  0.060119437            4 
 2922000   0.80134977   -3.4771103    2134.0294   0.06086098  0.060108108            5 
 2923000   0.76315823     -3.47923    2131.1328  0.060757579  0.060096596            5 
 2924000   0.77355002   -3.4938167    2130.2885  0.060712738  0.060085127            3 
 2925000   0.77403596   -3.4865359     2141.827  0.061020711   0.06007372            4 
 2926000   0.77926113   -3.4957448    2128.2511  0.060613212  0.060062329            4 
 2927000    0.7863176   -3.4812198    2134.2804  0.060764161  0.060050906            2 
 2928000    0.7752891   -3.4745411    2129.5828   0.06060971  0.060039311            3 
 2929000   0.77643066   -3.4846755    2133.6519  0.060704788  0.060027905            7 
 2930000   0.78641319   -3.4865692    2133.4517  0.060678375  0.060016327           11 
 2931000   0.79108891   -3.5005001    2130.2823  0.060567561  0.060004817            4 
 2932000   0.78250295   -3.4820861    2134.7783  0.060674689  0.059993176            6 
 2933000   0.78630003    -3.490659    2136.1614    0.0606933  0.059981737            4 
 2934000    0.7965815    -3.483792    2133.6459  0.060601168  0.059970317            6 
 2935000   0.79894078   -3.5132404    2133.1737  0.060567113  0.059958732            3 
 2936000   0.78892039   -3.5170065    2136.0095  0.060626974  0.059947163            6 
 2937000   0.77753808   -3.5153414     2121.845  0.060204433  0.059935479            6 
 2938000   0.79337802   -3.5093617    2129.6351  0.060404899  0.059923725            3 
 2939000   0.76378905   -3.4937055    2132.2007  0.060457092  0.059912037            3 
 2940000   0.79351067   -3.5087057    2128.0772  0.060319649  0.059900229            4 
 2941000   0.77094571   -3.5094212    2132.3481  0.060420154  0.059888492            3 
 2942000   0.78509685   -3.4969745      2132.62  0.060407319  0.059876807            3 
 2943000   0.78447844   -3.4803953    2140.3562  0.060605849  0.059865245            3 
 2944000   0.78141884   -3.4989093    2128.5966  0.060252394  0.059853642            3 
 2945000   0.77614934   -3.5050976    2132.3894  0.060339258  0.059841951            3 
 2946000   0.77442481    -3.494112    2139.8955  0.060531101  0.059830347            6 
 2947000   0.78528856     -3.49301    2136.2971  0.060408809  0.059818722            4 
 2948000   0.80319919   -3.5114512    2137.0776  0.060410381  0.059807126            5 
 2949000   0.77749939   -3.5111739    2136.0634  0.060361234  0.059795373            3 
 2950000    0.7703282   -3.5136285    2139.4785  0.060437247  0.059783683            6 
 2951000   0.76708378   -3.4972103    2142.6198  0.060505471  0.059772031            4 
 2952000   0.79031073   -3.4895611    2140.5078  0.060425355  0.059760464            3 
 2953000   0.77398776   -3.4878529    2143.1777  0.060480239  0.059748747            6 
 2954000   0.78743181   -3.4849805     2144.117  0.060486263  0.059737261            4 
 2955000   0.76932755   -3.4954697    2140.6403  0.060367747  0.059725721            6 
 2956000   0.76516974   -3.5015105     2134.993   0.06018812  0.059713919            4 
 2957000   0.78255303   -3.4961659    2138.1191  0.060255864  0.059702387            7 
 2958000   0.78024153   -3.4938868    2141.3065   0.06032529  0.059690782            4 
 2959000   0.77845145   -3.4951797    2132.5889  0.060059393  0.059679317            3 
 2960000   0.75112025    -3.483847    2140.2157  0.060253822  0.059667731            6 
 2961000   0.77206403   -3.4994821    2134.9742  0.060085957  0.059656183            3 
 2962000   0.78213292   -3.4880143    2136.8222  0.060117663  0.059644709            4 
 2963000   0.74845714   -3.4907467    2140.7231  0.060207085  0.059633101            3 
 2964000   0.79168679   -3.5202454     2134.989  0.060025557   0.05962144            5 
 2965000   0.78575964   -3.5042178    2142.4047  0.060213734  0.059609729            6 
 2966000    0.7725077   -3.4971351    2135.7318   0.06000595  0.059598106            2 
 2967000   0.75335751   -3.4946456    2144.3576  0.060227998   0.05958654            6 
 2968000   0.77023614   -3.5236539    2146.3248  0.060262937  0.059575097            6 
 2969000   0.77603653     -3.49492    2139.9977  0.060065053  0.059563318            3 
 2970000   0.74956506   -3.5075611    2142.1798  0.060106056  0.059551658            6 
 2971000   0.76748054   -3.4990075    2147.6238  0.060238522  0.059540103            3 
 2972000   0.77811943   -3.5049613    2146.4604  0.060185633  0.059528607            5 
 2973000   0.78026092   -3.5172604    2146.1376   0.06015634  0.059516903            4 
 2974000   0.78043983   -3.4880828    2143.4695   0.06006135  0.059505385            3 
 2975000   0.77878274   -3.4928357    2142.4502  0.060012611  0.059493886            3 
 2976000   0.77477656   -3.5118839    2149.8906  0.060200791  0.059482404            5 
 2977000   0.78655615   -3.5146125    2143.8771  0.060012235   0.05947073            6 
 2978000   0.79793917   -3.4928451     2148.112  0.060110588  0.059459157            3 
 2979000   0.77381034   -3.4921011    2148.3216  0.060096275  0.059447725            4 
 2980000    0.7915649   -3.5084949    2146.3268  0.060020323  0.059436251            5 
 2981000   0.79720879   -3.4947338    2149.0814  0.060077194  0.059424819            5 
 2982000   0.78653651   -3.5075072    2141.4292  0.059843203  0.059413331            4 
 2983000   0.77609013   -3.5120606    2146.0751  0.059952932  0.059401829            4 
 2984000   0.79464883   -3.4923146      2148.91   0.06001201  0.059390368            8 
 2985000   0.78158118   -3.5109586    2144.7537  0.059875871  0.059378918            3 
 2986000   0.79294356   -3.5037952    2157.5459  0.060212823  0.059367436            7 
 2987000    0.7671777   -3.4950065    2153.9544  0.060092468  0.059355997            2 
 2988000   0.77623299   -3.5023853    2153.8693  0.060069982  0.059344533            4 
 2989000   0.76436281   -3.4961806    2149.4484   0.05992663  0.059332999            3 
 2990000    0.7743966   -3.4998496    2151.7731   0.05997138  0.059321593            6 
 2991000   0.76822685    -3.500989    2147.7724  0.059839864   0.05931012            4 
 2992000   0.79443025   -3.5022894    2147.8929   0.05982322  0.059298706            2 
 2993000   0.78565085   -3.5229361    2156.0971   0.06003166  0.059287183            6 
 2994000   0.75627713   -3.5164322    2153.3102   0.05993404  0.059275666            6 
 2995000   0.77274429   -3.5073456    2148.3993  0.059777386  0.059264184            8 
 2996000   0.78575376   -3.5264153    2154.2103  0.059919066  0.059252669            6 
 2997000   0.79174782   -3.4956972    2148.1861  0.059731568  0.059241178            7 
 2998000   0.77030025   -3.4878126    2157.6752  0.059975406  0.059229681            8 
 2999000   0.78080656   -3.5208642    2152.2828  0.059805568  0.059218166            3 
 3000000   0.76486941   -3.4948719    2152.7322  0.059798117   0.05920665            8 
 3001000   0.77903869   -3.5265658    2152.3287  0.059766986  0.059195193            4 
 3002000   0.79026516   -3.5037511    2151.1094  0.059713231  0.059183606            2 
 3003000   0.77697742   -3.5054536    2154.8993  0.059798514  0.059172092            4 
 3004000   0.76383615   -3.5031803    2156.3033  0.059817558   0.05916058            4 
 3005000   0.75588536   -3.5074835     2152.166  0.059682917  0.059149059            3 
 3006000   0.77016626   -3.4984737     2158.099  0.059827539  0.059137646            4 
 3007000   0.75903982   -3.5185099    2153.9446  0.059692512  0.059126054            3 
 3008000    0.7527108   -3.4905545     2155.946  0.059728113  0.059114613            3 
 3009000    0.7349721   -3.4905492    2162.4297  0.059887828  0.059103027            5 
 3010000   0.76197666   -3.5147963    2154.4509  0.059647034  0.059091504            7 
 3011000    0.7765619   -3.4885969    2161.5998  0.059825081  0.059080023            3 
 3012000   0.75482815   -3.5252567    2164.5077   0.05988567  0.059068598            4 
 3013000   0.76539282   -3.5158665    2158.9316  0.059711572  0.059057135            5 
 3014000   0.76143991   -3.5099246    2158.1326  0.059669668  0.059045769            3 
 3015000   0.76833727   -3.5088443    2158.2735  0.059653773  0.059034323            6 
 3016000   0.77176616   -3.5239014    2152.4837  0.059474018  0.059022945            3 
 3017000   0.76866628   -3.4882461    2160.7698  0.059683178  0.059011589            4 
 3018000   0.77282006   -3.5269218    2151.7854  0.059415324  0.059000264            5 
 3019000   0.77385866   -3.5177543    2157.2826  0.059547385  0.058988913            2 
 3020000   0.77024655   -3.5129157    2160.8006  0.059624741  0.058977523            7 
 3021000   0.77824881   -3.5466872     2162.758  0.059658997   0.05896608            5 
 3022000   0.76809938   -3.5371423    2159.8357  0.059558672  0.058954679            5 
 3023000   0.76874917   -3.5262415    2156.7316  0.059453402  0.058943274            6 
 3024000   0.75633069   -3.5233764     2167.985  0.059743854  0.058931993            9 
 3025000   0.77516375   -3.5100312    2156.4264  0.059405685  0.058920728            4 
 3026000   0.75090208   -3.5373304    2158.2257  0.059435607  0.058909291           10 
 3027000   0.75394859   -3.5051985    2161.2775  0.059499985   0.05889784            3 
 3028000   0.78016246   -3.5437688      2155.39  0.059318308  0.058886339            4 
 3029000   0.75909142   -3.5278642     2157.476  0.059356112  0.058874796           11 
 3030000   0.78888946   -3.5111436    2160.5429  0.059420871  0.058863227            7 
 3031000   0.76485611   -3.5260134    2156.4427  0.059288537  0.058851628            6 
 3032000   0.77788319   -3.5342722    2159.0968  0.059341932  0.058839998            6 
 3033000   0.76202236   -3.5231215    2161.9577  0.059400969  0.058828349            3 
 3034000   0.76157607    -3.540285    2155.0834  0.059192578  0.058816625            3 
 3035000   0.77767613   -3.5151375    2157.1529  0.059229899  0.058804871            8 
 3036000   0.74591368   -3.5063555    2161.5958  0.059332339  0.058793291            4 
 3037000   0.77589407    -3.504401    2169.2964  0.059524103  0.058781672           10 
 3038000   0.75244828   -3.5211674    2158.2018  0.059200182  0.058770072           10 
 3039000   0.77331892   -3.5228605    2167.4238  0.059433581   0.05875866            6 
 3040000   0.77809418   -3.5277773    2165.3316  0.059356678  0.058747178            4 
 3041000   0.76087481   -3.4984242    2171.4049  0.059503586  0.058735733            4 
 3042000   0.76981663   -3.5124995     2163.258  0.059260847  0.058724262            8 
 3043000   0.78036746   -3.5015674     2170.706  0.059445339   0.05871282            7 
 3044000   0.77791579   -3.5231753    2159.0824    0.0591076  0.058701319            3 
 3045000   0.75632311    -3.500554    2169.9134  0.059384603  0.058689821            5 
 3046000   0.77619712    -3.484662    2171.8422  0.059417876  0.058678493            2 
 3047000   0.77963409   -3.5393429    2161.3949  0.059112649  0.058667066            4 
 3048000   0.76290676   -3.5062471    2164.3664  0.059174496   0.05865557            5 
 3049000   0.75936337   -3.4997326    2169.4906  0.059295139   0.05864425            3 
 3050000   0.75712879   -3.5268289    2164.8702  0.059149459  0.058632819           24 
 3051000   0.75878434   -3.5066024     2165.886  0.059157818  0.058621323            7 
 3052000   0.75233004   -3.5399843    2170.0312  0.059251616  0.058609808            4 
 3053000    0.7619536   -3.5010132    2174.1567  0.059344817  0.058598461            4 
 3054000   0.75410701   -3.5317285    2166.4646  0.059115493  0.058587089            3 
 3055000   0.77889601   -3.5210296    2172.5347   0.05926172  0.058575669            3 
 3056000   0.74631911   -3.5127977    2177.1708   0.05936875  0.058564276            5 
 3057000   0.77188581   -3.4946274    2171.4092  0.059192269  0.058553073            3 
 3058000   0.77193902    -3.513539    2178.6626  0.059370575  0.058541729            4 
 3059000    0.7601048    -3.517088    2174.1845  0.059229174  0.058530343            4 
 3060000   0.75589169   -3.5231439    2169.9001  0.059093139  0.058518991            4 
 3061000   0.74526895   -3.5159189    2168.4058  0.059033155  0.058507617            9 
 3062000   0.76860847   -3.5087758     2172.736  0.059131723  0.058496308            5 
 3063000   0.75367053   -3.4980047    2171.2429  0.059071795  0.058484953            6 
 3064000   0.76235851   -3.4840252    2183.8482  0.059395349  0.058473777            3 
 3065000   0.74868584   -3.5556086    2172.2492  0.059060608   0.05846241            5 
 3066000   0.74054292   -3.5249278     2174.559  0.059104127  0.058451085            3 
 3067000   0.74075566   -3.5134772    2180.1076  0.059235614  0.058439725            4 
 3068000   0.75094931   -3.5327328    2179.1382  0.059189978  0.058428381           10 
 3069000   0.76203665   -3.5226342    2179.8107   0.05918895  0.058417063            4 
 3070000   0.75347287   -3.5389364    2180.5867  0.059190735  0.058405748            7 
 3071000   0.76273386   -3.5307258    2175.8873  0.059043941  0.058394577            4 
 3072000   0.75361759   -3.5207994      2187.91  0.059350858  0.058383306            6 
 3073000   0.76396782   -3.5355953    2182.4615  0.059183792  0.058372086            5 
 3074000   0.77585555   -3.5206498    2182.6238  0.059168939  0.058360798            4 
 3075000    0.7627934   -3.5135676    2182.3885   0.05914332  0.058349672            4 
 3076000   0.75508021    -3.554644     2175.417  0.058935224  0.058338491            3 
 3077000   0.75931372   -3.5398247    2176.7838  0.058953087  0.058327277            8 
 3078000   0.76314255   -3.5351221    2176.4916  0.058926022  0.058316046            5 
 3079000   0.76301152   -3.5192556    2177.9635  0.058946724  0.058304723            5 
 3080000   0.77210965   -3.5304854    2184.0532  0.059092347  0.058293512           11 
 3081000   0.77683975   -3.5418313    2176.7598  0.058875901  0.058282258            4 
 3082000   0.75642833   -3.5334427     2183.037  0.059026525  0.058271111            4 
 3083000   0.75219245   -3.5244118    2187.1701  0.059119096  0.058260013            6 
 3084000   0.77813511   -3.5328622    2180.4315  0.058917843  0.058248867            3 
 3085000   0.75145724   -3.5102406    2190.4587  0.059169602    0.0582378            4 
 3086000    0.7399691   -3.5540597    2186.6376  0.059047246  0.058226818            3 
 3087000   0.75250986   -3.5525465    2180.1747  0.058853654   0.05821567            4 
 3088000   0.75910435   -3.5409931    2182.0277  0.058884598  0.058204426            9 
 3089000   0.75262294   -3.5431823    2186.3056  0.058980943  0.058193288            4 
 3090000   0.74933226   -3.5221567    2191.6868  0.059106981  0.058182246            3 
 3091000    0.7669652   -3.5205648    2189.1864  0.059020447  0.058171211            4 
 3092000   0.74887917   -3.5356164     2194.538  0.059145591  0.058160078            3 
 3093000   0.75994878   -3.5235607    2196.1354  0.059169505  0.058149145            3 
 3094000   0.76785089   -3.5196964    2189.1373  0.058961896  0.058138225           12 
 3095000   0.75092978   -3.5411496    2186.6243  0.058875183   0.05812716            5 
 3096000    0.7628422   -3.5155025    2186.6824  0.058857731  0.058116172            3 
 3097000    0.7704836   -3.5306743    2197.6586  0.059134069  0.058105168            2 
 3098000   0.76019934   -3.5222498    2192.2606   0.05896978   0.05809415            8 
 3099000   0.77042065   -3.5438409    2192.0329   0.05894463  0.058083043            3 
 3100000   0.76580686   -3.5155768    2191.4688  0.058910453  0.058071921            6 
 3101000   0.77364644   -3.5509977    2196.4831  0.059026203  0.058060917            4 
 3102000   0.74982542   -3.5574768    2188.0213  0.058779853  0.058049726            5 
 3103000   0.75448732   -3.5376184     2185.348  0.058689118  0.058038529            8 
 3104000   0.73686101   -3.5279494    2184.0093  0.058634269  0.058027446            8 
 3105000   0.77348557   -3.5277658    2192.8534   0.05885275  0.058016217            4 
 3106000   0.75695151   -3.5377399    2197.0666   0.05894684  0.058005136            3 
 3107000   0.76021817   -3.5094824    2198.1711  0.058957492  0.057993914            3 
 3108000   0.76528428    -3.543299    2194.9766  0.058852868  0.057982924            6 
 3109000   0.75451395   -3.5318111    2189.0112  0.058674042  0.057971766            7 
 3110000   0.75367357   -3.5196598    2198.2068  0.058901575  0.057960677            4 
 3111000   0.76015516   -3.5598006    2190.2818  0.058670358  0.057949646            5 
 3112000   0.75539842   -3.5550458    2194.8868  0.058774818  0.057938472            3 
 3113000   0.73821481   -3.5407299    2198.7022  0.058858074  0.057927315            3 
 3114000   0.74280941     -3.52888    2193.2249  0.058692596  0.057916283           10 
 3115000   0.74149376   -3.5297026    2202.4478  0.058920488  0.057905106            4 
 3116000    0.7631107   -3.5574582    2193.6506  0.058666308  0.057893871            4 
 3117000   0.76240971   -3.5302858    2197.0579  0.058738581  0.057882797            2 
 3118000   0.74403721   -3.5463111    2195.3877  0.058675105  0.057871693            4 
 3119000   0.75416548   -3.5289144    2198.1254  0.058729437   0.05786062            5 
 3120000    0.7453861   -3.5330236    2199.5601  0.058748935  0.057849513            5 
 3121000    0.7772228   -3.5547856    2193.9651   0.05858072  0.057838461            4 
 3122000   0.75900708   -3.5385587    2201.1478  0.058753677  0.057827452            3 
 3123000   0.75166354   -3.5456482    2191.7694  0.058484614  0.057816369            5 
 3124000   0.75758555   -3.5174891    2192.5288   0.05848615  0.057805239            4 
 3125000   0.75367888   -3.5413377    2195.1851  0.058538269  0.057794074            8 
 3126000   0.75466281   -3.5344003    2195.4413  0.058526372  0.057782909            4 
 3127000   0.74048256   -3.5341344    2194.5722  0.058484496  0.057771786            9 
 3128000   0.75155884   -3.5337918    2197.2087  0.058536036  0.057760643            4 
 3129000   0.75055699   -3.5359381     2199.608  0.058581229   0.05774952            4 
 3130000   0.74349301   -3.5522607    2201.5933  0.058615369  0.057738394            6 
 3131000   0.74817971   -3.5387863    2197.7652  0.058494761  0.057727427            3 
 3132000   0.73950751   -3.5356684    2193.1625   0.05835362  0.057716345            3 
 3133000   0.74823327   -3.5347114     2210.897  0.058806709  0.057705157           14 
 3134000   0.76599898   -3.5543675    2194.5368  0.058352925  0.057694009            4 
 3135000   0.74743619   -3.5556318    2204.9253  0.058610455  0.057682886            6 
 3136000   0.76295956   -3.5429314    2195.1766  0.058332711  0.057671875            5 
 3137000   0.75320218   -3.5320862    2201.1245  0.058472119  0.057660743            3 
 3138000   0.75463163   -3.5524025    2202.3434  0.058485856  0.057649781            8 
 3139000   0.74272715   -3.5455286     2205.815  0.058559387  0.057638812            4 
 3140000   0.73613615   -3.5387322    2200.3573  0.058395894  0.057627672            6 
 3141000   0.75172705   -3.5423784    2209.5304  0.058620674  0.057616409           14 
 3142000   0.74863275   -3.5449956    2205.3235  0.058490439  0.057605361            3 
 3143000   0.73695911    -3.540218    2214.6261  0.058718476  0.057594388           10 
 3144000   0.75060219   -3.5576141    2203.5512  0.058406255  0.057583257            7 
 3145000   0.75258562   -3.5532788    2197.4058  0.058224849  0.057572275            4 
 3146000   0.76264903   -3.5570185     2202.243  0.058334473  0.057561298            5 
 3147000   0.75650243   -3.5379351    2208.0286  0.058469139  0.057550357            3 
 3148000   0.74187799     -3.56678    2196.8616  0.058154956  0.057539245            4 
 3149000   0.76040342   -3.5569663    2202.2288  0.058278522  0.057528135            7 
 3150000   0.75630532   -3.5300576    2206.1843  0.058364665  0.057517112            4 
 3151000   0.74261525   -3.5459854    2199.8633  0.058178972   0.05750611           11 
 3152000   0.74705572   -3.5364702    2202.1543  0.058221084  0.057494969            4 
 3153000   0.75319399   -3.5330142    2207.2211  0.058336533  0.057483897            2 
 3154000   0.75385681   -3.5410346    2214.1371   0.05850077  0.057472946            3 
 3155000   0.75582969   -3.5428643    2210.9928  0.058399176  0.057462024           10 
 3156000   0.74453289    -3.539945    2212.7255  0.058426423  0.057451018            6 
 3157000   0.73079934   -3.5517072    2209.7045  0.058328172  0.057440053            7 
 3158000   0.75316919   -3.5405372    2207.4107  0.058249174  0.057429085            5 
 3159000   0.75460558   -3.5500095    2209.1771  0.058277332  0.057418139            5 
 3160000   0.75565825   -3.5684858      2199.88  0.058013713  0.057407151            6 
 3161000   0.73415843   -3.5426855    2214.7438  0.058387215  0.057396149            3 
 3162000    0.7389809   -3.5524742    2207.2042  0.058170045  0.057385226            7 
 3163000   0.74572326   -3.5499284    2212.9372  0.058302698  0.057374222            4 
 3164000   0.74098688   -3.5664086    2208.4272  0.058165487  0.057363212            7 
 3165000   0.74146781   -3.5669875    2207.7074  0.058128156  0.057352107            3 
 3166000   0.74151428   -3.5474439    2208.0349  0.058118416  0.057340986           11 
 3167000   0.74377354   -3.5605274    2199.8264  0.057884076  0.057329847            3 
 3168000   0.74855297   -3.5379598    2208.8149  0.058102243  0.057318718            5 
 3169000   0.75486177   -3.5591256    2203.7699  0.057951243  0.057307738            6 
 3170000   0.73870751    -3.531249    2208.6183  0.058060419  0.057296661            7 
 3171000   0.75826973   -3.5511347    2211.4239  0.058115838  0.057285697            4 
 3172000   0.75013807   -3.5718979    2207.5518  0.057995791  0.057274694            5 
 3173000   0.75657898   -3.5822922    2215.0972   0.05817568   0.05726369            4 
 3174000   0.75195045    -3.548261    2205.8589    0.0579148   0.05725266            3 
 3175000   0.72498512   -3.5721663    2211.8954  0.058054997  0.057241586            9 
 3176000   0.73942586   -3.5840837    2207.5339  0.057922279  0.057230523            6 
 3177000    0.7529266   -3.5483862    2208.4069  0.057926948   0.05721939            3 
 3178000   0.73823422   -3.5679208    2207.7683  0.057891973  0.057208264            6 
 3179000   0.74258467   -3.5541713    2207.8081  0.057874805  0.057197228            4 
 3180000   0.76294672   -3.5286801    2213.4911  0.058005532  0.057186216            5 
 3181000    0.7398325   -3.5538914    2215.0671  0.058028584  0.057175123            3 
 3182000   0.74733635   -3.5524974    2217.4415   0.05807253  0.057163982            3 
 3183000   0.73569694   -3.5435258    2214.8114  0.057985429  0.057152953            7 
 3184000   0.74513777    -3.570178    2219.9538  0.058101805  0.057141869            9 
 3185000    0.7338503   -3.5402053    2212.9043  0.057899117   0.05713086            3 
 3186000    0.7364807   -3.5435614    2217.5045  0.058001268   0.05711992            6 
 3187000   0.75206114   -3.5454554    2218.0247  0.057996673  0.057108871            3 
 3188000   0.74595802   -3.5561526    2212.3432  0.057829967  0.057097831            8 
 3189000    0.7386461   -3.5744699    2214.5374  0.057869169  0.057086753            8 
 3190000   0.74321602   -3.5318161    2219.6653  0.057984987  0.057075653            7 
 3191000    0.7481447   -3.5513916    2211.5003  0.057753586  0.057064515            3 
 3192000   0.72868311    -3.574281    2216.5654  0.057867725  0.057053239            5 
 3193000   0.72154485   -3.5539924     2218.621  0.057903253  0.057042029            7 
 3194000   0.73716926   -3.5507026    2217.8793  0.057865772   0.05703092            4 
 3195000   0.72835391   -3.5696898    2213.5315   0.05773426  0.057019749            5 
 3196000   0.72883722   -3.5692265    2214.5053  0.057741587   0.05700861            4 
 3197000   0.73973069   -3.5830846    2212.8764  0.057681065   0.05699747            9 
 3198000   0.73746422   -3.5599411    2221.2936  0.057882364  0.056986402            4 
 3199000   0.73628396   -3.5525292    2215.9273  0.057724478  0.056975299            7 
 3200000   0.72896167   -3.5656434    2214.9459  0.057680882  0.056964244            6 
 3201000   0.72133722   -3.5687444    2209.6365  0.057524641  0.056953074            5 
 3202000   0.73669926   -3.5505812    2221.3264   0.05781091  0.056941929            7 
 3203000   0.73727274   -3.5393484    2219.6619  0.057749556  0.056930912            5 
 3204000   0.74339187   -3.5561275     2215.885  0.057633298  0.056919962            7 
 3205000   0.73499131   -3.5753609    2218.5774   0.05768532  0.056908869            5 
 3206000   0.73648782   -3.5557461    2216.8689  0.057622919  0.056897785            6 
 3207000   0.74427913   -3.5595231    2218.2277  0.057640257  0.056886787            4 
 3208000   0.73332897   -3.5255082    2223.8638  0.057768697  0.056875818            8 
 3209000   0.74058959    -3.564649    2230.5286  0.057923772  0.056864939            7 
 3210000   0.74902717   -3.5645648    2224.3868  0.057746284  0.056854011            5 
 3211000   0.74637327   -3.5621041    2225.8556  0.057766416  0.056843048            4 
 3212000   0.73516649   -3.5649056    2225.9955  0.057752062  0.056832123            9 
 3213000   0.73671802    -3.560352    2218.4657  0.057538793  0.056821118            9 
 3214000   0.73403248   -3.5517765    2226.3927  0.057726423  0.056810291           15 
 3215000   0.72909338   -3.5815272    2225.6938  0.057690352  0.056799323            2 
 3216000   0.73989791   -3.5261799    2224.6263  0.057644752  0.056788207            6 
 3217000   0.72247575   -3.5440827    2231.0706  0.057793768  0.056777294            6 
 3218000   0.72434227   -3.5761246    2227.9083  0.057693917  0.056766412            4 
 3219000   0.73424821   -3.5426071    2226.5286  0.057640276  0.056755393            5 
 3220000   0.73516906   -3.5567011    2225.2345  0.057588883  0.056744458            5 
 3221000   0.74554313   -3.5594034    2223.2279  0.057519091  0.056733443            4 
 3222000   0.72881087     -3.51795    2228.7914  0.057645133  0.056722539            5 
 3223000     0.738025   -3.5709073    2231.2828  0.057691663  0.056711581            7 
 3224000   0.72946072   -3.5696139    2232.0755   0.05769426  0.056700672            5 
 3225000   0.73117868   -3.5630578    2223.4435   0.05745332  0.056689581            5 
 3226000   0.75273019   -3.5739559    2226.1435  0.057505256  0.056678599            4 
 3227000   0.73484725   -3.5428511    2224.3411  0.057440891  0.056667667            3 
 3228000   0.73628195   -3.5757544    2230.4445   0.05758066  0.056656656            3 
 3229000    0.7301737   -3.5695851    2236.8939  0.057729274  0.056645874            3 
 3230000   0.72081167   -3.5920001    2228.6411   0.05749848   0.05663498            3 
 3231000    0.7435842   -3.5509916    2238.0917  0.057724432  0.056624079            3 
 3232000   0.72454829   -3.5565265    2226.0811  0.057396892  0.056613245            7 
 3233000   0.72978943   -3.5746395    2227.8526    0.0574248   0.05660228           10 
 3234000   0.73529103     -3.56406    2229.3811  0.057446432   0.05659126            6 
 3235000   0.72358855   -3.5717172    2233.8941  0.057544929  0.056580347            3 
 3236000   0.74677412   -3.5829096    2223.1823  0.057251295  0.056569334            5 
 3237000   0.74201732   -3.5848404    2224.3316  0.057263197  0.056558282            2 
 3238000   0.74926828   -3.5380789    2235.1426  0.057523744  0.056547335            9 
 3239000   0.72511257   -3.5855363    2225.1607  0.057249168  0.056536333            4 
 3240000    0.7278466   -3.5796002    2231.9526  0.057406189  0.056525337            3 
 3241000   0.71489885   -3.5580957    2235.5849   0.05748187   0.05651435            8 
 3242000   0.73437165   -3.5554204    2224.5864  0.057181432  0.056503362            6 
 3243000   0.72638378    -3.546722    2227.7644  0.057245462  0.056492293           12 
 3244000   0.73756059   -3.5542155    2232.5446  0.057350612  0.056481331            2 
 3245000   0.70970714   -3.5788973    2233.6784  0.057362054  0.056470289            4 
 3246000   0.74515382   -3.5682278    2230.5945  0.057265211   0.05645919            3 
 3247000    0.7351748   -3.5825895    2228.8302  0.057202294   0.05644811            6 
 3248000    0.7467169   -3.5856744    2228.8968   0.05718639  0.056436991            4 
 3249000   0.73028339   -3.5904573    2229.6017   0.05718687  0.056425839            3 
 3250000   0.73900947   -3.5566226    2234.0607  0.057283608   0.05641481            4 
 3251000   0.71391074   -3.5653276    2231.1375  0.057191057  0.056403772           10 
 3252000   0.73810524    -3.580102     2224.484  0.057002971   0.05639261            8 
 3253000   0.72914643   -3.5896096    2232.1703  0.057182352  0.056381631            4 
 3254000   0.72798835   -3.5750531    2235.9121  0.057260606  0.056370561            8 
 3255000   0.72871896    -3.574905    2227.0201  0.057015363  0.056359421            6 
 3256000   0.72441566   -3.5742268    2231.7023  0.057117688  0.056348297            5 
 3257000   0.72104893   -3.5625298    2233.2433  0.057139579  0.056337363            2 
 3258000   0.73396378   -3.5755781    2237.0471  0.057219334  0.056326322            6 
 3259000   0.71517991   -3.5838198    2230.4433  0.057032917  0.056315188            3 
 3260000   0.73898268   -3.5696352    2233.2861  0.057088089  0.056304082            3 
 3261000   0.72809555   -3.5852368    2238.7134  0.057209277  0.056293035            3 
 3262000   0.74619294   -3.5729381    2238.7326  0.057192228  0.056282029            3 
 3263000   0.72869689   -3.5812408    2234.5794  0.057068634  0.056270931            4 
 3264000   0.73141362   -3.5759228    2234.5416  0.057050184   0.05625997            7 
 3265000   0.72074216   -3.5503514    2231.4935  0.056954913  0.056248942            7 
 3266000   0.72919523   -3.5856554    2229.2851  0.056881125   0.05623792            6 
 3267000    0.7219625   -3.5264534    2240.5708  0.057151585  0.056226926            9 
 3268000   0.73922642     -3.57779    2230.9436  0.056888608  0.056215919            3 
 3269000   0.71783533     -3.56961    2232.5326  0.056911712  0.056204767            4 
 3270000   0.73623751   -3.5851217    2225.7228  0.056720765  0.056193623           10 
 3271000   0.72043805   -3.5717605    2232.5385  0.056877064  0.056182419            7 
 3272000   0.72323899   -3.5749485    2226.1962   0.05669815  0.056171241            3 
 3273000   0.71727267   -3.6059678    2232.2718  0.056835518  0.056160117            7 
 3274000   0.74118005   -3.5928637    2238.1231  0.056967092  0.056148876            2 
 3275000   0.71824501   -3.5519514    2232.3865  0.056803727  0.056137635            7 
 3276000   0.72766811   -3.5973248    2224.5797  0.056587803   0.05612632            7 
 3277000   0.73443672   -3.5918499    2239.1621  0.056941361  0.056115008            4 
 3278000   0.74231275   -3.5907442    2235.7454  0.056837132  0.056103847            8 
 3279000   0.73762527   -3.5815389    2227.9685  0.056622153  0.056092545            4 
 3280000   0.72494746    -3.584403    2227.5146  0.056593358  0.056081362            5 
 3281000   0.71143406   -3.5686824    2238.0028  0.056842496  0.056070114            3 
 3282000   0.73617993   -3.5825662    2240.2401  0.056881986  0.056059005           10 
 3283000   0.73097328   -3.5998902    2240.9216  0.056881957  0.056047798            4 
 3284000   0.73413459    -3.562998    2241.1664  0.056870848  0.056036729           13 
 3285000   0.73560629   -3.5915834    2238.0241  0.056773823  0.056025664           15 
 3286000   0.71936105   -3.6022059    2236.2717  0.056712106  0.056014482            4 
 3287000   0.70957053   -3.5894117    2235.9777  0.056687397  0.056003346            7 
 3288000   0.70656911   -3.5757014    2238.1234  0.056724539  0.055992177            4 
 3289000   0.72745145   -3.6006663    2233.1473  0.056581212  0.055980977            4 
 3290000    0.7344846   -3.5851624     2231.949  0.056533662  0.055969915           12 
 3291000   0.71135403   -3.5833678    2243.5089    0.0568092  0.055958777            2 
 3292000   0.73347812   -3.5857646    2240.3317  0.056711516  0.055947727            5 
 3293000   0.72403289   -3.5801117    2244.6451   0.05680345  0.055936647            4 
 3294000   0.72523722   -3.5667355    2248.6179  0.056886711  0.055925611            8 
 3295000   0.73058417    -3.600901    2239.5951  0.056641253   0.05591459            7 
 3296000   0.72958386   -3.5875263    2241.7155  0.056677677  0.055903518            4 
 3297000   0.74091254   -3.5902457    2244.9292  0.056741715   0.05589254            4 
 3298000   0.73086998   -3.5941058    2245.2675  0.056733058   0.05588153            5 
 3299000   0.73062496   -3.5873771    2241.6232  0.056623805  0.055870525            5 
 3300000   0.73266866   -3.6120146    2244.6289  0.056682548  0.055859553            3 
 3301000   0.72202511   -3.5870111    2241.4804  0.056585893  0.055848495            5 
 3302000   0.73782005   -3.5865718    2243.3621  0.056616244  0.055837462           10 
 3303000    0.7423814    -3.572132    2246.0459  0.056666816  0.055826492           12 
 3304000   0.70507415   -3.5544413    2248.7145  0.056716971   0.05581548            6 
 3305000   0.70644522   -3.5727276    2252.2595  0.056789196  0.055804569            6 
 3306000   0.71608201   -3.5676594    2248.7248  0.056682921  0.055793512            4 
 3307000   0.72022936   -3.5598038    2245.7635  0.056591158  0.055782578            3 
 3308000   0.72911068   -3.5671302    2247.0144  0.056605563  0.055771566            6 
 3309000   0.72592162    -3.588442    2247.4151  0.056598546  0.055760526            2 
 3310000   0.71357267    -3.590597    2241.1346  0.056423329  0.055749462            5 
 3311000   0.71584166   -3.5601481     2240.954  0.056401741  0.055738449            5 
 3312000   0.71801453   -3.6043921    2249.0808   0.05658919  0.055727543           12 
 3313000   0.71033485   -3.5588736    2252.6563  0.056662047   0.05571664            5 
 3314000     0.731272   -3.5847148     2246.962  0.056501761  0.055705564            3 
 3315000   0.72316233    -3.584277     2244.151  0.056414053  0.055694574            5 
 3316000   0.73470906   -3.5945593    2251.8534  0.056590606  0.055683621            5 
 3317000   0.72195107    -3.574725    2247.0976  0.056454064  0.055672651            6 
 3318000   0.73264404   -3.6088045    2246.7857  0.056429217  0.055661485            7 
 3319000   0.70797312   -3.6158259    2248.7487  0.056461502  0.055650505            5 
 3320000   0.70944492   -3.5632692    2256.0785  0.056628476  0.055639472            7 
 3321000   0.72339357   -3.5883906    2250.7679  0.056478167  0.055628385            3 
 3322000   0.70906966   -3.5891351    2248.0927  0.056394057  0.055617244            5 
 3323000   0.73153922   -3.5943276    2247.9928  0.056374582  0.055606289            8 
 3324000   0.70990851   -3.5680135    2254.0769  0.056510151  0.055595434            4 
 3325000    0.7202415   -3.5854143    2251.5637  0.056430167  0.055584396            5 
 3326000   0.70446632   -3.5999372    2251.9559  0.056423027  0.055573492            4 
 3327000   0.72129849   -3.5706872    2255.2132  0.056487656  0.055562528            7 
 3328000   0.73184835   -3.6034369    2253.0129  0.056415588  0.055551476            5 
 3329000   0.71705015   -3.6126023    2246.5748  0.056237478   0.05554051            3 
 3330000    0.7238251   -3.5939482    2257.7155  0.056499388  0.055529447            6 
 3331000   0.71553692    -3.590875    2253.1711  0.056368736  0.055518458            4 
 3332000   0.72466045   -3.5974811    2253.3336  0.056355883  0.055507486            3 
 3333000   0.71633575   -3.5709868    2252.6319  0.056321429  0.055496425            4 
 3334000   0.71529317   -3.5851566    2256.3283  0.056396927  0.055485561            6 
 3335000   0.71915768   -3.5904342    2256.6772  0.056388735  0.055474629            4 
 3336000   0.72310267   -3.5838193    2257.8432  0.056400959    0.0554636            8 
 3337000   0.70748377    -3.576288    2254.5764  0.056302478  0.055452723            3 
 3338000   0.71129468   -3.5692369    2255.5138  0.056309011   0.05544176            4 
 3339000   0.72433459   -3.5791454    2261.4946  0.056441413  0.055430836            2 
 3340000   0.72098372    -3.614228    2256.0607   0.05628894  0.055419903            8 
 3341000   0.70066179   -3.5918301    2258.8279  0.056341114  0.055408782            3 
 3342000   0.70965926   -3.6229282    2257.3716  0.056287942  0.055397787            4 
 3343000   0.72394438   -3.6032407    2258.9088  0.056309424   0.05538672            3 
 3344000   0.69942265   -3.6121844    2247.9941  0.056020588  0.055375551            4 
 3345000   0.73361682   -3.6011063    2254.0954  0.056155839  0.055364497            6 
 3346000   0.71395094   -3.5879157    2255.2148  0.056166937  0.055353318            6 
 3347000   0.72282064   -3.5917739    2250.7098  0.056037988  0.055342236            9 
 3348000   0.72217593   -3.5794006    2257.8189  0.056198199  0.055331242           12 
 3349000    0.7190987     -3.60865    2241.3355  0.055771263  0.055320206            8 
 3350000    0.7107014   -3.6084822    2256.2952  0.056126746  0.055308993            6 
 3351000   0.71920386   -3.5793468    2249.0513  0.055929854  0.055297955            2 
 3352000   0.72631489   -3.5919855    2259.2605  0.056166976  0.055286908            4 
 3353000   0.71872523   -3.6028569    2256.7586  0.056088046  0.055275878            8 
 3354000   0.71438789   -3.6264033    2246.6777  0.055820854  0.055264757            5 
 3355000   0.71581146   -3.6000351    2255.5605   0.05602485  0.055253641            6 
 3356000   0.70092497   -3.6183628    2248.3344  0.055828724  0.055242513            4 
 3357000   0.71449374   -3.5984899    2249.5141  0.055841379  0.055231494            6 
 3358000   0.69679853    -3.609967     2248.065  0.055788787   0.05522039            6 
 3359000   0.69977387   -3.6029429    2257.0841  0.055995934  0.055209391            6 
 3360000   0.69864822   -3.6022126    2260.4533   0.05606283  0.055198452            3 
 3361000   0.71717444   -3.5834309    2255.0877  0.055913113   0.05518739            5 
 3362000   0.71354573   -3.6101508    2252.5004  0.055832351  0.055176325            6 
 3363000   0.70940964   -3.6184268    2248.7994  0.055724042  0.055165183            5 
 3364000   0.70460276   -3.6184713    2251.0506  0.055763242  0.055154051            8 
 3365000   0.70960942   -3.6114588    2257.0565  0.055895405  0.055142896            6 
 3366000    0.7269623   -3.6164107    2257.3212  0.055885354  0.055131686            6 
 3367000   0.69975338    -3.585341    2262.3836  0.055994049  0.055120639            3 
 3368000   0.70621087    -3.589651    2264.1843   0.05602198  0.055109611            3 
 3369000   0.71095526   -3.6122241    2254.8867  0.055775371   0.05509862            4 
 3370000   0.70860692   -3.6056868    2259.7662   0.05587948  0.055087489            6 
 3371000   0.71910648   -3.5993361    2252.8934  0.055693003  0.055076312            6 
 3372000   0.72407116   -3.5921905    2255.2892  0.055735696  0.055065179            6 
 3373000   0.72066879    -3.603717    2254.2012  0.055692293  0.055054053            9 
 3374000   0.69872961   -3.6048831    2255.2785  0.055702394  0.055042914            7 
 3375000   0.71494048   -3.5952321    2255.9655  0.055702853  0.055031798            2 
 3376000   0.69601482   -3.6069311    2259.1404  0.055764721  0.055020688            5 
 3377000   0.70977654    -3.580693    2263.9507   0.05586691  0.055009529            3 
 3378000   0.70312607     -3.61631    2252.3824   0.05556499  0.054998398            5 
 3379000   0.72156999   -3.6097622    2257.5231  0.055675326  0.054987336            5 
 3380000    0.6954895   -3.6244915    2259.6688  0.055711757  0.054976115            6 
 3381000    0.7156106   -3.6091127     2259.486  0.055690773  0.054964958            4 
 3382000   0.69696663   -3.6143397    2256.8122  0.055608423  0.054953795            7 
 3383000   0.70641748   -3.5827285    2270.8901  0.055938764  0.054942666            5 
 3384000   0.70391263   -3.6250744    2260.7249  0.055671909  0.054931552            5 
 3385000    0.7084103   -3.5950045    2258.0837  0.055590441  0.054920455            5 
 3386000   0.71833746   -3.6152892    2260.4026  0.055631095  0.054909421            3 
 3387000   0.70085769   -3.6216523    2254.7105  0.055474621  0.054898197            6 
 3388000   0.71222266   -3.6076249    2254.1582  0.055444663  0.054887064            9 
 3389000   0.70364417   -3.5924797    2255.4564  0.055460223  0.054875811            7 
 3390000   0.71084078   -3.6210336    2265.3727  0.055687627  0.054864704            7 
 3391000   0.69540143   -3.6152773    2257.9958  0.055489919  0.054853679            8 
 3392000   0.71050725   -3.6206557    2256.2761  0.055431311  0.054842536           11 
 3393000   0.71265405    -3.612152     2267.185  0.055682902  0.054831452            6 
 3394000   0.72076982   -3.5814918    2273.0002  0.055809276   0.05482046            5 
 3395000   0.69343165   -3.6118998    2266.0302  0.055621752  0.054809494            5 
 3396000   0.71033269   -3.5951426    2273.0145   0.05577676  0.054798418            4 
 3397000   0.71279927    -3.608062    2265.3981  0.055573499  0.054787402            8 
 3398000    0.7008647   -3.6139709    2259.2473    0.0554063  0.054776188           10 
 3399000   0.70528322   -3.6202667    2256.1615  0.055314344  0.054765074            3 
 3400000   0.67713116   -3.5830304    2269.6052  0.055627578  0.054754006            5 
 3401000   0.72875709   -3.6156368     2263.092  0.055451632  0.054742977            7 
 3402000   0.71618034   -3.6044242    2262.4907  0.055420602  0.054731903            3 
 3403000   0.70501254   -3.6203152    2263.7663  0.055435555  0.054720917            4 
 3404000   0.70506098   -3.6096983    2261.6207  0.055366741  0.054709736            5 
 3405000   0.72345903   -3.6294329    2261.5763  0.055349394  0.054698642            6 
 3406000   0.71509901    -3.614664    2260.0929   0.05529685   0.05468746           11 
 3407000   0.71682658   -3.6114828    2273.4695  0.055607804  0.054676336            7 
 3408000   0.71894435   -3.5949417    2272.0372  0.055556464  0.054665357            7 
 3409000    0.7055309   -3.6244612    2264.1038  0.055346235   0.05465426            5 
 3410000   0.70493501   -3.6240983    2271.7486  0.055516828  0.054643246            6 
 3411000    0.7096203   -3.6334669    2264.2681  0.055317798  0.054632219            5 
 3412000   0.71683472   -3.5960169    2270.7138  0.055459013  0.054621124            2 
 3413000   0.70704536   -3.5967646    2265.5704   0.05531718   0.05461004            3 
 3414000   0.70977482   -3.6046263    2266.9593  0.055334877  0.054598968            6 
 3415000   0.70838727   -3.6138251    2267.3847  0.055329056  0.054587901            4 
 3416000   0.70541373   -3.6044094    2268.9801  0.055351778  0.054576789            4 
 3417000   0.70699863     -3.62818    2267.1375  0.055290643  0.054565635            8 
 3418000    0.7268976   -3.6176757    2259.5548  0.055089593  0.054554461           11 
 3419000   0.71024502    -3.618265    2262.4278  0.055143508  0.054543306            4 
 3420000   0.70140795   -3.6007208    2270.0645  0.055313462  0.054532188            4 
 3421000   0.70952382   -3.6312677    2269.0875  0.055273496  0.054521166            7 
 3422000    0.7150983   -3.6072592    2265.4215  0.055168067  0.054510063            3 
 3423000   0.70033257   -3.6011852    2268.1982   0.05521955   0.05449902           10 
 3424000   0.71341392    -3.629276    2267.0614  0.055175755  0.054487934            5 
 3425000   0.69966717   -3.6065054    2271.1003  0.055257915  0.054476901            4 
 3426000   0.70659592   -3.6273597    2269.4955  0.055202751  0.054465711           11 
 3427000   0.69108729   -3.6330235     2267.622  0.055141085  0.054454595            5 
 3428000   0.71240188   -3.5949812    2265.9219  0.055083671   0.05444348           10 
 3429000   0.69513025   -3.6315403    2268.6015  0.055132727  0.054432307            5 
 3430000   0.68108796   -3.6154167     2270.237   0.05515639  0.054421249            6 
 3431000   0.70615408   -3.6193127      2269.65  0.055126057  0.054410165            7 
 3432000   0.70324992   -3.6324949    2266.1937   0.05502607  0.054399102            6 
 3433000   0.69218213   -3.6155957    2265.7974  0.055000422  0.054388008            4 
 3434000    0.7064976   -3.6060107    2275.9046   0.05522968  0.054377019            4 
 3435000   0.70577546   -3.6187561    2271.3906  0.055104091  0.054365938            9 
 3436000   0.71960604   -3.6090044    2271.8017  0.055098023  0.054354854            8 
 3437000   0.68279843   -3.6220271    2275.9911  0.055183568  0.054343885            5 
 3438000    0.6963543   -3.6422175    2269.5957  0.055012501  0.054332789            3 
 3439000   0.70922353   -3.6347483     2267.657  0.054949525  0.054321684            5 
 3440000   0.70812296   -3.6370681    2269.8737   0.05498725  0.054310514            5 
 3441000   0.70823647   -3.5959603    2274.6332  0.055086536  0.054299404            2 
 3442000   0.70126234   -3.6226439    2272.5165  0.055019285  0.054288342            5 
 3443000   0.69484825   -3.6147412    2262.7538  0.054767011  0.054277191            3 
 3444000   0.68263955    -3.644804    2268.3036  0.054885395  0.054266124            9 
 3445000   0.71823097   -3.6299928    2271.9672  0.054958084  0.054255013            7 
 3446000   0.69318074   -3.6428251    2264.3649  0.054758292  0.054243863           10 
 3447000   0.69737629   -3.6239903     2275.343  0.055007809  0.054232683           10 
 3448000   0.70250853   -3.6362945    2266.3097  0.054773532  0.054221529            5 
 3449000   0.70237305   -3.6080521    2278.5618  0.055053681  0.054210401            5 
 3450000   0.69171343   -3.6131411    2268.6269  0.054797752  0.054199295            6 
 3451000   0.69732721    -3.623082    2271.3384  0.054847348  0.054188106            6 
 3452000   0.70809672   -3.6329836    2273.9385  0.054894227  0.054176908            5 
 3453000   0.68233467   -3.6070851    2276.9331  0.054950601  0.054165818            7 
 3454000   0.69970725   -3.6202067    2274.4278  0.054874248  0.054154724            4 
 3455000   0.69534748   -3.6382336    2274.1892  0.054852609  0.054143607            6 
 3456000   0.69310293   -3.6223445    2276.1989  0.054885198  0.054132458            7 
 3457000   0.70782066   -3.6409474     2277.437  0.054899167  0.054121314            8 
 3458000   0.70192552   -3.6248459    2277.6372  0.054888114  0.054110145            8 
 3459000   0.69642564   -3.6173559    2279.4222  0.054915251   0.05409906            7 
 3460000   0.68985064   -3.6484312    2275.2948  0.054799972  0.054087883            8 
 3461000   0.69971706   -3.6403571    2274.4094  0.054762819  0.054076713            5 
 3462000   0.69494298    -3.622786    2280.4913  0.054893397  0.054065586            7 
 3463000   0.70577203   -3.6464114      2273.43  0.054707622  0.054054545            9 
 3464000   0.67642058    -3.637186    2278.2821  0.054808558  0.054043441            6 
 3465000   0.69334227   -3.6383017    2274.2444  0.054695633  0.054032371            6 
 3466000    0.6820946   -3.6192648    2284.5372  0.054927321  0.054021358            4 
 3467000   0.70410158   -3.6090262     2277.942  0.054752957  0.054010416            4 
 3468000   0.68797551    -3.607252    2277.3798  0.054723658  0.053999288            7 
 3469000   0.69824633   -3.6354357    2278.7173  0.054740014   0.05398826           11 
 3470000   0.69591269   -3.6400087    2280.4601  0.054766092  0.053977222            4 
 3471000   0.71351959   -3.6354458    2271.4353  0.054533644  0.053966162            8 
 3472000   0.69099817   -3.6274186    2277.0784  0.054653379  0.053955095            5 
 3473000   0.70263634   -3.6309474    2275.5487  0.054600938  0.053944079            5 
 3474000   0.69677243   -3.6384529     2276.068  0.054597678  0.053933042            5 
 3475000   0.68149046   -3.6169949     2282.264  0.054730553  0.053921989            5 
 3476000   0.68346222   -3.6396093    2280.1949  0.054665201  0.053910848            4 
 3477000   0.69503599   -3.6693536     2273.961  0.054500072  0.053899752            5 
 3478000   0.70635939   -3.6360392    2280.6024   0.05464353  0.053888583            8 
 3479000   0.69634822   -3.6645947    2273.8245  0.054465472  0.053877485            6 
 3480000    0.6923761   -3.6430754    2280.0129  0.054598009  0.053866266            5 
 3481000     0.687181   -3.6282499    2283.1982   0.05465858  0.053855091            8 
 3482000   0.70403651   -3.6437947    2281.6828  0.054606614  0.053843946            4 
 3483000   0.68807598   -3.6375515    2277.8634  0.054499556  0.053832684            5 
 3484000   0.68620813   -3.6408364    2272.7729  0.054362154  0.053821448            8 
 3485000   0.69246851   -3.6217216    2283.1215  0.054594009  0.053810309            7 
 3486000   0.69123041   -3.6517611    2278.0485  0.054457079  0.053799155            7 
 3487000   0.67898018   -3.6224266    2281.3532  0.054520437   0.05378798            9 
 3488000   0.69878615    -3.626383    2281.7991   0.05451546  0.053776881            4 
 3489000   0.69833644    -3.620681    2284.3439  0.054560618  0.053765797            4 
 3490000   0.71347556   -3.6545511    2282.2778  0.054495649  0.053754766            6 
 3491000   0.70463058   -3.6342703     2283.834  0.054517188   0.05374379            9 
 3492000   0.68401197   -3.6281517    2282.2945  0.054464837  0.053732862            3 
 3493000   0.68311087   -3.6677527    2279.2094  0.054375642  0.053721888            5 
 3494000   0.69301065   -3.6431261    2293.0588  0.054690393  0.053710875            7 
 3495000   0.69875944   -3.6400975     2294.546  0.054710206   0.05369994            7 
 3496000   0.68771102   -3.6148795    2294.1818  0.054685874  0.053689069            2 
 3497000   0.69459539   -3.6163278    2286.3039  0.054482505  0.053678058            4 
 3498000   0.67655814    -3.626582    2289.4347  0.054541517  0.053667064            9 
 3499000   0.69230327   -3.6273174    2290.3683  0.054548165  0.053656093            5 
 3500000   0.70810534   -3.6472352    2280.5922  0.054299814  0.053645061            6 
 3501000   0.69705475   -3.6265388    2284.7734  0.054383828  0.053634062           10 
 3502000   0.68958998    -3.628045    2288.5895  0.054459106   0.05362312            6 
 3503000    0.6987622   -3.6198783    2281.7109  0.054279924   0.05361212            3 
 3504000   0.69117046   -3.6413992    2290.2938  0.054468555  0.053601183            4 
 3505000   0.70336257   -3.6412265    2289.7681  0.054440516  0.053590253            8 
 3506000   0.69745677   -3.6435302     2296.658  0.054588754  0.053579335            3 
 3507000   0.67185309   -3.6599728    2282.0172  0.054225293  0.053568349            5 
 3508000   0.70672867   -3.6347042    2292.6444  0.054462287  0.053557319            4 
 3509000    0.6860536    -3.642125    2289.0658   0.05436178  0.053546362            7 
 3510000   0.69329728   -3.6609546    2288.6292  0.054335927  0.053535403            5 
 3511000   0.67755911   -3.6626138    2288.2021  0.054310312  0.053524396            8 
 3512000   0.68011059   -3.6537498    2285.8183  0.054238285  0.053513381            6 
 3513000   0.68099763   -3.6479457    2290.3427   0.05433017  0.053502405            4 
 3514000   0.69137947   -3.6383669    2291.5432   0.05434318  0.053491428            5 
 3515000   0.67872159   -3.6394428    2290.1167  0.054293899  0.053480475            5 
 3516000   0.69652028   -3.6593899     2286.354  0.054189279  0.053469492            2 
 3517000   0.69317918   -3.6468488    2288.9813  0.054236123  0.053458515            4 
 3518000   0.68958284   -3.6335563    2290.4615  0.054255767  0.053447553            6 
 3519000   0.68783664   -3.6313669    2297.5574  0.054408387  0.053436587            6 
 3520000   0.67971791   -3.6288971    2292.1623  0.054265205  0.053425719            7 
 3521000   0.69214606   -3.6342172     2292.714  0.054262851  0.053414924            4 
 3522000    0.6924356   -3.6608183    2296.5002   0.05433703  0.053403955            2 
 3523000   0.68687163   -3.6478987    2295.4278  0.054296238  0.053392941            2 
 3524000   0.68081407   -3.6528173    2285.1842  0.054038598  0.053381998            7 
 3525000   0.69250135   -3.6468856    2291.6406  0.054175902   0.05337105            3 
 3526000   0.68874975   -3.6385633    2287.4268  0.054060948  0.053360077            8 
 3527000   0.68559082   -3.6552377      2288.58  0.054072867  0.053349091            7 
 3528000   0.68084406   -3.6303466    2293.6827  0.054178069  0.053338123           10 
 3529000   0.68196893   -3.6509137    2292.2317  0.054128452  0.053327146            5 
 3530000   0.69432163   -3.6431678    2300.8663  0.054316958   0.05331618            5 
 3531000   0.68043899   -3.6531306    2288.1086  0.054000486   0.05330527            4 
 3532000   0.68784275   -3.6864408    2285.9127  0.053933388  0.053294232            5 
 3533000   0.67630154   -3.6427255     2296.461  0.054166927   0.05328311            4 
 3534000   0.68857816   -3.6511113      2294.11  0.054096162  0.053272089           14 
 3535000   0.68749253   -3.6453119    2290.3897  0.053993157  0.053261006           10 
 3536000   0.69563575   -3.6671446    2289.6614  0.053960723   0.05324994           10 
 3537000   0.71222259   -3.6501286    2288.2633  0.053912526  0.053238897            6 
 3538000   0.68709712   -3.6553185     2289.127  0.053917631  0.053227783           18 
 3539000   0.67454616   -3.6399901    2293.5126  0.054005666  0.053216765            7 
 3540000    0.6950775   -3.6374627    2287.9967  0.053860563  0.053205718            4 
 3541000   0.69855956   -3.6581769    2290.0903  0.053894623  0.053194586            6 
 3542000   0.67447308   -3.6648286    2290.2255  0.053882587   0.05318353            6 
 3543000   0.69578168   -3.6457185    2295.4821  0.053991018  0.053172456            6 
 3544000   0.70379343   -3.6626381    2288.6063  0.053814107  0.053161361            5 
 3545000   0.67752803   -3.6399924     2284.519  0.053702845   0.05315025            4 
 3546000   0.68019377   -3.6363585    2292.6448  0.053878661  0.053139219            5 
 3547000   0.67921695   -3.6364631    2291.2887  0.053831611  0.053128146            8 
 3548000   0.68430422   -3.6703913    2288.8662  0.053759541  0.053117033            5 
 3549000    0.6761121   -3.6487583    2291.1241   0.05379741  0.053105928            6 
 3550000    0.6939776   -3.6664545    2295.1029  0.053875654   0.05309474           15 
 3551000   0.67232478   -3.6537329    2301.1242  0.054001788  0.053083657            6 
 3552000   0.69151154   -3.6360139    2295.4592  0.053853678  0.053072606            6 
 3553000   0.66366819   -3.6728802    2291.9129  0.053755345  0.053061595            7 
 3554000   0.69016192   -3.6548654    2297.6112  0.053873833  0.053050532            5 
 3555000   0.67317659   -3.6485946    2294.7231  0.053790977  0.053039471            5 
 3556000   0.67771314   -3.6458873    2292.6773  0.053727909  0.053028401            3 
 3557000   0.66930514   -3.6401128    2296.0483   0.05379178  0.053017401            5 
 3558000   0.68064731   -3.6310326    2292.4414  0.053692181   0.05300637            5 
 3559000   0.68291105   -3.6632172    2294.5465  0.053726387  0.052995336            3 
 3560000     0.679653   -3.6796936    2293.7304  0.053692191  0.052984193            5 
 3561000   0.68892888   -3.6709453    2291.4681  0.053624172  0.052973115           12 
 3562000   0.69284337   -3.6327711    2303.4756  0.053890035  0.052962104            8 
 3563000   0.68392741   -3.6611775    2297.0589  0.053724833  0.052951037            4 
 3564000   0.68293069    -3.638878    2291.3444  0.053576141  0.052939833            4 
 3565000   0.69029126   -3.6481373    2299.4297   0.05375011    0.0529287            4 
 3566000   0.67980216    -3.657547    2300.0076  0.053748542  0.052917498            5 
 3567000   0.67938687   -3.6470991     2294.856  0.053613119  0.052906437            7 
 3568000   0.67804218   -3.6511103    2295.2814   0.05360803  0.052895287            6 
 3569000   0.66925537   -3.6519863     2297.179  0.053637316  0.052884179            7 
 3570000   0.68145246   -3.6451709    2299.2601  0.053670871  0.052873152            6 
 3571000   0.67252603   -3.6697497    2295.5686  0.053569697   0.05286205           10 
 3572000   0.65903273   -3.6393485    2299.1038  0.053637173   0.05285097           10 
 3573000   0.67670589   -3.6258259     2297.805  0.053591869  0.052839883           10 
 3574000   0.68626117   -3.6568219    2292.9859  0.053464509  0.052828759            6 
 3575000   0.67503726   -3.6654446    2301.8908  0.053657128   0.05281759           10 
 3576000   0.69039606   -3.6406706    2297.7344  0.053545265  0.052806432            5 
 3577000   0.66467555   -3.6343993    2291.9062  0.053394517  0.052795346            4 
 3578000   0.67343481   -3.6244818    2295.8365  0.053471132  0.052784209            5 
 3579000   0.68905715   -3.6465767    2284.2823  0.053187162  0.052773132            5 
 3580000   0.67814737   -3.6720528    2287.5346  0.053248012  0.052762025            6 
 3581000   0.68050656   -3.6687624    2299.0841  0.053501911  0.052750885           15 
 3582000   0.68590947   -3.6615227    2298.8561   0.05348167  0.052739796            5 
 3583000   0.68000757   -3.6803446    2298.5297  0.053459151  0.052728673            5 
 3584000   0.67508127   -3.6503501    2298.8147  0.053450863  0.052717543            3 
 3585000   0.68838603   -3.6529926    2303.1756  0.053537322  0.052706506            7 
 3586000   0.68357661   -3.6701456    2300.2437   0.05345426  0.052695501            5 
 3587000   0.65786015   -3.6639439    2299.7305  0.053427435  0.052684431            5 
 3588000   0.68441279     -3.67826    2291.5849  0.053223359  0.052673376           16 
 3589000   0.67351733   -3.6782109    2298.6831  0.053373342  0.052662351            5 
 3590000    0.6730946   -3.6582857    2301.4814  0.053423431  0.052651261            5 
 3591000   0.67758471   -3.6638428    2302.8036  0.053439236  0.052640194           13 
 3592000   0.68027789   -3.6677854     2294.348  0.053228193  0.052629147            2 
 3593000   0.66700399   -3.6586465    2293.6118  0.053196302  0.052618041            5 
 3594000   0.68483537   -3.6631377    2300.8015  0.053348208  0.052606886            6 
 3595000   0.67587502   -3.6527171    2303.7728  0.053402244  0.052595814            5 
 3596000   0.66889315   -3.6398808    2304.6096  0.053406784  0.052584782            5 
 3597000   0.66915972   -3.6437022    2302.2876  0.053338143  0.052573791            3 
 3598000    0.6748038   -3.6667241    2294.7279  0.053148228  0.052562749            8 
 3599000   0.68276248    -3.674126    2297.1835  0.053190318  0.052551663           11 
 3600000   0.66904653   -3.6799904    2306.0329   0.05338039  0.052540544            7 
 3601000    0.6622481   -3.6648911    2299.7612   0.05322043   0.05252947           10 
 3602000   0.68511125   -3.6726122    2305.5723  0.053340095  0.052518475            3 
 3603000   0.68252917   -3.6894677    2297.7992  0.053145509  0.052507328            4 
 3604000   0.67281404    -3.661911    2304.1883  0.053278493  0.052496291            5 
 3605000   0.67453441   -3.6867628    2301.7707  0.053207829  0.052485261            6 
 3606000    0.6681653   -3.6794959    2296.1648  0.053063525  0.052474228            7 
 3607000   0.67710961   -3.6554426    2303.2599  0.053212733  0.052463182            5 
 3608000   0.66504506   -3.6792483    2303.3249  0.053199486   0.05245214            6 
 3609000   0.67225346   -3.6826645    2298.9197  0.053083026  0.052441055           13 
 3610000   0.67514054    -3.680702    2298.1896  0.053051469  0.052430023            4 
 3611000   0.67443273   -3.6589154    2305.4284   0.05320383  0.052418945            6 
 3612000   0.65757457   -3.6507284    2306.6813  0.053218006  0.052407918            4 
 3613000   0.67260662   -3.6591665    2304.9494  0.053163332  0.052396937            4 
 3614000   0.68902872   -3.6560863    2302.7754  0.053098492  0.052386002            4 
 3615000   0.66364012   -3.6645377    2301.6164  0.053057087  0.052375034            4 
 3616000   0.67343231   -3.6748434    2305.7547  0.053137783  0.052363999            4 
 3617000   0.67173015   -3.6712117    2311.9632  0.053266132  0.052352966            5 
 3618000   0.65687589   -3.6504317    2305.9041   0.05311185  0.052342008            8 
 3619000   0.67746522   -3.6845375    2300.4382  0.052971314  0.052330971            5 
 3620000   0.67167667   -3.6759057    2305.0988  0.053063969  0.052319837            5 
 3621000   0.67906812   -3.6630641    2301.5202  0.052966957  0.052308812            3 
 3622000    0.6791984   -3.6876322    2306.3105  0.053062545  0.052297774            9 
 3623000   0.66571795   -3.6776727    2296.2573  0.052816664  0.052286687           10 
 3624000   0.66440428   -3.6826086    2303.0281  0.052957783  0.052275659            8 
 3625000   0.65840307   -3.6641561    2307.3579  0.053042711  0.052264621            9 
 3626000   0.67216675   -3.6633448    2309.8178  0.053084617  0.052253713            8 
 3627000   0.67556383   -3.6876302    2305.1078  0.052961764  0.052242695            4 
 3628000   0.67308844    -3.646993    2306.3651  0.052976044  0.052231646            5 
 3629000   0.67244663   -3.6845862    2297.0065  0.052746543   0.05222053            6 
 3630000   0.67106446    -3.673343    2313.7663  0.053116764  0.052209493           12 
 3631000   0.67866721   -3.6770427    2309.9127  0.053013694  0.052198442            4 
 3632000   0.66394032   -3.6747316     2311.228  0.053029278  0.052187448           12 
 3633000   0.67342329   -3.6612152    2310.4157  0.052996049  0.052176417           12 
 3634000   0.67854647   -3.6696642    2302.1098  0.052790998  0.052165388            6 
 3635000    0.6798404   -3.6478722    2309.5732  0.052947575  0.052154482            9 
 3636000   0.66303035   -3.6715608    2303.6754  0.052797841   0.05214351           13 
 3637000   0.66334396   -3.6803063    2300.8506  0.052718601  0.052132396           15 
 3638000   0.67559811   -3.6517351    2309.5943  0.052904396  0.052121314            9 
 3639000   0.67025153   -3.6768485     2307.602  0.052844233  0.052110425            5 
 3640000   0.66077901   -3.6858622    2303.7393  0.052741285  0.052099329           11 
 3641000   0.66487513   -3.6772091    2309.6311  0.052861647  0.052088276            7 
 3642000   0.66887529   -3.6977629    2303.4036  0.052704641  0.052077151            4 
 3643000   0.66538144   -3.6983805    2300.8468  0.052631687  0.052066096            8 
 3644000   0.65695045   -3.6682892    2308.2243  0.052785956  0.052055083            4 
 3645000     0.668742   -3.6660135    2308.1389  0.052769521  0.052043998            5 
 3646000   0.68590727   -3.6844833      2310.92  0.052818613  0.052032946            9 
 3647000   0.66666861   -3.6778539    2300.2312  0.052559895  0.052021816            7 
 3648000   0.67223652   -3.6610075    2305.5126  0.052666133  0.052010627           16 
 3649000    0.6648762   -3.7002562    2303.1488  0.052597715  0.051999463            3 
 3650000   0.65893302   -3.6934483    2301.5172  0.052546055  0.051988234            5 
 3651000   0.67452762   -3.6762511     2298.858  0.052470966  0.051977048            9 
 3652000   0.67890085   -3.6691375    2304.9698  0.052596062  0.051965912            8 
 3653000    0.6576887   -3.6824509    2310.0428   0.05269739   0.05195478            5 
 3654000   0.66216451   -3.6831513     2305.889  0.052588238  0.051943678           26 
 3655000   0.65909375   -3.6683526     2315.051   0.05278274  0.051932584            5 
 3656000   0.66073912   -3.6583246    2314.9703  0.052766464  0.051921365            5 
 3657000   0.67048238   -3.6724696    2305.1894  0.052529154  0.051910265            3 
 3658000   0.66757649    -3.673664    2301.6509  0.052434183  0.051899119            5 
 3659000   0.66530779   -3.6804133    2306.1863  0.052523146  0.051888073            7 
 3660000   0.65585819    -3.695379    2312.8713  0.052661003   0.05187697            7 
 3661000   0.67797184   -3.6869888    2308.9192   0.05255666  0.051865728            6 
 3662000   0.66702799   -3.6726923    2304.3199  0.052437646  0.051854542            3 
 3663000   0.66320574   -3.6697494    2312.1078  0.052600504  0.051843478            8 
 3664000   0.67271812   -3.7041755    2306.7592  0.052464502  0.051832313            7 
 3665000   0.67529373   -3.6972304     2304.284  0.052393905  0.051821147            6 
 3666000   0.66133644   -3.6903031    2309.3805  0.052495464  0.051809949            9 
 3667000    0.6764622   -3.6760417    2308.1278  0.052452681  0.051798865            4 
 3668000   0.65905757   -3.6986924    2310.1649  0.052484663  0.051787766            3 
 3669000   0.68100905   -3.7092767    2304.5536   0.05234291  0.051776636            6 
 3670000   0.66041538   -3.6808353    2313.4918  0.052531603  0.051765492           12 
 3671000   0.66921106   -3.6659719    2307.2828  0.052376345  0.051754336            8 
 3672000   0.65029644   -3.6579684    2312.4651  0.052479691   0.05174323            9 
 3673000   0.66840795   -3.6512659    2314.8683  0.052519927  0.051732171            7 
 3674000   0.65418353   -3.6888052    2307.9145  0.052347907  0.051721146            7 
 3675000    0.6556131   -3.6991969    2311.0018  0.052403668  0.051710032            5 
 3676000   0.64749425    -3.688346    2312.6446  0.052426654  0.051698859            4 
 3677000   0.67714686   -3.6910163    2310.8601  0.052371955  0.051687683            7 
 3678000   0.65881105   -3.6853202    2305.8766  0.052244802  0.051676522            5 
 3679000   0.65218266   -3.6687662    2307.2552  0.052261828  0.051665316            5 
 3680000   0.65949318   -3.7070892    2314.1905  0.052404676   0.05165417            4 
 3681000   0.65370156   -3.6865434    2306.3716  0.052213429  0.051642947            4 
 3682000   0.64748134   -3.7113877    2297.7745  0.052004673    0.0516316            5 
 3683000   0.66074874   -3.6750051    2306.0436  0.052177654  0.051620321            3 
 3684000   0.68285247   -3.6599824    2316.5847  0.052401933   0.05160914            5 
 3685000   0.66194678   -3.6740223    2311.0069  0.052261577  0.051597997            7 
 3686000   0.66714031   -3.7032396    2312.9475  0.052291271  0.051586861            4 
 3687000   0.67088054   -3.6812708    2313.6496  0.052292958  0.051575698            5 
 3688000   0.67162904   -3.6963387    2310.0458  0.052197347  0.051564556            6 
 3689000   0.66374942    -3.687366    2310.0882  0.052184155  0.051553372            4 
 3690000   0.66600452   -3.7054485     2309.664  0.052160434  0.051542139            6 
 3691000   0.65353876   -3.6803987     2304.346  0.052026236  0.051530854            6 
 3692000   0.67714419   -3.6928089    2311.8417  0.052181331  0.051519688            9 
 3693000   0.65713433   -3.6868424     2308.918  0.052101228  0.051508574           13 
 3694000   0.65462354   -3.6914451    2314.6273   0.05221592  0.051497508            7 
 3695000   0.66372179   -3.6882372    2311.4457  0.052130034  0.051486301            6 
 3696000   0.65863483   -3.6909019    2312.2581  0.052134247  0.051475299            8 
 3697000    0.6680541   -3.6923204    2313.5872  0.052150103   0.05146421            5 
 3698000   0.64947786    -3.715911    2315.4173  0.052177242  0.051453021            7 
 3699000   0.67727423    -3.675766     2311.994  0.052086014  0.051441945            8 
 3700000   0.64504457   -3.6844298    2313.9505  0.052116002  0.051430889            7 
 3701000   0.65039538   -3.7059072    2314.8771  0.052122785  0.051419777            6 
 3702000   0.65729613   -3.7048171    2312.2205  0.052048903   0.05140861            7 
 3703000   0.66655028    -3.687095    2314.6518  0.052089562  0.051397598            5 
 3704000   0.66745724   -3.6923697    2312.6058  0.052029468  0.051386547            8 
 3705000   0.65212556    -3.684806    2308.5765  0.051924799  0.051375447            9 
 3706000    0.6456166   -3.7052928    2319.3236  0.052152446  0.051364282            4 
 3707000   0.63514534   -3.7057209    2316.8722   0.05208327  0.051353188            8 
 3708000   0.64925497   -3.7014483    2317.5929   0.05208542  0.051342049            7 
 3709000    0.6524892   -3.6865977    2316.9355  0.052056608  0.051331031            5 
 3710000    0.6536838   -3.6865482    2308.6651  0.051856809  0.051320022            8 
 3711000   0.65288618   -3.6816341    2313.7659  0.051957377  0.051308981            3 
 3712000   0.65762316   -3.6896572     2315.223  0.051976092   0.05129787            7 
 3713000   0.66481102   -3.6974637    2312.8118  0.051907977  0.051286863            6 
 3714000   0.66269808     -3.70997    2317.9568  0.052009442  0.051275745            5 
 3715000   0.64782728   -3.6946268    2317.3303   0.05198139  0.051264665            7 
 3716000   0.64867315   -3.6925343    2316.1778  0.051941555  0.051253568            6 
 3717000   0.64746564   -3.6879621    2314.1769  0.051882722  0.051242498           12 
 3718000   0.63540369   -3.6872019    2316.3641  0.051917791   0.05123143            7 
 3719000   0.65442887   -3.7014307    2310.1581  0.051764768  0.051220343            5 
 3720000   0.66592678     -3.71166    2316.9438  0.051902863  0.051209248           12 
 3721000   0.65316212   -3.6959671    2317.8416  0.051909021  0.051198145            5 
 3722000   0.66878847   -3.6961997    2319.7423   0.05193763  0.051187008            7 
 3723000   0.64582248   -3.7139071    2315.2282  0.051822638  0.051175902           11 
 3724000   0.64832077   -3.6991336     2321.741  0.051954462  0.051164819            3 
 3725000   0.67715218   -3.7174128    2310.6447  0.051692275  0.051153678            7 
 3726000   0.65282203   -3.6832822    2320.3591  0.051895667  0.051142642            9 
 3727000   0.65266696   -3.7030306     2321.662  0.051910875  0.051131519            6 
 3728000   0.64852802   -3.7017755    2313.3395  0.051710914   0.05112046            5 
 3729000   0.65253611    -3.692665     2311.072  0.051646376  0.051109303           14 
 3730000   0.65315848   -3.7130944    2314.2375   0.05170325  0.051098251            7 
 3731000   0.66362117   -3.7054545    2316.2816  0.051735048  0.051087109            9 
 3732000    0.6543395   -3.7021117     2324.476  0.051904161     0.051076            9 
 3733000   0.64982482   -3.6962256    2319.3267  0.051775308  0.051064954           14 
 3734000    0.6632513   -3.7130665    2319.2642  0.051760047  0.051053907            6 
 3735000   0.65313503   -3.7032431    2320.6387  0.051776855  0.051042844            6 
 3736000    0.6642694   -3.6914194    2321.5321  0.051782925  0.051031819            7 
 3737000   0.66710642    -3.720651    2320.0586   0.05173621   0.05102079           13 
 3738000   0.63277853    -3.706153     2323.787   0.05180549  0.051009754           12 
 3739000   0.66445996   -3.7324941    2315.6389  0.051610032  0.050998702            5 
 3740000   0.63778709   -3.7072717    2317.9274  0.051647225  0.050987638            9 
 3741000   0.65525705   -3.7082734     2318.406  0.051644079  0.050976604            4 
 3742000   0.64400587   -3.7075442    2323.4971  0.051743656  0.050965489            7 
 3743000   0.66408972   -3.7060772     2325.831  0.051781794  0.050954425            9 
 3744000   0.63966233   -3.6988824    2322.7932  0.051700347  0.050943418            4 
 3745000   0.64782976    -3.706211    2322.5598  0.051681348  0.050932493            6 
 3746000   0.66084865   -3.7082801    2320.1203  0.051613282  0.050921549            5 
 3747000   0.64979627   -3.7114585    2330.9731  0.051840874  0.050910527            5 
 3748000   0.64855342   -3.7348624    2316.1785    0.0514981  0.050899451            8 
 3749000   0.64993116   -3.7219485    2322.9879  0.051635724  0.050888328           14 
 3750000    0.6596639   -3.6963383    2321.8182   0.05159596  0.050877345            6 
 3751000   0.65440919    -3.707604    2320.1168  0.051544407  0.050866343            8 
 3752000   0.64162138   -3.6893518    2321.3389  0.051557812   0.05085536            7 
 3753000   0.65774229   -3.7179617    2318.6817  0.051485071  0.050844332            4 
 3754000   0.65636791   -3.7257237    2316.1982  0.051416227  0.050833299            6 
 3755000   0.64870207   -3.7123389    2322.3422  0.051538887  0.050822268            6 
 3756000   0.64948956   -3.6894352    2326.5218  0.051617896  0.050811358            6 
 3757000   0.64639409   -3.7173131     2326.182   0.05159662  0.050800348            9 
 3758000   0.64396566   -3.7021426    2325.6187  0.051570399  0.050789384           11 
 3759000   0.63768334   -3.7133459    2318.1809  0.051391791  0.050778337            6 
 3760000    0.6639405   -3.7090949    2330.2127  0.051644786  0.050767366            5 
 3761000   0.65581465   -3.7144625    2329.6568  0.051618736  0.050756427           13 
 3762000   0.66266663   -3.7085188    2325.6618  0.051516521  0.050745471            8 
 3763000    0.6578827   -3.7052732    2330.3476    0.0516066  0.050734526            5 
 3764000   0.67220942   -3.7022526    2323.0068  0.051430367  0.050723605            6 
 3765000   0.65480741   -3.7309544    2329.1326  0.051552293  0.050712643            9 
 3766000   0.65934424    -3.701704     2327.694   0.05150677  0.050701638            5 
 3767000   0.65165452   -3.7124971    2327.0188  0.051478161  0.050690691            7 
 3768000   0.64749136   -3.6917752    2331.6271  0.051566417  0.050679788            4 
 3769000   0.65138793   -3.7164457     2320.031  0.051296344  0.050668838            5 
 3770000   0.66625177   -3.7123827    2320.8122  0.051300004   0.05065788           12 
 3771000   0.64890121   -3.7182293    2322.6769  0.051327608  0.050646959            6 
 3772000    0.6422182    -3.725586    2329.8891  0.051473336     0.050636            5 
 3773000    0.6446492   -3.7107731    2326.9941  0.051395752  0.050625016            7 
 3774000   0.65157641   -3.7205578    2325.7088  0.051353754  0.050614031           10 
 3775000   0.64606401   -3.7022849    2322.6556  0.051272749  0.050603094            9 
 3776000   0.64513828   -3.7286701    2325.2118  0.051315584  0.050592188            6 
 3777000   0.64985073   -3.7225545    2328.9223  0.051383865  0.050581233            7 
 3778000   0.64127509    -3.695105    2338.0158  0.051570844  0.050570407            5 
 3779000   0.65085237   -3.7114739    2321.2366  0.051187187  0.050559417            7 
 3780000   0.63862314   -3.7251451    2329.8844  0.051364295  0.050548458            5 
 3781000   0.64168678   -3.7214935    2326.1213  0.051267771  0.050537474           10 
 3782000   0.65279466   -3.7174526    2327.4792  0.051284136  0.050526544           10 
 3783000    0.6498664   -3.7319646    2326.4159  0.051247155   0.05051566            8 
 3784000   0.65124816   -3.7374258    2330.9107  0.051332599  0.050504727            8 
 3785000   0.63487182   -3.7334709    2327.2672  0.051238819  0.050493865            7 
 3786000   0.63427989   -3.6992956    2333.1645  0.051355091  0.050483094            5 
 3787000   0.65816997   -3.7294787    2327.8736  0.051225104   0.05047229           14 
 3788000   0.64733223   -3.7118689    2337.1011  0.051414578  0.050461412            8 
 3789000    0.6534249   -3.7107032    2331.1948  0.051271108  0.050450554           12 
 3790000   0.64214196   -3.7152664    2333.6321  0.051311171  0.050439719           14 
 3791000   0.63952601   -3.7066024    2330.8861  0.051237275  0.050428923           11 
 3792000   0.64375831   -3.7310309    2330.4706  0.051214631  0.050418088           10 
 3793000   0.64662403   -3.7090684    2332.7397  0.051250981  0.050407226            6 
 3794000   0.63464112   -3.7316356    2331.6291  0.051213081  0.050396343            7 
 3795000    0.6538367   -3.7222872    2328.1102  0.051122314  0.050385462            8 
 3796000   0.65528913   -3.7245497    2336.0618  0.051283408  0.050374526           10 
 3797000   0.64022177   -3.7194605     2332.125    0.0511835  0.050363628            7 
 3798000   0.65180948    -3.713645    2330.7735  0.051140371  0.050352763            5 
 3799000    0.6583409   -3.7224213    2323.7872   0.05097366  0.050341835            8 
 3800000   0.62614902   -3.7239031    2334.5868   0.05119708  0.050330961           10 
 3801000   0.64199502   -3.7269899    2330.5144  0.051094326  0.050320116           11 
 3802000   0.64324923   -3.7179608    2336.1824  0.051205119  0.050309214            7 
 3803000   0.63871549    -3.734159    2332.0981  0.051102159   0.05029834            6 
 3804000   0.64936291   -3.7084013    2337.9508  0.051216938  0.050287485           13 
 3805000   0.65300219   -3.7184382    2329.2992  0.051013999  0.050276647            5 
 3806000   0.63573106   -3.7303612     2330.156  0.051019355  0.050265753            6 
 3807000   0.64492777   -3.7250137    2333.3275  0.051075377  0.050254824            6 
 3808000   0.65085345   -3.7249436    2332.7558  0.051049452  0.050243974            4 
 3809000   0.64635957   -3.7498017    2332.6093  0.051032844  0.050233063            7 
 3810000   0.64525098   -3.6952933    2334.5235  0.051061318  0.050222212           11 
 3811000   0.64557399   -3.7474282    2335.4246  0.051067625  0.050211427           11 
 3812000   0.63236595   -3.7317133    2338.1415  0.051113622  0.050200668           17 
 3813000   0.64006905   -3.7382179    2336.0327  0.051054129  0.050189818            5 
 3814000   0.64647114   -3.7167846    2326.1083  0.050823901  0.050178967           10 
 3815000   0.65472798   -3.7426947    2336.8344  0.051044875  0.050168113            9 
 3816000   0.63770057    -3.728788    2335.6656  0.051005975   0.05015729           13 
 3817000    0.6303018   -3.7420757    2324.3561  0.050745702  0.050146489           22 
 3818000   0.64805925   -3.7143172    2337.3871   0.05101683   0.05013566            7 
 3819000   0.64776519   -3.7178049    2337.2993  0.051001556   0.05012488            4 
 3820000   0.63605387   -3.7019701    2342.4607    0.0511008  0.050114171            7 
 3821000   0.63573277   -3.7273834    2335.2077  0.050929244  0.050103418            4 
 3822000    0.6257653    -3.738885    2338.6117  0.050990139  0.050092695           11 
 3823000   0.64707189   -3.7331736    2337.4967  0.050952495   0.05008189            4 
 3824000   0.63120174   -3.7242281    2334.3795   0.05087124  0.050071199            5 
 3825000   0.65200999   -3.7288714    2332.1297  0.050808927  0.050060445            5 
 3826000   0.64688181   -3.7184192    2338.4669  0.050933674  0.050049703            8 
 3827000   0.63560238   -3.7272964     2336.909  0.050886443  0.050038956           10 
 3828000   0.62625224    -3.726144    2338.6503  0.050911056  0.050028173            8 
 3829000   0.65475231   -3.7193399    2345.4553  0.051045862  0.050017451            5 
 3830000   0.63713865   -3.7114345    2340.3631  0.050921739  0.050006691           11 
 3831000   0.62984649   -3.7371963    2339.1894  0.050882916  0.049995939            9 
 3832000   0.64843488   -3.7538395    2338.3697  0.050851811  0.049985155           12 
 3833000   0.63058877   -3.7304228    2342.6844   0.05093235  0.049974492           17 
 3834000   0.64405578   -3.7388638    2341.1406  0.050885512  0.049963784           12 
 3835000   0.64827324   -3.7134103    2344.6032  0.050947484  0.049953097            5 
 3836000   0.63539202   -3.7001269    2342.4551  0.050887537  0.049942406            6 
 3837000   0.63286998   -3.7255913    2333.0699  0.050670443    0.0499317           15 
 3838000   0.62535382     -3.74265    2340.2111  0.050812295  0.049920895            7 
 3839000   0.63195913   -3.7344812    2344.9913  0.050902823  0.049910121           10 
 3840000   0.63844815   -3.7417997     2344.268  0.050873872  0.049899367            7 
 3841000   0.62864197   -3.7246735    2346.0225  0.050898692  0.049888607            7 
 3842000   0.64223838   -3.7092728    2348.6708  0.050942886  0.049877886           13 
 3843000   0.64392839    -3.730387    2342.5404  0.050796695  0.049867169            5 
 3844000   0.64705239   -3.7440694    2337.1996  0.050667699  0.049856448            8 
 3845000   0.62452135   -3.7542499     2334.855  0.050603706   0.04984561            6 
 3846000   0.62839468   -3.7331137    2339.7454  0.050696512  0.049834852            6 
 3847000   0.65670965   -3.7384923    2347.0581  0.050841741   0.04982421            5 
 3848000   0.64023106   -3.7401124    2341.7064  0.050712629   0.04981356           16 
 3849000   0.63590227   -3.7196309    2342.1044  0.050708071  0.049802892            8 
 3850000   0.63227669   -3.7189095    2343.3424  0.050721696  0.049792256            8 
 3851000   0.66061852   -3.7290931    2341.5362  0.050669441  0.049781568            9 
 3852000   0.63834256   -3.7238888    2344.4214  0.050718704  0.049770892           10 
 3853000   0.64225669    -3.740295    2342.0682  0.050654647  0.049760272            7 
 3854000   0.63337154   -3.7316634    2348.3995  0.050778402  0.049749644           12 
 3855000   0.62994716   -3.7320629    2346.7103  0.050728714  0.049738969            8 
 3856000   0.64933437   -3.7569278    2348.0218  0.050743901  0.049728323           13 
 3857000   0.64051642   -3.7306554    2341.5205   0.05059028  0.049717531            9 
 3858000   0.63718413    -3.733705    2347.0782  0.050697213  0.049706774           11 
 3859000   0.64284013   -3.7368223    2339.8737  0.050528499  0.049696092           10 
 3860000   0.62676884   -3.7370032     2342.691  0.050576231  0.049685364            7 
 3861000   0.63337281   -3.7379732    2342.0997  0.050550369  0.049674642            5 
 3862000   0.63912655   -3.7287051    2341.8466  0.050531819   0.04966391            6 
 3863000   0.63054335   -3.7445658    2346.6547  0.050622458  0.049653254            6 
 3864000   0.61964754   -3.7545172    2337.0431  0.050402068  0.049642563           12 
 3865000   0.62114107   -3.7373896    2342.9567  0.050516531  0.049631911           10 
 3866000   0.62136334    -3.715622    2346.9223  0.050588945  0.049621194            6 
 3867000   0.62596162   -3.7432637    2341.2115  0.050452795  0.049610477            6 
 3868000    0.6272127    -3.758708    2343.2316  0.050483272  0.049599739            6 
 3869000   0.62071726   -3.7595031    2343.8502  0.050483549  0.049588947           11 
 3870000   0.63108731   -3.7446491    2342.4541  0.050440441   0.04957812           14 
 3871000   0.61989565   -3.7472877    2346.7494  0.050519879  0.049567405            9 
 3872000   0.63575036   -3.7292116    2343.0468  0.050427145  0.049556708            8 
 3873000   0.64127255   -3.7321248    2344.5224  0.050445874  0.049546032           11 
 3874000   0.64738258   -3.7717572    2334.4269  0.050215687   0.04953529           13 
 3875000   0.63254721     -3.72215    2342.0855   0.05036743  0.049524558           10 
 3876000   0.63014934    -3.748216    2345.3903  0.050425489  0.049513922           11 
 3877000   0.61901741   -3.7365048    2342.1244  0.050342283  0.049503227            5 
 3878000   0.63157955   -3.7530369    2341.7216  0.050320646  0.049492513            4 
 3879000   0.61904276   -3.7368536    2344.3866  0.050364926  0.049481801            7 
 3880000   0.64014394   -3.7410819    2346.4465  0.050396188   0.04947101            6 
 3881000   0.63812962   -3.7495571    2341.6638  0.050280508  0.049460257            6 
 3882000   0.63378945   -3.7392952    2347.0659  0.050383521  0.049449476            4 
 3883000   0.61853247   -3.7316357    2345.3852  0.050334474  0.049438722            4 
 3884000   0.62329015   -3.7219327    2343.8872  0.050289376  0.049427972            5 
 3885000   0.63589501   -3.7481731    2341.4106  0.050223308  0.049417186            7 
 3886000   0.62762713   -3.7455052    2344.9303  0.050285862  0.049406422            9 
 3887000   0.61726923   -3.7092234    2345.9204  0.050294151  0.049395665            4 
 3888000   0.61984031   -3.7320961    2345.3999   0.05027006  0.049384889            9 
 3889000   0.63279055   -3.7488292    2351.7115  0.050392377  0.049374102            7 
 3890000   0.62091043   -3.7508935    2344.1743  0.050217958    0.0493633            7 
 3891000   0.63175526   -3.7331177    2341.1203  0.050139646  0.049352458            5 
 3892000    0.6362109   -3.7465267    2348.6728  0.050288471  0.049341642            5 
 3893000   0.63269662    -3.746285    2332.6373    0.0499323  0.049330788            8 
 3894000   0.63060824   -3.7641821    2342.0238  0.050120352  0.049319995            5 
 3895000   0.62030669   -3.7463826    2339.2892  0.050048977  0.049309153            6 
 3896000   0.61299694   -3.7508728    2342.3041  0.050100617  0.049298333           14 
 3897000   0.62256567   -3.7492161    2344.6704  0.050138363  0.049287591            7 
 3898000   0.63720813    -3.751624     2342.038  0.050069224    0.0492768            6 
 3899000   0.61962565   -3.7292326    2349.9622  0.050225746  0.049265995            6 
 3900000    0.6256374   -3.7456535    2353.6306  0.050291253  0.049255245            7 
 3901000   0.64453342   -3.7612416    2343.7757   0.05006784  0.049244557            7 
 3902000   0.63678579   -3.7574661    2343.8915  0.050057481    0.0492338            6 
 3903000      0.62679   -3.7414578    2344.0716  0.050048501  0.049223063            6 
 3904000   0.63391384    -3.739739    2343.0581  0.050014047  0.049212372           13 
 3905000   0.62904216   -3.7535264    2348.7615  0.050122952  0.049201631           11 
 3906000   0.64063366   -3.7308955     2347.143  0.050075589  0.049190925            7 
 3907000   0.61343541   -3.7530498    2343.4687  0.049984402  0.049180183            6 
 3908000   0.63406721   -3.7592587    2341.1324  0.049921792   0.04916935            6 
 3909000   0.62686064   -3.7577328    2338.7397  0.049858014  0.049158518            8 
 3910000   0.62265652   -3.7314552    2351.4362  0.050115861  0.049147781            7 
 3911000   0.62416109   -3.7599102    2346.1727  0.049990896  0.049137037            8 
 3912000   0.64335221   -3.7584713     2344.336  0.049938991  0.049126259            7 
 3913000   0.63106451   -3.7491972    2341.4959  0.049865744  0.049115506            9 
 3914000   0.63889072   -3.7590804    2345.1665  0.049931156  0.049104686            7 
 3915000   0.61870437   -3.7476623    2345.9871  0.049935868  0.049093913            7 
 3916000   0.64245637    -3.756453    2348.4077  0.049974627  0.049083206           14 
 3917000   0.61903025   -3.7413067    2343.3098  0.049853413  0.049072447           11 
 3918000   0.62147717   -3.7255268    2344.5085  0.049866184  0.049061713            8 
 3919000   0.62475075    -3.753851    2351.4744  0.050001583  0.049050955            4 
 3920000   0.63333325   -3.7637024    2344.5666  0.049841976  0.049040171            7 
 3921000     0.626263   -3.7622782    2344.5161  0.049828192  0.049029356            6 
 3922000   0.62851394   -3.7643994    2343.1602  0.049786678  0.049018588            6 
 3923000    0.6373838   -3.7769206     2340.051   0.04970794  0.049007776            6 
 3924000   0.62811303   -3.7481598    2349.0841  0.049887106  0.048996927           11 
 3925000   0.61132383   -3.7504547     2350.808  0.049910999    0.0489861           14 
 3926000   0.61262802   -3.7813869    2345.0192  0.049775412  0.048975329            8 
 3927000   0.61290674   -3.7523123     2349.192  0.049851286  0.048964528            6 
 3928000   0.62701127   -3.7444953    2346.3516  0.049778336  0.048953804           11 
 3929000   0.63302077   -3.7502847    2344.7218  0.049731097  0.048943048           12 
 3930000   0.61306721   -3.7520069    2352.1695  0.049876368  0.048932296            8 
 3931000   0.62364374   -3.7711293    2343.2846  0.049675328  0.048921476            4 
 3932000   0.61945163   -3.7793131    2347.7218  0.049756735  0.048910614            9 
 3933000   0.61416692   -3.7528469     2341.769  0.049617954  0.048899771            7 
 3934000   0.62288176   -3.7536388    2353.2909  0.049849408  0.048888914            5 
 3935000   0.61892442    -3.767993    2346.3156  0.049689022   0.04887815            7 
 3936000   0.61362369   -3.7625198    2355.2312  0.049865159  0.048867335            5 
 3937000   0.60817737   -3.7521166    2350.7135  0.049756868  0.048856496           10 
 3938000   0.62330333   -3.7486878    2353.2284  0.049797451  0.048845707            6 
 3939000   0.61829607   -3.7560121    2352.8148  0.049776059  0.048834931            8 
 3940000   0.62173209    -3.747165     2351.012  0.049725297  0.048824187           13 
 3941000   0.62014791   -3.7450914    2347.0002  0.049627848  0.048813351            4 
 3942000   0.61069655   -3.7526914     2342.517  0.049520484  0.048802461           10 
 3943000   0.63431714     -3.80521    2337.1696  0.049394912  0.048791558            7 
 3944000   0.62266225   -3.7709574    2345.8627  0.049566065  0.048780731            8 
 3945000   0.62737733   -3.7762909    2345.9828  0.049556037  0.048769823            3 
 3946000   0.63011648   -3.7585921    2347.1641  0.049568426   0.04875899            9 
 3947000   0.61928914   -3.7650785    2346.5558  0.049543024   0.04874816            7 
 3948000   0.61602569   -3.7739048    2343.1669  0.049458944  0.048737318            7 
 3949000    0.6222568   -3.7723297     2348.449  0.049557883  0.048726523            9 
 3950000   0.61644336   -3.7635551    2345.6804  0.049486928  0.048715646            6 
 3951000   0.61685091    -3.762275    2348.3205  0.049530087  0.048704863            8 
 3952000   0.60976198   -3.7607529    2346.5936   0.04948114  0.048693957           10 
 3953000   0.61819133   -3.7732646    2345.3726  0.049442884   0.04868308            4 
 3954000   0.60862129   -3.7574931    2348.9071   0.04950487  0.048672187            9 
 3955000   0.63559142   -3.7950322    2342.0314   0.04934748   0.04866128           10 
 3956000     0.625306   -3.7675983    2348.8947  0.049479582  0.048650333           13 
 3957000   0.62158151   -3.7439825    2347.9028  0.049446188  0.048639479           19 
 3958000   0.60903165   -3.7727496     2346.755  0.049409528  0.048628602           10 
 3959000   0.62153242   -3.7748814    2340.5486   0.04926641   0.04861772           13 
 3960000   0.61829994   -3.7810631    2343.6187  0.049318575  0.048606672            8 
 3961000   0.61415014   -3.7695484    2342.7316  0.049287461  0.048595687            8 
 3962000   0.61806181   -3.7697295     2350.603  0.049440581   0.04858479            4 
 3963000   0.62556742   -3.7822772    2342.3578  0.049254728  0.048573908           11 
 3964000    0.6177672   -3.7724026    2347.3583  0.049347424  0.048563057           22 
 3965000   0.62250202   -3.7489933    2343.6493  0.049257027  0.048552219           12 
 3966000   0.61692176   -3.7482562    2348.9976  0.049356983  0.048541359            7 
 3967000   0.60737127    -3.764248    2341.5936   0.04918901   0.04853051            3 
 3968000   0.62540426   -3.7917897    2337.6497  0.049093786   0.04851963           13 
 3969000   0.62134916    -3.785726    2347.3105  0.049284256  0.048508719            6 
 3970000    0.6020197   -3.7623148    2350.2582  0.049333715  0.048497822            8 
 3971000   0.61352447   -3.7903843    2342.3085  0.049154464  0.048486922           12 
 3972000   0.60445263   -3.7533736    2351.7548  0.049340274  0.048476035            5 
 3973000   0.61072002   -3.7919739    2345.4915  0.049196482  0.048465167           21 
 3974000   0.62689622   -3.7705837    2346.6548  0.049208496  0.048454305            6 
 3975000   0.61567491   -3.7777967    2343.4004   0.04912789  0.048443476           10 
 3976000   0.63413344   -3.7737757    2346.2499  0.049175258  0.048432629            7 
 3977000   0.60415279    -3.773353     2342.839  0.049091421  0.048421773           10 
 3978000     0.608459   -3.7808158    2349.4536  0.049217647  0.048410877            4 
 3979000   0.61093335   -3.7624263    2354.2392  0.049305503  0.048400074            4 
 3980000   0.62543288   -3.7818776    2345.9662  0.049119895  0.048389254           12 
 3981000   0.60666585   -3.7756089    2346.8164  0.049125354  0.048378432           15 
 3982000   0.63158516   -3.7759684     2350.323  0.049186401   0.04836767           14 
 3983000   0.60439133   -3.7657752    2350.7969  0.049183967  0.048356897           17 
 3984000   0.62003427   -3.7720231    2351.7409  0.049191368  0.048346122            7 
 3985000   0.60355913   -3.7643921    2352.0328  0.049185128  0.048335302           15 
 3986000   0.60834915   -3.7586817    2351.8382  0.049168719  0.048324508            9 
 3987000   0.61072649   -3.7883197    2352.2299  0.049164574  0.048313711            8 
 3988000   0.61478765   -3.7633392    2347.9851  0.049063547  0.048302852            4 
 3989000   0.60854068   -3.7858935    2346.7934  0.049026351  0.048291978           10 
 3990000   0.61669588   -3.7790379    2341.2775  0.048898862  0.048281108            4 
 3991000   0.61320289   -3.7671797    2347.4865  0.049016255  0.048270309            5 
 3992000   0.60770105   -3.7741463    2352.0031   0.04909826  0.048259474            7 
 3993000   0.61006561   -3.7917458    2343.6288  0.048911194  0.048248663            7 
 3994000   0.60742904   -3.7719669    2353.6058  0.049107116   0.04823774           11 
 3995000   0.62394979   -3.7751854    2346.7692  0.048952215  0.048226885           13 
 3996000   0.61376069     -3.77939    2347.5821  0.048956917  0.048216061            6 
 3997000   0.60634266   -3.7837372    2349.0862  0.048976028  0.048205218           19 
 3998000   0.61428802   -3.7901217    2350.1295  0.048985524  0.048194392           13 
 3999000   0.60753384   -3.7732428    2352.0585  0.049013473  0.048183512           11 
 4000000    0.6255544   -3.7827699    2349.8308  0.048954809  0.048172713            9 
 4001000   0.59933134   -3.7757823    2350.0569  0.048947283  0.048161854            8 
 4002000   0.61432847   -3.7900063    2351.4472  0.048964002  0.048151005           16 
 4003000   0.62188669   -3.8059779    2351.0243  0.048942965  0.048140095           12 
 4004000   0.61541673    -3.773755    2356.1496  0.049037413  0.048129253            4 
 4005000   0.61430619   -3.7909116    2348.1724  0.048859185  0.048118341            6 
 4006000   0.61034147   -3.7834654    2344.5007  0.048770609   0.04810744            6 
 4007000   0.62000013   -3.7680023    2352.8313  0.048931688  0.048096612           10 
 4008000   0.61687699   -3.7738843    2348.2315  0.048823843  0.048085712           10 
 4009000   0.62254397   -3.7787597    2347.6421  0.048799412  0.048074837            8 
 4010000   0.61545082   -3.7900644    2341.7937  0.048665704  0.048063858            7 
 4011000   0.60817818   -3.7935472    2347.8994  0.048780425  0.048052902            6 
 4012000   0.60712425   -3.7673982     2346.665  0.048742627  0.048041925            5 
 4013000   0.60963363    -3.768759    2345.4558   0.04870537  0.048030928            7 
 4014000   0.62222656   -3.8007856    2348.1448  0.048749062  0.048020012            8 
 4015000   0.60355045   -3.7778945    2352.8563  0.048834709   0.04800903            9 
 4016000    0.6128032   -3.7801486    2357.8174  0.048925493   0.04799817           12 
 4017000   0.60693552   -3.7820064    2349.8762  0.048748572  0.047987269            5 
 4018000   0.59487654   -3.7762238    2352.6027  0.048792988   0.04797641            4 
 4019000   0.61369301   -3.7814689    2344.1759  0.048606119  0.047965491            7 
 4020000   0.59972675    -3.774807    2351.6233   0.04874841  0.047954629            6 
 4021000   0.60687617   -3.7617655    2359.4043  0.048897544  0.047943756            6 
 4022000    0.6288382   -3.7697777    2351.6668  0.048725071  0.047932903            8 
 4023000   0.60993769   -3.7891874    2346.9967  0.048616222  0.047922036            7 
 4024000   0.59629122   -3.8047319    2341.4566  0.048489409  0.047911103            8 
 4025000   0.59772692   -3.7739293    2343.6097  0.048521939  0.047900156            5 
 4026000   0.61917405   -3.7931409    2347.8092  0.048596813  0.047889221           17 
 4027000   0.62635557   -3.7891824    2348.2248  0.048593345  0.047878358            6 
 4028000    0.6096075   -3.7619101    2348.5719  0.048588461  0.047867481            9 
 4029000   0.60787882   -3.7777021    2347.8596  0.048561669  0.047856589           11 
 4030000   0.60603061   -3.7977678    2349.0521  0.048574279  0.047845661           16 
 4031000   0.60049161   -3.7868773    2347.2009  0.048523958  0.047834768            8 
 4032000   0.62396386   -3.7974183    2352.7719  0.048627065  0.047823812            5 
 4033000   0.60971453   -3.7981535    2354.7432   0.04865574  0.047812895            5 
 4034000   0.60404941   -3.7774266    2355.3948   0.04865714  0.047801953            6 
 4035000   0.60996975   -3.7630023    2347.7159  0.048486491   0.04779104           14 
 4036000   0.62918908   -3.8098223    2341.3992  0.048344053  0.047780053            9 
 4037000   0.60497349   -3.7791613    2347.5666  0.048459389  0.047769086            7 
 4038000   0.61603312   -3.7849215    2350.6031  0.048510052  0.047758175            5 
 4039000   0.61271933   -3.7920295     2343.868  0.048359082  0.047747234           12 
 4040000   0.60198986   -3.8157463    2342.5436  0.048319794  0.047736283            8 
 4041000   0.59932982   -3.7766242    2353.5156  0.048534101  0.047725315            8 
 4042000   0.60376163   -3.7780445    2353.3266  0.048518196  0.047714377           10 
 4043000   0.60980206   -3.7891769    2353.2376  0.048504362  0.047703497            6 
 4044000   0.59790162   -3.7976194    2353.7756  0.048503453  0.047692608            7 
 4045000   0.61060257   -3.7925733    2347.6419  0.048365098  0.047681635           14 
 4046000   0.59888386   -3.8038983    2351.7465  0.048437686  0.047670623            9 
 4047000    0.5982463   -3.7785574    2350.9188  0.048408672  0.047659683           13 
 4048000   0.61238865   -3.7812279    2356.6236  0.048514155  0.047648813           11 
 4049000   0.59735986   -3.7863913    2348.4287  0.048333512  0.047637909           15 
 4050000   0.61203223   -3.7999624    2351.4761  0.048384283  0.047627024            8 
 4051000   0.60155789   -3.7603955    2350.7844  0.048358109  0.047616161           17 
 4052000   0.59300568   -3.7855299    2352.9821  0.048391372  0.047605233            9 
 4053000   0.60723753   -3.8074716    2351.6491  0.048352026  0.047594295           11 
 4054000   0.58786466   -3.8050255    2353.6531  0.048381293  0.047583365           10 
 4055000   0.59494273   -3.7945284     2350.013  0.048294554   0.04757241            6 
 4056000   0.60545329   -3.7911583    2347.1697   0.04822423  0.047561496           14 
 4057000   0.60299712   -3.7881498    2346.5027  0.048198642  0.047550609            9 
 4058000   0.61173417   -3.7746964    2350.5563  0.048270008  0.047539734            6 
 4059000   0.60812757   -3.7873032    2352.5404  0.048298851  0.047528871           14 
 4060000   0.60677914   -3.8155051    2351.7674  0.048271087  0.047517961           10 
 4061000   0.59575841   -3.7932973    2355.1463  0.048328537  0.047507078           10 
 4062000   0.59458897   -3.7900863    2349.5377  0.048201577  0.047496209            7 
 4063000   0.59246118   -3.8062244    2354.8551  0.048298776  0.047485301            8 
 4064000   0.59655639     -3.79686    2347.0893  0.048127651   0.04747438            6 
 4065000   0.60350797   -3.7779584    2357.0412  0.048319829  0.047463529            5 
 4066000   0.59404508   -3.7899248    2352.5018  0.048214908  0.047452651            9 
 4067000   0.59722891   -3.8052393    2351.3502  0.048179456  0.047441781            9 
 4068000   0.61318575   -3.8003477    2350.9835  0.048160102  0.047430889           18 
 4069000   0.61267291   -3.7910407    2353.7196    0.0482043  0.047420053            5 
 4070000   0.60412949   -3.7756954    2349.6783  0.048109711  0.047409218            5 
 4071000    0.6035312   -3.7927715    2352.7549  0.048160871  0.047398393           19 
 4072000   0.59151034   -3.8125253    2347.1822  0.048034999  0.047387485            9 
 4073000   0.60129587   -3.8107443    2357.6103  0.048236564  0.047376661           17 
 4074000   0.60683693    -3.810024    2352.5421  0.048121055  0.047365798            5 
 4075000   0.59034889   -3.8045389    2350.0297  0.048057868  0.047354921            6 
 4076000   0.60038597    -3.786534     2356.533  0.048179035  0.047344058            9 
 4077000   0.60466587   -3.7965421    2351.8205  0.048070895  0.047333226            5 
 4078000   0.60162391   -3.8051627    2356.1803    0.0481482  0.047322364            5 
 4079000   0.59464236   -3.8044196    2360.2862  0.048220279  0.047311589            7 
 4080000   0.60757192   -3.7995862    2355.3154  0.048106932  0.047300823            7 
 4081000   0.60594849   -3.8069779    2352.9699   0.04804725  0.047290057           12 
 4082000   0.59297408   -3.7943135    2355.2999  0.048083045  0.047279264            4 
 4083000    0.6028585   -3.7949825    2351.7459  0.047998733  0.047268458            7 
 4084000   0.60526376   -3.8105778    2356.5532  0.048085071  0.047257669           10 
 4085000   0.60382808   -3.8083598     2352.786  0.047996451  0.047246872            8 
 4086000   0.60723502   -3.8057907    2353.4695  0.047998644  0.047236088            7 
 4087000    0.5944811   -3.7962619    2356.4789   0.04804826  0.047225272           16 
 4088000   0.60193137    -3.784916    2360.3695  0.048115816  0.047214519            7 
 4089000   0.59961539    -3.819952    2347.6741   0.04784532  0.047203706            7 
 4090000   0.60286246   -3.8319187    2357.4113  0.048032015  0.047192868           11 
 4091000   0.60833371   -3.7898365    2357.0991  0.048013914  0.047182044            8 
 4092000    0.5966982   -3.8078042    2351.1679  0.047881392  0.047171287            9 
 4093000   0.60186503   -3.7791841    2357.9394  0.048007562  0.047160561           10 
 4094000   0.59508412   -3.8061907    2354.0341  0.047916343  0.047149842           12 
 4095000   0.59359184   -3.8148128    2356.7203  0.047959307  0.047139102           18 
 4096000   0.60905092   -3.8123524    2362.3536  0.048062207  0.047128309            7 
 4097000   0.60299343   -3.8078041    2363.9796  0.048083548  0.047117594           13 
 4098000   0.60670875   -3.8009263    2361.8682   0.04802888  0.047106917            5 
 4099000   0.60403537   -3.8244853     2353.891  0.047854986  0.047096133           12 
 4100000   0.59922037   -3.8235176    2353.7244  0.047839926  0.047085379           18 
 4101000   0.59383685   -3.8081413    2356.7518  0.047889778  0.047074569           14 
 4102000   0.60753255    -3.794889    2358.6169  0.047915994  0.047063802            7 
 4103000   0.58842436   -3.8169892    2357.2305  0.047876159  0.047053065            4 
 4104000   0.58522924   -3.8033225    2361.0054  0.047941144  0.047042225           10 
 4105000   0.59803901   -3.8115987    2356.3844  0.047835655  0.047031413            4 
 4106000   0.59681852   -3.8133954    2363.8502  0.047975528  0.047020608           10 
 4107000   0.58369095   -3.8066337    2359.3005  0.047871529  0.047009801           10 
 4108000   0.59846786   -3.8063164    2360.3222  0.047880603  0.046999037            7 
 4109000   0.60389918   -3.8155076    2348.7581  0.047634422  0.046988212           15 
 4110000   0.59339336   -3.8000112    2352.1356  0.047691314  0.046977368            5 
 4111000   0.58344891   -3.8169664    2355.3536  0.047744944  0.046966575           16 
 4112000   0.59076605   -3.8106139    2361.9211  0.047866429  0.046955774           11 
 4113000   0.58277098   -3.8140084    2356.7179  0.047749369  0.046944921           11 
 4114000   0.59328837   -3.8010231    2358.1809  0.047767398  0.046934154            7 
 4115000   0.59373775   -3.8133448    2360.0955  0.047794562  0.046923293            4 
 4116000   0.60172157   -3.7951075    2352.7244  0.047633714  0.046912421            6 
 4117000   0.59554147    -3.797258    2356.0934  0.047690338  0.046901646            7 
 4118000   0.58913606    -3.825006    2357.3316  0.047703813  0.046890784           12 
 4119000   0.59303364   -3.8280533    2356.2211  0.047669765      0.04688           14 
 4120000   0.60088684   -3.8019841    2356.0474  0.047654681  0.046869209           30 
 4121000   0.59104147   -3.7979673    2360.9701  0.047742662  0.046858465           15 
 4122000    0.5993466   -3.8185176    2351.6905  0.047543476  0.046847678            9 
 4123000   0.59832877   -3.7938379    2355.8941  0.047616907  0.046836865            5 
 4124000   0.58437008   -3.8186583    2353.8672  0.047564403  0.046826052            9 
 4125000   0.60282094   -3.8035362    2354.7552  0.047570813  0.046815242            9 
 4126000   0.58203766   -3.7979363    2361.6547  0.047698633  0.046804441           11 
 4127000   0.58710923    -3.796048    2360.9068  0.047671974  0.046793642           10 
 4128000    0.5911611   -3.8127978    2361.6483  0.047675394  0.046782852           12 
 4129000   0.58621517   -3.8392053    2356.4228  0.047558385  0.046772018           12 
 4130000   0.59128906   -3.7973747    2356.0895  0.047540144   0.04676115            7 
 4131000   0.58613674   -3.8089877    2355.0233  0.047507128  0.046750356           16 
 4132000   0.57274098    -3.806249    2358.8728  0.047573266  0.046739569            6 
 4133000    0.6036527   -3.8080308    2359.2134  0.047568622  0.046728794            9 
 4134000   0.59714489   -3.8180791    2356.4603   0.04750162  0.046718036           16 
 4135000   0.60000201   -3.7873255    2364.4847  0.047651849  0.046707285            7 
 4136000   0.58393422   -3.8092568    2363.2862  0.047616178  0.046696532           12 
 4137000   0.58842238   -3.8210662    2359.6992  0.047532415  0.046685786            4 
 4138000   0.57877652   -3.8257043    2361.1923  0.047550998  0.046675003            9 
 4139000   0.59221916   -3.8163426    2357.0696  0.047456503  0.046664216            8 
 4140000   0.59514672   -3.8172202    2361.0118  0.047524392  0.046653409            7 
 4141000   0.57808716    -3.838181    2361.3547  0.047519816  0.046642568           10 
 4142000   0.58941927   -3.8299635    2357.6652  0.047434115  0.046631775            8 
 4143000   0.59486269   -3.8147885    2356.0979  0.047391139  0.046620966            9 
 4144000   0.58117745   -3.8131815    2355.2912  0.047363481  0.046610118           14 
 4145000   0.59045602   -3.8068297    2356.3431  0.047373202  0.046599336            6 
 4146000   0.59219024   -3.8267132     2359.931  0.047433892   0.04658855            9 
 4147000   0.58488319    -3.800974    2355.0015  0.047323397   0.04657775           10 
 4148000   0.60040372   -3.8112304    2357.2931  0.047358025  0.046566912           14 
 4149000   0.59925604   -3.8174662    2354.9133  0.047298813  0.046556063           17 
 4150000   0.59874043   -3.8130398    2355.0794  0.047290751  0.046545209            7 
 4151000   0.59765984   -3.8034561     2357.262  0.047323176  0.046534397           18 
 4152000   0.58684851   -3.8147821    2357.1258  0.047309044  0.046523573           12 
 4153000   0.58789753   -3.8263131    2356.4198  0.047283486  0.046512746           22 
 4154000   0.58018927   -3.8202443    2354.4931  0.047233452  0.046501937           16 
 4155000   0.59069521   -3.8327608    2358.4891  0.047302228  0.046491113           23 
 4156000   0.58668026   -3.8145838    2358.5156  0.047291377  0.046480304            6 
 4157000   0.59167313   -3.8207771    2357.6015  0.047261677  0.046469536           11 
 4158000   0.57917796   -3.8228173    2358.1838  0.047261981  0.046458685            6 
 4159000   0.57654185   -3.8282225    2354.5296  0.047177397  0.046447878            8 
 4160000   0.59126628   -3.8035958    2353.4556  0.047144544  0.046437075           13 
 4161000   0.57918858   -3.8403369    2357.9034   0.04722229  0.046426251           13 
 4162000   0.58859564   -3.8281222    2358.9451  0.047231803  0.046415453            5 
 4163000   0.58580124   -3.8153608    2358.0538  0.047202614  0.046404663           12 
 4164000   0.57890622   -3.8369118    2355.9911  0.047149997  0.046393875            8 
 4165000   0.59053236   -3.8175353    2359.7138  0.047213161  0.046383046           10 
 4166000   0.56690373    -3.848126    2349.0388  0.046988295  0.046372197           21 
 4167000   0.58152927   -3.8394991    2348.9021  0.046974284  0.046361283           25 
 4168000   0.59560455   -3.8315841    2357.1241    0.0471274  0.046350395           20 
 4169000    0.5836848   -3.8067016    2358.6195  0.047145988   0.04633958           12 
 4170000   0.58089262   -3.8421019    2358.0123  0.047122548  0.046328668            8 
 4171000   0.57556921   -3.8074717    2353.2122  0.047015347  0.046317852            6 
 4172000   0.59830082   -3.8273211    2352.5596  0.046991043  0.046306965           13 
 4173000   0.57994775   -3.8302863    2356.7239  0.047062943  0.046296138            8 
 4174000    0.5672771   -3.8673963    2358.5321  0.047087768  0.046285325           13 
 4175000   0.58330918   -3.8431332    2358.4351  0.047074554  0.046274492           13 
 4176000   0.58073013   -3.8430304    2356.0793   0.04701627  0.046263638            8 
 4177000   0.60402872   -3.8290932    2352.0267  0.046924163    0.0462528            8 
 4178000   0.58243877   -3.8119936    2357.2235  0.047016585  0.046241971            3 
 4179000   0.58121721   -3.8414346    2355.8184  0.046977315  0.046231109           18 
 4180000   0.58721165   -3.8318764     2357.659  0.047002771   0.04622028            5 
 4181000   0.59246543   -3.8262158     2354.871  0.046935961  0.046209484            4 
 4182000   0.59232594   -3.8291525    2351.9392  0.046866316  0.046198644           26 
 4183000   0.58699872   -3.8314264    2353.9402  0.046894976  0.046187789           14 
 4184000   0.57707721   -3.8364793    2352.0468  0.046846056  0.046176924           20 
 4185000   0.57644874   -3.8261205    2359.7952  0.046989152  0.046166139           12 
 4186000   0.58013928   -3.8166341    2362.0098  0.047022015  0.046155295            7 
 4187000   0.58000867   -3.8217409    2358.7698  0.046946298  0.046144524           11 
 4188000    0.5913231   -3.8139433    2357.2143  0.046904137  0.046133696            8 
 4189000   0.56746552   -3.8329353    2352.1659  0.046792511  0.046122885           12 
 4190000   0.58713137   -3.8564949    2357.3534  0.046884514   0.04611204            7 
 4191000   0.57402346   -3.8369961     2355.326  0.046833015  0.046101196            8 
 4192000   0.58729361   -3.8307831    2352.3125  0.046761937   0.04609038           10 
 4193000    0.5799496   -3.8279295    2361.3211  0.046929826  0.046079603            8 
 4194000   0.57310388   -3.8354022    2355.4978  0.046802929  0.046068796            7 
 4195000    0.5763968   -3.8354997    2360.0228  0.046881661  0.046057992           14 
 4196000   0.57182714   -3.8351552    2363.3111  0.046935794  0.046047201           11 
 4197000    0.5670494   -3.8434304    2352.8287  0.046716479  0.046036412           14 
 4198000   0.58643924   -3.8485561    2361.7331  0.046882109  0.046025645            5 
 4199000   0.57889312   -3.8425171    2361.0708  0.046857799  0.046014889            9 
 4200000     0.573673   -3.8448909    2361.2769  0.046850732  0.046004149            7 
 4201000   0.57593441   -3.8322608      2360.58  0.046825756  0.045993391            7 
 4202000   0.57241364   -3.8398809    2355.4626  0.046713125  0.045982728            7 
 4203000   0.57193303   -3.8248048    2367.3477  0.046937658  0.045972041            9 
 4204000   0.57126917   -3.8302937    2366.2879  0.046905484  0.045961346            7 
 4205000    0.5728945   -3.8524331    2360.2629  0.046774929  0.045950576            6 
 4206000    0.5788405    -3.836349    2351.9687  0.046599476  0.045939849            9 
 4207000    0.5661795   -3.8365499    2360.1889  0.046751226  0.045929155            7 
 4208000   0.58089996   -3.8196892    2364.8207  0.046831843  0.045918522           11 
 4209000   0.57745921   -3.8274781    2361.5296  0.046755555  0.045907861            9 
 4210000   0.58365324    -3.813912    2362.0343   0.04675444  0.045897127            5 
 4211000   0.57627707   -3.8365016    2359.8492  0.046700094  0.045886425            8 
 4212000   0.57165813   -3.8211944    2369.5572  0.046881077  0.045875767            9 
 4213000   0.59309012   -3.8394834    2364.6667  0.046773216  0.045865162            6 
 4214000   0.59379626   -3.8400063    2359.9528  0.046668898  0.045854531           21 
 4215000   0.57619586   -3.8314607    2362.5232  0.046708644  0.045843873            6 
 4216000   0.58796411   -3.8432623    2356.9142  0.046586697  0.045833173           15 
 4217000   0.57234113   -3.8450126     2365.984  0.046754881  0.045822459            5 
 4218000   0.59072445   -3.8402583    2362.7917  0.046680728  0.045811807           20 
 4219000   0.57866524   -3.8522629    2362.8749  0.046671306  0.045801139           11 
 4220000   0.57454076   -3.8181226    2366.2207  0.046726317  0.045790492           11 
 4221000   0.57534524   -3.8336437    2361.4746  0.046621547  0.045779827            6 
 4222000   0.57962131   -3.8437564     2361.671   0.04661438  0.045769132           12 
 4223000   0.57827414   -3.8249681    2371.1853   0.04679109  0.045758544           13 
 4224000   0.58817906   -3.8282167    2361.9393  0.046597603  0.045747935           10 
 4225000   0.57679002   -3.8351573     2360.222  0.046552702  0.045737253            9 
 4226000    0.5778054   -3.8568641    2369.3347  0.046721381  0.045726565           23 
 4227000   0.57853434   -3.8427299    2365.1274  0.046627384  0.045715901            6 
 4228000   0.56478996   -3.8632625    2358.3399  0.046482574  0.045705174           11 
 4229000   0.57188511   -3.8442419    2368.9961  0.046681566  0.045694487           18 
 4230000   0.56367674   -3.8592319    2363.9049  0.046570231  0.045683858           13 
 4231000   0.57592717   -3.8504447    2361.6232  0.046514283  0.045673193           18 
 4232000   0.57498299   -3.8242719    2361.4391  0.046499666  0.045662485            8 
 4233000   0.57796208   -3.8216479    2360.5689  0.046471551  0.045651814            6 
 4234000   0.57078054   -3.8526243     2363.541  0.046519072  0.045641165           13 
 4235000   0.57328084   -3.8317347    2370.9376  0.046653632  0.045630525            8 
 4236000   0.59224056   -3.8403836    2363.4091  0.046494513  0.045619981           10 
 4237000   0.58292473   -3.8471874    2360.9201  0.046434585  0.045609397           13 
 4238000   0.59058022   -3.8408526    2366.9472  0.046542142  0.045598794           13 
 4239000   0.56876141   -3.8259376    2365.7291  0.046507217  0.045588155            9 
 4240000   0.55958422   -3.8511155    2367.3589  0.046528281  0.045577547            9 
 4241000   0.56127349    -3.852042    2362.2977  0.046417859  0.045566919           12 
 4242000   0.57005268   -3.8342117     2359.801  0.046357869  0.045556277           11 
 4243000   0.57199788   -3.8286718    2364.6708  0.046442588  0.045545636            8 
 4244000   0.56700371   -3.8559257    2351.7571  0.046178077  0.045535007            6 
 4245000   0.56566209   -3.8272544    2364.9938  0.046427047  0.045524337           10 
 4246000   0.56919161   -3.8400149    2365.0959  0.046418118  0.045513698            7 
 4247000   0.57353913   -3.8435288    2368.1777  0.046467657  0.045503037            6 
 4248000   0.57224808   -3.8493853    2359.5295  0.046287065  0.045492363           20 
 4249000   0.56545449   -3.8488387    2365.6744  0.046396689  0.045481689            7 
 4250000   0.57556588   -3.8475673     2367.874  0.046428902  0.045471045            4 
 4251000    0.5718844   -3.8527073    2363.2788    0.0463279   0.04546042            7 
 4252000   0.56245112   -3.8548222    2363.1531  0.046314541  0.045449808           11 
 4253000   0.57025576   -3.8392754    2365.4042  0.046347758  0.045439208            8 
 4254000   0.57446281   -3.8569225    2367.4737  0.046377404  0.045428641            8 
 4255000   0.58278855   -3.8400997    2359.0229  0.046200996  0.045417971            9 
 4256000   0.56761892   -3.8440819    2359.8143  0.046205638  0.045407313            6 
 4257000   0.56259456   -3.8414959    2363.5165  0.046267255  0.045396696            9 
 4258000    0.5738099   -3.8498589    2360.3451  0.046194322  0.045386043           13 
 4259000   0.57339763   -3.8509973    2358.7462  0.046152192  0.045375359           12 
 4260000   0.57993079   -3.8437485    2368.5002  0.046332164   0.04536475            9 
 4261000   0.57005951   -3.8383137    2361.6777   0.04618786  0.045354159           25 
 4262000   0.57511706    -3.851667    2365.0204  0.046242382   0.04534353            7 
 4263000   0.56029282   -3.8517583    2362.7125  0.046186421    0.0453329            9 
 4264000   0.56449488   -3.8598477    2370.0928  0.046319825  0.045322294           10 
 4265000    0.5626509   -3.8304186    2362.9514  0.046169429  0.045311727            4 
 4266000   0.56182403   -3.8498711    2365.6145  0.046210628  0.045301143           11 
 4267000   0.55910102   -3.8478543    2367.2261  0.046231273  0.045290564            8 
 4268000   0.55927243   -3.8740773    2358.9364  0.046058583  0.045279899            8 
 4269000   0.55861719   -3.8698291    2363.8673  0.046144047  0.045269236           11 
 4270000   0.55696357   -3.8584978    2367.3895  0.046201981  0.045258651            7 
 4271000   0.57342361   -3.8544872    2366.0065  0.046164179  0.045248047            9 
 4272000   0.57613422   -3.8498469    2363.9602  0.046113456  0.045237441           14 
 4273000   0.57787037   -3.8393102    2367.6689  0.046174992  0.045226826           13 
 4274000   0.56995354   -3.8547937    2372.6727  0.046261752  0.045216274           10 
 4275000    0.5722624   -3.8564238    2361.8502  0.046039965  0.045205684           14 
 4276000   0.56665283   -3.8615112    2366.0244  0.046110548  0.045195149            6 
 4277000   0.55593926   -3.8520237    2375.9294  0.046292757  0.045184576            9 
 4278000   0.56575211   -3.8639758    2370.0539  0.046167483  0.045174004           11 
 4279000   0.56762121   -3.8764937    2368.0126   0.04611694  0.045163419           12 
 4280000   0.54806007   -3.8404108    2366.2638  0.046072115  0.045152873           12 
 4281000   0.55971978   -3.8692302    2369.2037   0.04611858  0.045142261           10 
 4282000   0.55111766   -3.8538979    2368.9527  0.046102926  0.045131601           12 
 4283000   0.56958334   -3.8776333    2364.0805  0.045997364  0.045120979           15 
 4284000   0.56439396   -3.8695923    2364.8668  0.046001922  0.045110333            7 
 4285000   0.57168597   -3.8713184    2364.4731  0.045983531  0.045099668           14 
 4286000   0.56346586   -3.8688906    2363.4775  0.045953444  0.045088958           11 
 4287000   0.57179594   -3.8662232    2362.0978  0.045915906  0.045078305           14 
 4288000   0.57222368   -3.8801898    2364.4482  0.045950874  0.045067664           12 
 4289000   0.54960912   -3.8691505    2362.7736  0.045907624  0.045057013           13 
 4290000   0.56595116   -3.8757362    2370.3711  0.046044504  0.045046366           11 
 4291000    0.5642618   -3.8573939     2362.235  0.045875767   0.04503569           12 
 4292000   0.57141395   -3.8598063    2368.5042  0.045986802   0.04502508            9 
 4293000   0.56534751   -3.8491353    2364.8364  0.045904891  0.045014454           13 
 4294000   0.56314113   -3.8585005    2363.8912  0.045875859  0.045003841           11 
 4295000   0.58347985   -3.8833351    2363.1728  0.045851238  0.044993181            9 
 4296000    0.5656606    -3.853584    2361.5344  0.045808783  0.044982543           21 
 4297000    0.5636631   -3.8563929    2360.8649   0.04578514  0.044971906            8 
 4298000   0.55318994   -3.8559202    2362.0672  0.045797797  0.044961258            9 
 4299000   0.56274225   -3.8609709    2359.7666  0.045742548  0.044950561           12 
 4300000   0.56152212   -3.8639092     2363.554  0.045805309  0.044939851            5 
 4301000    0.5611164   -3.8489012    2362.1438  0.045767337  0.044929181           19 
 4302000   0.54276689   -3.8600365    2364.3304  0.045799055  0.044918476           13 
 4303000   0.55925123   -3.8589099    2366.2971  0.045826499  0.044907817           12 
 4304000   0.56897473   -3.8625928    2368.2879  0.045854398  0.044897177           17 
 4305000   0.57032843   -3.8407028    2359.8102   0.04567964   0.04488653            8 
 4306000   0.55163537   -3.8587423    2365.5954  0.045780992  0.044875876           28 
 4307000   0.56402136   -3.8564943    2368.5753  0.045828018  0.044865287           10 
 4308000   0.56491631   -3.8513245    2365.9592  0.045766775  0.044854633            3 
 4309000   0.56041732   -3.8642214    2363.0274  0.045699454  0.044844019            8 
 4310000   0.57316709   -3.8771148     2362.417  0.045677049  0.044833347            8 
 4311000   0.55374368   -3.8746063    2367.0079  0.045755197  0.044822685           20 
 4312000   0.55447493   -3.8783811    2367.4419  0.045752973  0.044812024            9 
 4313000   0.55946101    -3.865866    2365.7858  0.045710368  0.044801366           10 
 4314000   0.56016614    -3.864064    2364.8811  0.045682296  0.044790756           13 
 4315000   0.56763803   -3.8625358    2361.6929  0.045610137  0.044780123            7 
 4316000   0.55622615   -3.8705853    2367.6987  0.045715529  0.044769478            6 
 4317000   0.57270411   -3.8405268    2364.3624  0.045640537  0.044758913            7 
 4318000   0.55534454   -3.8588935    2366.2739  0.045666857  0.044748324           13 
 4319000   0.55907663   -3.8707655    2362.8359  0.045589949  0.044737706           12 
 4320000   0.55836731   -3.8700021    2370.8883  0.045734728  0.044727063            9 
 4321000   0.56539427   -3.8813406    2360.4471  0.045522779  0.044716476            6 
 4322000   0.55820598   -3.8609565    2363.5762  0.045572578  0.044705841           10 
 4323000   0.55141796    -3.865169    2362.3673  0.045538733  0.044695174           10 
 4324000    0.5586798    -3.872956    2362.8488   0.04553748  0.044684568           19 
 4325000   0.55132716   -3.8739775     2364.904  0.045566552  0.044673982            7 
 4326000      0.56129   -3.8619842    2369.2311  0.045639372  0.044663406            8 
 4327000   0.55514228   -3.8857277    2363.5663  0.045519727  0.044652789            9 
 4328000   0.55679038    -3.856536    2362.6128  0.045490851  0.044642198           14 
 4329000   0.57006083   -3.8699294    2368.4344  0.045592408  0.044631583           17 
 4330000   0.56707997   -3.8788889    2358.6355  0.045393294  0.044620986           15 
 4331000   0.56540051   -3.8676873    2363.7411  0.045481049  0.044610349           21 
 4332000   0.55512899   -3.8725774    2362.0004  0.045437066  0.044599769            8 
 4333000   0.54489624   -3.8740498    2364.5403  0.045475428  0.044589198            8 
 4334000   0.55493552   -3.8740336    2370.0623   0.04557111  0.044578665           21 
 4335000   0.56655065   -3.8727687    2367.1985  0.045505547  0.044568127           17 
 4336000   0.55012222   -3.8758252    2365.5881  0.045464102  0.044557509           15 
 4337000   0.55341627   -3.8817398    2364.2958  0.045428788  0.044546958           13 
 4338000   0.56868324   -3.8796246    2367.4271  0.045478467  0.044536398            5 
 4339000   0.56046988   -3.8700605    2368.0855  0.045480632  0.044525868            7 
 4340000   0.55864012   -3.8885497    2365.3828  0.045418256  0.044515292            8 
 4341000   0.54791245   -3.8673824     2371.338  0.045522115  0.044504728           17 
 4342000   0.56602487   -3.8952941    2371.3486  0.045511834  0.044494155            7 
 4343000   0.56190422   -3.8719664    2366.8952  0.045415903  0.044483548            7 
 4344000   0.56238138   -3.8502439    2366.8621  0.045404813  0.044473015           17 
 4345000    0.5538038   -3.8612423    2368.5582  0.045426894  0.044462504           13 
 4346000    0.5638649   -3.8608151     2373.485   0.04551091  0.044452029           20 
 4347000   0.55560188   -3.8863989    2370.4574  0.045442402  0.044441533           11 
 4348000   0.55561943   -3.8611362    2371.4604  0.045451174  0.044431061           24 
 4349000   0.56534053    -3.873893    2366.3046   0.04534193  0.044420606            7 
 4350000   0.56385141   -3.8682202    2373.6586  0.045472388  0.044410146           10 
 4351000   0.55496138   -3.8823494     2371.179  0.045414445  0.044399637            8 
 4352000    0.5555451   -3.8894947    2369.8872  0.045379273  0.044389132           13 
 4353000   0.54816403   -3.8971274    2372.1451  0.045412075  0.044378663            8 
 4354000   0.54710494   -3.8657527    2375.3881  0.045463714  0.044368222            4 
 4355000   0.55179251   -3.8551554    2373.0595  0.045408716  0.044357762            6 
 4356000   0.55523377   -3.8820338    2363.1753    0.0452092  0.044347276           14 
 4357000   0.54510216   -3.8806621    2366.5128  0.045262658  0.044336765            9 
 4358000   0.55015031   -3.8880137    2363.5647  0.045195899  0.044326235            7 
 4359000   0.55437404   -3.8982834    2371.9577  0.045345983   0.04431573           10 
 4360000   0.55905838   -3.8848192    2370.1404  0.045300849  0.044305169           15 
 4361000   0.55897551    -3.869978    2374.0329  0.045364841  0.044294728            6 
 4362000   0.55181983   -3.8676588      2371.89  0.045313503  0.044284274           16 
 4363000   0.55432004   -3.8823383    2371.7933  0.045301271  0.044273832           17 
 4364000   0.53966375   -3.8768905     2366.861  0.045196704   0.04426332            9 
 4365000   0.55943006   -3.8839663    2371.4045  0.045273091  0.044252849           10 
 4366000   0.56720545   -3.8929573    2368.8081  0.045213164  0.044242362            7 
 4367000   0.54522808   -3.8871065    2369.5673  0.045217298  0.044231873           16 
 4368000   0.55713124   -3.8853653    2371.0545   0.04523532  0.044221406           27 
 4369000   0.55727494   -3.8812002      2369.81  0.045201228  0.044210932            8 
 4370000   0.56247569   -3.8888785    2375.9293  0.045307576  0.044200542           14 
 4371000   0.55540026   -3.8768603    2369.5214  0.045175043  0.044190128            5 
 4372000   0.55353859   -3.8747721    2370.7646  0.045188407  0.044179696            8 
 4373000   0.54336691   -3.8904253    2378.5931  0.045327257  0.044169301            6 
 4374000   0.55458942   -3.8904371    2368.6601   0.04512765  0.044158854           10 
 4375000    0.5498355   -3.8817906    2366.8907  0.045083632  0.044148431            6 
 4376000   0.55609381    -3.898265    2369.8128  0.045128976  0.044137972           16 
 4377000   0.55832249   -3.8918557    2372.9498  0.045178391  0.044127483            6 
 4378000   0.55814176   -3.9033694     2373.544  0.045179382  0.044117013           11 
 4379000   0.56218997    -3.887905    2370.5075   0.04511128  0.044106586           14 
 4380000   0.55572704   -3.8683405    2376.6971  0.045218742  0.044096233           13 
 4381000   0.54918431   -3.9100268    2372.1773  0.045122446  0.044085824           13 
 4382000   0.55328496   -3.9095581    2371.8265  0.045105479  0.044075407           14 
 4383000   0.54825243    -3.893639    2370.8483  0.045076589  0.044064999           10 
 4384000   0.54396453   -3.9093181    2374.1677  0.045129403  0.044054566            7 
 4385000   0.56167029   -3.8958696    2373.7703   0.04511156  0.044044146           26 
 4386000   0.54804304   -3.8764919    2368.7556  0.045005996  0.044033734           12 
 4387000   0.55118809   -3.8903955    2371.4124  0.045046206  0.044023381            8 
 4388000   0.55613963     -3.88321    2370.2671  0.045014188  0.044012991           13 
 4389000    0.5417189   -3.8896952    2373.5893  0.045067011  0.044002572            7 
 4390000   0.54153177   -3.8957245    2371.1975  0.045011342  0.043992167           10 
 4391000    0.5340817   -3.8995198    2365.5818  0.044894515  0.043981751            9 
 4392000   0.55585316    -3.904059    2372.4656  0.045014906  0.043971329            8 
 4393000     0.555948   -3.8806519    2371.7375  0.044990847  0.043960958           21 
 4394000   0.54476933    -3.892129    2373.6331  0.045016559  0.043950598           28 
 4395000    0.5546966    -3.883946    2372.2251   0.04497962  0.043940242           11 
 4396000   0.54539491   -3.8849398    2376.9168  0.045058325  0.043929868            7 
 4397000   0.56096547   -3.9172487    2372.1851  0.044958402  0.043919481           14 
 4398000   0.55057921   -3.9115987    2370.2161  0.044910871  0.043909109           10 
 4399000   0.54884281   -3.8955606    2370.0696  0.044897886   0.04389878           21 
 4400000    0.5458731   -3.8854501    2376.4986  0.045009444  0.043888481            8 
 4401000   0.54163666   -3.9117414    2375.0818  0.044972388  0.043878149           12 
 4402000   0.54640506   -3.8903953    2372.8853  0.044920592  0.043867828           17 
 4403000   0.54351462   -3.9049013    2375.9549  0.044968485  0.043857486           20 
 4404000     0.551271   -3.8860432     2379.079  0.045017389  0.043847132            8 
 4405000   0.53646946   -3.8935241    2376.3649  0.044955824   0.04383681            9 
 4406000   0.54543712   -3.9104283    2374.1303  0.044903356  0.043826491            9 
 4407000   0.54920381   -3.9145905    2372.5556  0.044863391  0.043816165           14 
 4408000   0.55469998   -3.8878635    2380.0035  0.044994017  0.043805866           18 
 4409000   0.56161572   -3.8791913    2369.7155  0.044789361  0.043795548           10 
 4410000    0.5410255   -3.8938629    2372.5118  0.044832044  0.043785224           16 
 4411000   0.55003376   -3.8935199    2370.7521  0.044788636  0.043774917           20 
 4412000   0.53305907   -3.8987805    2371.2387  0.044787676  0.043764586            8 
 4413000   0.54358733   -3.8959932    2372.5869  0.044802986   0.04375422           11 
 4414000   0.53968953   -3.8871688    2370.5079  0.044753585  0.043743883            5 
 4415000   0.54116929   -3.8954113    2377.3669  0.044872913  0.043733618           17 
 4416000   0.54224836    -3.914814    2373.7761   0.04479499  0.043723302            7 
 4417000   0.53685837    -3.907915    2373.5064   0.04477976  0.043712943           15 
 4418000   0.53988609   -3.9020008    2371.2536  0.044727132  0.043702585           18 
 4419000   0.54260012   -3.9079215    2373.3694   0.04475691  0.043692257            9 
 4420000    0.5404298   -3.9012682    2374.1006   0.04476057  0.043681872            7 
 4421000   0.54505811   -3.9032146    2369.0403  0.044655062  0.043671504            9 
 4422000   0.54875483   -3.9154346    2370.5613  0.044673626  0.043661151           11 
 4423000   0.53242963   -3.8805789    2381.2554  0.044865012  0.043650779            8 
 4424000   0.54428857   -3.9047594    2369.1197  0.044626275  0.043640434           15 
 4425000   0.53751025   -3.9012947    2375.7893  0.044741795  0.043630071           11 
 4426000   0.55330785   -3.8995211     2376.923   0.04475303  0.043619677            8 
 4427000   0.54507234   -3.8993796    2375.0539  0.044707739   0.04360934           10 
 4428000   0.54079114   -3.8970181     2374.595  0.044689006   0.04359897            9 
 4429000   0.54656119   -3.9043577    2374.0066  0.044667845  0.043588616           14 
 4430000   0.54399173   -3.8929787    2376.8027  0.044710359  0.043578271           10 
 4431000   0.54564523   -3.9139936    2372.0775  0.044611402  0.043567919           13 
 4432000   0.54198943     -3.91882    2370.1535   0.04456516   0.04355752           13 
 4433000   0.55463086   -3.9107686    2372.9406    0.0446075  0.043547178           10 
 4434000   0.55349751    -3.893622    2370.4743  0.044551088  0.043536831           11 
 4435000   0.53380383   -3.8974751    2376.5237  0.044654711  0.043526483            8 
 4436000   0.53759125   -3.9041589    2372.7603  0.044573946  0.043516127           27 
 4437000   0.53833977   -3.9154277    2376.2415  0.044629282  0.043505766           22 
 4438000   0.53489801   -3.9010528     2374.542  0.044587314  0.043495416            9 
 4439000   0.54402091   -3.9126359    2374.3808  0.044574243  0.043485064           13 
 4440000   0.54294663    -3.903146    2371.2103  0.044504697  0.043474708           13 
 4441000   0.54308728    -3.916752     2371.864  0.044506943  0.043464375           12 
 4442000   0.54143941    -3.921992    2370.4698  0.044470767  0.043454012           16 
 4443000   0.54254772   -3.9121661    2375.1221  0.044548017  0.043443637            9 
 4444000    0.5431136   -3.9004868    2371.5933  0.044471822  0.043433273            9 
 4445000   0.54311553    -3.926352    2368.3151  0.044400357   0.04342291           12 
 4446000   0.55356566   -3.8996042    2372.8416  0.044475213  0.043412542           12 
 4447000   0.53685032   -3.9290665    2370.0914  0.044413677  0.043402137           18 
 4448000   0.55105269   -3.9190349    2375.0995  0.044497517  0.043391768            7 
 4449000   0.54876511   -3.9160486    2373.0147  0.044448466  0.043381379           15 
 4450000   0.53936939   -3.9226441    2367.8872  0.044342456  0.043370995           26 
 4451000   0.54239062   -3.9081144    2372.7559  0.044423649  0.043360598            7 
 4452000   0.53621338   -3.9119766    2374.8548  0.044452957  0.043350232           27 
 4453000    0.5337664   -3.9119716    2372.9322  0.044406996  0.043339854           13 
 4454000   0.54033942   -3.9038803    2377.8989   0.04448995  0.043329511           11 
 4455000   0.53996915   -3.8992646    2371.4559  0.044359444  0.043319182           18 
 4456000   0.53270998    -3.886923    2378.2461  0.044476475  0.043308871           23 
 4457000   0.54143818   -3.9218874     2379.194   0.04448422  0.043298514           13 
 4458000   0.54933293   -3.9185947    2371.1353    0.0443236  0.043288207           20 
 4459000   0.54516316   -3.9162516    2370.4408   0.04430068  0.043277899           16 
 4460000   0.54835996     -3.90898    2372.6307  0.044331665   0.04326758           11 
 4461000   0.53573928   -3.9237057    2372.5828  0.044320833  0.043257291           14 
 4462000   0.53164021   -3.9079895    2375.5592  0.044366488  0.043246948           10 
 4463000   0.54094328   -3.9067562    2377.2442  0.044388009  0.043236607           15 
 4464000   0.55109356   -3.8874445    2376.0648  0.044356048  0.043226338            7 
 4465000   0.54316915   -3.8889012    2374.4605  0.044316172  0.043216062           11 
 4466000   0.54352032    -3.898373    2374.9395  0.044315186  0.043205748           15 
 4467000   0.53376264    -3.910973    2378.7724  0.044376771  0.043195454           27 
 4468000   0.54002958   -3.9310131    2369.7044   0.04419771  0.043185138            8 
 4469000   0.53161233   -3.9017208    2376.4405  0.044313427  0.043174814           20 
 4470000    0.5362143   -3.9200147    2375.0051  0.044276755  0.043164548           14 
 4471000   0.53159466   -3.9117418    2375.0997  0.044268615  0.043154265            6 
 4472000   0.54778619   -3.9215662    2371.4368  0.044190459  0.043143995            6 
 4473000   0.53528432   -3.9012789    2377.6858  0.044297001  0.043133771            7 
 4474000   0.53422743   -3.9168456    2378.7565  0.044307043   0.04312352           15 
 4475000   0.54605551   -3.9179645    2368.2512  0.044101513  0.043113245           10 
 4476000   0.53527937   -3.9253848    2369.0751  0.044106999  0.043102889           13 
 4477000   0.53723302   -3.9128406    2377.1295  0.044247068  0.043092589           20 
 4478000   0.53535464   -3.8972236    2377.8519  0.044250631  0.043082327            5 
 4479000   0.53277458    -3.901483    2374.0917  0.044170792   0.04307209           15 
 4480000   0.53460452   -3.9131486     2378.302  0.044239248   0.04306186           23 
 4481000   0.54535622   -3.9084671    2370.0209  0.044075372  0.043051673            6 
 4482000    0.5312541   -3.9092382    2372.7748  0.044116742  0.043041434           15 
 4483000   0.52948871   -3.9002751    2375.4419  0.044156478  0.043031217           10 
 4484000   0.52624263   -3.8946889    2375.0779  0.044139867  0.043020985           10 
 4485000   0.53864402   -3.9140236    2377.9367  0.044183141   0.04301076            9 
 4486000   0.54760549   -3.9284945    2372.9756  0.044081134  0.043000509            9 
 4487000   0.52976621   -3.9252263    2376.5373  0.044137459  0.042990284            8 
 4488000    0.5184069   -3.8893794    2374.9458  0.044098073  0.042980096           13 
 4489000   0.53166002   -3.9176982    2374.4855  0.044079703  0.042969876            8 
 4490000   0.54228944   -3.9298536     2373.655  0.044054472  0.042959634           21 
 4491000   0.54016935   -3.9266631    2375.4031    0.0440771   0.04294935           15 
 4492000   0.53478266   -3.9157358    2374.4052  0.044048775  0.042939093           11 
 4493000   0.52429308   -3.9287724    2367.3349  0.043907837  0.042928826           13 
 4494000    0.5266248   -3.9299738    2373.4489   0.04401144  0.042918553            7 
 4495000   0.52901078   -3.9252083    2375.8948  0.044046994  0.042908303           28 
 4496000   0.53563779   -3.9234309    2370.8917  0.043944464  0.042898077            9 
 4497000   0.52187851   -3.9307962    2375.3256  0.044016855  0.042887785            9 
 4498000   0.52945421   -3.9211549    2380.0388  0.044094391  0.042877545           19 
 4499000   0.52404425   -3.9137919    2380.5053  0.044093229  0.042867324            8 
 4500000   0.52258137   -3.9238272    2376.0399  0.044000739  0.042857147           11 
 4501000    0.5305588   -3.9074989    2380.9698  0.044082237  0.042846891            9 
 4502000   0.52336971   -3.9226831    2374.9175  0.043960417  0.042836648           11 
 4503000    0.5241519   -3.9260768    2375.0593  0.043953277  0.042826402           18 
 4504000   0.53895712   -3.9126517    2379.2657  0.044021346  0.042816146           24 
 4505000    0.5313423   -3.9040416    2373.0629  0.043896835   0.04280594           13 
 4506000   0.52219614   -3.9157299    2376.5967  0.043952447  0.042795754           14 
 4507000   0.52547718   -3.9059815    2380.4094  0.044013191  0.042785568           17 
 4508000    0.5251117   -3.9281512    2378.0915   0.04396058  0.042775388           11 
 4509000   0.55146255   -3.9373677    2379.0546   0.04396863   0.04276521           11 
 4510000   0.51612786   -3.9340243    2371.3176  0.043815919  0.042754969            9 
 4511000   0.52567115   -3.9373014    2372.7782  0.043833189  0.042744725           14 
 4512000   0.52562753   -3.8978631    2376.1355  0.043885481  0.042734476           27 
 4513000   0.52913817   -3.9180862    2380.4439  0.043955313  0.042724237           16 
 4514000   0.52050816   -3.9136843    2374.6676  0.043838937   0.04271408           17 
 4515000   0.51711518   -3.9035598    2370.1647  0.043746118  0.042703864           19 
 4516000   0.52809554   -3.9358564    2377.4916  0.043871635  0.042693647           15 
 4517000    0.5333432   -3.9140984    2377.9748  0.043870835  0.042683423            7 
 4518000   0.52038001   -3.9321562    2372.4955  0.043760061   0.04267323           18 
 4519000   0.52430854   -3.9118299    2369.7255  0.043699297  0.042663007            9 
 4520000   0.52937032   -3.9254089    2379.3635  0.043867321  0.042652788            8 
 4521000   0.53450523   -3.9243184    2377.2694  0.043819019   0.04264256           26 
 4522000   0.52237185   -3.9277797    2368.7337  0.043652029  0.042632349            8 
 4523000   0.52649606   -3.9429651    2381.0382  0.043869079  0.042622103           45 
 4524000   0.52481461   -3.9498099    2372.0687  0.043694162   0.04261184           13 
 4525000   0.52153809   -3.9462525    2370.2162   0.04365039  0.042601616            8 
 4526000   0.53201774   -3.9472104    2371.8014  0.043669932  0.042591391           32 
 4527000   0.51473541   -3.9453517    2375.7427  0.043732837  0.042581187           13 
 4528000   0.53954147   -3.9572667    2374.0595  0.043692202  0.042570958           14 
 4529000   0.53067461    -3.937354    2373.3417  0.043669348  0.042560745           11 
 4530000   0.53480332   -3.9432408    2376.6713  0.043720959  0.042550533            9 
 4531000   0.53053067   -3.9154427    2374.2397  0.043666587  0.042540333            7 
 4532000   0.53125684   -3.9196421    2376.2465  0.043693853  0.042530122           12 
 4533000   0.52203953   -3.9052562    2374.3922  0.043650125  0.042519938           19 
 4534000   0.52234949   -3.9456843    2379.7194  0.043738409  0.042509724           14 
 4535000   0.51689986   -3.9218813     2373.725  0.043618615  0.042499517           26 
 4536000   0.51769704   -3.9421171    2370.8318  0.043555846  0.042489305           16 
 4537000   0.53296089   -3.9356802    2371.2272  0.043553509  0.042479078           32 
 4538000   0.52376919   -3.9384802    2377.5481  0.043659983  0.042468853           10 
 4539000   0.52074835   -3.9394819    2371.4484  0.043538379  0.042458632           21 
 4540000   0.54116109   -3.9215999    2374.7598   0.04358957  0.042448425            8 
 4541000    0.5325926   -3.9255818    2378.8906  0.043655777   0.04243823           36 
 4542000   0.53430887   -3.9331251    2368.9752  0.043464245  0.042428005           24 
 4543000   0.52146884   -3.9250614    2374.5121  0.043556242  0.042417768           11 
 4544000   0.51859111   -3.9483545    2372.3285  0.043506612  0.042407575           12 
 4545000   0.52379999   -3.9415487    2371.6205  0.043484057  0.042397356           28 
 4546000   0.51356878   -3.9373987     2376.983  0.043572792  0.042387143           20 
 4547000   0.51947556   -3.9351737     2381.638  0.043648522  0.042376941           22 
 4548000   0.53050115   -3.9371524    2378.9143  0.043589018  0.042366793           22 
 4549000   0.52668908   -3.9398243     2376.975   0.04354391   0.04235665            8 
 4550000   0.51150947   -3.9351748    2377.3834  0.043541821  0.042346451           17 
 4551000   0.52801982   -3.9442574    2376.9881  0.043525014  0.042336228           15 
 4552000   0.51910835   -3.9408016    2375.3752  0.043485926  0.042326052           14 
 4553000   0.52785454   -3.9516959    2377.4137  0.043513685  0.042315853           14 
 4554000   0.51829206   -3.9442774    2379.1791  0.043536435  0.042305655           15 
 4555000   0.52040033   -3.9333594    2375.4498   0.04345865  0.042295467           17 
 4556000   0.52257267    -3.943483    2376.3747  0.043466028  0.042285307           17 
 4557000   0.51498426   -3.9295275    2379.1674  0.043507559   0.04227515           10 
 4558000   0.50894673   -3.9314162    2375.3521  0.043428261  0.042265023            7 
 4559000   0.51347144   -3.9345697    2373.2357  0.043380049  0.042254906           23 
 4560000   0.52223671   -3.9490725     2374.472  0.043393128   0.04224476           31 
 4561000   0.51027465   -3.9605206    2377.1109  0.043431829  0.042234628           13 
 4562000   0.51582786   -3.9324182    2374.4031  0.043372846  0.042224463           13 
 4563000   0.52260812   -3.9352156    2376.9048  0.043409028  0.042214329           14 
 4564000   0.51449761    -3.933991     2378.654  0.043431457  0.042204239           12 
 4565000   0.51978792   -3.9346626    2377.9087  0.043408337   0.04219412           12 
 4566000   0.52323895   -3.9429007    2373.9035  0.043325731  0.042184003           15 
 4567000   0.52199874   -3.9357577    2375.9451  0.043353498  0.042173867           11 
 4568000   0.52280641   -3.9223972    2376.0459  0.043345845  0.042163768           16 
 4569000   0.51726653   -3.9394393    2377.4209  0.043361437  0.042153671           26 
 4570000   0.51301175   -3.9409181    2381.3919   0.04342436  0.042143581           13 
 4571000    0.5181087   -3.9481847    2375.8115  0.043313124  0.042133429           11 
 4572000   0.52640116   -3.9332727    2373.7842  0.043266699  0.042123317            8 
 4573000   0.52099243   -3.9506204    2379.3637  0.043358913  0.042113175            7 
 4574000   0.50918447   -3.9460206     2371.065   0.04319824  0.042103048            8 
 4575000   0.51339374   -3.9624513    2371.9766  0.043205402  0.042092888           12 
 4576000   0.51271243   -3.9312085    2375.8048  0.043265675  0.042082746           11 
 4577000   0.52285385   -3.9562954    2380.5955  0.043343447  0.042072659           10 
 4578000   0.52315411    -3.940833    2381.4927  0.043350311  0.042062597           18 
 4579000   0.51261095    -3.970745    2376.8278  0.043255948  0.042052484           40 
 4580000   0.50782397   -3.9309224    2377.8048  0.043264279  0.042042395           19 
 4581000   0.52077063   -3.9415128    2371.2066  0.043134806  0.042032303           31 
 4582000   0.52888658   -3.9668148    2378.0215  0.043249336  0.042022161            6 
 4583000   0.51719264   -3.9617681    2378.7261  0.043252711  0.042012024           11 
 4584000   0.51106774   -3.9546976    2375.0309    0.0431761  0.042001915           19 
 4585000   0.51524914    -3.949246    2375.7181  0.043179174  0.041991822           11 
 4586000   0.51748569    -3.949554    2373.5164  0.043129749  0.041981742           13 
 4587000   0.51535265   -3.9469213    2377.6632  0.043195683  0.041971707            7 
 4588000   0.52819185   -3.9647535    2380.5068  0.043237918  0.041961619           10 
 4589000   0.52249947   -3.9467017     2378.607  0.043193996  0.041951534           26 
 4590000   0.51659297   -3.9296228    2381.3869  0.043235057  0.041941471           26 
 4591000   0.51981015   -3.9343223      2381.77  0.043232592  0.041931398           10 
 4592000   0.51218217   -3.9596492      2375.17  0.043103405  0.041921318           31 
 4593000    0.5241692   -3.9511418     2373.241  0.043059021  0.041911247           10 
 4594000   0.51165013   -3.9409573    2383.6711  0.043238847  0.041901162            6 
 4595000   0.51562944   -3.9540874    2381.2303  0.043185171  0.041891118           10 
 4596000   0.49857525   -3.9495907    2374.0575  0.043045718  0.041881025            7 
 4597000   0.50759702   -3.9625212    2376.4563   0.04307984  0.041870951           14 
 4598000   0.50877103   -3.9527045    2378.4116  0.043105909  0.041860835           14 
 4599000   0.51281895   -3.9418828    2378.7703  0.043103036  0.041850745           20 
 4600000   0.51349682   -3.9527941    2376.8794  0.043059409  0.041840639           15 
 4601000   0.50930526   -3.9570275    2375.1054  0.043017921  0.041830509            4 
 4602000   0.52278847   -3.9781362    2374.7394  0.043001946   0.04182048           10 
 4603000   0.51591024    -3.948101    2377.5176    0.0430429  0.041810407            7 
 4604000   0.50805781   -3.9597679    2378.4687  0.043050765  0.041800346           10 
 4605000   0.51484339    -3.978585    2376.0176   0.04299706  0.041790248           24 
 4606000   0.52072534   -3.9609377    2373.7686  0.042947037  0.041780178            9 
 4607000   0.52042318   -3.9525178    2373.6508  0.042935583  0.041770094           18 
 4608000   0.50257323   -3.9600748     2372.994  0.042914388  0.041759977           17 
 4609000   0.51766653   -3.9823746    2375.2235  0.042945388  0.041749876           37 
 4610000   0.52068208   -3.9562932    2379.3066   0.04300988  0.041739798           21 
 4611000   0.50534233   -3.9552248    2380.9195  0.043029703  0.041729735           12 
 4612000   0.51712119   -3.9693586    2373.5789  0.042887736  0.041719646           11 
 4613000    0.5102929   -3.9609228    2370.3682  0.042820439  0.041709563           13 
 4614000   0.51382805   -3.9588137    2377.1886  0.042934341  0.041699476           21 
 4615000   0.49942481   -3.9549876    2373.6072  0.042860369  0.041689363           20 
 4616000   0.50649696   -3.9572101    2375.8241  0.042891106  0.041679242           10 
 4617000   0.51521531   -3.9633458    2375.9628  0.042884319  0.041669131            6 
 4618000   0.52196944   -3.9516405    2375.0947  0.042859367  0.041659015           16 
 4619000   0.50221138   -3.9606872    2378.8105  0.042917127  0.041648909           21 
 4620000   0.51174143   -3.9692667     2373.649  0.042814736  0.041638837           39 
 4621000   0.51343311   -3.9691452    2368.5754  0.042713976   0.04162875           10 
 4622000   0.51877779   -3.9610469    2369.1873  0.042715766  0.041618629            8 
 4623000   0.50744781   -3.9674806    2375.1718  0.042814403   0.04160851           25 
 4624000   0.50757275   -3.9855957    2378.4211  0.042863703  0.041598374           31 
 4625000    0.5163215    -3.971609    2379.3672  0.042871481  0.041588245           12 
 4626000   0.51749523   -3.9484007    2379.5396  0.042865319  0.041578182           14 
 4627000   0.50872448   -3.9431781      2378.38   0.04283517  0.041568105           21 
 4628000   0.51195859    -3.965563    2375.4402  0.042772979  0.041558024           16 
 4629000   0.51323203   -3.9659465     2376.272  0.042778714  0.041547964           16 
 4630000   0.52361557    -3.968471    2376.1697  0.042767632  0.041537892           14 
 4631000    0.5138285   -3.9587888    2374.9564  0.042736565  0.041527837           13 
 4632000   0.51762625   -3.9575543    2383.0971  0.042873797  0.041517825            7 
 4633000   0.51428529   -3.9567328    2376.2837   0.04274199  0.041507786           13 
 4634000   0.51932609   -3.9514128    2383.1899  0.042856962  0.041497777           19 
 4635000   0.50839152   -3.9609485     2379.424  0.042780008   0.04148779           18 
 4636000   0.51532376   -3.9746903    2386.6038  0.042899839  0.041477808           13 
 4637000   0.50423263   -3.9721484    2376.4624  0.042708331  0.041467826           12 
 4638000   0.50012232   -3.9549859    2375.9214  0.042689402  0.041457825            8 
 4639000   0.50936761   -3.9546226    2379.6805  0.042747728  0.041447816           15 
 4640000   0.51490734   -3.9593293    2374.8769  0.042652244  0.041437799           19 
 4641000   0.53162025   -3.9589901    2381.8873  0.042768931  0.041427787           11 
 4642000   0.49846394   -3.9762835    2375.0135  0.042636319  0.041417763           37 
 4643000   0.50154583   -3.9645715    2370.4786  0.042545743  0.041407682            6 
 4644000   0.51836168   -3.9645155    2376.5081  0.042644777  0.041397643           14 
 4645000   0.50135138   -3.9587086    2377.9543  0.042661542  0.041387598           36 
 4646000   0.50094961   -3.9599294    2378.7326   0.04266632  0.041377557           11 
 4647000    0.5102592   -3.9681553    2369.7837  0.042496659  0.041367515           23 
 4648000   0.51338524   -3.9803297    2375.3132  0.042586653  0.041357486           56 
 4649000   0.50979054   -3.9620119    2383.3873  0.042722221  0.041347484           22 
 4650000   0.51203676   -3.9637952    2380.2417  0.042656661  0.041337459           23 
 4651000    0.5067226    -3.962405    2379.7633  0.042638919  0.041327475            8 
 4652000   0.51120021   -3.9495333    2378.2931  0.042603416  0.041317491            6 
 4653000   0.51109699   -3.9489314    2378.7948  0.042603245  0.041307526           25 
 4654000   0.51080304   -3.9700326    2380.8162  0.042630287   0.04129755           11 
 4655000   0.51047199   -3.9640399    2376.5165  0.042544154   0.04128754           58 
 4656000   0.51333368   -3.9785052    2380.0618  0.042598472   0.04127756           34 
 4657000   0.49540502   -3.9795922    2375.3845  0.042505627  0.041267591           11 
 4658000   0.49600096   -3.9634753     2382.863  0.042630295  0.041257624           11 
 4659000   0.50553883   -3.9654558    2377.8434  0.042531361  0.041247692           15 
 4660000   0.51415079   -3.9788204    2374.2738  0.042458401  0.041237677           23 
 4661000   0.49007009   -3.9708434    2373.2966  0.042431821  0.041227649           31 
 4662000   0.49055821   -3.9794959    2379.4175   0.04253213  0.041217678           30 
 4663000   0.51074534   -3.9797903    2377.5801  0.042490173  0.041207669           34 
 4664000   0.50770227    -3.964168    2377.8785  0.042486394  0.041197687            8 
 4665000   0.49576927   -3.9809552    2374.7205  0.042420873  0.041187717           12 
 4666000   0.51601313   -3.9629903    2377.7182   0.04246532  0.041177756           20 
 4667000   0.50426811   -3.9710194    2381.9267  0.042531367  0.041167796            7 
 4668000   0.51428713   -3.9790097    2377.7508  0.042447708  0.041157836           28 
 4669000   0.50733211   -3.9557724    2376.4416  0.042415249  0.041147856           19 
 4670000   0.50580903   -3.9606686    2373.8515  0.042359948  0.041137918           22 
 4671000   0.51343597   -3.9697211    2385.0401   0.04255049  0.041127978           13 
 4672000   0.50411499   -3.9752493    2373.7687  0.042340337   0.04111803           17 
 4673000    0.4979703   -3.9859212    2371.2975  0.042287208  0.041108046           13 
 4674000   0.50614316   -3.9915195    2370.1468  0.042257646  0.041098067           17 
 4675000   0.51416014   -3.9711648     2380.344  0.042430374   0.04108812           36 
 4676000   0.49638012   -3.9912911    2377.0702  0.042362956  0.041078213           35 
 4677000   0.50075376   -3.9733267    2378.9751   0.04238784  0.041068269           60 
 4678000   0.51408276   -3.9625226    2385.0437  0.042486883   0.04105835           24 
 4679000   0.50560561   -3.9803945     2376.157  0.042319531   0.04104846           18 
 4680000   0.50398848   -3.9924387    2375.2191  0.042293787  0.041038537           30 
 4681000   0.50807255   -3.9697727    2380.8341  0.042384712  0.041028626           12 
 4682000   0.50179604   -3.9877423    2374.6069  0.042264825  0.041018676           17 
 4683000   0.49998031   -3.9938965    2379.9107   0.04235018  0.041008734           38 
 4684000   0.50818178   -3.9716459     2375.795  0.042267915  0.040998808           17 
 4685000   0.49644712   -3.9774191    2375.8304  0.042259523  0.040988902           20 
 4686000   0.49847591   -3.9898911     2376.458  0.042261667  0.040978973           21 
 4687000   0.50215195   -3.9786102     2376.407  0.042251743  0.040969034            9 
 4688000   0.50942151   -3.9907656    2376.9984  0.042253242  0.040959123           11 
 4689000   0.49146787   -3.9843863    2380.9936  0.042315235  0.040949176           37 
 4690000   0.49960797    -3.996502    2371.1085  0.042130571  0.040939218           44 
 4691000   0.51050781    -3.982816    2377.8269  0.042240939  0.040929261           43 
 4692000   0.49617201   -3.9693678    2382.4994  0.042314923  0.040919384           22 
 4693000   0.49077134    -3.981011    2379.0525    0.0422447   0.04090949           39 
 4694000    0.4968747   -3.9899094    2379.1592  0.042237593  0.040899562           26 
 4695000   0.50132511   -3.9806253    2379.7491  0.042239068  0.040889606           18 
 4696000   0.49502245   -3.9841731    2378.1431  0.042201575  0.040879694           17 
 4697000   0.48404928   -3.9831568    2377.0412   0.04217304  0.040869766           14 
 4698000   0.50389078   -3.9900422     2374.589  0.042120566  0.040859833           28 
 4699000   0.49102883   -3.9771085    2378.0966  0.042173806  0.040849874           15 
 4700000     0.502324    -3.982579    2378.4142  0.042170465  0.040839946            9 
 4701000   0.49713426   -3.9770666    2381.0991  0.042209088  0.040830032            8 
 4702000   0.49708883   -3.9839093     2380.878  0.042196193  0.040820148           49 
 4703000   0.50916358   -3.9790151    2378.1834  0.042139476   0.04081031           28 
 4704000    0.5002551   -3.9765593    2375.1675  0.042077089  0.040800449           20 
 4705000   0.50243968   -3.9693456    2374.0602  0.042048533   0.04079053           14 
 4706000   0.48942114    -3.969399    2380.7556   0.04215816   0.04078062           21 
 4707000   0.50641051   -3.9986106    2380.0429  0.042136585  0.040770727           36 
 4708000   0.49246358   -4.0045681    2379.0324  0.042109749  0.040760773           49 
 4709000   0.49694046   -4.0108798    2374.4836  0.042020308  0.040750811           38 
 4710000   0.49596198   -3.9859633    2373.9046  0.042001143  0.040740878           24 
 4711000    0.4967915   -3.9952526    2377.7106  0.042059553  0.040730955           14 
 4712000   0.48958132   -4.0077332    2378.9524  0.042072587  0.040721067           20 
 4713000   0.50058382   -3.9929611    2374.8768  0.041991598  0.040711151           29 
 4714000   0.49502117   -3.9902833    2379.2131  0.042059346  0.040701235           16 
 4715000   0.49144165   -3.9792099     2377.456  0.042019371  0.040691315           13 
 4716000   0.48981921   -3.9871801     2373.401  0.041938808  0.040681386           18 
 4717000   0.49648936    -3.988188     2376.887  0.041991502  0.040671444           24 
 4718000   0.50486103   -3.9761562    2377.5055  0.041993526   0.04066157            9 
 4719000   0.50062707   -4.0068722     2374.371  0.041929276  0.040651677            9 
 4720000   0.48987317   -4.0015895    2375.4867   0.04194009  0.040641748           10 
 4721000   0.50451008   -3.9812289    2373.6218  0.041898288  0.040631821           17 
 4722000   0.50414197   -3.9886601    2381.0381  0.042020296  0.040621948            9 
 4723000   0.49236565   -3.9786518    2379.1728  0.041978488  0.040612075           13 
 4724000   0.50377724   -3.9988003    2381.2519  0.042006278  0.040602178           21 
 4725000   0.49494647   -3.9955573    2378.5326  0.041949428  0.040592273           20 
 4726000   0.50244239   -3.9834227    2380.3761  0.041973059  0.040582378           26 
 4727000   0.49709099   -3.9977734    2378.5841  0.041932588  0.040572482           24 
 4728000   0.50045167   -3.9746609     2381.922  0.041982551  0.040562601           15 
 4729000   0.50022467   -3.9839551     2375.706  0.041864137  0.040552741           69 
 4730000   0.50053884   -4.0111754    2373.6476  0.041819021  0.040542849           54 
 4731000   0.49458867   -4.0010041    2374.2738   0.04182121  0.040532939           14 
 4732000   0.49660776   -4.0116763    2370.7889  0.041751002  0.040523029           70 
 4733000   0.49270524   -4.0043225    2374.4277  0.041806249  0.040513145           14 
 4734000   0.49488411   -4.0105221     2374.567   0.04179987   0.04050326           19 
 4735000   0.49483593   -3.9986851    2375.3286  0.041804446  0.040493375           15 
 4736000   0.49343255   -4.0119042    2374.1268  0.041774472  0.040483487           11 
 4737000   0.50257379    -4.004205    2376.8868  0.041814207  0.040473593           18 
 4738000   0.48840214   -4.0028593    2374.2446  0.041758911  0.040463695           36 
 4739000    0.4913776   -4.0105439    2378.9146  0.041832219    0.0404538           13 
 4740000   0.48595188   -4.0029586    2378.8741  0.041822681  0.040443946            6 
 4741000   0.50129017   -4.0018949     2380.364  0.041840048  0.040434101           20 
 4742000   0.48833031   -4.0073632    2384.0325  0.041895693  0.040424222           17 
 4743000   0.48371324   -4.0031996    2376.7689  0.041759239  0.040414404           16 
 4744000   0.49105215   -3.9924119    2382.4385   0.04185003  0.040404569           23 
 4745000   0.48168864   -3.9969245    2380.4018  0.041805441  0.040394749           31 
 4746000   0.49396322   -3.9810694    2377.4638  0.041745045  0.040384895           24 
 4747000   0.49764798   -3.9927753    2376.5038  0.041719398  0.040375029           40 
 4748000   0.48895797    -3.997129    2374.9248  0.041682898  0.040365205           22 
 4749000   0.50016806   -3.9908286    2379.5527  0.041755329  0.040355389           29 
 4750000   0.49468803   -4.0123824    2378.6118  0.041730032   0.04034558           64 
 4751000     0.490738   -3.9920505    2377.2288  0.041696989  0.040335767           24 
 4752000   0.49264984    -4.017545    2378.5552  0.041711476  0.040325954           16 
 4753000   0.48470177   -4.0211643    2376.9883  0.041675229  0.040316113           28 
 4754000   0.49784487   -3.9962532    2378.9626   0.04170107  0.040306258           22 
 4755000   0.48539317   -4.0021803     2376.511  0.041649334  0.040296459           15 
 4756000   0.48617696   -4.0076773    2379.8468  0.041699025  0.040286641           14 
 4757000   0.48176641   -4.0193796    2382.0915  0.041729583  0.040276839           11 
 4758000    0.4954549   -4.0032655    2380.1809   0.04168735  0.040267049           10 
 4759000    0.4964073   -3.9976884    2371.8164  0.041532122  0.040257237           14 
 4760000   0.48915392   -4.0048293    2374.1887  0.041564928  0.040247435           16 
 4761000   0.49507426   -3.9984724    2379.4742  0.041648712  0.040237687           21 
 4762000   0.48872486    -3.998904    2378.7403  0.041627122  0.040227901           22 
 4763000   0.49542541   -4.0221599    2372.5022  0.041509241   0.04021812           18 
 4764000   0.48672191    -4.012564    2378.5078   0.04160558  0.040208327           20 
 4765000   0.49327544   -4.0208341    2377.3564  0.041576712  0.040198526           35 
 4766000   0.48951105   -3.9915822    2380.2891  0.041619266   0.04018872           11 
 4767000   0.49014956   -4.0151753     2382.978  0.041657542  0.040178942           13 
 4768000   0.49046579   -4.0145457    2378.8233  0.041576189   0.04016916           14 
 4769000   0.48450398   -4.0155841    2379.8708  0.041585776  0.040159398           16 
 4770000   0.47789477   -3.9921026      2375.99  0.041509259  0.040149636           14 
 4771000   0.48199439   -4.0149188    2380.6052  0.041581171  0.040139881           42 
 4772000   0.49279501   -4.0117093    2382.4388  0.041604478  0.040130114           10 
 4773000   0.49091511   -4.0268338    2379.3005  0.041540969  0.040120297           53 
 4774000   0.48810288   -4.0091049    2375.2344   0.04146129  0.040110536           37 
 4775000   0.49041941   -3.9897015    2380.3874  0.041542537  0.040100771           22 
 4776000   0.48326242   -4.0144387    2380.3223  0.041532704  0.040091016           54 
 4777000   0.48650888   -4.0061144    2381.6672  0.041547471  0.040081283           38 
 4778000   0.49105466   -4.0002157    2378.5297  0.041484054  0.040071573           35 
 4779000   0.48014244   -4.0020685    2383.3214  0.041558928  0.040061849           50 
 4780000   0.48056335    -3.998545    2382.7012  0.041539421  0.040052111           15 
 4781000   0.48355287   -4.0105138    2381.3027  0.041506356  0.040042366           23 
 4782000   0.48706151   -4.0268202    2379.4604  0.041465572  0.040032614           16 
 4783000   0.47817378   -4.0139422    2374.1377  0.041364167   0.04002283           14 
 4784000   0.49212853   -4.0119977    2379.9305  0.041456427  0.040013053           22 
 4785000   0.48382005   -4.0044966    2383.7838   0.04151487  0.040003294           37 
 4786000    0.4850581   -4.0153247    2380.4928  0.041448893  0.039993552           26 
 4787000   0.49216559   -4.0145855    2380.4796  0.041440004  0.039983785           13 
 4788000   0.47647262   -4.0173511    2378.8593  0.041403149  0.039974031            9 
 4789000   0.49662442   -4.0079633    2385.4372  0.041508966    0.0399643           21 
 4790000   0.48056772   -4.0169906    2378.9532  0.041387495  0.039954568           13 
 4791000   0.49022801   -4.0120492    2377.7387  0.041357732  0.039944813           13 
 4792000   0.47687145   -4.0180173    2377.5713   0.04134619  0.039935046           19 
 4793000   0.47875742   -4.0213056    2378.7527  0.041358104  0.039925264           12 
 4794000   0.48239411   -4.0166199    2380.6261  0.041382042  0.039915474           28 
 4795000   0.49840795   -4.0184477    2373.7629  0.041254134  0.039905702           14 
 4796000   0.48158499   -4.0309819    2375.0401  0.041267724  0.039895936           15 
 4797000   0.48775573   -4.0235997    2381.9641  0.041379406  0.039886168           18 
 4798000   0.48056563   -4.0071154    2380.4608  0.041344672  0.039876431           16 
 4799000   0.47827093   -4.0287455    2378.6392  0.041304425  0.039866696           47 
 4800000   0.48477285   -4.0149625    2381.2855  0.041341762  0.039856967           33 
 4801000   0.47811485   -4.0283673    2380.0289   0.04131134  0.039847243           21 
 4802000   0.47249927   -3.9971976    2382.1282  0.041339167  0.039837566           21 
 4803000   0.48382204   -4.0153173    2378.3516  0.041265036  0.039827868           39 
 4804000   0.48441273   -4.0215522    2383.8642  0.041352071  0.039818195           27 
 4805000   0.48090183   -4.0231081    2379.6747  0.041270806  0.039808509           27 
 4806000   0.48228474   -4.0145899    2379.8291  0.041264897  0.039798792           12 
 4807000   0.47981353   -4.0076934    2380.8943  0.041274778  0.039789102           23 
 4808000    0.4847966   -4.0177436    2380.1981  0.041254127  0.039779441           13 
 4809000   0.49384528   -4.0169689    2378.0092  0.041207617  0.039769759            8 
 4810000   0.48364401   -4.0074385    2384.4764  0.041311095  0.039760108            8 
 4811000   0.48357394   -4.0016173    2380.1783  0.041228059   0.03975048           19 
 4812000   0.48545775   -4.0058283    2379.3291  0.041204785    0.0397408           18 
 4813000   0.48447287   -4.0089316    2383.6113  0.041270367  0.039731143           27 
 4814000   0.47812858   -4.0228244    2388.3685  0.041344144  0.039721516           21 
 4815000    0.4916449   -4.0246076    2382.7071  0.041237576   0.03971188           22 
 4816000   0.48309989   -4.0274366    2378.7943  0.041161307  0.039702219           59 
 4817000   0.46958351   -4.0178843    2379.2392  0.041160459  0.039692535           29 
 4818000   0.47519737    -4.025804    2384.4171  0.041241475  0.039682876           20 
 4819000   0.47995262   -4.0164717    2385.4527  0.041250825  0.039673253           34 
 4820000   0.48431597   -4.0032139    2382.2627  0.041187114  0.039663603           39 
 4821000   0.46736507    -4.025577    2376.2492  0.041074625  0.039653956           39 
 4822000   0.46883726   -4.0245972    2384.3039  0.041205308  0.039644298           11 
 4823000   0.47957768   -4.0284632    2379.4287  0.041112528  0.039634627           21 
 4824000   0.47600615   -4.0136864     2381.159  0.041133896  0.039624973           15 
 4825000   0.47974952   -4.0306704    2383.1508  0.041159771  0.039615317           19 
 4826000   0.47906667   -4.0055575    2379.9916  0.041096692  0.039605672           18 
 4827000   0.47235111   -4.0214722    2379.2979  0.041076202  0.039596041           15 
 4828000   0.47254552   -4.0230921    2378.8161  0.041059378  0.039586424           14 
 4829000   0.47478338   -4.0433067    2376.4104  0.041009361  0.039576769           28 
 4830000   0.48151866   -4.0376864      2379.88  0.041060732   0.03956712           19 
 4831000     0.475686   -4.0488201    2380.1321   0.04105658  0.039557475           18 
 4832000   0.47651327   -4.0263949    2387.0202  0.041166877  0.039547882           42 
 4833000   0.48045536   -4.0341226    2385.2893  0.041128514  0.039538287           20 
 4834000   0.48535175   -4.0143578    2383.8138   0.04109457   0.03952869           33 
 4835000    0.4721657   -4.0195064    2383.4449  0.041079713  0.039519075           24 
 4836000   0.47540526   -4.0405145    2379.7453  0.041007466  0.039509433           18 
 4837000   0.47833586   -4.0314578    2379.8035  0.040999991  0.039499778           46 
 4838000   0.47807791   -4.0190246    2378.9736  0.040977222  0.039490162           30 
 4839000   0.48094944   -4.0260325    2386.0071  0.041089879  0.039480577           13 
 4840000   0.47062572   -4.0377266    2380.5207  0.040986926  0.039470992            7 
 4841000   0.47977984   -4.0335203    2385.4282  0.041062939   0.03946136           15 
 4842000   0.48149909   -4.0200466    2380.0762  0.040962347  0.039451768           21 
 4843000   0.47909863   -4.0276307    2382.7463  0.040999833  0.039442179           13 
 4844000    0.4784777   -4.0332323    2384.7203  0.041025329  0.039432596           15 
 4845000     0.471867   -4.0309049    2383.7558  0.041000272   0.03942299           35 
 4846000   0.47978216   -4.0373565    2379.9805  0.040926889  0.039413364           43 
 4847000   0.47582025   -4.0169255     2377.657  0.040878498  0.039403752           15 
 4848000   0.47763421   -4.0354156    2379.9916  0.040910196  0.039394161           23 
 4849000   0.47686814   -4.0249075     2385.402  0.040994741  0.039384557           16 
 4850000   0.46598427   -4.0307002    2377.7722  0.040855192  0.039374975           10 
 4851000   0.46732984   -4.0349403    2375.3936  0.040805909  0.039365331           25 
 4852000   0.47393955    -4.022081    2376.8486  0.040822489  0.039355673           22 
 4853000   0.47096632   -4.0208185    2381.2636  0.040889889  0.039346026           23 
 4854000   0.47741122   -4.0409026    2383.2111    0.0409149  0.039336438           36 
 4855000   0.46675905   -4.0350105    2383.8859  0.040918056  0.039326863           33 
 4856000   0.47144387   -4.0253903     2381.321  0.040865613   0.03931725           52 
 4857000   0.47485368   -4.0267706     2378.812  0.040814152  0.039307663           51 
 4858000   0.47932872   -4.0460987     2379.985  0.040825872  0.039298051           58 
 4859000   0.48229819   -4.0421095    2379.1311  0.040802824  0.039288436           15 
 4860000   0.47551024   -4.0503842     2379.232   0.04079616  0.039278801           28 
 4861000   0.47546023   -4.0308649    2384.8375  0.040883863  0.039269179           21 
 4862000   0.46567921    -4.034702    2379.0602  0.040776433  0.039259551           23 
 4863000   0.48473979   -4.0211743    2379.0105  0.040767196  0.039249963           13 
 4864000   0.47176805   -4.0313529    2376.5699  0.040717001  0.039240381           24 
 4865000   0.47633705   -4.0334059    2381.7395  0.040797181  0.039230808           27 
 4866000   0.46916213   -4.0247981    2384.2252  0.040831368  0.039221232           28 
 4867000   0.47448937   -4.0281093    2381.2887  0.040772698  0.039211678           24 
 4868000   0.47476577   -4.0200817    2378.9385  0.040724091  0.039202098           25 
 4869000   0.46925271   -4.0265392    2381.6343  0.040761866   0.03919256            7 
 4870000   0.47703531   -4.0277081    2380.6088  0.040735947   0.03918302           18 
 4871000   0.47916848   -4.0384558    2384.2748  0.040790303  0.039173455           11 
 4872000   0.47535183   -4.0449812    2378.4565  0.040682411  0.039163881            8 
 4873000   0.46974815   -4.0368466    2378.9625  0.040682716  0.039154299            9 
 4874000   0.48498576   -4.0409375    2382.8476  0.040740795  0.039144715           21 
 4875000   0.47774992   -4.0297297    2379.7563  0.040679594   0.03913514           18 
 4876000   0.46417463   -4.0385369    2378.4108  0.040648256  0.039125576           11 
 4877000   0.47080036   -4.0312633    2380.1929  0.040670373  0.039116026           20 
 4878000   0.45981962   -4.0373534     2376.586  0.040600417  0.039106472           22 
 4879000   0.47359155   -4.0373829    2379.7185  0.040645599  0.039096903           24 
 4880000   0.47621667    -4.033077    2385.6134  0.040737934  0.039087357           28 
 4881000   0.47566542   -4.0193591    2381.6498  0.040661917  0.039077812           57 
 4882000   0.47161454   -4.0320122    2381.5088  0.040651181  0.039068274           13 
 4883000   0.47773497   -4.0365695    2380.0647  0.040618211  0.039058734           28 
 4884000   0.47071969   -4.0368951    2380.8429  0.040623172  0.039049143           36 
 4885000   0.46633417   -4.0391099    2380.5659  0.040610132  0.039039564           12 
 4886000   0.47012924   -4.0335568    2379.6163  0.040585624  0.039029992           18 
 4887000   0.47855828   -4.0477999    2381.6599  0.040612167  0.039020442           37 
 4888000   0.47505651   -4.0439511    2378.5776  0.040551309  0.039010887           20 
 4889000   0.47840409   -4.0472304    2377.0825   0.04051753  0.039001356           26 
 4890000   0.46953754   -4.0437382    2380.3578  0.040565061  0.038991825           22 
 4891000   0.47097211   -4.0572118    2382.9664  0.040601212  0.038982282           42 
 4892000   0.46933642   -4.0409781    2377.3867  0.040497865  0.038972711           16 
 4893000   0.47109612   -4.0478069    2379.3931  0.040523759  0.038963146           18 
 4894000   0.46239715   -4.0447371    2376.0999  0.040459404  0.038953589           28 
 4895000   0.46600425   -4.0385174    2379.5086  0.040509169  0.038944068           33 
 4896000   0.47640015   -4.0256822     2382.469  0.040551284  0.038934552           35 
 4897000   0.47170833   -4.0530707     2380.138  0.040503336  0.038925035           37 
 4898000    0.4780172   -4.0274537    2381.4809  0.040517914  0.038915494           85 
 4899000   0.46772471   -4.0257955    2385.4431  0.040577041  0.038905971           65 
 4900000   0.46604798   -4.0562057    2379.6242  0.040469799  0.038896424          195 
 4901000   0.47528854   -4.0550501    2385.5393  0.040562118  0.038886868          154 
 4902000   0.46525208    -4.057017    2379.4012  0.040449497  0.038877343           54 
 4903000   0.47868513   -4.0449695    2385.1009  0.040538121  0.038867835           43 
 4904000   0.46368421    -4.041884    2385.6687  0.040539504  0.038858333           73 
 4905000   0.45885541   -4.0572135    2382.8895  0.040484021  0.038848804          119 
 4906000    0.4636578   -4.0692363    2378.9067  0.040408118  0.038839251           66 
 4907000   0.46701189   -4.0688919    2375.6717  0.040344944  0.038829692           22 
 4908000   0.46046003   -4.0750127    2372.1553  0.040277019  0.038820116           34 
 4909000   0.45872074   -4.0516198    2386.1871  0.040507013  0.038810576           23 
 4910000   0.46529193   -4.0583564    2378.6117  0.040370193  0.038801064           28 
 4911000    0.4704218   -4.0322878    2382.1922  0.040422727  0.038791536           40 
 4912000   0.47221399   -4.0339775    2374.5137   0.04028423  0.038782037           18 
 4913000   0.47426141   -4.0587069    2379.0601  0.040353146  0.038772537           23 
 4914000   0.45681964    -4.052004    2377.1742  0.040312952  0.038763029           33 
 4915000   0.46623235   -4.0556832    2382.7496  0.040399281   0.03875353           22 
 4916000   0.46517138   -4.0502419    2377.5359  0.040302684  0.038744035           11 
 4917000   0.46473343   -4.0363952    2380.7791  0.040349453  0.038734523           19 
 4918000   0.47141648   -4.0379173    2386.6981  0.040441543  0.038725035           21 
 4919000   0.46605317   -4.0437908    2379.2975  0.040307948  0.038715597           23 
 4920000   0.47310262   -4.0326812    2373.5596  0.040202568  0.038706148           10 
 4921000   0.47143983   -4.0541588    2384.3904  0.040377809  0.038696709           22 
 4922000   0.45575307   -4.0471422    2380.8187  0.040309134  0.038687246           10 
 4923000   0.46071132   -4.0665121    2379.9012  0.040285415  0.038677771           29 
 4924000    0.4515634   -4.0585838     2379.683   0.04027354   0.03866828           17 
 4925000   0.46024263   -4.0580226    2375.7671  0.040199105  0.038658813           11 
 4926000   0.46240813   -4.0417639    2381.2444  0.040283605   0.03864934           22 
 4927000   0.45826434   -4.0601445      2380.79  0.040267742  0.038639876           25 
 4928000   0.47597324    -4.063362    2374.5251  0.040153631  0.038630375           29 
 4929000    0.4634339   -4.0710775    2373.2117   0.04012328  0.038620881           26 
 4930000   0.45825555   -4.0592289    2378.1652   0.04019887  0.038611363            9 
 4931000   0.46408607   -4.0545014    2377.1576  0.040173691  0.038601857           20 
 4932000   0.47589935   -4.0554358    2379.3831  0.040203148  0.038592383           23 
 4933000   0.45587177   -4.0460095    2374.9025  0.040119306  0.038582927           34 
 4934000   0.46394864    -4.054449    2377.3305  0.040152184  0.038573464           65 
 4935000   0.46499376   -4.0555405    2375.6378  0.040115465  0.038563998           22 
 4936000   0.46539085   -4.0453872    2382.0408  0.040215437  0.038554535           24 
 4937000   0.46626237   -4.0732776    2376.7231  0.040117533  0.038545066           39 
 4938000   0.45398992   -4.0531515    2383.4401  0.040222764  0.038535569           43 
 4939000   0.45350719   -4.0494896    2383.8463  0.040221474  0.038526118           26 
 4940000   0.45788171   -4.0492129    2381.3277  0.040170845  0.038516706           22 
 4941000   0.47043959   -4.0313752    2376.7717  0.040085875  0.038507278           34 
 4942000   0.46614838   -4.0408366     2384.007  0.040199767   0.03849783           30 
 4943000   0.45997982   -4.0474542    2379.2159  0.040110862  0.038488407           12 
 4944000   0.45521114   -4.0485828    2383.7482  0.040179144  0.038478957           10 
 4945000   0.45679308   -4.0758596    2376.3023  0.040045539  0.038469485           42 
 4946000   0.46628325   -4.0540388    2378.1856  0.040069174  0.038460006           15 
 4947000   0.45716128    -4.048179    2379.7614   0.04008762  0.038450545           21 
 4948000   0.45434431   -4.0574914    2379.5438  0.040075851  0.038441063           19 
 4949000   0.45980741    -4.045555    2374.6235  0.039984905  0.038431589           17 
 4950000   0.46813189    -4.076732    2368.7155  0.039877365  0.038422111           25 
 4951000   0.46528138   -4.0585079    2380.8412  0.040073407  0.038412626           15 
 4952000   0.46528925   -4.0327653    2381.0722  0.040069201  0.038403166           21 
 4953000   0.46381036   -4.0429288     2373.707  0.039937193  0.038393714           17 
 4954000   0.45730173   -4.0553492    2381.9174  0.040067242  0.038384274           18 
 4955000   0.46619958   -4.0570393    2378.2948   0.03999823  0.038374808           12 
 4956000   0.47116302   -4.0640906    2381.7499  0.040048256  0.038365382           17 
 4957000    0.4628852   -4.0625886    2374.9639  0.039926096  0.038355946           17 
 4958000   0.45748687   -4.0688424    2374.4107  0.039908746  0.038346489           20 
 4959000   0.45657952   -4.0644352    2379.3727  0.039984082  0.038337053            9 
 4960000   0.45958862   -4.0734578    2376.1185  0.039921346  0.038327592           21 
 4961000   0.46157029    -4.060123     2375.744  0.039907008  0.038318119           11 
 4962000   0.46369803   -4.0748836    2380.0511    0.0399713  0.038308635            9 
 4963000   0.45958105   -4.0715721    2378.1156  0.039930748  0.038299164           22 
 4964000   0.45171057   -4.0633231     2376.511  0.039895766  0.038289681           17 
 4965000   0.45729983   -4.0651898    2374.6278  0.039856123   0.03828019           44 
 4966000    0.4622795   -4.0707525    2376.7421  0.039883577  0.038270717           60 
 4967000   0.44882643   -4.0680039    2373.2544  0.039817032  0.038261252           87 
 4968000   0.45171867   -4.0717341    2374.0656  0.039822625  0.038251792          157 
 4969000   0.46055496   -4.0642385    2378.3374  0.039886251  0.038242341           48 
 4970000   0.45355749   -4.0555591    2376.3187  0.039844377  0.038232854           36 
 4971000   0.45856983   -4.0769842    2373.2936   0.03978565  0.038223386           20 
 4972000   0.46153312   -4.0696153    2380.0116  0.039890246  0.038213939           42 
 4973000    0.4444021   -4.0829234    2371.6338  0.039741835   0.03820449           77 
 4974000   0.45580987   -4.0705259    2377.8637  0.039838221  0.038195017           48 
 4975000   0.46201388   -4.0664409    2376.8621  0.039813435  0.038185546           34 
 4976000    0.4470027   -4.0618487    2379.2278  0.039845053  0.038176126           16 
 4977000   0.45900941   -4.0619452    2380.1112  0.039851838  0.038166709           18 
 4978000   0.44757174   -4.0740037    2380.0717  0.039843171  0.038157277           43 
 4979000    0.4512866   -4.0654299    2377.5805  0.039793474  0.038147854           28 
 4980000   0.46294054   -4.0667438    2379.0374  0.039809862   0.03813845           18 
 4981000   0.45298383   -4.0723846    2383.3253  0.039873608  0.038129042           10 
 4982000   0.44695047   -4.0748935    2373.7051  0.039704689  0.038119644           20 
 4983000   0.45909678   -4.0636112    2379.2711  0.039789804  0.038110229           18 
 4984000   0.45651472   -4.0599636     2376.669  0.039738312  0.038100863           22 
 4985000   0.44071461   -4.0568536    2379.7838   0.03978241  0.038091474           32 
 4986000    0.4521153   -4.0705384    2384.5232  0.039853643  0.038082084           26 
 4987000    0.4578168    -4.067734    2379.0011  0.039753377  0.038072727           15 
 4988000   0.44409536   -4.0661762    2379.4898  0.039753571  0.038063351           13 
 4989000   0.46290546   -4.0838418    2379.2155  0.039741023  0.038053946           29 
 4990000    0.4484892   -4.0674995    2374.0595  0.039646952  0.038044558           14 
 4991000   0.45550615   -4.0652608    2379.1433  0.039723891  0.038035162           22 
 4992000   0.45318429    -4.058687     2374.721   0.03964211  0.038025761           18 
 4993000   0.44899576   -4.0682699    2378.5564  0.039698185   0.03801636           12 
 4994000   0.45127362   -4.0664251    2381.3122   0.03973622  0.038006962           20 
 4995000   0.44557874   -4.0615221    2378.1348  0.039675256  0.037997548           30 
 4996000   0.44455013     -4.08517    2374.5285  0.039607161  0.037988174           33 
 4997000   0.44770637   -4.0641643    2374.6594  0.039601418  0.037978797           53 
 4998000   0.45035164   -4.0548669    2378.1161  0.039651129  0.037969449           45 
 4999000   0.44929985   -4.0679668    2381.8052  0.039704694  0.037960106           41 
 5000000   0.44552131   -4.0761299    2374.8257  0.039580429  0.037950728           32 
 5001000   0.45096878   -4.0634699    2379.3585  0.039648045  0.037941368           52 
 5002000   0.45759528   -4.0692657    2381.4829  0.039675511     0.037932           46 
 5003000   0.44360203   -4.0757311    2378.3742  0.039615801  0.037922603           22 
 5004000   0.44889057   -4.0670138    2379.7353  0.039630551   0.03791323           50 
 5005000   0.44321613   -4.0782919    2379.0813  0.039611743  0.037903848           41 
 5006000   0.44707655   -4.0695689    2384.4036  0.039692428  0.037894483           15 
 5007000   0.44741733   -4.0781778    2374.8044  0.039524738  0.037885103           20 
 5008000   0.46042638   -4.0845398    2377.8073  0.039566815  0.037875719           26 
 5009000   0.44991644   -4.0801677    2376.8823  0.039543527  0.037866352           24 
 5010000   0.45888442   -4.0781265    2375.6303  0.039514808  0.037856972           68 
 5011000   0.45344753   -4.0867357     2373.709  0.039474972  0.037847588           48 
 5012000   0.45295828   -4.0835657    2375.7391  0.039500849  0.037838193           46 
Loop time of 12200 on 48 procs for 5000000 steps with 4000 atoms

Performance: 70819.711 tau/day, 409.836 timesteps/s
99.4% CPU use with 48 MPI tasks x no OpenMP threads

MPI task timing breakdown:
Section |  min time  |  avg time  |  max time  |%varavg| %total
---------------------------------------------------------------
Pair    | 827.14     | 881.47     | 951.04     | 109.3 |  7.23
Neigh   | 82.108     | 85.233     | 88.388     |  19.1 |  0.70
Comm    | 777.82     | 849.38     | 903.51     | 118.0 |  6.96
Output  | 14.11      | 14.115     | 14.195     |   0.3 |  0.12
Modify  | 10248      | 10261      | 10292      |   8.3 | 84.11
Other   |            | 108.8      |            |       |  0.89

Nlocal:        83.3333 ave          91 max          77 min
Histogram: 2 5 7 4 8 11 2 7 1 1
Nghost:        2217.79 ave        2239 max        2196 min
Histogram: 4 4 4 5 6 6 6 4 4 5
Neighs:        14793.1 ave       16493 max       13396 min
Histogram: 3 5 5 7 10 6 3 5 3 1
FullNghs:      29585.9 ave       32065 max       27178 min
Histogram: 1 6 3 8 6 10 5 2 5 2

Total # of neighbors = 1420124
Ave neighs/atom = 355.03100
Neighbor list builds = 271026
Dangerous builds = 0

#clear
#
#next RN
#
#jump SELF
Total wall time: 3:23:23
