
units lj                  # Use reduced LJ style units
atom_style atomic         # Uncharged point particles
atom_modify map hash      # Needed for indexing of clusters etc
                          # Used to be able to find where atoms are in relation to each other.

lattice fcc 1.0 spacing 1 1 1
Lattice spacing in x,y,z = 1.5874011 1.5874011 1.5874011
region box block 0 10 0 10 0 10 units lattice
create_box 2 box
Created orthogonal box = (0.0000000 0.0000000 0.0000000) to (15.874011 15.874011 15.874011)
  3 by 4 by 4 MPI processor grid
create_atoms 1 box
Created 4000 atoms
  using lattice units in orthogonal box = (0.0000000 0.0000000 0.0000000) to (15.874011 15.874011 15.874011)
  create_atoms CPU = 0.003 seconds
set type 1 type/fraction 2 0.43 78393
Setting atom values ...
  1722 settings made for type/fraction
mass 1 1.0
mass 2 1.0
pair_style lj/cut  3.5
pair_modify tail  yes
pair_coeff 1  1  1.0  1.0   # Intearaction between 1 and 1 set with epsilon = 1 and sigma = 1
pair_coeff 1  2  1.5  0.8
pair_coeff 2  2  0.5  0.88

write_data data.0
System init for write_data ...
Neighbor list info ...
  update every 1 steps, delay 10 steps, check yes
  max neighbors/atom: 2000, page size: 100000
  master list distance cutoff = 3.8
  ghost atom cutoff = 3.8
  binsize = 1.9, bins = 9 9 9
  1 neighbor lists, perpetual/occasional/extra = 1 0 0
  (1) pair lj/cut, perpetual
      attributes: half, newton on
      pair build: half/bin/atomonly/newton
      stencil: half/bin/3d
      bin: standard
WARNING: Not all mixed pair coeffs generated from mixing. Use write_data with 'pair ij' option to store all pair coeffs. (../write_data.cpp:312)


#############################
#   M E L T   S Y S T E M   #
#############################

velocity all create 2.4 5300450 mom yes dist gaussian # Assign velocities
                                                    # Temperature 2.4, random number seed, zero linear momentum
                                                                                # Gaussian distribution

timestep 0.002   # simulation timestep
thermo 1000       # output thermodynamic data every 1000 steps bf 100

# Define a fix  in this case with index 1 applied to all
# particles in the simulation. This fix is for simulations
# in the anisotropic NPT ensemble. Note that we use the MTK
# correction.
fix 1 all npt temp 2.4 2.4 0.1 iso 5.68 5.68 0.5 mtk yes tchain 5 pchain 5 # Use NPT ensemble
                                                                         # Set temperature and pressure and damping
                                                                         # Numbers of thermostats in chain and in barostat
run 10000          # run for 10000 steps
Per MPI rank memory allocation (min/avg/max) = 3.642 | 3.644 | 3.648 Mbytes
Step Temp E_pair E_mol TotEng Press Volume 
       0          2.4   -5.6998203            0   -2.1007203   -4.1891945         4000 
    1000    2.3875357   -5.0249592            0    -1.444551    5.5462087    3833.3337 
    2000    2.4504577   -5.0463501            0   -1.3715824    5.7674821    3814.5058 
    3000    2.4119458   -5.0267793            0   -1.4097651    5.8158193    3816.6984 
    4000    2.3970548   -4.9682894            0   -1.3736061    5.9607281    3828.0648 
    5000    2.3659922   -4.9686359            0   -1.4205349    5.5695479    3848.7248 
    6000    2.4656373   -5.0517137            0   -1.3541823    5.8726857    3804.4981 
    7000    2.4025166   -5.0313755            0   -1.4285016     5.750087    3810.9596 
    8000    2.3844198   -5.0103389            0   -1.4346034    5.2340746    3874.6059 
    9000    2.3933264   -5.0636028            0   -1.4745107    5.7565971    3798.1186 
   10000    2.4586809    -5.004652            0   -1.3175526    6.2699535    3791.9924 
Loop time of 2.51032 on 48 procs for 10000 steps with 4000 atoms

Performance: 688357.573 tau/day, 3983.551 timesteps/s
99.6% CPU use with 48 MPI tasks x no OpenMP threads

MPI task timing breakdown:
Section |  min time  |  avg time  |  max time  |%varavg| %total
---------------------------------------------------------------
Pair    | 1.139      | 1.1965     | 1.3067     |   3.2 | 47.67
Neigh   | 0.21049    | 0.21708    | 0.23683    |   0.9 |  8.65
Comm    | 0.71622    | 0.84604    | 0.92422    |   4.4 | 33.70
Output  | 0.00023689 | 0.000242   | 0.00031177 |   0.0 |  0.01
Modify  | 0.20058    | 0.23526    | 0.26897    |   3.6 |  9.37
Other   |            | 0.01516    |            |       |  0.60

Nlocal:        83.3333 ave          90 max          75 min
Histogram: 1 0 4 5 8 7 13 2 4 4
Nghost:        1704.23 ave        1730 max        1674 min
Histogram: 1 0 4 4 10 11 6 9 2 1
Neighs:        10059.9 ave       11347 max        8695 min
Histogram: 1 2 2 6 14 8 6 5 2 2

Total # of neighbors = 482874
Ave neighs/atom = 120.71850
Neighbor list builds = 904
Dangerous builds = 174

# Equilibrate just above the melting temperature to avoid step fn in T

fix 1 all npt temp 1.25 1.25 0.1 iso 5.68 5.68 0.5 mtk yes tchain 5 pchain 5
run 2000
Per MPI rank memory allocation (min/avg/max) = 3.643 | 3.645 | 3.649 Mbytes
Step Temp E_pair E_mol TotEng Press Volume 
   10000    2.4586809    -5.004652            0   -1.3175526    6.2699535    3791.9924 
   11000    1.2559617    -7.067588            0   -5.1841164    5.6910956    3018.1315 
   12000    1.2125557    -7.121266            0   -5.3028873    5.7267913    2999.8147 
Loop time of 0.599834 on 48 procs for 2000 steps with 4000 atoms

Performance: 576159.062 tau/day, 3334.254 timesteps/s
99.7% CPU use with 48 MPI tasks x no OpenMP threads

MPI task timing breakdown:
Section |  min time  |  avg time  |  max time  |%varavg| %total
---------------------------------------------------------------
Pair    | 0.27139    | 0.29518    | 0.31904    |   2.1 | 49.21
Neigh   | 0.039667   | 0.041589   | 0.045051   |   0.6 |  6.93
Comm    | 0.19261    | 0.21692    | 0.24414    |   2.7 | 36.16
Output  | 4.8237e-05 | 4.9495e-05 | 6.4978e-05 |   0.0 |  0.01
Modify  | 0.038429   | 0.041527   | 0.044267   |   0.9 |  6.92
Other   |            | 0.004576   |            |       |  0.76

Nlocal:        83.3333 ave          93 max          74 min
Histogram: 1 0 2 13 11 10 5 3 2 1
Nghost:        1990.92 ave        2015 max        1978 min
Histogram: 5 8 13 5 5 5 3 2 1 1
Neighs:        12720.9 ave       14420 max       11533 min
Histogram: 5 5 7 8 5 8 4 3 0 3

Total # of neighbors = 610602
Ave neighs/atom = 152.65050
Neighbor list builds = 143
Dangerous builds = 12

#############################
# L I N E A R  Q U E N C H  #
#############################

# Define solid atoms. This closely follows ten Wolde  Ruiz-Montero and Frenkel  Faraday Discuss  1996  104  93-110
# Compute components of the per-atom q6 vector
compute q6 all orientorder/atom degrees 1 6 components 6 nnn NULL cutoff 1.3 # compute the Q6 parameter.
                                                                             # Use all neighbours within 1.3 unit cell.

# get number of connections
compute coord_number all coord/atom orientorder q6 0.5

# An atom is solid if it has 8 or more connections (of a possible 14)
variable is_solid atom c_coord_number>=8
group solid dynamic all var is_solid    # Must be dynamic to update
dynamic group solid defined

# do clustering
compute cluster solid cluster/atom 1.3 # Create a cluster where all atoms within are solid and max 1.3 units from another member

# define chunks one chunk per cluster
compute clus_chunks solid chunk/atom c_cluster nchunk every compress yes  # Says which atoms are in which chunk

# count the size of each chunk
compute size_chunks solid property/chunk clus_chunks count


# Find the maximum entry in the vector of chunk sizes
variable max_n equal max(c_size_chunks)


# Thermo style which includes this variable
# thermo_style custom step temp pe vol v_max_n

thermo ${N}  # Print the thermo information every 100 steps
thermo 1000  

# Reset the npt fix at a lower temperature (below freezing)
fix 1  all npt temp  ${temp} ${temp}  0.1  iso  5.68  5.68  0.5  mtk yes tchain  5  pchain  5
fix 1  all npt temp  0.45 ${temp}  0.1  iso  5.68  5.68  0.5  mtk yes tchain  5  pchain  5
fix 1  all npt temp  0.45 0.45  0.1  iso  5.68  5.68  0.5  mtk yes tchain  5  pchain  5

dump dmp2 all dcd ${N} traj.dcd
dump dmp2 all dcd 1000 traj.dcd


compute msd all msd com yes
variable twopoint equal c_msd[4]/6/(step*dt+1.0e-6)
fix 9 all vector 10 c_msd[4]
variable fit equal slope(f_9)/6/(10*dt)
thermo_style custom step temp pe c_msd[4] v_twopoint v_fit v_max_n

fix 1 all npt temp 1.25 ${temp} 0.1 iso 5.68 5.68 0.5 mtk yes tchain 5 pchain 5
fix 1 all npt temp 1.25 0.45 0.1 iso 5.68 5.68 0.5 mtk yes tchain 5 pchain 5
run 5000000 # 5000000  # Run for this many steps
Neighbor list info ...
  update every 1 steps, delay 10 steps, check yes
  max neighbors/atom: 2000, page size: 100000
  master list distance cutoff = 3.8
  ghost atom cutoff = 3.8
  binsize = 1.9, bins = 8 8 8
  4 neighbor lists, perpetual/occasional/extra = 1 3 0
  (1) pair lj/cut, perpetual
      attributes: half, newton on
      pair build: half/bin/atomonly/newton
      stencil: half/bin/3d
      bin: standard
  (2) compute orientorder/atom, occasional
      attributes: full, newton on
      pair build: full/bin/atomonly
      stencil: full/bin/3d
      bin: standard
  (3) compute coord/atom, occasional
      attributes: full, newton on
      pair build: full/bin/atomonly
      stencil: full/bin/3d
      bin: standard
  (4) compute cluster/atom, occasional
      attributes: full, newton on
      pair build: full/bin/atomonly
      stencil: full/bin/3d
      bin: standard
Per MPI rank memory allocation (min/avg/max) = 9.830 | 9.835 | 9.839 Mbytes
Step Temp PotEng c_msd[4] v_twopoint v_fit v_max_n 
   12000    1.2125557    -7.121266 3.1546548e-30 2.1907324e-32 8.3333333e+20            2 
   13000    1.2579368   -7.1480984   0.47292944 0.0030315989  0.038214166            3 
   14000    1.2700753   -7.1105081   0.93247885 0.0055504692  0.038063493            2 
   15000    1.2437414   -7.1044542    1.3079398  0.007266332   0.03653887            2 
   16000    1.2378132   -7.1028001     1.707224 0.0088917916  0.035104056            3 
   17000    1.2473494   -7.1555564    2.1474049  0.010526494  0.034809681            1 
   18000    1.2381795   -7.1385012    2.5259259  0.011694101  0.034514066            2 
   19000    1.2491181   -7.1585918    2.9360898  0.012877586  0.034226355            2 
   20000    1.2564659   -7.1736663    3.3452893  0.013938705  0.034170486            2 
   21000    1.2675858   -7.1437886    3.8409228  0.015241757   0.03435578            1 
   22000    1.2216428   -7.1193703    4.3131935  0.016337854  0.034799276            1 
   23000    1.2550157   -7.1427731    4.7478519  0.017202362  0.035189722            3 
   24000    1.2919266   -7.0736063    5.1669147  0.017940676  0.035473506            1 
   25000    1.2311081   -7.1802844    5.4841222  0.018280407  0.035478166            1 
   26000    1.2458386   -7.1311666    5.8843263   0.01886002  0.035270789            3 
   27000    1.2382204   -7.1243682    6.2736752  0.019363195  0.035128043            1 
   28000    1.2227814    -7.137746    6.7531315  0.020098605  0.035028266            1 
   29000    1.2591423   -7.1619587    7.1938585  0.020672007  0.035040826            1 
   30000    1.2464467   -7.1132877    7.5604336  0.021001204  0.035041002            1 
   31000    1.2634672   -7.1650531    7.8922708  0.021215781  0.034890066            1 
   32000    1.2334635   -7.1341449    8.3077833  0.021634852   0.03475524       -1e+20 
   33000    1.2430036   -7.1596157    8.7238988  0.022030047  0.034679984            2 
   34000    1.2477043   -7.1381424    9.1221771  0.022358277  0.034577562            2 
   35000    1.2741128   -7.1283954    9.4893561  0.022593705   0.03447648            3 
   36000    1.2279004    -7.143756    9.9129418  0.022946624  0.034384463            2 
   37000    1.2497252   -7.1218828    10.198206  0.022968932  0.034296801            1 
   38000    1.2364115   -7.1109631    10.544801  0.023124564  0.034148493            1 
   39000    1.2337131   -7.1370805    10.975231  0.023451349  0.033993825            1 
   40000    1.2581812   -7.1400088    11.460495   0.02387603  0.033879427            2 
   41000    1.2435236    -7.139277    11.937937  0.024264099  0.033835515            3 
   42000    1.2622471   -7.1826327    12.257269  0.024319978  0.033804797            2 
   43000    1.2454307   -7.1605762    12.697942  0.024608415  0.033776874            1 
   44000    1.2331549   -7.0863792    13.075825   0.02476482  0.033738729            3 
   45000    1.2382906   -7.1643991    13.399034  0.024813026  0.033692452            1 
   46000    1.2148626    -7.166063    13.895474   0.02517296   0.03366914            2 
   47000    1.2371803   -7.1310818    14.330729  0.025409094  0.033660864            2 
   48000    1.2581881   -7.1406571    14.653793  0.025440613   0.03364371            4 
   49000    1.2240261   -7.1318678    15.067288   0.02562464  0.033616035            2 
   50000    1.2769166   -7.2067942     15.37432  0.025623867  0.033590642            2 
   51000    1.2421252   -7.1589189    15.880009  0.025947727  0.033573329            1 
   52000    1.2400009   -7.1509181    16.285104  0.026097922  0.033577366            1 
   53000    1.2783208    -7.157696    16.847812  0.026490271  0.033591972            1 
   54000    1.2603823   -7.1303461    17.271323  0.026653276  0.033635424            1 
   55000    1.2398652   -7.1007783    17.734023  0.026869731  0.033679292            1 
   56000    1.2436168   -7.0924673     18.09854  0.026932351    0.0337116            2 
   57000    1.2118711   -7.1318745    18.536001  0.027099416  0.033743141            1 
   58000     1.244543   -7.1161328    19.049627  0.027370153  0.033782431            1 
   59000    1.2314873   -7.1671681    19.514506  0.027562861  0.033830496            2 
   60000     1.258114   -7.1444715    19.982876  0.027753994  0.033888133            1 
   61000    1.2529056   -7.1659856    20.463962  0.027956232     0.033962            4 
   62000    1.2380639   -7.1334147    20.916243   0.02811323   0.03403624            1 
   63000    1.2523407   -7.1578719    21.275678  0.028142431  0.034103126            1 
   64000    1.2321344   -7.1292597    21.726154  0.028289263  0.034169651            2 
   65000    1.2191786   -7.1545747    22.193359  0.028453024  0.034226058            2 
   66000    1.2467757   -7.1443742    22.434646  0.028326573  0.034273917            2 
   67000    1.2509887   -7.2052208    22.619766  0.028134037  0.034290122            1 
   68000     1.232045   -7.1936811    23.031344  0.028224686   0.03428517            5 
   69000    1.2611276   -7.1739541    23.369514  0.028224051  0.034285009            2 
   70000    1.2269263   -7.1337425    23.893709  0.028444891  0.034281475            3 
   71000    1.2424173   -7.1597342     24.29008  0.028509483  0.034272003            3 
   72000     1.212572   -7.1584405    24.695001  0.028582177  0.034266958            1 
   73000    1.2332585   -7.1450206    25.223915  0.028794424  0.034265658            1 
   74000    1.2300748   -7.1318122    25.677556  0.028916167  0.034275531            1 
   75000    1.2049519   -7.1769514    26.079601  0.028977335  0.034286715            1 
   76000    1.2590466    -7.170656    26.490499    0.0290466  0.034306096            1 
   77000    1.2156223   -7.1652227    27.134785  0.029366651  0.034333546            2 
   78000    1.2768315   -7.1901191    27.393473  0.029266531  0.034367622            1 
   79000    1.2638023   -7.1207239     27.91426  0.029445421  0.034392908            2 
   80000    1.2421887   -7.1231679    28.221585  0.029397484  0.034406875            1 
   81000    1.2528468   -7.1660688    28.673566  0.029499553  0.034416515            1 
   82000     1.266474    -7.170245    29.104412  0.029577654  0.034437104            1 
   83000    1.2357533   -7.1227743    29.526086  0.029644665  0.034459168            1 
   84000    1.2514296   -7.1652779    30.025059  0.029786765  0.034477357            1 
   85000    1.2331301   -7.1596938    30.522809  0.029924322  0.034499104            1 
   86000    1.2299747   -7.1691137    30.799847  0.029844813  0.034523376            2 
   87000    1.2371306   -7.1469984    31.315778  0.029995956  0.034546491            1 
   88000    1.2183676    -7.133925    31.759059  0.030074866  0.034567368            2 
   89000     1.237589   -7.1166484    32.165657  0.030117656  0.034581394            1 
   90000    1.2387381   -7.1793847    32.340435  0.029944847  0.034589576            2 
   91000    1.2509756   -7.1461118    32.889997  0.030119045  0.034599435            1 
   92000    1.2373177   -7.1824135    33.258164  0.030125148  0.034606003            2 
   93000    1.2346865   -7.2061038    33.665952  0.030166623  0.034611948            1 
   94000    1.2268526   -7.1610943    34.085715  0.030217832  0.034614144            3 
   95000    1.2353158   -7.1862181    34.280383  0.030070511  0.034609111            1 
   96000    1.2392097   -7.1941628    34.747944  0.030163146   0.03460026            2 
   97000    1.2562052   -7.1523955    35.294157  0.030321441  0.034598048            1 
   98000    1.2162954   -7.1309251    35.574836  0.030250711  0.034592773            2 
   99000    1.2681437   -7.1765593    35.861395  0.030186359   0.03458567            2 
  100000    1.2430484   -7.1744524    35.992163  0.029993469  0.034562086            2 
  101000    1.2412975   -7.1341571    36.517838  0.030130229  0.034538495            4 
  102000    1.2504933   -7.1984301    36.983908  0.030215611  0.034518951            2 
  103000    1.2424339   -7.1519476    37.537129  0.030369845  0.034507422            2 
  104000    1.2469905   -7.1339299    37.928315  0.030391278  0.034494467            2 
  105000     1.227261   -7.1546173    38.318883  0.030411812  0.034483556            2 
  106000    1.2349947   -7.1109146    39.026457  0.030681177  0.034479406            2 
  107000    1.2420487   -7.1524856     39.23743  0.030558746  0.034484594            1 
  108000    1.2457043   -7.2000838    39.704151  0.030635919  0.034487747            2 
  109000    1.2483331   -7.1697821    39.982095  0.030567351   0.03448731            1 
  110000    1.2169554   -7.1490054     40.44202  0.030637894  0.034487544            1 
  111000    1.2416005   -7.1903477    40.759907  0.030600531  0.034479318            2 
  112000    1.2198076   -7.1521933    41.269226  0.030706269   0.03447356            1 
  113000    1.2129302   -7.1583114    41.628009  0.030699121  0.034466406            2 
  114000    1.2430068    -7.174634    41.904851  0.030632201  0.034457261            2 
  115000    1.2234812     -7.14544    42.595523  0.030866321  0.034450958            6 
  116000    1.2012763   -7.1420626    43.113344   0.03097223  0.034450794            2 
  117000    1.2170923   -7.1451683    43.544848  0.031014849  0.034456199            1 
  118000    1.2152312   -7.1562321    43.885025  0.030992249   0.03445337            1 
  119000    1.2111585   -7.1819561    44.141984  0.030911754   0.03445112            2 
  120000    1.2504123   -7.1593817    44.801063  0.031111849   0.03445032            1 
  121000    1.2478749   -7.1820008    45.063864  0.031035719  0.034451805            1 
  122000    1.2486637   -7.1617752    45.519621  0.031092637  0.034449799            1 
  123000    1.2163426   -7.1769917     45.68723  0.030953408  0.034440188            4 
  124000    1.2283005   -7.1537969    45.953912  0.030883005  0.034427282            2 
  125000    1.2334686   -7.1941241    46.098193  0.030732128  0.034408946            2 
  126000    1.2303856   -7.2034177    46.421969   0.03070236  0.034384424            2 
  127000    1.2328014   -7.2175903    46.910638  0.030781259  0.034361262            1 
  128000    1.2477716   -7.1938087     47.18948  0.030722317  0.034340545            1 
  129000    1.2291568   -7.2029587    47.659037  0.030787491  0.034316747            4 
  130000    1.2346251     -7.18097    48.041419  0.030795781  0.034292085            1 
  131000     1.203261   -7.2051775    48.197053  0.030659703  0.034265987            2 
  132000     1.229762   -7.1585841    48.726871  0.030761914  0.034244202            1 
  133000    1.2411194   -7.1306201    49.318466  0.030901294  0.034221072            2 
  134000    1.2001526    -7.194437    49.611698  0.030853046  0.034195239            2 
  135000     1.242815   -7.1444157    50.205339   0.03099095  0.034176182            2 
  136000    1.2642417   -7.1433881    50.698624  0.031065333  0.034159896            2 
  137000    1.2055627   -7.1865862     50.71839  0.030850602  0.034145947            2 
  138000    1.2481212    -7.181716    51.409458  0.031044358  0.034132467            6 
  139000    1.2138972   -7.1833454    51.834757  0.031075993  0.034121316            1 
  140000    1.2244185   -7.1491793    52.288902  0.031124347  0.034113287            1 
  141000    1.2109151   -7.1400714    52.995901  0.031321454  0.034109286            2 
  142000    1.2269024   -7.2147708     53.18103  0.031209525  0.034104639            3 
  143000    1.2113106   -7.1664718    53.835006  0.031372381  0.034102758            1 
  144000    1.2302476   -7.1674875    54.195711  0.031363258  0.034100591            2 
  145000    1.2328661   -7.1497788     54.55547  0.031353719  0.034095807            1 
  146000    1.2224105   -7.1794229    55.096207  0.031447607  0.034092392            1 
  147000     1.219958   -7.2117499    55.002087  0.031180321  0.034089165            2 
  148000    1.2300368   -7.1676696     55.54505  0.031275366  0.034080295            1 
  149000    1.2063241    -7.213474    55.723751  0.031165409  0.034069558            4 
  150000    1.2685396   -7.1863499    55.999204  0.031110669  0.034055872            1 
  151000    1.2443406   -7.2382488    56.170626  0.030999242  0.034037957            2 
  152000    1.2453807   -7.2129485     56.38297  0.030911716  0.034015061            2 
  153000    1.2482214    -7.158791    56.712651  0.030889243  0.033992111            3 
  154000    1.2506061   -7.2065721    57.011784  0.030850532  0.033968343            6 
  155000    1.2282794    -7.202377    57.400032  0.030860232  0.033940455            1 
  156000    1.2288676    -7.199462    57.700502  0.030822918  0.033914101            2 
  157000    1.2193704    -7.160501    58.433279  0.031015541   0.03389028            2 
  158000    1.2311254     -7.18424     58.36879  0.030785226   0.03386616            1 
  159000    1.2167434   -7.1573388    58.903713  0.030871967  0.033839592            3 
  160000    1.2329936   -7.1919808    59.196063  0.030831283  0.033816223            2 
  161000    1.2196495   -7.1882098    59.930469  0.031019911  0.033796128            1 
  162000    1.2177898   -7.1722839    60.220904  0.030977831  0.033776921            2 
  163000    1.1903207   -7.1942192    60.965323  0.031168366   0.03376021            2 
  164000    1.2265817   -7.1135948    61.791514  0.031398127   0.03374799            2 
  165000    1.2385171   -7.1617149     61.65475  0.031138762  0.033736747            1 
  166000    1.2165354   -7.1813124    62.079664   0.03116449  0.033724702            1 
  167000    1.2367347   -7.1860258    62.652363  0.031263654  0.033714007            2 
  168000    1.2263393   -7.2119674    62.918184  0.031209416  0.033706752            5 
  169000    1.2260287   -7.1812949    63.539634   0.03133118   0.03369627            1 
  170000    1.2366557   -7.1617308    64.110652   0.03142679  0.033687804            2 
  171000    1.2487195   -7.2022924    64.135132  0.031254938  0.033680378            2 
  172000     1.217679   -7.1960093    64.675715  0.031335133  0.033670038            3 
  173000    1.2251938   -7.1778867    65.404817   0.03150521  0.033663931            2 
  174000    1.2165043   -7.1710089    66.045411  0.031630944  0.033662207            2 
  175000    1.2065589   -7.2286303    66.294907  0.031569003  0.033659391            2 
  176000    1.2252162   -7.1671107     66.95596  0.031702633  0.033657786            2 
  177000    1.2145512   -7.2144536    66.710193  0.031407812  0.033655343            2 
  178000     1.252583   -7.1879867    67.295743  0.031505497  0.033653222            4 
  179000    1.2213139   -7.2115677    67.678107  0.031507499  0.033648361            2 
  180000    1.2320609   -7.2261079    68.117486  0.031535873  0.033642696            3 
  181000    1.2261942   -7.2112699    68.037165  0.031324662  0.033637502            1 
  182000    1.2170828   -7.2242206     68.66495  0.031439995  0.033629018            5 
  183000    1.2234688   -7.2226174    68.885316  0.031368541  0.033621505            1 
  184000    1.2537853   -7.2273408    69.668861  0.031552926  0.033614877            2 
  185000     1.233268   -7.2158288    69.982928  0.031523841  0.033608915            2 
  186000     1.195943   -7.1748191    70.435961   0.03155733  0.033602527            3 
  187000    1.2351258   -7.2563798    70.458405  0.031398576  0.033595931            3 
  188000    1.2434036   -7.2608415    70.822689  0.031393036  0.033590817            2 
  189000    1.2383214   -7.2247387    71.633928  0.031584624  0.033587284            1 
  190000    1.2145109   -7.1691632    72.244588  0.031686223  0.033585472            2 
  191000    1.2204209   -7.1648636    72.582328  0.031667682  0.033581641            3 
  192000    1.2074107    -7.226296    72.504789  0.031469092  0.033575169            1 
  193000     1.224711   -7.2054247    72.942371  0.031494979  0.033569936            3 
  194000    1.2084395   -7.1929775    73.371082  0.031516788  0.033562692            1 
  195000     1.234432   -7.1928194    73.444627  0.031386593  0.033553508            3 
  196000    1.2172119   -7.1605792    73.980962  0.031454491  0.033543735            3 
  197000    1.2322214   -7.2023186    74.186927  0.031381949  0.033532523            3 
  198000    1.2298413   -7.2042909    74.417747    0.0313206  0.033520272            1 
  199000    1.2470359   -7.1653328    74.626281  0.031250537   0.03350905            2 
  200000    1.2153773   -7.2177353    75.161391  0.031317246  0.033497369            2 
  201000    1.2463054   -7.2249166    75.453573  0.031282576     0.033484            2 
  202000     1.190412   -7.2125214    75.829959  0.031282986  0.033470291            1 
  203000    1.2217609   -7.1883747    76.156197  0.031262807  0.033456699            1 
  204000    1.1991471   -7.1434503     77.03114  0.031466969  0.033442688            1 
  205000    1.2307675   -7.2117035     76.90139  0.031260728  0.033428241            2 
  206000    1.2261077   -7.2427393    77.392734   0.03130774  0.033412727            3 
  207000    1.2140079   -7.2224751    77.850987  0.031340977  0.033397457            2 
  208000    1.2505665   -7.2526545    77.606446  0.031092326  0.033380835            1 
  209000    1.2363222   -7.2167085    78.201874   0.03118097    0.0333636            1 
  210000    1.2612719   -7.1640145    78.892036  0.031306363  0.033346228            2 
  211000    1.2538976   -7.2732112    78.730764  0.031094298  0.033328888            2 
  212000    1.2159984   -7.1653839    79.273802  0.031161085  0.033307963            2 
  213000    1.2088031   -7.2054488    79.334017  0.031038348  0.033286978            1 
  214000    1.2343548   -7.2125586    79.708573  0.031039164  0.033264761            2 
  215000    1.2453066   -7.1998477     79.88723  0.030964043  0.033243874            2 
  216000    1.2059684   -7.2198103    80.374975  0.031008864  0.033222428            1 
  217000    1.1918113   -7.1972868    80.537133  0.030928238  0.033200875            1 
  218000    1.2288662   -7.2002427    81.048714  0.030981924  0.033178324            2 
  219000    1.2144415   -7.2077787     81.83307  0.031138915   0.03315966            1 
  220000    1.2337744   -7.2108539    81.855158  0.031005742  0.033141302            1 
  221000    1.2130235   -7.2144511    82.117122  0.030964224  0.033121955            1 
  222000    1.2329505   -7.2172081    82.332926  0.030905753  0.033101563            1 
  223000    1.2430042   -7.1807533    83.154481  0.031074171  0.033082244            1 
  224000    1.1948837   -7.1841486    83.386331  0.031021701  0.033063078            1 
  225000    1.2256119   -7.2755755    83.489655  0.030922095  0.033043112            1 
  226000    1.1890548   -7.2439295    83.830024  0.030910776  0.033022758            5 
  227000    1.1983496   -7.1945876    84.383381  0.030977746  0.033002346            1 
  228000    1.2300418   -7.1695435     85.18917  0.031136392  0.032984828            2 
  229000    1.2118973   -7.2021299    85.302198  0.031041557  0.032969306            1 
  230000    1.2135301   -7.1866459    86.026904  0.031169168  0.032953404            2 
  231000    1.2041121   -7.1804145    86.097649  0.031059758  0.032936715            1 
  232000    1.2171008   -7.2405385    86.289613  0.030994832   0.03292053            4 
  233000    1.2277593   -7.1753698    87.223102  0.031195673  0.032904537            1 
  234000    1.2041376    -7.207231    87.110498  0.031022257  0.032888623            1 
  235000     1.229922   -7.2382522    87.397386  0.030991981  0.032873681            2 
  236000    1.2389453    -7.222206    88.244152  0.031159658  0.032857133            2 
  237000    1.2176404   -7.2363966    88.069897  0.030966912  0.032841923            3 
  238000    1.1874938   -7.2151744    88.758281  0.031077829  0.032828338            2 
  239000    1.2099773   -7.2289581    88.882726  0.030991187  0.032815029            3 
  240000    1.2156466   -7.1943313    89.731817  0.031156881  0.032801568            1 
  241000    1.2448248   -7.2367019     90.10674  0.031157241  0.032787868            2 
  242000    1.2467677   -7.2661988    90.524604  0.031172384  0.032774945            2 
  243000    1.2203798     -7.19015    91.100086  0.031241456  0.032763799            1 
  244000    1.2224601   -7.1798849    91.343107  0.031196416  0.032755007            2 
  245000    1.1945728   -7.2001188    91.845203  0.031239865  0.032746164            1 
  246000    1.2100302   -7.2160096    92.142439  0.031213563  0.032736531            2 
  247000    1.2139814   -7.2231892    92.777393  0.031301415  0.032729411            2 
  248000    1.2159077   -7.2029177    93.030134  0.031260126  0.032722211            1 
  249000    1.1841735   -7.1906945    93.774359  0.031383654  0.032715405            2 
  250000    1.2027329   -7.2373217     93.45351   0.03115117  0.032706429            1 
  251000    1.2118196   -7.2414689    93.618434  0.031081817  0.032695954            1 
  252000    1.2051096   -7.2400304    94.423711  0.031224772  0.032686135            5 
  253000    1.2084014   -7.2237336    94.716049  0.031197645  0.032677735            1 
  254000    1.2308391   -7.2060053    94.879783  0.031128538   0.03266845            2 
  255000    1.2041553    -7.174702    95.759944  0.031294099  0.032661092            2 
  256000    1.2140975   -7.2618317    95.386339   0.03105024  0.032653794            3 
  257000    1.2135985   -7.2489891    96.482401  0.031284825  0.032645058            1 
  258000    1.2205345   -7.2082022    96.856794  0.031284494  0.032638232            3 
  259000    1.2029291   -7.2123605    97.505496  0.031372425  0.032632145            1 
  260000     1.193409   -7.2314657    97.406798  0.031220128  0.032625481            1 
  261000    1.1705025    -7.225723    97.562083   0.03115009   0.03261731            3 
  262000    1.2032473   -7.1655595     98.19993  0.031234074  0.032607256            1 
  263000    1.1940349   -7.1938458    98.497629  0.031209642  0.032597195            2 
  264000    1.2253273   -7.2087265    98.663884  0.031143903  0.032586727            2 
  265000     1.201843   -7.2032258     98.94227  0.031113921  0.032576662            2 
  266000    1.2077609   -7.2152227    99.771659  0.031256785  0.032567991            2 
  267000    1.1985115   -7.2104837    99.609923  0.031089239  0.032558728            1 
  268000    1.2086667   -7.2588298    100.35335  0.031204399  0.032549977            7 
  269000    1.2072421   -7.2406783    100.51921  0.031139779  0.032542265            2 
  270000    1.2229239   -7.2277845    101.24015  0.031246961  0.032535839            1 
  271000     1.223206   -7.2149578    101.34272  0.031163198  0.032529294            2 
  272000    1.2158582   -7.1935255    101.96165  0.031238251  0.032521939            1 
  273000    1.1890485   -7.1691157    102.82516  0.031387412  0.032515462            1 
  274000    1.2154227   -7.2747266    102.38819  0.031139959  0.032506833            1 
  275000    1.2017984   -7.2691263    102.15801  0.030956972  0.032496544            2 
  276000    1.1938665   -7.2596856    102.70707  0.031010587  0.032486179            4 
  277000    1.2262162    -7.241545    103.25132  0.031062371  0.032476688            2 
  278000    1.1825075   -7.2173662    103.97718   0.03116822   0.03246697            2 
  279000    1.2211593   -7.2086545    104.04484  0.031076713  0.032457839            1 
  280000    1.2155221   -7.2482085    104.28587  0.031037462  0.032449375            1 
  281000    1.2192795   -7.2489232    105.05116  0.031153961  0.032441083            2 
  282000    1.1941105   -7.2240691    105.37341  0.031138714  0.032433985            1 
  283000    1.2381824   -7.2237751    105.81241  0.031157953  0.032425346            2 
  284000    1.2398587   -7.2178233    106.09032  0.031129789  0.032417325            2 
  285000    1.1964566   -7.1845866    106.62969  0.031178273  0.032408904            3 
  286000    1.2166155   -7.1940217    107.09474   0.03120476  0.032401217            2 
  287000    1.1788081   -7.2484695     107.1265  0.031105256  0.032393133            1 
  288000    1.2379935   -7.1813085    107.61827  0.031139547  0.032385459            1 
  289000    1.1799433   -7.2257166    108.06462  0.031160503  0.032377488            1 
  290000    1.1874959   -7.2148336    108.70358  0.031236661  0.032370003            1 
  291000    1.2236478   -7.2451379    108.91378  0.031189513  0.032362878            2 
  292000    1.2323695   -7.2097979     109.2938  0.031191154  0.032354785            1 
  293000    1.1893718   -7.2328487    109.66067  0.031189041  0.032347384            6 
  294000    1.2086434   -7.2190436    109.66202  0.031083339  0.032340788            1 
  295000    1.2168722   -7.2355549    109.89178  0.031042876  0.032332226            1 
  296000     1.228334   -7.2484541    110.32348  0.031059537   0.03232403            1 
  297000    1.2150155   -7.2572015    110.39028  0.030973705  0.032314687            1 
  298000    1.2124296   -7.2527885    110.86901  0.031003639  0.032304782            1 
  299000    1.1829637   -7.2455538    111.38705  0.031044327  0.032293804            2 
  300000    1.2084698    -7.220357    111.68938  0.031024828  0.032284041            2 
  301000    1.1975127    -7.217157    111.90839  0.030982388  0.032273785            2 
  302000    1.2115691   -7.2626404    112.34429  0.031000079  0.032264637            1 
  303000     1.205645   -7.2071991     112.7723  0.031015483  0.032255533            2 
  304000    1.2102707   -7.2112971    113.32172  0.031064068  0.032245668            1 
  305000    1.1984957   -7.2796275    113.16338  0.030918955  0.032235933            3 
  306000    1.2072151    -7.270555    113.60214  0.030937402  0.032225165            1 
  307000    1.2279206   -7.1991894    114.23952  0.031009642  0.032214477            2 
  308000    1.1923879   -7.1933699    114.40532   0.03095382  0.032204151            2 
  309000    1.2267681   -7.2570122    114.53218   0.03088786  0.032194285            1 
  310000    1.1935931   -7.2016417    115.16198  0.030957521   0.03218445            2 
  311000    1.2277157   -7.2752301    115.52427  0.030955056  0.032175412            2 
  312000     1.225622   -7.2429337    115.61919  0.030881193   0.03216734            2 
  313000    1.1864745   -7.2407167    116.33141  0.030972154  0.032158367            8 
  314000    1.2144885   -7.2428231    116.38696  0.030888258  0.032148875            2 
  315000     1.210802   -7.2560597    116.87095  0.030918241  0.032139085            1 
  316000    1.1958012   -7.2522167    117.17037  0.030899359  0.032129985            2 
  317000    1.1894642   -7.2633221    117.80057  0.030967553  0.032121744            4 
  318000    1.2173641   -7.2345639    117.99418  0.030920907  0.032112996            1 
  319000    1.1894775   -7.2210336    118.82597  0.031041266  0.032103969            2 
  320000    1.2000392   -7.2838811    119.15286  0.031029389  0.032095965            1 
  321000    1.1899854   -7.2907256    119.05019  0.030906073  0.032087946            2 
  322000    1.1839566   -7.2415373    119.71352  0.030981759  0.032079606            1 
  323000     1.202054   -7.2141467    119.97299  0.030952785  0.032070723            1 
  324000    1.1946388   -7.2688341    119.86888  0.030830473  0.032060299            1 
  325000    1.1920233   -7.2661296    120.17272  0.030813519  0.032050287            2 
  326000    1.1921397   -7.2016287    120.87967   0.03089971  0.032041388            1 
  327000    1.2159632   -7.2870465    120.67723  0.030753626  0.032031885            2 
  328000    1.2115606   -7.2509684    121.75582  0.030933898  0.032022073            3 
  329000     1.195108   -7.2587853    121.62066  0.030805638  0.032013056            2 
  330000    1.1916689   -7.2689026    122.02103  0.030813391  0.032005076            2 
  331000    1.2006338   -7.2516691    122.94866  0.030953843  0.031996626            2 
  332000    1.1914061   -7.2366992    122.81937  0.030828156  0.031988265            1 
  333000     1.226734   -7.2686062    123.29943  0.030855712  0.031979749            1 
  334000    1.1751093   -7.2456374    123.82531   0.03089454  0.031971113            1 
  335000    1.1939129   -7.2260859    124.25945  0.030910311  0.031962698            2 
  336000     1.194312   -7.2982273    124.31968  0.030833254  0.031953717            5 
  337000    1.1873962   -7.2048996    124.89391  0.030883757  0.031944137            1 
  338000    1.2411425   -7.2641736    124.51548  0.030699083  0.031933753            1 
  339000    1.2180116   -7.2339417    125.26066  0.030791707  0.031923283            2 
  340000    1.1770002   -7.2577761    125.70818  0.030810829  0.031912506            1 
  341000    1.1813785    -7.204325    125.99687  0.030791023  0.031900694            1 
  342000    1.2027825   -7.2631781    125.76262  0.030643912  0.031890142            1 
  343000    1.1797149   -7.2949234    126.16503   0.03065234  0.031878432            1 
  344000    1.1584853    -7.283606    126.17272  0.030565096    0.0318662            3 
  345000    1.1709965    -7.276923    126.46084  0.030546097  0.031854106            7 
  346000    1.2211593   -7.2533303    127.09476   0.03061049  0.031841491            2 
  347000    1.2084875   -7.2477793    127.50378  0.030620504   0.03182921            2 
  348000    1.2101575   -7.2405094    128.03355  0.030659376  0.031816951            1 
  349000    1.1891001   -7.2306956    128.08481  0.030583765  0.031806243            2 
  350000    1.1968812   -7.2296094    128.69288  0.030641162   0.03179575            3 
  351000    1.2165766   -7.2381365    129.24855   0.03068579  0.031784259            1 
  352000    1.1967745   -7.2069203    129.34934  0.030622476  0.031772705            2 
  353000    1.2209402   -7.2530493    129.35924  0.030538064  0.031760692            2 
  354000    1.2131246   -7.2570015     129.9554  0.030592136  0.031749613            2 
  355000    1.1787399   -7.2290969     130.6014  0.030657604  0.031738386            1 
  356000    1.2001704   -7.2481439     130.7583  0.030608215  0.031727146            1 
  357000     1.185943   -7.2519317    130.94254  0.030565485  0.031715659            1 
  358000    1.2030448   -7.2939726     130.5239  0.030382657  0.031703966            5 
  359000    1.2044215   -7.2785764    131.60061  0.030547961  0.031692309            3 
  360000    1.2098397   -7.2803935    131.44862  0.030427922  0.031679914            2 
  361000    1.1661292   -7.2792972    132.02318  0.030476265  0.031667927            1 
  362000    1.1850695   -7.2995134    132.71735  0.030551877  0.031656391            2 
  363000     1.213186   -7.3253698    132.79385  0.030485273  0.031644883            1 
  364000    1.1932987   -7.2655876    133.36366  0.030531973  0.031633861            2 
  365000     1.224357   -7.2294289    134.23721  0.030647764  0.031623641            2 
  366000    1.1702263   -7.2282156    134.50442  0.030624869  0.031614528            1 
  367000     1.199439    -7.270167    134.44363  0.030527618  0.031605442            2 
  368000    1.1861341   -7.2855399    135.23347  0.030623522  0.031596475            4 
  369000    1.1701909   -7.3193551    135.36094  0.030569318  0.031586857            1 
  370000    1.1898111   -7.2900501    135.53989  0.030527002  0.031578012            1 
  371000    1.1835444   -7.2996227    136.66323  0.030697041  0.031569876            2 
  372000    1.1934758   -7.2944575    136.75184  0.030634372  0.031561239       -1e+20 
  373000    1.2056279   -7.3092355    137.00445  0.030608679  0.031553379            1 
  374000    1.2016566   -7.2871639     137.6134  0.030662522  0.031545845            1 
  375000    1.2158774   -7.2401272    138.28903  0.030730896  0.031537867            2 
  376000    1.1666857   -7.2545264    138.79067  0.030760344   0.03153083            3 
  377000      1.19535   -7.3144927    138.31196  0.030572936  0.031522325            3 
  378000    1.1801281   -7.3017112    139.03075  0.030650518  0.031514028            1 
  379000    1.2231387   -7.2567291    139.99084  0.030780748  0.031506897            2 
  380000    1.1915306   -7.2937218    139.96999  0.030695174  0.031500563            1 
  381000     1.189149   -7.2428916    140.30912  0.030688784  0.031493826            1 
  382000    1.1981728   -7.2756584    140.53389  0.030657479  0.031487525            2 
  383000    1.1937902    -7.302848    141.39146  0.030764026  0.031481176       -1e+20 
  384000    1.2251894   -7.2751376    141.32484  0.030669453  0.031474312            1 
  385000    1.1948257   -7.2677641    141.51436  0.030630814  0.031467016            5 
  386000    1.2058111   -7.3168087    141.84389  0.030622602  0.031459838            2 
  387000    1.1904119   -7.3056138    142.24663  0.030630196  0.031452995            3 
  388000    1.1743937   -7.2506682    142.89634  0.030690795  0.031446432            2 
  389000    1.1684677   -7.2501045    142.79839  0.030590915  0.031439673            1 
  390000    1.1617517       -7.303    143.63033  0.030690241  0.031432634            2 
  391000    1.2045321   -7.2818891    143.89385  0.030667914  0.031425496            2 
  392000    1.1728466   -7.2769253    143.88698  0.030588218  0.031418592            1 
  393000    1.1775022   -7.2632578    144.38934  0.030616909  0.031411933            2 
  394000    1.1901247   -7.3130161    144.72857  0.030610949  0.031405192            3 
  395000    1.1847155   -7.2632296    145.30535  0.030655138  0.031399225            2 
  396000    1.1986447   -7.2543216    145.58716  0.030637029  0.031393043            3 
  397000    1.1781111    -7.288396    145.38155  0.030516698  0.031385443            1 
  398000    1.1862758   -7.2842494    145.90965  0.030550597  0.031378613            1 
  399000    1.1969356   -7.2877255    146.34227  0.030564383  0.031371703            1 
  400000     1.208468   -7.2864476    146.66755  0.030555739  0.031364096            1 
  401000    1.1837154   -7.3000331    146.52439  0.030449789  0.031356426            1 
  402000    1.1949457   -7.3272775    146.50764  0.030370572  0.031347844            2 
  403000    1.1653557   -7.2503611    148.16575  0.030638078  0.031339851            1 
  404000    1.1909376   -7.2039325      148.298  0.030589521  0.031331907            3 
  405000    1.1861544   -7.3061295    147.86304  0.030424493  0.031323495            2 
  406000    1.1673034   -7.2783928    148.72377  0.030526225  0.031314951            2 
  407000    1.1808255   -7.2880141    148.70979   0.03044836  0.031306612            2 
  408000    1.1676288    -7.258714    148.88627  0.030409778     0.031298            2 
  409000      1.17063   -7.2660687    148.59782  0.030276654  0.031288214            2 
  410000    1.1737744   -7.3200835    148.77258  0.030238329   0.03127832            2 
  411000    1.1740892   -7.2889627    149.45004  0.030302117  0.031268229            1 
  412000    1.1660302   -7.2688714    150.52087   0.03044516  0.031259335            1 
  413000    1.2008155    -7.300096    150.30197  0.030327273  0.031249546            2 
  414000    1.1604833   -7.3183091    150.54325  0.030302587  0.031239566            4 
  415000    1.2126749   -7.3043554    150.37324   0.03019543   0.03122816            1 
  416000    1.1832864   -7.3006121    150.30321  0.030108817  0.031216825            2 
  417000    1.1681495   -7.3110007    151.00035  0.030175928  0.031206344            3 
  418000    1.1660618    -7.297424    151.09518  0.030122644  0.031195475            1 
  419000    1.2007861   -7.3290787    151.95922  0.030222597  0.031184466            4 
  420000    1.1856154    -7.260111     152.5915  0.030276091  0.031174429            1 
  421000    1.1601175   -7.2631135    153.38846  0.030361928  0.031165558            2 
  422000    1.1722209    -7.273931     153.5125  0.030314474  0.031157311            2 
  423000    1.2174052    -7.260426    154.07679  0.030353978  0.031148824            1 
  424000    1.1860492   -7.2441669    154.59361  0.030383963  0.031140162            1 
  425000    1.1992757   -7.2651487    155.12122  0.030415925   0.03113212            6 
  426000    1.1926728   -7.2761296    155.23616  0.030367011  0.031123969            1 
  427000    1.1483995   -7.2947671    155.41717  0.030331219  0.031115745            4 
  428000    1.2023869   -7.2977954    155.69671   0.03031478  0.031107171            2 
  429000    1.1575287   -7.2632958    155.70591  0.030245904  0.031099431            1 
  430000    1.1882832   -7.2709737    156.56796  0.030342628  0.031090611            1 
  431000    1.2038019   -7.2555912     157.2387  0.030401914  0.031082321            2 
  432000    1.1809221    -7.277841    157.63861  0.030408683  0.031074315            3 
  433000    1.1743833   -7.3193802    157.65892  0.030342364  0.031067004            1 
  434000    1.2079835   -7.2830822    158.66865   0.03046633  0.031060655            3 
  435000    1.1928226   -7.3080554    158.77156  0.030416008  0.031054839            2 
  436000    1.2156757   -7.2852382    159.21124  0.030430283   0.03104882            2 
  437000    1.1779393   -7.3390936    159.61863  0.030438335  0.031043616            4 
  438000     1.207044   -7.3232773     160.1344   0.03046697  0.031037596            1 
  439000    1.1751005   -7.2887632    160.05766  0.030383003  0.031032069            1 
  440000    1.1767913   -7.3149525    161.10135  0.030511619  0.031026115            1 
  441000    1.1654731   -7.2623391    160.77775  0.030381282  0.031021059            1 
  442000    1.1795031   -7.3367205    161.43122  0.030435751  0.031015804            1 
  443000    1.1586173   -7.3063316    162.29651  0.030529817  0.031010801            3 
  444000    1.1585666   -7.3195378    162.50973  0.030501076  0.031006407            2 
  445000    1.1744065   -7.2749768    163.94642  0.030701577  0.031002339            2 
  446000    1.1600888   -7.2952157    163.36266  0.030523666  0.030998561            3 
  447000    1.1718098   -7.3117887    163.78392  0.030533916  0.030994496            4 
  448000     1.211443   -7.2599087    164.37149  0.030575054  0.030991098            1 
  449000    1.1966445   -7.3384115    164.64025  0.030556838  0.030987304            1 
  450000    1.1978853   -7.2749994    164.63338  0.030487662  0.030983164            2 
  451000    1.1929069   -7.2818668    165.59834  0.030598362  0.030980038            2 
  452000    1.1718299   -7.3108118    166.13234  0.030629119  0.030976791            4 
  453000    1.1866065   -7.3016447    166.43058  0.030616369  0.030973121            2 
  454000    1.1728878   -7.2984184    165.93906  0.030458711  0.030968742            2 
  455000    1.1686447   -7.2998355    166.41241  0.030478463  0.030964876            1 
  456000    1.1672665     -7.27384    167.29295  0.030572542  0.030961253            2 
  457000    1.1691161   -7.2933977    167.42361  0.030529469  0.030957803            1 
  458000    1.1806031   -7.3177534    167.54743   0.03048534  0.030954707            1 
  459000      1.18746   -7.3372449    167.22167   0.03035978  0.030950801            2 
  460000    1.1864306   -7.2941779    167.95334   0.03042633  0.030946383            2 
  461000    1.1844808   -7.2958397     168.7626  0.030506615   0.03094242            2 
  462000    1.1917744   -7.2799523    169.14918  0.030510314   0.03093829            1 
  463000    1.1718755   -7.2895338    169.68659  0.030541143  0.030933723            3 
  464000    1.1608046   -7.2796643    170.24896  0.030576322  0.030929468            1 
  465000    1.1665034   -7.2513132    170.29699  0.030519174  0.030925336            1 
  466000    1.1988358   -7.2916217    170.63831  0.030514719  0.030921552            1 
  467000    1.1635943   -7.2967871    170.94686  0.030504436  0.030917707            2 
  468000    1.1693671   -7.3149143    171.55779   0.03054804  0.030913849            2 
  469000    1.1473267   -7.3237815    171.83686  0.030532492  0.030910561            1 
  470000    1.1837827   -7.3096452    172.61463  0.030605431  0.030908483            2 
  471000    1.1885549   -7.3464634    172.91321  0.030593278  0.030906345            1 
  472000    1.1800065   -7.2896093     173.4978  0.030631674  0.030904058            3 
  473000    1.1969968   -7.3453213    173.46343  0.030560857  0.030901933            1 
  474000    1.1778974   -7.3339585    173.57973  0.030516831  0.030899322            1 
  475000    1.1723857   -7.3283903     173.5793  0.030452508  0.030896339            2 
  476000    1.1721941   -7.2899241    174.82788  0.030607122  0.030892984            1 
  477000    1.1764069   -7.2808661    174.55586  0.030495434  0.030889787            2 
  478000     1.185051   -7.3030483    174.94777   0.03049996  0.030886911            3 
  479000     1.146078   -7.2859409    175.43868  0.030521692  0.030883994            2 
  480000    1.2016048   -7.2927571    175.71892  0.030506756  0.030880673            2 
  481000    1.1612613   -7.3273654    175.50628  0.030406493  0.030876959            3 
  482000    1.1668628   -7.3546153    175.95429  0.030420867  0.030872676            1 
  483000    1.1410037   -7.3339767    175.64481  0.030304488  0.030868039            2 
  484000    1.1620528    -7.294478    176.21639  0.030340288  0.030862947            2 
  485000    1.1920198   -7.3122985    176.10989  0.030259432  0.030858057            4 
  486000    1.1868758   -7.3022876    177.45563  0.030427921  0.030853314            1 
  487000    1.1869125   -7.3055259    177.62153  0.030393829   0.03084817            3 
  488000    1.1878229   -7.3022922    177.87939  0.030375579   0.03084334            6 
  489000    1.1853237   -7.2907282      178.717  0.030456203  0.030838501            1 
  490000    1.1651201   -7.3191412    177.62099  0.030207651  0.030832952            3 
  491000    1.1777913   -7.2619796    177.84957  0.030184924  0.030827348            4 
  492000    1.1649127   -7.2996402    178.92584  0.030305867  0.030821814            1 
  493000    1.1708366   -7.3106912    179.25521  0.030300069  0.030816623            2 
  494000    1.1871727   -7.3279862    179.67928   0.03031027   0.03081148            2 
  495000    1.1866898   -7.3561472    179.22351  0.030172308  0.030806213            1 
  496000    1.1688958   -7.2873895    180.59156  0.030341323  0.030801388            2 
  497000    1.1790579   -7.3621935    180.48769   0.03026286  0.030796367            2 
  498000    1.1697131   -7.3126871    180.92265  0.030274874  0.030790961            2 
  499000    1.1814907     -7.25354    181.53617  0.030316662  0.030785818            2 
  500000    1.1507339   -7.2666644    181.88308  0.030313847  0.030780514            2 
  501000    1.1778711   -7.2866388     181.7694  0.030234431  0.030775498            2 
  502000    1.1973212   -7.3431133    182.22169  0.030249284  0.030770122            2 
  503000    1.1689182   -7.3261968    182.68329  0.030265621   0.03076465            1 
  504000    1.1709275   -7.3390454    183.31505  0.030310027  0.030759431            1 
  505000    1.1718017   -7.3249887    184.06099  0.030373101  0.030754275            3 
  506000    1.1658741   -7.3422697     183.6201  0.030240464  0.030749056            2 
  507000    1.1692732   -7.3416755    183.79636  0.030209789  0.030744112            1 
  508000    1.1593482   -7.2757064     184.8066  0.030316043  0.030739378            3 
  509000    1.1595619    -7.369384    184.81775  0.030258309  0.030734368            2 
  510000    1.1437192   -7.3115465    184.75513  0.030188747  0.030728982            1 
  511000    1.1880057   -7.3670641    184.98818  0.030167675   0.03072356            2 
  512000     1.168389   -7.3244221    185.21175  0.030145142  0.030717518            2 
  513000    1.1930536   -7.3084987    185.72814  0.030170263  0.030711562            4 
  514000    1.1846067   -7.2969416    185.88371  0.030136789  0.030705019            2 
  515000    1.2071369   -7.3935748    185.57363  0.030028095  0.030698808            1 
  516000     1.178343   -7.3054659    186.40253  0.030103768  0.030692858            2 
  517000    1.1806364   -7.3177649    186.63647  0.030083247   0.03068626            4 
  518000    1.1452545   -7.2997978    187.64975  0.030188184  0.030680534            2 
  519000    1.1612225   -7.3347147    187.40918   0.03009139  0.030674277            1 
  520000    1.2058772   -7.2835321    188.52471  0.030212294  0.030668161            2 
  521000    1.1748457   -7.3549878    188.42112  0.030137735  0.030661856            1 
  522000    1.1444759   -7.3278107    189.11713  0.030191113  0.030655351            1 
  523000    1.1687279   -7.3055984    188.47056  0.030030363  0.030649143            2 
  524000    1.1619862   -7.2883868    189.90116  0.030200566  0.030643015            2 
  525000    1.1579383   -7.3554583    189.23784  0.030037753  0.030636701            2 
  526000    1.1465164   -7.3325946    188.77459  0.029907254  0.030629767            2 
  527000      1.16053   -7.3213211    189.29024  0.029932043  0.030622016            2 
  528000    1.1700635   -7.2953168    190.28906  0.030032996  0.030614469            1 
  529000    1.1823615   -7.3052475    190.45603  0.030002525  0.030607306            1 
  530000    1.1622134   -7.3416131    190.08882  0.029888179   0.03059979            2 
  531000    1.1646773   -7.2796449     191.2527  0.030014548  0.030591769            4 
  532000    1.1636213   -7.2807205    191.35007  0.029973381  0.030584169            2 
  533000    1.1643319   -7.3327873    191.42783  0.029929304  0.030576896            1 
  534000    1.1503449    -7.307912    191.59911  0.029899986  0.030568862            4 
  535000    1.1772834   -7.3382318    191.84768  0.029882816  0.030561141            1 
  536000    1.1698124   -7.3403974       191.96  0.029844527  0.030552747            1 
  537000    1.1320276   -7.3132463    192.19746  0.029825801  0.030543853            1 
  538000    1.1749365   -7.3547845    192.50677  0.029818272  0.030535648            2 
  539000    1.1645785   -7.3369039    192.86305  0.029818035  0.030527563            2 
  540000    1.1535992   -7.3094286    193.14812  0.029806808  0.030519601            2 
  541000    1.1891288   -7.3893851    193.23398  0.029764939  0.030511463            2 
  542000    1.1452431   -7.3172844    194.18313  0.029855955  0.030502938            1 
  543000    1.1548634   -7.3596394    193.73396  0.029732039  0.030494358            1 
  544000    1.1703105   -7.2992455    194.62875  0.029814453  0.030485577            2 
  545000    1.1671782   -7.3460055     194.5826  0.029752692  0.030477381            1 
  546000    1.1363639   -7.3087603     195.1231  0.029780693  0.030468977            1 
  547000     1.176792   -7.3422486    194.95317  0.029700361  0.030460497            3 
  548000    1.1548158   -7.3020713    195.51054  0.029730921  0.030452324            2 
  549000    1.1793945   -7.3486494    195.75582  0.029713999   0.03044398            1 
  550000    1.1486982   -7.3197525    196.33414  0.029747597  0.030435966            1 
  551000    1.1794512   -7.3170024    196.61956  0.029736775  0.030427738            2 
  552000    1.1899047   -7.3479178    197.20943  0.029771955  0.030419059            2 
  553000    1.1414098   -7.3162292    197.58577   0.02977483  0.030411117            5 
  554000    1.1692871    -7.363531    197.22879  0.029667387  0.030402441            2 
  555000    1.1574078   -7.3490204    197.42001  0.029642645  0.030394359            4 
  556000    1.1740947   -7.3377435    198.13384  0.029696319  0.030386168            2 
  557000    1.1666317   -7.3615786    197.81595  0.029595445  0.030377482            1 
  558000    1.1607518   -7.3374123    198.36512   0.02962442  0.030368804            1 
  559000    1.1602758   -7.3526559    198.37351  0.029572677  0.030360016            2 
  560000    1.1748157   -7.3471207    198.79673  0.029582846  0.030350929            2 
  561000    1.1564367   -7.3169064    199.57532   0.02964577  0.030341611            1 
  562000    1.1444208   -7.3169099    199.58415  0.029594328   0.03033284            1 
  563000    1.1865538   -7.3795946    200.07063  0.029613771  0.030323949            1 
  564000    1.1801563   -7.3408044    199.81988  0.029524214  0.030314902            1 
  565000    1.1531586   -7.3351982    200.22909  0.029532314  0.030306101            4 
  566000    1.1352147   -7.3584168    200.84099  0.029570228  0.030297541            1 
  567000     1.154777   -7.3935285    200.87966  0.029523759  0.030288104            1 
  568000    1.1695602   -7.3092402    202.05889  0.029644791  0.030279065            1 
  569000    1.1775377   -7.3290725    202.25503  0.029621417  0.030270371            4 
  570000    1.1368027    -7.351819    201.87834  0.029514377  0.030261475            4 
  571000    1.1598298   -7.3620444    202.32283  0.029527558  0.030252352            4 
  572000    1.1476896   -7.3485821    203.17233  0.029599699  0.030243829            2 
  573000     1.157832   -7.3372537    202.71951  0.029482185  0.030235158            2 
  574000    1.1580272    -7.365374    203.06771  0.029481375  0.030226144            2 
  575000    1.1402558    -7.382008     203.5699  0.029502885  0.030217183            2 
  576000    1.1675604   -7.3329871    204.60198  0.029600982  0.030208981            1 
  577000    1.1559916   -7.3182415    204.77732  0.029575003  0.030200549            3 
  578000    1.1688346   -7.3505034    204.93087  0.029545972  0.030191863            1 
  579000    1.1498809   -7.3436174    205.25452  0.029541525  0.030183218            3 
  580000    1.1281396   -7.3392162    205.58506  0.029538083  0.030174601            1 
  581000    1.1568559   -7.3484843    205.77991  0.029515191  0.030165991            1 
  582000    1.1490911   -7.2999299    205.99891  0.029495835  0.030156691            3 
  583000    1.1336687    -7.360377    205.80123  0.029416985  0.030147658            3 
  584000    1.1724951   -7.3823058    206.14616  0.029415833  0.030138826            1 
  585000    1.1438873   -7.3702335    206.28811  0.029385771  0.030130051            3 
  586000    1.1642521    -7.331091    207.38694  0.029491886  0.030120942            2 
  587000    1.1296714    -7.370849     207.2839  0.029427016  0.030112119            4 
  588000    1.1707473   -7.3210407    207.40052  0.029393498  0.030102886            6 
  589000    1.1446381   -7.3523692    208.07747   0.02943937  0.030093478            1 
  590000    1.1420843   -7.3408904    208.29994  0.029420895  0.030084315            2 
  591000    1.1743577   -7.3445674    207.70822  0.029287679  0.030075335            2 
  592000    1.1869243   -7.3597381    208.24202  0.029313348  0.030066001            5 
  593000      1.15646   -7.3111803     208.9797  0.029367581  0.030056561            3 
  594000    1.1410175   -7.3543812    209.26787  0.029358568  0.030047555            2 
  595000    1.1543035   -7.3257553    210.27259  0.029449943  0.030038785            2 
  596000    1.1551484   -7.3940286    209.98881  0.029360851  0.030029584            1 
  597000    1.1273371   -7.3248955    210.26076  0.029349631  0.030020954            2 
  598000    1.1582333   -7.3464958    210.59636  0.029347319  0.030011913            4 
  599000    1.1597213   -7.3873684    210.68442  0.029310577  0.030002551            1 
  600000    1.1128807   -7.3894469    210.99888    0.0293054  0.029993062            2 
  601000     1.172691   -7.3550159    211.22087   0.02928742   0.02998411            5 
  602000    1.1637773   -7.3295281    211.93209  0.029337222  0.029974831            1 
  603000    1.1429289   -7.3366441    212.10314  0.029312208  0.029965913            2 
  604000    1.1560639   -7.3684224    213.06124  0.029395866  0.029957642            1 
  605000    1.1687548    -7.309777    213.27117  0.029376194   0.02994957            2 
  606000     1.147687   -7.3461945    213.24948  0.029324736  0.029940836            2 
  607000    1.1647945   -7.3863194    213.30119  0.029283524  0.029932337            1 
  608000      1.14098   -7.3858756    213.34317  0.029241115  0.029923841            3 
  609000     1.155164   -7.3401635    214.30136  0.029324214  0.029915459            3 
  610000    1.1831172   -7.3381069    214.51255  0.029304993  0.029907168            2 
  611000    1.1692418   -7.3621565    214.07818  0.029197788  0.029899231            1 
  612000     1.148527   -7.3709585    215.46586  0.029339034  0.029891075            1 
  613000    1.1704131   -7.3564155    216.23401  0.029395597  0.029882972            1 
  614000    1.1841585   -7.3645147    216.30251  0.029357018  0.029875466            1 
  615000    1.1250501   -7.3107874    217.23778  0.029436013  0.029868206            2 
  616000    1.1570827   -7.3630813    216.87782  0.029339532  0.029861142            1 
  617000    1.1697167   -7.3462849      217.216  0.029337655  0.029853786            3 
  618000    1.1625801   -7.3473764    217.69048  0.029354164  0.029846106            2 
  619000    1.1496781   -7.3501355    217.66317  0.029303065  0.029838209            2 
  620000    1.1550203   -7.3495699    218.19449  0.029327217  0.029830383            2 
  621000    1.1717896   -7.3552582    218.26037  0.029288831  0.029822406            2 
  622000    1.1526575   -7.3816277    219.07876  0.029351388  0.029814365            4 
  623000    1.1556755   -7.3696466    219.24927  0.029327083  0.029806248            2 
  624000    1.1675994   -7.3259261     219.4037  0.029300707  0.029798423            3 
  625000    1.1419801   -7.3564599    219.20117  0.029226823  0.029790845            1 
  626000    1.1453978    -7.313616    220.65739  0.029373986  0.029783291            1 
  627000    1.1320379   -7.3174792    220.89869   0.02935921  0.029775977            1 
  628000    1.1604007   -7.3746879    220.41586   0.02924839  0.029768071            3 
  629000    1.1330001   -7.3719208    220.21643  0.029175467  0.029759845            4 
  630000    1.1264251   -7.3342714    220.98667  0.029231041  0.029751935            1 
  631000    1.1589386   -7.3450872    221.11943  0.029202249  0.029743825            2 
  632000    1.1609579   -7.3241726    222.35931  0.029319529  0.029735968            3 
  633000     1.140634   -7.3892991    221.97499  0.029222616  0.029728188            1 
  634000    1.1490734   -7.4047817    221.64982  0.029133783  0.029720447            2 
  635000    1.1377206   -7.3826548    222.28426  0.029171163  0.029712671            2 
  636000     1.137728   -7.3666243    222.75431  0.029186886   0.02970542            3 
  637000    1.1296412   -7.3901417    223.04413   0.02917898  0.029697866            4 
  638000    1.1516278   -7.3543976    224.30787  0.029298312  0.029690025            2 
  639000    1.1825407   -7.3998254    223.09297  0.029094023  0.029682247            1 
  640000    1.1346532   -7.4006214    224.16754  0.029188482  0.029675248            2 
  641000    1.1621427    -7.371893    225.31489  0.029292108   0.02966827            2 
  642000    1.1428143   -7.3595837    224.70398  0.029167184  0.029660668            2 
  643000    1.1521228   -7.3845663    225.16959  0.029182166  0.029653427            3 
  644000    1.1656668   -7.3626655    225.94101  0.029236673  0.029646711            5 
  645000    1.1401845   -7.3668286    226.08046  0.029209362  0.029640127            2 
  646000    1.1479739    -7.387403    226.26941  0.029188521  0.029633254            1 
  647000    1.1149414   -7.3428307     228.1602   0.02938694  0.029626584            2 
  648000     1.156078   -7.3868539    227.36697  0.029239579  0.029619988            1 
  649000    1.1728258   -7.3270872    228.02108  0.029278516  0.029613272            2 
  650000    1.1736817   -7.3633485    227.37784  0.029151005  0.029606157            2 
  651000    1.1354298   -7.4270182     226.8448  0.029037993  0.029598704            1 
  652000     1.134494   -7.3902526    228.33452   0.02918386  0.029591209            2 
  653000    1.1492806   -7.3926742     228.5391  0.029165275  0.029584294            2 
  654000    1.1624997   -7.3491986    228.55465  0.029122662  0.029577049            2 
  655000    1.1407598   -7.3808869    229.11763  0.029149826  0.029569991            3 
  656000    1.1448986   -7.3957338    229.29376  0.029127765  0.029563397            1 
  657000    1.1684666   -7.3740374    229.71327   0.02913664  0.029556863            2 
  658000    1.1720495   -7.3891016    229.52738  0.029068817  0.029550135            2 
  659000     1.117428    -7.369773    230.35964   0.02912995  0.029542982            2 
  660000    1.1157176   -7.3781351    230.77041  0.029137678  0.029536019            2 
  661000    1.1447311   -7.3879955    230.66614  0.029080451  0.029528955            1 
  662000    1.1555501   -7.3663741    231.13359  0.029095367  0.029521709            2 
  663000    1.1590517   -7.4114549      230.926   0.02902539  0.029514178            1 
  664000    1.1548075    -7.354005     232.6127  0.029193361  0.029507089            3 
  665000    1.1330733   -7.3978838    231.89658  0.029059721  0.029500069            1 
  666000    1.1557633   -7.3418951    232.91278  0.029143241  0.029493301            1 
  667000    1.1505186   -7.3578113    231.94242  0.028978313  0.029486099            3 
  668000    1.1381866   -7.3744543    233.05115  0.029073247  0.029478979            4 
  669000    1.1353391   -7.4297657    232.39247  0.028947741  0.029471823            2 
  670000    1.1477014    -7.418926    233.47812  0.029039567  0.029464847            2 
  671000    1.1467019   -7.3934354    234.50637   0.02912399  0.029457674            1 
  672000    1.1441477   -7.3595953    234.90961  0.029130656  0.029450701            2 
  673000     1.130002   -7.3949573    233.86047  0.028957463  0.029443785            4 
  674000    1.1499252     -7.40593    234.17587  0.028953495  0.029436572            2 
  675000    1.1428946   -7.4037925    233.97013  0.028885201  0.029429189            2 
  676000    1.1566569   -7.3756405    235.28012   0.02900396  0.029421873            2 
  677000    1.1449134     -7.40521    235.73812  0.029017494  0.029414637            1 
  678000    1.1319513   -7.3697726    235.84473  0.028987798  0.029407562            1 
  679000    1.1407585   -7.3896765    236.81741  0.029064483  0.029400755            1 
  680000    1.1336423   -7.3609426    236.94422  0.029037282  0.029394308            2 
  681000    1.1630423   -7.3604533    237.35722  0.029045181  0.029387833            1 
  682000     1.140545   -7.3823225    236.80621  0.028935265  0.029380853            2 
  683000    1.1650772   -7.3527527    237.31389  0.028954843  0.029373776            2 
  684000    1.1389575    -7.384809    238.20339  0.029020881  0.029366748            3 
  685000    1.1394148   -7.3324159    238.80308   0.02905147  0.029360094            3 
  686000    1.1210108   -7.4054992    238.02866  0.028915046  0.029353241            3 
  687000    1.1526919   -7.4113053    238.61334  0.028943879  0.029346341            2 
  688000    1.1542033   -7.4177597    238.56273  0.028895679  0.029339596            2 
  689000    1.1524457   -7.4316993    238.98292  0.028904562  0.029333067            1 
  690000    1.1535487     -7.34295    239.38521  0.028911257  0.029326043            1 
  691000    1.1327707   -7.3967897    239.56971  0.028891668  0.029319233            1 
  692000    1.1454069   -7.3941491    239.89083  0.028888587  0.029312481            1 
  693000     1.163665   -7.4177038    240.73252  0.028948114  0.029305964            2 
  694000    1.1633995   -7.4037906    241.69673  0.029022182  0.029299513            3 
  695000    1.1486473   -7.4032499    240.96941  0.028893214  0.029293132            2 
  696000    1.1152054   -7.3897345    241.99665  0.028974694  0.029286545            1 
  697000    1.1398204   -7.4229438    241.90614  0.028922302  0.029279873            5 
  698000    1.1368384   -7.3568024    242.71128  0.028976991  0.029273798            2 
  699000    1.1270612   -7.3989967     242.6015  0.028922449  0.029267622            1 
  700000    1.1273117   -7.4103252    241.96086  0.028804865  0.029261283            1 
  701000    1.1465163   -7.4270848    242.13927  0.028784982  0.029254403            2 
  702000    1.1146889   -7.4002911    243.06419  0.028853774  0.029247742            6 
  703000     1.151233   -7.3838582    243.32898  0.028844118  0.029241151            2 
  704000    1.1481736   -7.3607127    244.20578  0.028906934  0.029234297            1 
  705000    1.1614151   -7.4418223    243.97451  0.028838594  0.029227747            3 
  706000    1.1616972   -7.4321789    244.33483  0.028840277  0.029221309            2 
  707000    1.1448065   -7.4649662    244.13674  0.028776136  0.029214661            1 
  708000    1.1362868   -7.3883296    244.76085  0.028808951  0.029208343            3 
  709000    1.1420708   -7.3783844    246.13579  0.028929923  0.029201597            2 
  710000    1.1480163   -7.3420426    246.83098  0.028970772  0.029195196            2 
  711000    1.1512052   -7.4547511    245.57996  0.028783399  0.029188343            3 
  712000    1.1326391   -7.4447763    246.57969  0.028859982  0.029181668            1 
  713000    1.1424651   -7.3955712    246.59124  0.028820855  0.029174972            1 
  714000    1.1554383   -7.3967498    247.29174  0.028862248  0.029168371            2 
  715000    1.1356294   -7.4306414    246.93884  0.028780751  0.029161763            2 
  716000    1.1473738   -7.3998993    248.42227  0.028913207  0.029155511            2 
  717000    1.1505711   -7.4117369     248.0731  0.028832299   0.02914916            2 
  718000    1.1385732   -7.4047675    248.76658   0.02887263  0.029142771            1 
  719000    1.1422157   -7.4178054    247.75863   0.02871565  0.029136311            1 
  720000    1.1370226   -7.4450807     247.5429  0.028650798  0.029129212            1 
  721000     1.136633   -7.4093959     248.3324  0.028702312  0.029122337            3 
  722000    1.1167262   -7.3736339     249.3613  0.028781314  0.029115447            1 
  723000    1.1357699   -7.3335905    249.92402  0.028806365  0.029108981            3 
  724000     1.130958   -7.3861228    249.61244  0.028730713  0.029102308            1 
  725000    1.1519474    -7.389781    250.10352  0.028747531  0.029095786            1 
  726000    1.1631663   -7.3942814    250.14644  0.028712861  0.029088999            2 
  727000    1.1598144     -7.39533    249.83854  0.028638071  0.029081922            2 
  728000     1.119935   -7.3418306    250.88079  0.028718039  0.029075174            1 
  729000    1.1463015    -7.439232    250.13704  0.028593626  0.029068021            1 
  730000    1.1350491   -7.4188402    250.72952  0.028622091  0.029060721            1 
  731000    1.1312764   -7.3920181    251.16705  0.028632815  0.029053313            1 
  732000    1.1088552   -7.3873088    251.52837  0.028634833   0.02904571            2 
  733000    1.1612363   -7.3969134    251.01467  0.028537365  0.029038365            3 
  734000    1.1558512   -7.4040755     252.0435  0.028615293  0.029031099            7 
  735000    1.1348151   -7.4520373    251.92532  0.028562962  0.029023684            3 
  736000    1.1486152     -7.44917    252.12917  0.028547234  0.029016004            4 
  737000    1.1546005   -7.3710523    252.65535  0.028567995  0.029008654            3 
  738000    1.1418657   -7.4189876     253.0789  0.028577111  0.029001307            3 
  739000     1.104145   -7.4084784    254.41568  0.028689183  0.028994109            2 
  740000    1.1244756   -7.4217104     253.2857  0.028523164  0.028986794            4 
  741000    1.1281935   -7.4462419    253.20947  0.028476099  0.028979123            3 
  742000    1.1118946   -7.3858037    255.09872  0.028649902  0.028971383            2 
  743000      1.12514   -7.4030653    254.91628   0.02859088  0.028964008            2 
  744000    1.1495832    -7.387714    254.60625  0.028517725  0.028956686            1 
  745000    1.1219507   -7.4042082    254.93354  0.028516056   0.02894922            1 
  746000    1.1210188   -7.4346764    255.32776  0.028521868  0.028941719            2 
  747000    1.1446039   -7.3964763    256.00708  0.028559469  0.028934259            2 
  748000    1.1279761   -7.3955193     255.5854  0.028474309  0.028927099            2 
  749000    1.1369132   -7.4292814    256.34974  0.028521333  0.028919673            3 
  750000    1.1304191   -7.4211539    256.32352  0.028480391  0.028912244            3 
  751000    1.1335464   -7.4140191    256.68296  0.028482352  0.028904822            1 
  752000    1.1121183   -7.4307345    257.50113  0.028535143  0.028897298            5 
  753000    1.1294134   -7.3809698    257.43651  0.028490097  0.028889881            1 
  754000    1.1339509   -7.4047292     257.9067  0.028504277  0.028882371            1 
  755000    1.1372388   -7.4625052    257.60586  0.028433318  0.028874875            2 
  756000    1.1118606   -7.3974572    258.53944  0.028498615  0.028867737            2 
  757000    1.1527245   -7.4072269    258.29459  0.028434014  0.028860744            5 
  758000    1.1462572   -7.4194937    258.93927  0.028467378  0.028853536            1 
  759000    1.1775164   -7.3916048    259.48034  0.028489277  0.028846193            2 
  760000    1.1242237   -7.3991334    259.75198  0.028481577  0.028839147            2 
  761000    1.1330189   -7.4168193    259.68793  0.028437136  0.028832233            5 
  762000    1.1210007   -7.4139221    260.58415  0.028497829  0.028825439            2 
  763000    1.1349128   -7.3914229    260.57957   0.02845998  0.028818162            3 
  764000    1.1430617   -7.4159847    261.76375  0.028551893  0.028811043            5 
  765000     1.135419   -7.4420306    261.39451  0.028474348  0.028804183            2 
  766000    1.1230086   -7.4295998    261.17764  0.028413581  0.028797315            2 
  767000     1.110455   -7.4229279     261.5673  0.028418872  0.028790242            2 
  768000    1.1128319   -7.4350001    263.03047  0.028540633  0.028783412            1 
  769000    1.1169668   -7.4464317    262.95396  0.028495228  0.028776705            1 
  770000    1.1296891   -7.4430113    262.73706  0.028434747  0.028770122            2 
  771000     1.140213   -7.4172802     263.7928  0.028511976  0.028763357            4 
  772000    1.1498913   -7.4476637    263.60905  0.028455208   0.02875679            1 
  773000    1.1232927   -7.4412264    263.53422   0.02841033  0.028750075            2 
  774000    1.1077391   -7.4549065    264.86269  0.028516655  0.028743827            3 
  775000    1.1048256   -7.4111106     265.5439  0.028553107  0.028738174            1 
  776000    1.1155628   -7.3721148     265.7253  0.028535793  0.028732614            2 
  777000    1.1267151   -7.4205393    266.00866  0.028529457   0.02872692            5 
  778000    1.1345606   -7.4058875    266.70853  0.028567752  0.028721151            3 
  779000    1.1184502   -7.4083359    266.00136  0.028455431  0.028715325            2 
  780000    1.1265626   -7.4274551     267.0966  0.028535962  0.028709537            1 
  781000    1.1532237   -7.3995076    268.17459  0.028614446  0.028703848            1 
  782000    1.1208516   -7.4203027    267.96273  0.028555278  0.028698016            2 
  783000    1.1110291   -7.3949044    267.71628   0.02849258  0.028692107            1 
  784000    1.1352756   -7.4654115     267.3046  0.028412479  0.028686343            1 
  785000     1.126303   -7.4266088    268.51051    0.0285043  0.028680601            2 
  786000    1.1138486   -7.4289383    269.28007  0.028549626  0.028674765            1 
  787000    1.1233529   -7.4431614    269.24215  0.028509334  0.028669178            2 
  788000    1.1291032   -7.4175307     268.5108  0.028395812  0.028663364            4 
  789000    1.0868348   -7.4383738    269.16249  0.028428654   0.02865742            3 
  790000    1.1504104   -7.4337123    268.69213  0.028343052  0.028651385            4 
  791000     1.096946   -7.4412263     269.5951  0.028402349  0.028645376            1 
  792000    1.0903516   -7.4553113    269.96056  0.028404941  0.028639281            2 
  793000    1.1324166   -7.4374932    270.72799  0.028449768  0.028633319            2 
  794000    1.1368009   -7.4630328    269.80791  0.028317371  0.028627407            2 
  795000    1.1107471   -7.4648564    270.90698  0.028396958   0.02862155            1 
  796000    1.1271826   -7.4770505    271.22063  0.028394119   0.02861556            1 
  797000    1.0996749   -7.3893252    272.72215   0.02851549   0.02861007            3 
  798000    1.1301491   -7.4425845    272.30403  0.028436094  0.028604535            2 
  799000    1.1067731   -7.4159893    272.25605    0.0283955  0.028598899            3 
  800000    1.1129475   -7.4244653    272.87582  0.028424565  0.028593361            3 
  801000     1.120679   -7.4245837     273.8207   0.02848738  0.028587956            3 
  802000    1.1035751   -7.4359143    273.75557  0.028445092  0.028582606            1 
  803000    1.0921821   -7.4561305    274.33612  0.028469917  0.028576936            2 
  804000    1.1414251   -7.4736935    273.26642  0.028323634  0.028571304            3 
  805000    1.1022797   -7.4839519    273.31002  0.028292963  0.028565361            4 
  806000    1.1379582    -7.401539     274.6914  0.028400683  0.028559438            5 
  807000     1.132134   -7.4611344    274.49756  0.028345473  0.028553624            1 
  808000    1.1448596   -7.4518487    274.51255  0.028311938  0.028547654            3 
  809000    1.1279422   -7.4064175    276.35487  0.028466716  0.028541967            3 
  810000    1.1262709   -7.4556965    274.93499  0.028285493  0.028536026            2 
  811000    1.1477562   -7.4378669    276.45551  0.028406854  0.028529972            1 
  812000    1.1086903   -7.4404028    275.72048  0.028296437  0.028524241            1 
  813000    1.1437232   -7.4239743    276.52979  0.028344587  0.028518575            2 
  814000    1.1350542   -7.4306557    277.77182  0.028436919  0.028513269            1 
  815000    1.1188662   -7.3815156    277.36149  0.028360071  0.028507926            3 
  816000    1.1260972   -7.4683179    277.95702  0.028386133  0.028502497            2 
  817000    1.1393655   -7.4058452    278.18273  0.028374411  0.028496993            3 
  818000    1.1346888   -7.4863117    277.11251  0.028230696  0.028491276            2 
  819000    1.1232452   -7.4397376    277.90296  0.028276655  0.028485662            1 
  820000    1.0856706   -7.4347803    279.54033   0.02840857  0.028480439            2 
  821000    1.1314815   -7.4682651    279.06834   0.02832606  0.028475177            3 
  822000     1.112451   -7.4670009    279.01706  0.028286401  0.028469533            1 
  823000    1.1313906   -7.4789944    279.99387  0.028350939   0.02846412            3 
  824000    1.1208065   -7.3909732    281.18671  0.028437167  0.028458784            2 
  825000    1.1186205   -7.4159882    279.91998  0.028274746  0.028453642            2 
  826000    1.1279852   -7.4849308    280.30938  0.028279801   0.02844826            1 
  827000    1.1380298   -7.4657098    280.87821  0.028302923  0.028442791            1 
  828000    1.1312896   -7.4915417    280.38438   0.02821904  0.028437137            1 
  829000    1.1594987      -7.4455    280.80564  0.028227346  0.028431311            2 
  830000    1.0831024   -7.4654024    280.61138  0.028173833  0.028425471            2 
  831000    1.1343234   -7.4681229     281.0778  0.028186702  0.028419651            1 
  832000    1.1146478   -7.4361158    281.70536  0.028215681  0.028413893            2 
  833000    1.1112406   -7.4568134    282.37248  0.028248547  0.028408403            5 
  834000    1.1371046   -7.4172004    283.33828  0.028311179  0.028402987            1 
  835000    1.1239398   -7.4601621    283.14768  0.028258252  0.028397746            1 
  836000    1.1326942   -7.4601945    283.47298  0.028256876  0.028392462            2 
  837000    1.1232388   -7.4846942    284.24075  0.028299557  0.028387187            1 
  838000    1.1211977    -7.437186    285.17665  0.028358855  0.028382372            2 
  839000    1.1200701   -7.4653279    284.53193  0.028261018    0.0283774            2 
  840000    1.0954883   -7.4556941    285.28332  0.028301917  0.028372353            3 
  841000    1.1291903   -7.4417633    285.49217  0.028288958  0.028367105            2 
  842000    1.1119507   -7.4365832    286.39355  0.028344572   0.02836207            2 
  843000    1.1136559    -7.474549    285.33694  0.028206499  0.028356541            1 
  844000    1.1133748   -7.4543557    286.24518  0.028262755  0.028351124            1 
  845000    1.1052501   -7.4654337    286.42449  0.028246991  0.028345424            3 
  846000    1.1182707   -7.4052016    286.85637  0.028256144  0.028339856            5 
  847000      1.12086   -7.4220935    286.78318  0.028215583  0.028334617            3 
  848000    1.1299961   -7.4461765    287.06172  0.028209682  0.028329018            2 
  849000    1.1248354   -7.4752898    287.21449  0.028191449  0.028323498            2 
  850000     1.125445   -7.4388608     287.6282  0.028198844    0.0283178            3 
  851000    1.1134041   -7.4931851    288.07031     0.028209  0.028312204            1 
  852000    1.1056529   -7.4565827     288.1557  0.028184243  0.028306556            2 
  853000    1.1089331   -7.4172641    289.64403  0.028296603  0.028301296            2 
  854000      1.10562    -7.449428    288.40076   0.02814215  0.028296169            1 
  855000     1.108737   -7.4955741    288.16808  0.028086558   0.02829059            3 
  856000     1.113945   -7.4620993    289.37664  0.028171402  0.028285118            2 
  857000    1.1296218   -7.4835074     289.0261  0.028104444  0.028279667            2 
  858000    1.1148574   -7.4512473    290.37393  0.028202596  0.028274178            2 
  859000     1.137985   -7.4594187    290.47632  0.028179698  0.028268701            1 
  860000    1.0910504   -7.4286263    290.66508  0.028165221  0.028263695            2 
  861000    1.1197494   -7.4631809    291.38121   0.02820182  0.028258677            2 
  862000    1.1043861   -7.4602197    290.99942  0.028132194  0.028253505            1 
  863000    1.1199191   -7.4603909    291.37153  0.028135528  0.028248466            2 
  864000    1.1366287   -7.4825845    291.53031  0.028118278  0.028243237            3 
  865000    1.1205858   -7.4650654    292.72071  0.028200453  0.028238013            1 
  866000     1.125856   -7.4656526     293.1274  0.028207025  0.028232743            1 
  867000    1.1364221   -7.4615442    292.26542   0.02809164   0.02822773            2 
  868000    1.1097398   -7.4779216     293.0027  0.028130059  0.028222644            2 
  869000    1.1113933   -7.4191761    294.71001  0.028261413  0.028217743            2 
  870000    1.1248279   -7.4560093    293.54798  0.028117623    0.0282132            1 
  871000    1.1322915   -7.4927136    293.73413  0.028103151  0.028208314            1 
  872000    1.1169136   -7.4883398     293.9863  0.028095021  0.028203168            2 
  873000    1.1041306   -7.4928586    294.09427  0.028073145  0.028198031            2 
  874000      1.12641   -7.4284826    295.64799  0.028189168  0.028192787            2 
  875000    1.1024499   -7.5207075    294.64125  0.028061071  0.028187746            2 
  876000    1.1021014   -7.4248554    295.79568  0.028138858  0.028182689            5 
  877000    1.0865073   -7.4744209    294.27228  0.027962018  0.028177566            1 
  878000    1.1114978   -7.5097743    295.22879  0.028020955   0.02817214            1 
  879000    1.1142709     -7.44932    296.95686  0.028152906  0.028166766            1 
  880000    1.1241471   -7.4440546    296.48978  0.028076684  0.028161835            2 
  881000    1.1154941   -7.4485197    295.54732  0.027955668   0.02815654            1 
  882000    1.1263765   -7.5036128    296.68624   0.02803158   0.02815134            2 
  883000    1.1247652   -7.4435309    297.63241  0.028089129  0.028146051            1 
  884000    1.1077281   -7.4785816     297.8036  0.028073492  0.028140876            3 
  885000     1.119574   -7.4895122    297.85949  0.028047033   0.02813578            3 
  886000    1.1078131   -7.4573286    299.55289  0.028174651  0.028130901            3 
  887000    1.0969089   -7.4870499    298.68153  0.028061023   0.02812621            1 
  888000    1.0947818   -7.5035911    297.71367  0.027938595  0.028121134            1 
  889000    1.0826936   -7.4857011    299.40067  0.028065305  0.028116111            1 
  890000     1.116426   -7.4745861    299.51585  0.028044555  0.028111072            2 
  891000    1.1471017   -7.4331511    300.57461  0.028112103  0.028106346            3 
  892000    1.0826711   -7.4858262    299.98195  0.028025219  0.028101668            2 
  893000    1.0880199   -7.4799708    301.51194  0.028136612  0.028097013            4 
  894000    1.1346636    -7.519488    300.93625  0.028051478    0.0280923            3 
  895000    1.1070218   -7.4787154    301.71417  0.028092567  0.028087893            4 
  896000    1.1227173    -7.472411    301.27886  0.028020727  0.028083212            2 
  897000    1.1221019   -7.4842444    302.37983  0.028091771  0.028078644            2 
  898000    1.1341065   -7.4905877    303.18655  0.028135352   0.02807404            1 
  899000    1.1127572   -7.4512323    303.72166  0.028153657  0.028069649            2 
  900000    1.1107117   -7.4776754     302.9672  0.028052518  0.028065495            3 
  901000    1.1200242   -7.4909678    303.78164  0.028096711  0.028061174            2 
  902000    1.0979644   -7.4689026    304.90948   0.02816976  0.028056794            6 
  903000    1.1150503   -7.4905842    304.69301  0.028118587  0.028052561            9 
  904000     1.119254   -7.4483362    305.18926  0.028133228  0.028048751            2 
  905000    1.1437906   -7.4535396    305.29661  0.028112027  0.028044818            2 
  906000    1.0922654   -7.5049633    305.23953  0.028075747  0.028040757            4 
  907000    1.1203636   -7.5086321    305.96177  0.028111151  0.028036327            1 
  908000    1.1076719    -7.464098    306.08789  0.028091767  0.028032172            1 
  909000    1.0975184   -7.4719625    305.74636  0.028029552  0.028027783            2 
  910000    1.1295647   -7.4773908    305.46506  0.027972991  0.028023526            1 
  911000    1.0742633   -7.5319666    305.47808  0.027943476  0.028018859            5 
  912000    1.0888713   -7.4411031    306.59439  0.028014838  0.028013826            1 
  913000    1.1095532   -7.4836625    307.24781  0.028043795   0.02800876       -1e+20 
  914000    1.1126571    -7.495647     305.9755   0.02789711  0.028003729            4 
  915000    1.1060688   -7.4935844    307.42777  0.027998886   0.02799883            3 
  916000    1.0999081   -7.5002852    306.12157  0.027849487  0.027993944            4 
  917000    1.1005484   -7.4733406    307.06441  0.027904799  0.027988855            2 
  918000    1.0791682    -7.498853    307.17506  0.027884447    0.0279838            2 
  919000    1.0903142     -7.47927    308.22492  0.027949303  0.027978911            3 
  920000    1.1080598   -7.4861764    308.36259  0.027931394   0.02797391       -1e+20 
  921000    1.0881152   -7.5002382    307.15522  0.027791822  0.027968845            2 
  922000     1.099657   -7.4800966    309.95436  0.028014675  0.027963886            4 
  923000    1.1042935   -7.5307099    308.34591  0.027839103  0.027958793            2 
  924000    1.1205578   -7.4864415    308.88399  0.027857503  0.027953644            2 
  925000    1.1267899   -7.4519553    309.77143  0.027907336  0.027948284            1 
  926000    1.0896332   -7.5065803    308.86422  0.027795556  0.027942828            3 
  927000    1.0722273   -7.4506969    309.51004  0.027823628   0.02793743            1 
  928000    1.1141176   -7.4920385    309.31059  0.027775735  0.027932134            1 
  929000    1.1184085   -7.4421902    310.49106  0.027851728  0.027926882            1 
  930000    1.1028646   -7.4834968    310.60864  0.027832315  0.027921625            3 
  931000    1.0944279   -7.5269782    310.29882  0.027774688  0.027916218            1 
  932000    1.1166137   -7.5094349    310.95632  0.027803676  0.027911075            3 
  933000    1.1067907   -7.4791319    311.19503  0.027795197  0.027905936            1 
  934000    1.1021824   -7.4635615    312.19071  0.027854275  0.027900555            2 
  935000    1.0804851   -7.5109004    310.92992  0.027712114  0.027895138            3 
  936000     1.118633   -7.5418319    311.25857  0.027711767  0.027889565            4 
  937000    1.1040056   -7.4968815     311.1753  0.027674786  0.027883816            3 
  938000    1.0973906   -7.4492154    313.39335  0.027842338  0.027878198            3 
  939000    1.1079633   -7.4711664    312.30545  0.027716139  0.027872465            3 
  940000    1.0878556    -7.491761    312.72975  0.027724269  0.027866819            5 
  941000    1.1069846   -7.4717121     312.9635  0.027715507  0.027861003            3 
  942000     1.102156   -7.5262754    312.65457  0.027658755  0.027855086            2 
  943000    1.1088866   -7.4873476    312.91837  0.027652737  0.027849132            3 
  944000    1.0875645   -7.5121966     312.7554  0.027609057  0.027843194            4 
  945000    1.0888818   -7.5355164    312.50169  0.027557469  0.027837139            2 
  946000    1.1151569   -7.5130939    313.54391  0.027620147  0.027831167            1 
  947000    1.0850286   -7.5397267    312.99204  0.027542418   0.02782493            1 
  948000    1.1179901   -7.4674365    313.55887  0.027563192   0.02781889            4 
  949000    1.0951644     -7.44955      314.447  0.027612135  0.027812718            1 
  950000    1.0983152   -7.4932077     314.6907  0.027604447  0.027806488            1 
  951000    1.1092089   -7.4980894    314.12589  0.027525928  0.027800053            1 
  952000    1.1159282    -7.469024    315.15141  0.027586783  0.027793605            3 
  953000    1.0885435   -7.4642676    314.84463   0.02753101  0.027787213            2 
  954000    1.0883418   -7.4845086    314.59064  0.027479965  0.027780902            2 
  955000    1.0943402   -7.4652117    315.95646  0.027570372  0.027774682            1 
  956000    1.0890791   -7.4657394    315.83553  0.027530991   0.02776859            1 
  957000    1.0752175   -7.4620103     315.8047  0.027499538  0.027762313            4 
  958000    1.1143797    -7.507194    316.00684  0.027488417  0.027755832            1 
  959000    1.0780347   -7.4792707    315.81405  0.027443001  0.027749236            2 
  960000    1.0981268   -7.5014825    316.62641  0.027484931  0.027742902            4 
  961000     1.080167   -7.4783502    317.08512  0.027496108  0.027736798            3 
  962000    1.1132543   -7.5050503    316.63617  0.027428636  0.027730693            1 
  963000    1.0842993   -7.4796736    317.34777  0.027461731  0.027724471            1 
  964000    1.1242399   -7.5107269    317.21527   0.02742179  0.027718359            4 
  965000    1.0825014   -7.4876527    318.82633  0.027532498   0.02771216            3 
  966000    1.0859747   -7.4506845    318.53808   0.02747913  0.027706032            1 
  967000    1.0975315   -7.5099142    319.25179  0.027512219  0.027699932            1 
  968000    1.1047887   -7.4835127    318.42676  0.027412772  0.027693691            2 
  969000    1.0871436   -7.4481008    320.20033  0.027537008  0.027687631            4 
  970000    1.1163914   -7.5549009    318.18157  0.027335186  0.027681107            2 
  971000    1.0986275   -7.5135471    319.61777  0.027430293  0.027674642            2 
  972000    1.1163027   -7.5318261     319.4201  0.027385125  0.027668147            3 
  973000    1.0974401    -7.475205     319.8116   0.02739051  0.027661642            3 
  974000    1.1043581   -7.5627228    319.55987  0.027340851  0.027655135            1 
  975000    1.0946126   -7.4892447    320.49405  0.027392654  0.027648665            3 
  976000    1.1162831   -7.4955731    321.55058  0.027454797  0.027642339            1 
  977000    1.0968228   -7.4954569    320.64248  0.027349239  0.027636013            3 
  978000    1.1205396   -7.4907718    320.74342  0.027329876  0.027629553            2 
  979000    1.1040711   -7.4566308    321.42339  0.027359839  0.027623145            3 
  980000     1.088047   -7.5272023    320.91796  0.027288942  0.027616612            2 
  981000    1.0830458   -7.4682924    322.99789  0.027437809  0.027609958            2 
  982000     1.112797   -7.4787064    321.37404  0.027272067  0.027603247            1 
  983000    1.1008652   -7.5106353    321.30695  0.027238636  0.027596533            5 
  984000     1.082509   -7.5081467     322.0835  0.027276719  0.027589555            2 
  985000    1.0889161   -7.5147494    322.96807  0.027323864  0.027582706            3 
  986000    1.1032325   -7.5166977     321.7216  0.027190805  0.027575646            2 
  987000    1.0989919   -7.4971455    323.10244  0.027279841  0.027568675            6 
  988000    1.1097836   -7.4733698    323.18772  0.027259423  0.027562043            1 
  989000    1.0664084   -7.4560325    325.26687   0.02740705  0.027555586            2 
  990000    1.0862135   -7.5396036    323.49538  0.027230251  0.027549108            1 
  991000     1.113964   -7.5037068    323.96573  0.027242325  0.027542513            4 
  992000    1.1060004   -7.5027998    324.59709  0.027267901  0.027535776            3 
  993000    1.1040349   -7.5628536    324.01669  0.027191733  0.027529015            1 
  994000    1.0898959   -7.5184321    323.94336  0.027158229  0.027522368            4 
  995000    1.1009131    -7.489923    325.06553  0.027224918  0.027515766            1 
  996000    1.1139211   -7.4965455    326.12399  0.027286144  0.027509086            1 
  997000    1.0994442   -7.5372099    324.31564  0.027107626  0.027502416            2 
  998000    1.1136914   -7.5491249    324.93061  0.027131815  0.027495373            3 
  999000    1.0905837   -7.5270345    324.74329   0.02708903  0.027488448            2 
 1000000    1.0745325   -7.4970135    325.43151  0.027119292  0.027481487            2 
 1001000    1.0973398   -7.4930213    326.59675  0.027189207   0.02747465            2 
 1002000    1.0517766    -7.505364    327.38887   0.02722795  0.027467815            1 
 1003000    1.1125979   -7.4819972    326.35099  0.027114572  0.027460881            2 
 1004000    1.0859941   -7.5176081    327.85155  0.027212114  0.027453967            2 
 1005000    1.0872796   -7.4960641    327.08035   0.02712109  0.027447092            3 
 1006000    1.0929304   -7.5230737    327.88765  0.027161005  0.027440569            1 
 1007000    1.0693049   -7.5120289    327.75973  0.027123446  0.027433904            2 
 1008000     1.094055   -7.4804669    328.85246  0.027186876  0.027427424            7 
 1009000    1.0823897   -7.5246402    328.05011  0.027093666  0.027420707            2 
 1010000    1.0784408   -7.5562173    327.64334  0.027033279  0.027414011            3 
 1011000     1.100971   -7.5083777    328.52176  0.027078945  0.027407279            2 
 1012000    1.0967513   -7.5356511     328.9719  0.027089254  0.027400703            3 
 1013000    1.1073885   -7.4843819    330.77885  0.027211159  0.027394116            1 
 1014000    1.1130442   -7.5355448    329.42038  0.027072681  0.027387559            2 
 1015000    1.0963759   -7.5208869    329.31777  0.027037584  0.027380853            1 
 1016000    1.0547218   -7.4965266    330.73435  0.027127161  0.027374425            2 
 1017000    1.0642817   -7.5293789    330.40604  0.027073586   0.02736796            2 
 1018000     1.105401   -7.5393432    331.47003  0.027134089  0.027361395            2 
 1019000    1.0699277   -7.4848358     331.1768  0.027083481  0.027355116            1 
 1020000    1.1065819   -7.5446427    331.78641  0.027106733  0.027348764            3 
 1021000    1.0827447   -7.5201404    331.75277  0.027077438  0.027342471            8 
 1022000    1.0927018   -7.5109208    332.16934   0.02708491  0.027336313            2 
 1023000    1.0794176   -7.5193719    332.50347  0.027085653  0.027329956            2 
 1024000    1.0778983   -7.5096538    332.12374  0.027028299  0.027323636            2 
 1025000    1.0975977    -7.542403    332.54392  0.027036091  0.027317304            2 
 1026000    1.0804014   -7.4808044    332.96875  0.027044245  0.027310846            5 
 1027000    1.1266627   -7.5481193     333.3385  0.027047915  0.027304241            4 
 1028000    1.0704194   -7.5388528    332.83624  0.026980888  0.027297686            1 
 1029000    1.0969626   -7.5025158    335.10035  0.027138026  0.027291405            1 
 1030000    1.1033586   -7.5295765    335.18174  0.027118264  0.027285185            1 
 1031000    1.0816029   -7.5291878    334.57879  0.027043226  0.027279192            2 
 1032000    1.0812639   -7.5506851    334.11717  0.026979745  0.027272964            2 
 1033000     1.074533   -7.5907501    334.32861  0.026970685  0.027266618            1 
 1034000    1.0816101   -7.5499438    335.80609  0.027063676    0.0272605            1 
 1035000    1.1077669    -7.548025    335.39301  0.027004268  0.027254305            2 
 1036000      1.05929    -7.540698     336.7079  0.027083969  0.027248026            4 
 1037000     1.088785    -7.537075    336.92923  0.027075638  0.027241715            1 
 1038000    1.0764196   -7.5245918    336.81512  0.027040392  0.027235524            2 
 1039000    1.0733801   -7.5233075    336.37171  0.026978803  0.027229199            2 
 1040000    1.1055858   -7.5449071    336.31791  0.026948551  0.027222927            1 
 1041000    1.0785894   -7.5572165    336.83767  0.026964271   0.02721669            2 
 1042000    1.0791364    -7.518548    338.28929  0.027054485  0.027210479            4 
 1043000    1.1061047   -7.5687258    337.52807  0.026967727  0.027204222            5 
 1044000    1.0945924   -7.5237806    338.79999  0.027043422  0.027197748            7 
 1045000    1.0875445   -7.5354476    338.58092  0.027000073  0.027191495            3 
 1046000    1.0835243   -7.4989967    338.19903  0.026943836  0.027185479            3 
 1047000    1.0864858   -7.5235699    338.38653  0.026933025  0.027179309            1 
 1048000    1.0952008   -7.4985111    339.16572  0.026969285  0.027173098            1 
 1049000     1.085536   -7.5165118    339.70431  0.026986361  0.027166952            1 
 1050000    1.0653617    -7.496619    340.46006   0.02702064   0.02716079            2 
 1051000    1.0840612   -7.5308408    339.69375   0.02693417  0.027154666            2 
 1052000    1.0595881   -7.5368234    339.22217  0.026871211  0.027148497            3 
 1053000    1.0946167   -7.5239578     339.5502  0.026871652  0.027142243            1 
 1054000    1.1055178     -7.55164    340.16212  0.026894538  0.027135935            2 
 1055000     1.069918   -7.5721509    340.35503  0.026884284   0.02712938            1 
 1056000    1.0807948   -7.5547173    340.58065  0.026876629  0.027122895            1 
 1057000    1.0983642   -7.5307036    340.90694  0.026876927  0.027116405            2 
 1058000     1.081236   -7.5707855    340.87553  0.026849049  0.027109789            2 
 1059000     1.090285   -7.5506332     341.1704  0.026846899  0.027103341            2 
 1060000    1.0715543    -7.517023    342.61563  0.026935191  0.027096915            2 
 1061000    1.0892711   -7.5112244    342.18382  0.026875889  0.027090679            1 
 1062000    1.0627725   -7.5243383     342.7552  0.026895418  0.027084306            2 
 1063000    1.0675844   -7.5593532    342.48638  0.026849042  0.027077713            2 
 1064000    1.0724638   -7.5384074    342.46858  0.026822414  0.027071048            4 
 1065000    1.0915575   -7.5061277    342.57631  0.026805658  0.027064225            1 
 1066000    1.0880666   -7.5440552    343.08173  0.026820023  0.027057624            3 
 1067000    1.0885025   -7.5803681    341.74503   0.02669049  0.027050806            2 
 1068000    1.0713047   -7.5797432    341.87138  0.026675357  0.027043988            2 
 1069000    1.0757615   -7.5375733    343.66718  0.026790394  0.027037283            1 
 1070000    1.0846635   -7.5052427    343.57614  0.026758267  0.027030417            2 
 1071000     1.067616   -7.5381752    343.54395  0.026730777  0.027023665            2 
 1072000    1.0804837   -7.5490156      343.999  0.026741216  0.027017045            3 
 1073000    1.0909073   -7.5653567    344.05545  0.026720678  0.027010248            4 
 1074000    1.0729166   -7.5180605    343.98075  0.026690002  0.027003548            2 
 1075000    1.0906965   -7.4835005    344.82206  0.026730393  0.026996754            1 
 1076000     1.073686    -7.511756    344.61314   0.02668937  0.026990052            2 
 1077000     1.073127   -7.5578875    345.19668   0.02670974  0.026983263            1 
 1078000    1.0753606   -7.5298321    346.05008  0.026750934  0.026976419            1 
 1079000    1.0796091   -7.5293735    345.16614  0.026657873  0.026969671            2 
 1080000    1.0577309   -7.5331425     346.0875  0.026704282  0.026963102            1 
 1081000    1.0857986   -7.5783542    344.83945  0.026583368  0.026956543            1 
 1082000    1.0715323   -7.5623381    346.73568  0.026704843   0.02694989            2 
 1083000    1.0699372   -7.5790016    346.14537  0.026634762   0.02694333            5 
 1084000     1.071786    -7.531543    347.42754  0.026708759  0.026936565            2 
 1085000    1.0727101   -7.5361264    347.33727   0.02667721  0.026929813            1 
 1086000    1.0742361   -7.5972824     345.8816  0.026540945  0.026922954            4 
 1087000    1.0812217   -7.5602479    345.91628  0.026519187  0.026915785            4 
 1088000     1.074997   -7.5723699     346.8648  0.026567463   0.02690884            3 
 1089000    1.0875334   -7.5645327     346.8522  0.026542103  0.026901962            2 
 1090000    1.0860983    -7.538636    348.02173  0.026607166  0.026894958            3 
 1091000     1.082115   -7.5474161    347.00029  0.026504758  0.026888002            3 
 1092000    1.0921653   -7.5506001    348.47406  0.026592953  0.026881138            1 
 1093000    1.0615503   -7.5523137    348.35151   0.02655928  0.026874245            2 
 1094000    1.0508125   -7.5329329    348.59091  0.026553238  0.026867581            1 
 1095000    1.0601159    -7.557185    349.57714  0.026604044  0.026860735            2 
 1096000     1.077865   -7.5298866    349.27733  0.026556974  0.026854113            3 
 1097000     1.063501   -7.5066245    350.73312  0.026643354  0.026847553            2 
 1098000    1.0656714   -7.5382388    351.32264  0.026663831  0.026841172            2 
 1099000     1.075464    -7.568835    349.93194  0.026534117  0.026834694            1 
 1100000    1.0906224    -7.481698    352.03602  0.026669396  0.026828448            2 
 1101000    1.0835241   -7.5485613    351.29072  0.026588761  0.026822051            6 
 1102000    1.1003978   -7.5769446    351.92023  0.026612238  0.026815893            2 
 1103000    1.0584169   -7.5033591    352.48637  0.026630883  0.026809502            5 
 1104000    1.0551269   -7.5285351    351.81067  0.026555757  0.026803067            3 
 1105000    1.0500097   -7.5618163    352.61061  0.026592052  0.026796744            2 
 1106000     1.078098   -7.5879312    352.21473   0.02653818  0.026790156            5 
 1107000    1.0392117   -7.5746514     351.3544  0.026449443  0.026783649            2 
 1108000    1.0737728   -7.5422478    352.33714  0.026499484  0.026777218            1 
 1109000    1.0862775   -7.5753511    353.22058  0.026541973  0.026770837            2 
 1110000      1.08073   -7.5621263    351.73582  0.026406593  0.026764058            3 
 1111000    1.0753028   -7.5473651    353.84801  0.026541255  0.026757268            1 
 1112000    1.0790067   -7.5712113    353.58457  0.026497644  0.026750581            2 
 1113000    1.0759148   -7.5807166     353.8816  0.026496077   0.02674417            4 
 1114000    1.0746215    -7.564505     353.9535   0.02647767  0.026737645            2 
 1115000    1.0763383   -7.5594382     354.5919  0.026501637  0.026731147            2 
 1116000    1.0385644   -7.5501931    355.20853  0.026523935  0.026724696            2 
 1117000    1.0637571   -7.5532775     355.2127    0.0265005  0.026718168            5 
 1118000    1.0944518   -7.5643001    354.66876  0.026436252  0.026711455            2 
 1119000    1.0671812   -7.5701987    356.46024  0.026546041  0.026704951            1 
 1120000    1.0613842   -7.5905829      356.036  0.026490774  0.026698491            1 
 1121000    1.0666391   -7.5627387    357.15002  0.026549957  0.026692118            5 
 1122000    1.1019257   -7.5642771    356.31967  0.026464622  0.026685838            2 
 1123000    1.0663053   -7.5803437    356.71785  0.026470603  0.026679689            1 
 1124000    1.0847576   -7.5514219    356.97978  0.026466473  0.026673496            3 
 1125000    1.0499827   -7.5442733    357.36444   0.02647144  0.026667213            1 
 1126000    1.0975154   -7.5546967    356.44526  0.026379904  0.026660912            2 
 1127000    1.0649384   -7.5614274    357.95148   0.02646787  0.026654587            1 
 1128000    1.0815732    -7.566199    357.89569  0.026440284  0.026648397            4 
 1129000    1.0721502   -7.5977275    358.18048  0.026437886  0.026642346            3 
 1130000    1.0833666   -7.5768404    358.45457  0.026434703  0.026636201            1 
 1131000    1.0730902   -7.5606895    358.89111  0.026443495  0.026629988            1 
 1132000    1.0820829   -7.5686538    359.91091  0.026495209  0.026623925            2 
 1133000    1.0635909   -7.6216608    358.27567   0.02635155  0.026617694            4 
 1134000    1.0848366    -7.529137    359.33977  0.026406509  0.026611365            3 
 1135000    1.0772423   -7.6063779    358.14635   0.02629562  0.026605245            2 
 1136000    1.0803009    -7.504864    360.50626  0.026445589  0.026598939            2 
 1137000    1.0749018   -7.5783119    359.58604  0.026354884  0.026592571            5 
 1138000    1.0600145   -7.5795028    361.10234   0.02644276  0.026586104            2 
 1139000    1.0829337   -7.6035392    359.88355  0.026330374  0.026579673            4 
 1140000    1.0552883   -7.5704181    358.95966  0.026239741  0.026573066            1 
 1141000    1.0742644   -7.5665944     360.9226  0.026360108  0.026566708            1 
 1142000    1.0741074    -7.556041    362.37808  0.026443234  0.026560365            2 
 1143000    1.0616482   -7.5685938    361.22493  0.026336026  0.026554029            2 
 1144000    1.0348079   -7.5498084    362.33216   0.02639366  0.026547707            1 
 1145000    1.0518473   -7.5703014    362.29495    0.0263679  0.026541265            4 
 1146000     1.055401   -7.5906938    362.16143  0.026335182   0.02653474            2 
 1147000    1.0899635   -7.5519023    362.61616   0.02634526  0.026528278            1 
 1148000    1.0849518   -7.5641891    362.21951  0.026293519  0.026521883            3 
 1149000    1.0617034   -7.5930586    361.75759  0.026237133  0.026515503            2 
 1150000       1.0756   -7.5459266    362.69496  0.026282244  0.026509188            2 
 1151000    1.0778768   -7.5712402    363.56514  0.026322411   0.02650283            2 
 1152000    1.0781437   -7.5844404    363.27671  0.026278697  0.026496302            3 
 1153000     1.078846   -7.5941458    363.20627  0.026250814   0.02648991            1 
 1154000    1.0612439   -7.5787995    363.45288  0.026245875   0.02648329            2 
 1155000    1.1037495   -7.5557164    364.80408  0.026320641  0.026476894            2 
 1156000    1.0801126   -7.5597796     365.1722  0.026324409  0.026470536            1 
 1157000    1.0616355   -7.6144177    364.10994  0.026225147    0.0264642            4 
 1158000    1.0515112   -7.6055066    364.68744  0.026244059  0.026457847            3 
 1159000    1.0533956   -7.5871224    366.35109  0.026341033  0.026451778            3 
 1160000    1.0738053   -7.6138892    364.93314  0.026216462  0.026445621            2 
 1161000     1.088677   -7.5263003    367.95729  0.026410945  0.026439447            2 
 1162000    1.0729849   -7.5841654    366.61923  0.026292257  0.026433304            3 
 1163000    1.0783172   -7.5777065    366.34667   0.02625012  0.026426976            2 
 1164000    1.0910392   -7.5486005    366.14686  0.026213263  0.026420616            4 
 1165000    1.0921344   -7.5863252    365.36085  0.026134539  0.026414147            3 
 1166000    1.0548916   -7.5820087    366.58832  0.026199851  0.026407818            1 
 1167000    1.0464901   -7.5385085    366.79414  0.026192098  0.026401374            1 
 1168000    1.0502794   -7.5711016    366.43754  0.026144231  0.026394948            3 
 1169000    1.0633803   -7.5724972    366.80768  0.026148252   0.02638851            2 
 1170000    1.0623709   -7.5884801     366.9207  0.026133953  0.026382094            2 
 1171000    1.0439152   -7.6167813    366.77353  0.026101162   0.02637552            6 
 1172000     1.074431   -7.5525329    367.42768  0.026125404  0.026368921            2 
 1173000    1.0542496   -7.5884808    367.56395  0.026112812   0.02636238            1 
 1174000    1.0466166   -7.5803139    368.79094  0.026177664  0.026355867            2 
 1175000    1.0750281   -7.6007017    368.31842  0.026121874  0.026349379            2 
 1176000    1.0849081   -7.5403339    369.03776  0.026150635  0.026342957            1 
 1177000    1.0552105    -7.578672    368.86549   0.02611622  0.026336561       -1e+20 
 1178000    1.0682235   -7.5906249    369.86861  0.026165012  0.026330066            1 
 1179000    1.0688401   -7.5739155    369.04436   0.02608456  0.026323554            1 
 1180000    1.0414972   -7.5935447    370.64811  0.026175714  0.026316991            2 
 1181000    1.0622503   -7.5811384     370.7616  0.026161558  0.026310384            2 
 1182000    1.0653699   -7.6347445    369.26757  0.026034093  0.026303913            3 
 1183000    1.0842049   -7.5525283    370.87517  0.026125329  0.026297375            2 
 1184000    1.0508242   -7.5955788    371.66259  0.026158684   0.02629106            1 
 1185000    1.0573284   -7.5827567    370.62678  0.026063768  0.026284769            2 
 1186000    1.0800618   -7.6290457    371.24144   0.02608498  0.026278565            1 
 1187000    1.0606171   -7.5643238      371.933  0.026111556  0.026272282            3 
 1188000    1.0508417   -7.5781197    372.47269  0.026127433  0.026266187            3 
 1189000     1.054996   -7.5689469    373.15964  0.026153605  0.026260155            2 
 1190000     1.062269   -7.6037716    372.26297  0.026068835  0.026253895            1 
 1191000    1.0422374   -7.5877058     373.0722  0.026103568  0.026247683            1 
 1192000    1.0737308   -7.5633502    374.27744  0.026165929  0.026241534            4 
 1193000    1.0763296    -7.578798    374.07797  0.026130062  0.026235663            2 
 1194000    1.0410093   -7.6335348    374.10849  0.026110308  0.026229605            2 
 1195000    1.0594852   -7.5904055    373.49569  0.026045724  0.026223492            2 
 1196000    1.0512996   -7.5968994    374.64016   0.02610369  0.026217281            2 
 1197000    1.0613123   -7.5678899     374.0089  0.026037935  0.026211084            1 
 1198000     1.060824   -7.5515412    375.59056  0.026126222  0.026204962            2 
 1199000    1.0613401   -7.6162387    375.24669  0.026080532  0.026198888            1 
 1200000     1.049787   -7.5948204     374.2252  0.025987861  0.026192701            4 
 1201000    1.0606715   -7.5984689     375.5557  0.026058541  0.026186607            2 
 1202000    1.0578911    -7.592349    375.99564  0.026067363  0.026180333            2 
 1203000    1.0785252   -7.5788686      376.004  0.026046273  0.026174214            2 
 1204000    1.0554886   -7.5959233    374.99549  0.025954837  0.026168086            3 
 1205000    1.0521904   -7.5707461    376.05391  0.026006494  0.026161771            4 
 1206000    1.0638541   -7.6168163    375.47475  0.025944911   0.02615535            1 
 1207000    1.0717976   -7.5645088    376.24518  0.025976608  0.026148945            2 
 1208000    1.0713187   -7.6034008    376.53343  0.025974988   0.02614269            2 
 1209000    1.0520311   -7.6047666    376.78621  0.025970927  0.026136472            3 
 1210000    1.0612054   -7.5925192    377.80225  0.026019439  0.026130272            2 
 1211000     1.062531   -7.6513292    377.12491  0.025951343  0.026124139            1 
 1212000    1.0666209   -7.5844027       378.23  0.026005913  0.026118048            6 
 1213000    1.0630736   -7.5848226    377.40666   0.02592791  0.026111767            3 
 1214000    1.0548496   -7.6005403     377.7174  0.025927883  0.026105546            5 
 1215000      1.08057   -7.5977119    378.48482  0.025959179  0.026099439            1 
 1216000    1.0891312   -7.6116748    378.63439   0.02594808  0.026093237            1 
 1217000    1.0498297   -7.6169089    378.61179  0.025925211  0.026086893            1 
 1218000    1.0405472   -7.5826871    379.21787  0.025945394  0.026080544            2 
 1219000    1.0885103   -7.5802391    378.60277   0.02588206  0.026074389            1 
 1220000    1.0581497   -7.5919862    380.03344  0.025958568  0.026068147            2 
 1221000     1.025637   -7.6163564    379.67476  0.025912828  0.026061856            4 
 1222000    1.0653781   -7.5846317    378.78181  0.025830729  0.026055412            2 
 1223000     1.057604   -7.6028358    379.28154  0.025843659  0.026049078            4 
 1224000    1.0711772   -7.5852162    381.26093  0.025957307  0.026042916            3 
 1225000    1.0463093    -7.602039    380.97583  0.025916723  0.026036716            1 
 1226000    1.0296764   -7.5988361     380.5728  0.025868189  0.026030656            5 
 1227000    1.0651726   -7.5958954    381.78654   0.02592954  0.026024495            2 
 1228000    1.0663311   -7.5534825    382.24053  0.025939233  0.026018481            2 
 1229000    1.0609393    -7.612243    383.15477  0.025980118  0.026012349            3 
 1230000    1.0714394   -7.6137526    381.01748  0.025814192  0.026006121            2 
 1231000    1.0490148   -7.6000039    381.39113  0.025818517  0.026000013            1 
 1232000    1.0544876    -7.633723    382.03424  0.025841061  0.025993929            1 
 1233000     1.059895    -7.640052    381.71389  0.025798451  0.025987777            3 
 1234000    1.0403452   -7.5891375    383.25896  0.025881886  0.025981655            1 
 1235000    1.0466926   -7.6042063    382.99301  0.025842983  0.025975602            4 
 1236000    1.0319556    -7.608377    383.63623  0.025865441  0.025969649            6 
 1237000    1.0787352   -7.5616561    385.32943  0.025958598  0.025963671            6 
 1238000    1.0572611   -7.5920506    382.96685  0.025778598  0.025957757            3 
 1239000    1.0470984    -7.658895    382.52071  0.025727785  0.025951493            2 
 1240000    1.0147036   -7.6092936    384.01599  0.025807526  0.025945214            1 
 1241000    1.0323154   -7.6111915    383.53074  0.025754146  0.025939003            3 
 1242000    1.0421971   -7.5899858    385.13698  0.025841182  0.025932842            2 
 1243000    1.0388889   -7.6228054    383.93535  0.025739833  0.025926627            1 
 1244000    1.0513492   -7.6215239    384.17119   0.02573494  0.025920288            2 
 1245000     1.036442    -7.577175    386.25426  0.025853699  0.025914113            1 
 1246000    1.0593417   -7.6253431    385.85008  0.025805918  0.025908035            3 
 1247000    1.0613298   -7.5993288    385.59872  0.025768425  0.025901847            1 
 1248000    1.0402758   -7.6222175    385.86615  0.025765635  0.025895681            1 
 1249000    1.0234761   -7.6221403    387.56887  0.025858612  0.025889613            2 
 1250000    1.0414369   -7.6307403    386.02546  0.025735031  0.025883588            3 
 1251000    1.0610111   -7.6142611    386.28997  0.025732079  0.025877552            2 
 1252000    1.0500145   -7.6350103    387.05646  0.025762544    0.0258716            2 
 1253000    1.0497868   -7.6202511    386.99489  0.025737888  0.025865513            2 
 1254000    1.0521297    -7.631278    386.42795  0.025679689  0.025859398            4 
 1255000    1.0426776   -7.6309387    386.88985  0.025689897  0.025853284            2 
 1256000    1.0539895   -7.6283026     386.7535  0.025660397  0.025847096            1 
 1257000    1.0389435   -7.5950804    387.97119   0.02572071  0.025840966            3 
 1258000     1.052465   -7.6268131    388.29297   0.02572158  0.025834832            2 
 1259000    1.0649674   -7.5704376    388.51919  0.025716123  0.025828683            2 
 1260000    1.0446953   -7.6266507    387.57295  0.025633132  0.025822452            4 
 1261000    1.0597902    -7.633142    388.83901  0.025696471  0.025816068            1 
 1262000    1.0643141   -7.5816062    388.48403  0.025652669  0.025809754            1 
 1263000     1.043767   -7.6253873    389.26514  0.025683897  0.025803468            2 
 1264000    1.0301827   -7.6278632    389.13918  0.025655273  0.025797128            2 
 1265000    1.0582559   -7.6042876     389.5447  0.025661706  0.025790703            2 
 1266000      1.03559   -7.5999162    388.98538  0.025604619  0.025784418            1 
 1267000    1.0670998     -7.60391    390.49589   0.02568376  0.025778339            3 
 1268000    1.0658448   -7.6114408    389.49692  0.025597852  0.025772109            3 
 1269000    1.0505997   -7.6001878    390.83361  0.025665459  0.025765837            2 
 1270000    1.0331195   -7.5607552    391.17222  0.025667468  0.025759662            2 
 1271000    1.0577688   -7.5884654    391.49992  0.025668759  0.025753517            2 
 1272000    1.0634077   -7.6420597    389.54245  0.025520339  0.025747245            2 
 1273000    1.0604464   -7.6365322    390.38398  0.025555379  0.025740925            2 
 1274000    1.0456644   -7.6197312    390.82779  0.025564351   0.02573456            2 
 1275000    1.0261504   -7.6063549    391.76037  0.025605253  0.025728268            1 
 1276000     1.006842   -7.6262204    391.40519   0.02556199  0.025722239            3 
 1277000    1.0307195   -7.6285251    391.78595   0.02556682   0.02571602            5 
 1278000    1.0781838   -7.6645933    391.10758  0.025502581  0.025709777            5 
 1279000     1.038221   -7.6634656     391.4139    0.0255026  0.025703503            1 
 1280000    1.0342357    -7.600579    392.66275  0.025563981  0.025697303            3 
 1281000    1.0439121   -7.5988046    393.61245  0.025605806   0.02569119            1 
 1282000    1.0319626   -7.6177036    392.44457  0.025509918  0.025685158            2 
 1283000    1.0264199   -7.6360419    393.07861  0.025531216  0.025678895            3 
 1284000    1.0312475    -7.636232    393.07113  0.025510847  0.025672529            2 
 1285000    1.0693157   -7.6084877    394.22951  0.025566116  0.025666188            3 
 1286000    1.0407561   -7.6183003    392.15192  0.025411607  0.025659805            2 
 1287000    1.0467742   -7.6124373    394.19004  0.025523831  0.025653557            3 
 1288000     1.050972   -7.5986786    392.97238  0.025425232  0.025647339            3 
 1289000    1.0622235    -7.647331    393.45175  0.025436498  0.025640828            4 
 1290000    1.0450808   -7.6382377    394.74529  0.025500341  0.025634366            2 
 1291000    1.0535519   -7.6342897    393.63334  0.025408813  0.025627928            3 
 1292000    1.0404171   -7.6427072    393.61099  0.025387705  0.025621544            1 
 1293000     1.056311   -7.6300191     392.5158  0.025297486  0.025614955            1 
 1294000    1.0621319    -7.603258    395.13825  0.025446822  0.025608419            4 
 1295000    1.0406475   -7.5989711    395.27295   0.02543584  0.025601848            2 
 1296000    1.0478156   -7.6082403    394.52634  0.025368206  0.025595308            2 
 1297000    1.0624526   -7.6147315     395.8313  0.025432492  0.025588882            5 
 1298000    1.0448513   -7.6033507    396.12123  0.025431512  0.025582478            2 
 1299000    1.0651851   -7.6137304    396.74901  0.025452207   0.02557597            2 
 1300000    1.0606543    -7.665734    395.35974  0.025343573  0.025569524            2 
 1301000    1.0467223   -7.6242853    395.24775   0.02531692     0.025563            2 
 1302000    1.0171972   -7.6167112    396.07075  0.025350151  0.025556532            2 
 1303000     1.040265   -7.6284596     396.6183  0.025365714  0.025550051            2 
 1304000    1.0511711   -7.6360663    397.65547  0.025412543  0.025543556            2 
 1305000    1.0644533   -7.6522076    396.02047  0.025288664  0.025537149            4 
 1306000    1.0599023   -7.6427513    397.11702  0.025339269   0.02553047            4 
 1307000    1.0455095   -7.6748564    396.81562  0.025300664  0.025524046            1 
 1308000    1.0284433   -7.6534952    396.75674   0.02527757  0.025517605            1 
 1309000    1.0364035   -7.6131526    398.09024  0.025343153  0.025511191            1 
 1310000     1.023574   -7.6279147    396.78854  0.025241001  0.025504739            2 
 1311000    1.0294952    -7.610927    398.19078  0.025310881  0.025498161            3 
 1312000    1.0539338    -7.626287     397.7002   0.02526043  0.025491606            3 
 1313000    1.0445736   -7.6308113     398.9807  0.025322461  0.025485107            2 
 1314000    1.0356157   -7.6227617    399.62504  0.025344054  0.025478416            1 
 1315000    1.0532014   -7.6129781    399.09272  0.025291047  0.025471791            2 
 1316000    1.0758432   -7.6481463    398.85838   0.02525699  0.025465289            3 
 1317000    1.0367387   -7.6702619    397.48849  0.025151132  0.025458687            3 
 1318000    1.0286621    -7.577696    400.43536  0.025318371  0.025452129            3 
 1319000     1.025353   -7.6248898    399.43827  0.025236181  0.025445567            1 
 1320000    1.0430349   -7.6226355    399.12139  0.025197057   0.02543909            4 
 1321000    1.0464533   -7.6225849    399.67643  0.025212997  0.025432684            1 
 1322000    1.0371899   -7.6413169    400.48438  0.025244855  0.025426141            3 
 1323000    1.0322487   -7.6419067    399.86537  0.025186783  0.025419689            1 
 1324000    1.0537199   -7.6620741    399.91618  0.025170958  0.025413033            2 
 1325000    1.0395922   -7.6585368    401.40374  0.025245518   0.02540647            1 
 1326000    1.0355464   -7.6495479     400.2633  0.025154808  0.025399914            3 
 1327000    1.0397816   -7.6337684    401.07117  0.025186584   0.02539327            2 
 1328000    1.0192642   -7.6424535    399.67791   0.02508019  0.025386598            1 
 1329000    1.0364959   -7.7065538    399.93314  0.025077323  0.025379812            2 
 1330000    1.0389539   -7.6909903     399.5257  0.025032938  0.025372946            2 
 1331000    1.0182051   -7.6129886    401.86487  0.025160586  0.025366131            3 
 1332000    1.0609058   -7.6246756    401.87568  0.025142373  0.025359299            2 
 1333000    1.0569191   -7.6276035    401.94447  0.025127811   0.02535258            2 
 1334000    1.0347629   -7.6229853    402.47713   0.02514225  0.025345794            4 
 1335000    1.0232634   -7.6689377    400.64848  0.025009269  0.025338931            2 
 1336000    1.0623914   -7.6496589     402.0742  0.025079478  0.025331971            2 
 1337000    1.0423087   -7.6461961    403.33244  0.025139145  0.025325254            2 
 1338000    1.0348156   -7.6736295    402.67213  0.025079231  0.025318561            2 
 1339000    1.0349717   -7.6873457    402.29054  0.025036753  0.025311856            2 
 1340000    1.0485551   -7.6257509    403.66428    0.0251035  0.025305025            2 
 1341000    1.0300091   -7.6988665     402.4622   0.02501008  0.025298393            2 
 1342000    1.0383931   -7.6742525    402.35125  0.024984553  0.025291575            3 
 1343000    1.0316756   -7.6678121    403.40971  0.025031628   0.02528478            2 
 1344000    1.0623058   -7.6274888    404.10377  0.025056037  0.025278029            2 
 1345000    1.0588705   -7.6752646    404.29648  0.025049348   0.02527136            3 
 1346000    1.0157117   -7.6677516    403.73427  0.024995931  0.025264569            1 
 1347000    1.0204699   -7.6470082    403.96633   0.02499173  0.025257605            2 
 1348000    1.0369417   -7.6628232    403.40127  0.024938259  0.025250578            1 
 1349000    1.0488485   -7.6689201    405.73915  0.025064192  0.025243727            4 
 1350000    1.0438462   -7.6392718    403.90985  0.024932706  0.025236882            5 
 1351000    1.0411231   -7.6677145    404.71072  0.024963652  0.025229914            2 
 1352000    1.0234705    -7.668026    404.60951  0.024938949  0.025222946            2 
 1353000    1.0530393   -7.6825018    404.27367  0.024899832  0.025215843            1 
 1354000    1.0388312   -7.6553758    404.80903  0.024914391  0.025208856            2 
 1355000    1.0585106   -7.6683808    404.80545  0.024895784  0.025201874            2 
 1356000    1.0324846   -7.6790056    404.93334  0.024885284  0.025194946            4 
 1357000    1.0205377   -7.6770999    405.81681  0.024921199  0.025187991            2 
 1358000    1.0452082    -7.683581    404.36157  0.024813548  0.025181125            3 
 1359000    1.0419235   -7.6741796      405.154   0.02484388  0.025174314            3 
 1360000    1.0298018   -7.6874462    405.85316  0.024868453  0.025167176            5 
 1361000    1.0472104   -7.6319943    406.13517  0.024867448  0.025160093            1 
 1362000    1.0227661   -7.6538655    406.03095  0.024842814  0.025153139            2 
 1363000    1.0116458   -7.6669792    406.51866  0.024854406   0.02514604            1 
 1364000    1.0456447   -7.7004662    407.41973  0.024891235   0.02513894            3 
 1365000    1.0388017    -7.675368    406.98501   0.02484646  0.025131834            2 
 1366000    1.0508366   -7.6429512     408.0326  0.024892179  0.025124814            1 
 1367000    1.0236497   -7.6758944    407.13401  0.024819191  0.025117769            1 
 1368000     1.057321   -7.6313215    407.64788  0.024832351  0.025110702            1 
 1369000    1.0343992   -7.6711334    408.20985  0.024848421  0.025103649            2 
 1370000    1.0437283     -7.65962    405.52742  0.024667118  0.025096407            1 
 1371000    1.0156318   -7.6901474     406.6635   0.02471818   0.02508921            2 
 1372000     1.039035   -7.6698133    407.32837  0.024740548   0.02508204            3 
 1373000     1.035544   -7.6307628    408.82018  0.024813072  0.025074867            3 
 1374000     1.043826   -7.6656781    406.57245  0.024658688  0.025067727            1 
 1375000    1.0224088   -7.6613748    409.04047  0.024790331  0.025060639            2 
 1376000    1.0320438   -7.6733285    407.83398  0.024699248  0.025053422            4 
 1377000    1.0335571   -7.6489877    409.29365  0.024769647  0.025046256            1 
 1378000    1.0240398   -7.6544979    408.47289  0.024702037  0.025039171            3 
 1379000     1.023011   -7.6647354     408.6504  0.024694851  0.025032012            1 
 1380000    1.0257518   -7.6921643    408.23577  0.024651918  0.025024829            2 
 1381000     1.031304   -7.6863772    409.29513  0.024697992  0.025017629            1 
 1382000    1.0294078    -7.696051    409.36603  0.024684397  0.025010519            3 
 1383000    1.0378864   -7.6667179      410.063  0.024708544  0.025003422            1 
 1384000      1.01031   -7.6671651    410.14287    0.0246955  0.024996294            2 
 1385000     1.027502   -7.6734489    410.38464  0.024692216  0.024989253            2 
 1386000    1.0070158   -7.6533827    408.96814  0.024589234  0.024982073            3 
 1387000    1.0558158   -7.6529506    410.18419  0.024644568  0.024974749            4 
 1388000    1.0281582   -7.7127525    408.69704  0.024537526  0.024967399            2 
 1389000    1.0255626   -7.6581792    411.09046  0.024663454    0.0249601            3 
 1390000    1.0301459   -7.7049545    410.48552  0.024609444  0.024952923            5 
 1391000    1.0182946   -7.6856092     410.3692  0.024584783  0.024945754            3 
 1392000    1.0298739   -7.6629026    412.11936  0.024671896  0.024938747            3 
 1393000    1.0205356   -7.6775819    411.40854  0.024611662  0.024931605            3 
 1394000    1.0292455   -7.6753888    412.40775  0.024653739   0.02492467            2 
 1395000     1.034509   -7.6613186    412.88784  0.024664745  0.024917636            2 
 1396000    1.0155313   -7.6885698    410.38102  0.024497435  0.024910502            2 
 1397000    1.0499836   -7.6684123    412.85548  0.024627504  0.024903263            2 
 1398000    1.0167055   -7.6601564    414.05162  0.024681189  0.024896131            3 
 1399000    1.0561073   -7.6351638    413.94565  0.024657234   0.02488915            4 
 1400000    1.0149332   -7.6796333    412.61573   0.02456046  0.024882137            2 
 1401000    1.0292074     -7.69031    413.32383  0.024585048  0.024874985            4 
 1402000    1.0395053   -7.6731665    413.20111  0.024560218   0.02486791            2 
 1403000    1.0175021   -7.7178168    413.22808  0.024544314  0.024860756            1 
 1404000    1.0151521    -7.693448    413.32595  0.024532642  0.024853531            1 
 1405000    1.0218832   -7.6992749    413.93331  0.024551204  0.024846509            5 
 1406000    1.0328723   -7.6967688    413.74867  0.024522799  0.024839342            2 
 1407000    1.0136834   -7.6971902    412.71013   0.02444386  0.024832211            1 
 1408000    1.0214224   -7.6786819    413.67936  0.024483864   0.02482504            2 
 1409000    1.0274429   -7.6920879    414.74749   0.02452966  0.024817884            4 
 1410000    1.0230723   -7.6935633    414.40389  0.024491956  0.024810719            2 
 1411000    1.0455981   -7.6437009     415.3437  0.024530103  0.024803624            2 
 1412000     1.019611   -7.6565746    414.42804   0.02445869  0.024796571            4 
 1413000    1.0255159   -7.6801729    415.42109  0.024499946  0.024789479            2 
 1414000    1.0374034   -7.6715078    415.03625  0.024459939  0.024782363            1 
 1415000    1.0386675   -7.6664779    415.40191  0.024464188  0.024775256            2 
 1416000    1.0310711   -7.7082191    416.05001  0.024485052  0.024768159            2 
 1417000     1.013687   -7.6904656    415.44335  0.024432095  0.024760933            2 
 1418000   0.98851644   -7.6911732    415.34183  0.024408899  0.024753648            1 
 1419000    1.0480706     -7.71438    415.34152   0.02439168  0.024746416            2 
 1420000    1.0226092   -7.6700113    416.79367  0.024459722  0.024739293            3 
 1421000     1.022947   -7.6637165    416.16342  0.024405549  0.024732124            3 
 1422000    1.0117011   -7.6737241    417.18266  0.024448117  0.024725024            2 
 1423000    1.0093116   -7.7105258    416.49272  0.024390532  0.024717781            3 
 1424000    1.0156472   -7.6797042    416.96491  0.024401037   0.02471053            2 
 1425000    1.0474987    -7.703217    416.46639   0.02435476  0.024703235            2 
 1426000    1.0209631   -7.6885455    417.10918  0.024375244  0.024695953            2 
 1427000     1.020579   -7.6535856    416.90145  0.024346032  0.024688708            3 
 1428000    1.0023508   -7.7385191    414.95221  0.024215232  0.024681288            2 
 1429000    1.0314584   -7.7115249    416.34234  0.024279353  0.024673883            3 
 1430000    1.0206824    -7.693285    417.50328  0.024330028  0.024666364            2 
 1431000    1.0397533   -7.6818077    416.61874  0.024261515   0.02465886            6 
 1432000    1.0084023   -7.6913737    417.38925  0.024289411   0.02465144            3 
 1433000    1.0224372   -7.6868697    417.23811  0.024263673  0.024643955            1 
 1434000    1.0199858   -7.6728624    417.30787  0.024250806  0.024636478            7 
 1435000    1.0169219   -7.6926002     417.4921  0.024244605  0.024628955            5 
 1436000     1.029445   -7.6817253    417.73006  0.024241531   0.02462144            1 
 1437000    1.0085144   -7.6989854    416.50563  0.024153655  0.024613818            4 
 1438000    1.0146324   -7.7182956    416.63495  0.024144353  0.024606278            3 
 1439000    1.0114306   -7.6990371    418.25535  0.024221413   0.02459877            4 
 1440000     1.026511   -7.7109484    418.02109  0.024191035  0.024591157            1 
 1441000    1.0104212   -7.6704357    418.08684   0.02417805  0.024583474            1 
 1442000    1.0156823   -7.7121802    418.46045  0.024182874    0.0245758            1 
 1443000    1.0257015   -7.7048307    417.04398  0.024084314  0.024568014            4 
 1444000    1.0337355   -7.6914955    417.59759  0.024099584  0.024560321            1 
 1445000   0.97740965   -7.7171907    419.05131  0.024166742  0.024552657            1 
 1446000    1.0481452   -7.7047097    419.29606  0.024164134  0.024544986            1 
 1447000   0.99598856   -7.6927068      418.858  0.024122207  0.024537437            2 
 1448000     1.022881    -7.703336    419.13135  0.024121279  0.024529915            2 
 1449000    1.0296937   -7.7186427    419.46363  0.024123742  0.024522383            4 
 1450000    1.0184591   -7.6620967    419.39565  0.024103198   0.02451476            2 
 1451000    1.0296307   -7.6798839    418.85786  0.024055701  0.024507196            3 
 1452000    1.0316709   -7.6866428    420.02721  0.024106245  0.024499592            2 
 1453000    1.0143043   -7.6826145    419.50547  0.024059731  0.024492004            2 
 1454000    1.0273764   -7.7011595    419.24095  0.024028023  0.024484312            1 
 1455000    1.0185461   -7.7116358    419.75138  0.024040744  0.024476435            1 
 1456000    1.0427959   -7.7361422    420.19517  0.024049632  0.024468518            4 
 1457000     1.038334   -7.7463889    418.08777  0.023912592  0.024460602            2 
 1458000    1.0289505   -7.7068266    419.72595  0.023989824  0.024452811            2 
 1459000   0.99123678   -7.7304194    420.00282  0.023989195  0.024444952            2 
 1460000    1.0239907   -7.7133311    419.59103   0.02394926  0.024436945            2 
 1461000    1.0260669   -7.6877406    421.18824   0.02402397  0.024429053            3 
 1462000    1.0147078   -7.7069832    420.25523  0.023954357  0.024421188            2 
 1463000    1.0197539   -7.7070721    420.35097  0.023943436   0.02441326            2 
 1464000    1.0172878   -7.7404876    421.63852  0.024000371  0.024405398            2 
 1465000    1.0101801   -7.6920427    421.49144  0.023975622  0.024397638            4 
 1466000    1.0131118    -7.663798    421.98848  0.023987521  0.024389834            2 
 1467000    1.0031142    -7.683579    423.00353   0.02402883  0.024382137            2 
 1468000    1.0334365   -7.7573886    421.30035  0.023915778  0.024374504            3 
 1469000    1.0176838   -7.7084947    422.39511  0.023961601  0.024366876            1 
 1470000     1.012506   -7.6714293    423.30804  0.023997054  0.024359296            2 
 1471000   0.99048959   -7.6797789    422.14806  0.023915027  0.024351659            1 
 1472000    1.0254041   -7.7156194    422.08672  0.023895308  0.024343947            5 
 1473000    1.0258008   -7.6942855    422.12721  0.023881377  0.024336205            2 
 1474000    1.0074422   -7.6447286    424.20825  0.023982827  0.024328485            2 
 1475000    1.0331966   -7.6777431     423.0385   0.02390048  0.024320821            2 
 1476000    1.0032091     -7.71628    422.56666  0.023857648  0.024313044            1 
 1477000    1.0034743   -7.7418896    422.11606  0.023816072  0.024305183            3 
 1478000    1.0070863   -7.7016921    422.56547  0.023825297  0.024297305            2 
 1479000    1.0113756   -7.7288685    423.19634  0.023844734  0.024289571            3 
 1480000    1.0251242   -7.7339417    421.75068  0.023747223  0.024281798            1 
 1481000    1.0213371   -7.7627524    421.75542  0.023731455  0.024273837            3 
 1482000     1.046486   -7.7158668    423.37799  0.023806679  0.024265855            2 
 1483000   0.99159171   -7.7162086    424.11318  0.023831938  0.024258015            4 
 1484000    1.0089419   -7.6849121    426.18545  0.023932247  0.024250222            2 
 1485000    1.0191561   -7.6584575    424.50636  0.023821906   0.02424254            2 
 1486000     1.034852   -7.7372213    423.51265  0.023750148  0.024234743            2 
 1487000    1.0057446   -7.7117635    425.33466  0.023836285  0.024227031            2 
 1488000     1.021447   -7.7133716    425.22279  0.023814001  0.024219194            2 
 1489000    1.0247123    -7.691982    425.11455  0.023791949  0.024211403            2 
 1490000    1.0004916   -7.6883419    425.19411  0.023780431  0.024203846            1 
 1491000    1.0201059   -7.7272696    426.25145  0.023823578  0.024196224            3 
 1492000    1.0097606   -7.7065526    426.62887   0.02382869  0.024188656            3 
 1493000     1.011042   -7.7165512     426.3455  0.023796913  0.024181188            4 
 1494000    1.0037931   -7.7226557    426.60022  0.023795193  0.024173705            1 
 1495000    1.0118105   -7.7054625    427.70548  0.023840885  0.024166244            2 
 1496000   0.99480193   -7.7067603    427.08756  0.023790528  0.024158721            5 
 1497000   0.99654295   -7.7459248    426.21726  0.023726189  0.024151175            6 
 1498000    1.0178271   -7.6806925    426.76834  0.023741007  0.024143678            7 
 1499000   0.99726883   -7.6985624    427.63707  0.023773464  0.024136291            2 
 1500000   0.99899734   -7.7282647    427.95381  0.023775212  0.024128889            6 
 1501000    1.0119056   -7.7742394    427.85613  0.023753949  0.024121431            3 
 1502000     1.023969   -7.7240319    428.05496  0.023749165   0.02411394            5 
 1503000    1.0379936   -7.7348449     427.6622  0.023711588  0.024106498            2 
 1504000    1.0039227   -7.6877718    427.70015  0.023697925  0.024099051            1 
 1505000   0.99579063   -7.7127661    427.78386  0.023686814  0.024091666            2 
 1506000    1.0190516   -7.7158282    428.51006   0.02371127  0.024084134            2 
 1507000    1.0007676   -7.7323352    429.37854   0.02374356  0.024076599            2 
 1508000    1.0229758   -7.7308462    429.18713  0.023717238   0.02406917            1 
 1509000    1.0068664   -7.7113185    429.55439  0.023721802  0.024061653            2 
 1510000    1.0122315   -7.7294093    428.67193  0.023657391  0.024054216            1 
 1511000    1.0217582   -7.7042983    430.62436  0.023749413  0.024046817            3 
 1512000    1.0018755   -7.7097035    430.98318  0.023753482  0.024039424            3 
 1513000     1.003189   -7.7534312    429.98293   0.02368269  0.024031954            3 
 1514000     0.988892   -7.6968614    430.04884  0.023670676   0.02402455            2 
 1515000      1.02705   -7.7000015    430.13035  0.023659535   0.02401712            2 
 1516000    1.0164515   -7.7042284    432.29331  0.023762825  0.024009782            3 
 1517000    1.0257537   -7.6870146    430.89063  0.023670107  0.024002458            1 
 1518000   0.98559464   -7.7371646    430.90636  0.023655378  0.023995044            4 
 1519000    1.0201007   -7.7523167     431.7985  0.023688748  0.023987629            3 
 1520000    1.0154515   -7.6691318    432.08173  0.023688691   0.02398037            2 
 1521000     1.018246   -7.7243799    431.22819  0.023626353  0.023973228            4 
 1522000     1.031617   -7.7074666    432.52784  0.023681988  0.023965997            3 
 1523000    1.0228422   -7.7158174    431.21288  0.023594489  0.023958657            1 
 1524000   0.99825591   -7.7464187    431.54602  0.023597223   0.02395123            5 
 1525000    0.9923981   -7.7075929     431.3033  0.023568486  0.023943794            2 
 1526000    1.0075707   -7.7249094    431.91492  0.023586441  0.023936463            1 
 1527000    1.0097768   -7.7341551     432.0747  0.023579715  0.023929025            2 
 1528000    1.0028663   -7.7115219    432.82951  0.023605449  0.023921521            3 
 1529000    1.0109864   -7.7351994    432.58018  0.023576422  0.023914094            2 
 1530000   0.99401061   -7.7316987    432.08362  0.023533966   0.02390673            1 
 1531000   0.99344272   -7.7549066    432.14369  0.023521864    0.0238994            2 
 1532000   0.99538461   -7.7468754    432.09086  0.023503637   0.02389206            1 
 1533000    1.0120252   -7.7432707    432.65635  0.023519045   0.02388467            2 
 1534000    1.0141044    -7.742612    433.68611  0.023559654  0.023877319            1 
 1535000   0.99870461   -7.7169974    433.05251  0.023509908  0.023869999            1 
 1536000   0.99444252   -7.7382795    433.19439    0.0235023  0.023862604            2 
 1537000    1.0364236   -7.7584864    432.26769  0.023436765  0.023855154            6 
 1538000    1.0102663   -7.7797544    432.80179  0.023450465   0.02384762            3 
 1539000    1.0065026    -7.720882    433.55947  0.023476254  0.023840144            3 
 1540000    1.0159528   -7.7746016    434.87759  0.023532337  0.023832708            2 
 1541000   0.99194177   -7.7382386    435.19369   0.02353416  0.023825331            3 
 1542000   0.99520682   -7.7380635    434.44539  0.023478458     0.023818            2 
 1543000    1.0118094   -7.7384405    434.40266  0.023460934  0.023810687            1 
 1544000    1.0150187   -7.7477075    434.90889  0.023473062   0.02380343            2 
 1545000   0.99373254    -7.748445    434.96656  0.023460979  0.023796062            2 
 1546000   0.98320381    -7.733802    435.47072   0.02347298  0.023788711            3 
 1547000    1.0225142   -7.7191101    436.92279  0.023536026  0.023781402            4 
 1548000     1.011688   -7.7325022    436.24184  0.023484165  0.023774151            8 
 1549000    1.0052646   -7.7434836     436.6677  0.023491914    0.0237669            3 
 1550000    1.0338686   -7.7095133    436.99932  0.023494587  0.023759716            3 
 1551000   0.99738047     -7.76011    435.75123  0.023412381  0.023752512            2 
 1552000   0.99502418   -7.7172048    438.08092  0.023522386  0.023745208            1 
 1553000    1.0218982   -7.7114348    437.53162  0.023477764  0.023738003            6 
 1554000    1.0048804    -7.714865    437.46483  0.023459075  0.023730829            2 
 1555000    1.0085543   -7.7642708    437.69383  0.023456261  0.023723609            6 
 1556000    1.0090976   -7.7979113    436.96048  0.023401911  0.023716374            2 
 1557000    1.0038441   -7.7320658    437.34481  0.023407451  0.023709087            3 
 1558000   0.98785055       -7.798    435.62898  0.023300651  0.023701663            3 
 1559000   0.99295476   -7.7420177    437.59935  0.023391028  0.023694225            2 
 1560000   0.98212555   -7.7470508    437.70134  0.023381482  0.023686905            2 
 1561000     0.981472   -7.7159479    437.79173  0.023371329  0.023679586            3 
 1562000    1.0131119   -7.7449182    438.90195  0.023415597  0.023672317            3 
 1563000   0.99179555   -7.7612809    437.98035  0.023351479  0.023664956            2 
 1564000    1.0058428   -7.7659174    437.27599  0.023299019  0.023657578            2 
 1565000   0.99456906   -7.7618701    438.28608  0.023337917  0.023650224            2 
 1566000    1.0169674   -7.7862458    437.81461  0.023297925  0.023642914            6 
 1567000    1.0123247   -7.7500671    440.29481  0.023414955  0.023635587            1 
 1568000    1.0071559    -7.753524    438.44659  0.023301796  0.023628252            3 
 1569000    1.0082045   -7.7638726    439.47644  0.023341642  0.023620994            4 
 1570000    1.0048905    -7.788067    439.11474  0.023307577  0.023613768            2 
 1571000    1.0063299    -7.750131    441.19451  0.023403061  0.023606493            3 
 1572000   0.97064348   -7.7292565    439.65949  0.023306801  0.023599348            2 
 1573000   0.99874007   -7.7539974    441.39799  0.023384085  0.023592222            2 
 1574000   0.99771299   -7.7186479    441.43406  0.023371138  0.023585176            4 
 1575000     1.010252   -7.7731269    440.38825  0.023300965  0.023578071            1 
 1576000    0.9963278   -7.7577395      441.687  0.023354854  0.023570928            1 
 1577000    1.0130996   -7.7699019    441.16076  0.023312237  0.023563841            2 
 1578000    1.0181499   -7.7500045    440.59707  0.023267695  0.023556697            3 
 1579000   0.98172735    -7.779073    440.16681  0.023230252  0.023549492            1 
 1580000    0.9729638   -7.7348013    441.38468  0.023279783  0.023542277            2 
 1581000    1.0234821   -7.7220321    441.52117  0.023272252  0.023535209            1 
 1582000    1.0132555   -7.7656941    442.11161  0.023288644  0.023528088            2 
 1583000    1.0140291   -7.7735142    442.02497  0.023269371  0.023520983            2 
 1584000    1.0030036   -7.7182662    443.94726  0.023355811  0.023513887            2 
 1585000    1.0044989   -7.7204118     443.1851  0.023301004  0.023506842            1 
 1586000   0.99324888   -7.7433915    443.70826  0.023313801  0.023499902            3 
 1587000    1.0160842   -7.7728811    443.26361  0.023275762  0.023492911            2 
 1588000   0.98356347   -7.7475642    444.07469  0.023303668  0.023485957            2 
 1589000    1.0141025   -7.7651995    444.73889  0.023323835   0.02347906            3 
 1590000     1.005712   -7.7309685    444.55434  0.023299494  0.023472148            2 
 1591000   0.99611242   -7.7297341     444.1019  0.023261151  0.023465275            1 
 1592000   0.99374687   -7.7154282    445.63489  0.023326784  0.023458488            4 
 1593000   0.99444124   -7.7644442    445.12929  0.023285692  0.023451655            3 
 1594000    1.0002045    -7.771115    446.06368  0.023319933  0.023444921            3 
 1595000   0.98779539   -7.7625736    444.81776  0.023240217  0.023438147            1 
 1596000   0.99797242   -7.7852055    445.57501  0.023265195  0.023431306            2 
 1597000    1.0108521   -7.7516451     444.6688  0.023203339  0.023424429            3 
 1598000   0.99330745   -7.7257263    446.72045   0.02329581  0.023417639       -1e+20 
 1599000    1.0055111   -7.7716239    446.25743   0.02325711  0.023410853            2 
 1600000   0.99177261   -7.7726227    445.17137  0.023186009   0.02340392            5 
 1601000   0.99492059   -7.7852116    445.66556   0.02319725  0.023396986            2 
 1602000   0.97782269   -7.8097321    446.20307   0.02321073   0.02339007            2 
 1603000   0.98954788   -7.7490615    446.86835  0.023230835  0.023383245            3 
 1604000   0.98654168   -7.7611285    445.96352  0.023169344   0.02337644            2 
 1605000   0.99632508   -7.7619067    446.91128  0.023204116  0.023369608            3 
 1606000   0.96062511   -7.7506465    446.63296  0.023175226  0.023362685            9 
 1607000   0.98334533   -7.8016918    446.76966  0.023167894  0.023355691            2 
 1608000     1.004927   -7.7770748    446.40161  0.023134412  0.023348766            1 
 1609000    0.9869397   -7.7620243    446.97397  0.023149677  0.023341781            2 
 1610000    1.0146549    -7.781915    446.74958  0.023123684  0.023334858            2 
 1611000    1.0084431   -7.7987032    446.85251  0.023114655  0.023327991            2 
 1612000    1.0038803   -7.7739452    447.89833   0.02315438  0.023321193            3 
 1613000   0.99970817    -7.781556    446.97466  0.023092305  0.023314325            2 
 1614000   0.97783456    -7.762315    449.10729  0.023188109  0.023307612            2 
 1615000    1.0022782   -7.7705322    448.43533  0.023139078  0.023300868            2 
 1616000   0.99975026   -7.7829257    448.79527  0.023143321  0.023294042            2 
 1617000   0.97946034   -7.8057556    448.52343  0.023114999   0.02328723            1 
 1618000   0.99971437   -7.7565306    448.07396  0.023077563  0.023280494            9 
 1619000   0.99266434    -7.738329    448.57622  0.023089161  0.023273749            3 
 1620000    1.0004948   -7.7589762    448.89231  0.023091168  0.023266924            3 
 1621000    1.0133829   -7.7476685    449.94354  0.023130965  0.023260146            2 
 1622000   0.99193634   -7.7618724    449.32815  0.023085088  0.023253371            2 
 1623000   0.99340556   -7.7269091    450.54325  0.023133254  0.023246685            2 
 1624000    1.0121807   -7.7839084    450.98758  0.023141809  0.023240028            3 
 1625000    0.9842508   -7.8268727    449.64447  0.023058691  0.023233309            2 
 1626000   0.99004975   -7.7241244    451.23614  0.023126083  0.023226643       -1e+20 
 1627000   0.99510873   -7.7607244    451.04798  0.023102232  0.023220061            2 
 1628000     1.003652   -7.8169442    449.53132  0.023010407  0.023213417            2 
 1629000   0.99549015   -7.7979022    450.62044  0.023051997   0.02320661            2 
 1630000   0.99038187   -7.7572159    451.22599  0.023068813  0.023199883            3 
 1631000   0.99187193   -7.7805086    451.04991  0.023045673  0.023193144            5 
 1632000   0.98964164   -7.7883252    450.55579  0.023006321  0.023186395            1 
 1633000   0.98514118   -7.8098045    451.51357  0.023041109   0.02317973            3 
 1634000   0.98134462   -7.7771441    452.52812   0.02307875  0.023173137            3 
 1635000   0.98007429   -7.7833023    451.08947  0.022991308  0.023166465            4 
 1636000   0.98312913   -7.7791543    452.72407  0.023060517  0.023159812            8 
 1637000    1.0210744    -7.777685    451.96547  0.023007813  0.023153101            1 
 1638000    0.9772661   -7.7748558    452.65114   0.02302865  0.023146354            2 
 1639000   0.98581917   -7.7732741    453.12242  0.023038561   0.02313964            3 
 1640000   0.98343023   -7.7911907    452.21749  0.022978531  0.023132997            3 
 1641000   0.99465764   -7.7925605    452.92807  0.023000613  0.023126358            6 
 1642000   0.98312012   -7.8061158      452.589  0.022969397  0.023119705            2 
 1643000   0.98602408   -7.7498903    454.70399   0.02306269   0.02311303            2 
 1644000   0.99890448   -7.8130049    453.02562  0.022963586  0.023106435            2 
 1645000    1.0016734     -7.80739    452.81574  0.022938994   0.02309977            4 
 1646000    1.0107054   -7.7596927    454.69818  0.023020362  0.023093248            1 
 1647000   0.99144966   -7.8049552    453.28004   0.02293463  0.023086708            2 
 1648000   0.97200124   -7.8105346    455.21928  0.023018774  0.023080148            1 
 1649000   0.98666078   -7.7717649    455.71784   0.02303001  0.023073533            1 
 1650000   0.97133341   -7.7872135    454.75249  0.022967298  0.023066998            2 
 1651000   0.98075064   -7.8011265    453.66712  0.022898603  0.023060477            2 
 1652000    1.0132292   -7.7930418    456.00165  0.023002505  0.023053947            4 
 1653000    1.0007966   -7.7532685    455.72039   0.02297441  0.023047379            1 
 1654000   0.98129302   -7.8069127    455.55823  0.022952349  0.023040887            1 
 1655000    1.0028401   -7.8135439    455.05318   0.02291305  0.023034378            1 
 1656000   0.96668678   -7.8379281    455.82345  0.022937975  0.023027808            2 
 1657000    0.9845835   -7.7713886     456.4277  0.022954521  0.023021212            1 
 1658000   0.96230579   -7.7969869    456.01712   0.02292004  0.023014693            3 
 1659000   0.97192658   -7.8164516    455.97152  0.022903934  0.023008144            1 
 1660000   0.98144583   -7.7709654    456.92951  0.022938228  0.023001654            6 
 1661000   0.97917332   -7.7968995    457.26953  0.022941478  0.022995137            3 
 1662000    0.9840722   -7.7589861     456.9019  0.022909241  0.022988607            2 
 1663000   0.97251254   -7.7839439    457.43644  0.022922251  0.022982177            2 
 1664000    1.0020138   -7.7619296    457.38019  0.022905659  0.022975689            1 
 1665000    1.0042657   -7.7841049    458.58363  0.022952134   0.02296923            2 
 1666000   0.99831841   -7.7604142    457.28414  0.022873356   0.02296271            5 
 1667000   0.98542329   -7.7972723    458.64475  0.022927652  0.022956223            2 
 1668000   0.98802635   -7.7956242    458.55047  0.022909196  0.022949754            2 
 1669000   0.97854146   -7.8013144    456.98333  0.022817222   0.02294323            4 
 1670000   0.97209655   -7.7658658    459.47313  0.022927801  0.022936769            3 
 1671000    1.0088166    -7.826098    458.58612  0.022869845   0.02293031            1 
 1672000   0.97767258   -7.8085266    459.18476  0.022886003  0.022923761            1 
 1673000    1.0099471   -7.8166814    458.70781  0.022848566  0.022917293            2 
 1674000    1.0012344   -7.8262051    458.80882  0.022839945  0.022910766            3 
 1675000   0.98766383   -7.8047887    458.61709  0.022816771  0.022904272            1 
 1676000   0.97488902   -7.7923747    459.41752  0.022842955  0.022897851            1 
 1677000     0.982143   -7.8176053    458.92606  0.022804913  0.022891432            2 
 1678000    1.0139018   -7.8448712    460.09224  0.022849237  0.022885082            1 
 1679000   0.99001487   -7.7653984    459.73189  0.022817743  0.022878654            5 
 1680000   0.98976039   -7.7978646    460.04351  0.022819618  0.022872236            2 
 1681000   0.98481181   -7.7912076    461.15545  0.022861166  0.022865941            1 
 1682000    1.0069625   -7.7814003     461.4851  0.022863907  0.022859621            6 
 1683000     0.989507   -7.7905257    461.15633  0.022834043  0.022853291            1 
 1684000   0.98622356   -7.8054956    462.02691  0.022863565  0.022846977            3 
 1685000   0.97019388   -7.8131757    460.65331  0.022782063  0.022840701            3 
 1686000   0.98105402   -7.7980545    461.70135  0.022820351  0.022834444            2 
 1687000    0.9990331   -7.8264176    462.06104  0.022824592  0.022828214            1 
 1688000   0.97161617   -7.8230314    460.86129  0.022751841  0.022822013            1 
 1689000   0.98836964   -7.7763066    462.08935  0.022798961  0.022815778            3 
 1690000    1.0016475   -7.7572387    464.12375  0.022885787  0.022809557            2 
 1691000   0.98863283   -7.7964545    464.15104  0.022873598  0.022803333            3 
 1692000    0.9897557   -7.7891936    461.86925  0.022747698  0.022797047            2 
 1693000   0.99053958   -7.7720263    462.39518  0.022760149  0.022790694            4 
 1694000    1.0002353   -7.8308817    461.25134  0.022690444  0.022784312            2 
 1695000   0.97533452    -7.826915    462.17407  0.022722422  0.022777931            3 
 1696000   0.98651416   -7.7941833    463.34247  0.022766434  0.022771649            2 
 1697000   0.99525267   -7.8055334     463.3072  0.022751286  0.022765255            1 
 1698000   0.97534008   -7.8197954    462.95159  0.022720435  0.022758843            4 
 1699000   0.98012769   -7.7717081     463.8134  0.022749333  0.022752461            3 
 1700000   0.99199006   -7.7954227    463.15753    0.0227038  0.022746046            4 
 1701000   0.98260978   -7.8211322    463.32483  0.022698649  0.022739648       -1e+20 
 1702000   0.98111636   -7.8266354    463.16368  0.022677422  0.022733256            4 
 1703000    0.9866458   -7.8008358    464.27588   0.02271853  0.022726948            2 
 1704000   0.99444153   -7.8323259    463.21368  0.022653251  0.022720688            4 
 1705000   0.97646423   -7.7893832    464.33596  0.022694817  0.022714395            3 
 1706000   0.97843155   -7.8110856    463.99444  0.022664832   0.02270812            2 
 1707000    0.9541104   -7.8217589    464.96846  0.022699105  0.022701888            1 
 1708000   0.96284879   -7.8123307    464.15061  0.022645912  0.022695551            2 
 1709000    1.0005481   -7.8007355     464.8187  0.022665238  0.022689253            4 
 1710000   0.98817295   -7.7893921    464.25033  0.022624285  0.022682916            4 
 1711000   0.98455429   -7.8177759     464.3548  0.022616151  0.022676491            2 
 1712000   0.98584765   -7.8408738    464.43152  0.022606674  0.022670064            5 
 1713000    0.9900296   -7.7968088    464.94035  0.022618231  0.022663669            2 
 1714000   0.99799391   -7.8172501    463.88727  0.022553835  0.022657187            3 
 1715000   0.96776715   -7.8279335    464.27242  0.022559399  0.022650667            3 
 1716000   0.97366362   -7.8224468    464.89397  0.022576436  0.022644134            4 
 1717000   0.96435734    -7.807107    464.68336  0.022553065   0.02263771            1 
 1718000   0.99543194   -7.8062527    465.70104  0.022589301  0.022631256            2 
 1719000   0.99384858   -7.8050697    465.90191  0.022585898  0.022624912            2 
 1720000   0.98588616   -7.8074513    466.71518   0.02261217  0.022618486            5 
 1721000   0.99454392   -7.8311088    466.23048  0.022575561  0.022612032            2 
 1722000   0.96786738   -7.8168581    465.24463  0.022514742  0.022605575            1 
 1723000    0.9697271   -7.8211804    466.70568  0.022572339  0.022599093            3 
 1724000   0.99579677   -7.7979182     464.4387  0.022449667  0.022592666            1 
 1725000   0.98426017   -7.7968421    466.05668  0.022514816  0.022586201            2 
 1726000   0.97180634   -7.8529263    466.13238  0.022505426  0.022579765            5 
 1727000   0.97647859   -7.7874121    466.11691  0.022491648  0.022573212            2 
 1728000   0.99198112   -7.8220932    466.25627  0.022485352  0.022566685            2 
 1729000   0.97110556    -7.823882    466.54265   0.02248615  0.022560017            2 
 1730000   0.96901891   -7.8388402     467.0468  0.022497437  0.022553483            3 
 1731000   0.96807164   -7.8165695    467.82966  0.022522129  0.022546891            1 
 1732000   0.98024052    -7.845405    466.33606  0.022437262  0.022540333            3 
 1733000   0.97547389   -7.8281927    468.39394  0.022523271  0.022533824            2 
 1734000   0.95786165   -7.8275365    467.61216   0.02247271  0.022527384            3 
 1735000    0.9739069   -7.8029614    468.50362  0.022502575  0.022520859            2 
 1736000   0.98449738   -7.8232455    468.18338   0.02247424  0.022514471            3 
 1737000   0.96711692   -7.8053348    468.22206  0.022463158  0.022507949            2 
 1738000   0.96260556   -7.8150511     469.4326  0.022508276  0.022501555            3 
 1739000    0.9556065   -7.8680911    467.38556  0.022397238   0.02249519            2 
 1740000   0.95871163   -7.8187685    468.84322  0.022454177  0.022488784            3 
 1741000   0.97692042    -7.817325    468.84051   0.02244115  0.022482408            3 
 1742000   0.95186324   -7.7932626    468.70423  0.022421749  0.022476005            2 
 1743000   0.96208146   -7.7836051      470.211  0.022480924  0.022469714            6 
 1744000   0.98138064   -7.8192238    469.97845  0.022456921  0.022463398            2 
 1745000   0.97347234   -7.8492415    469.03764  0.022399123  0.022457071            1 
 1746000    1.0023989   -7.8151188    469.27584  0.022397663  0.022450703            1 
 1747000   0.96116021   -7.8441115    469.93497  0.022416284  0.022444387            2 
 1748000   0.96817131   -7.7734547    470.89079  0.022449027  0.022438076            1 
 1749000   0.95379813   -7.8213601    472.17653  0.022497452  0.022431797            2 
 1750000   0.98087149   -7.8473506    469.21496   0.02234357  0.022425537           11 
 1751000   0.98218348   -7.8486105    470.35986  0.022385297  0.022419204            1 
 1752000   0.94070771   -7.8201036    471.75307  0.022438788   0.02241299            5 
 1753000   0.95142161   -7.8177657    472.64278  0.022468282  0.022406839            2 
 1754000   0.96673736   -7.7956725    471.79528  0.022415207  0.022400634            1 
 1755000   0.96787995   -7.8285909    471.52202   0.02238946  0.022394333            3 
 1756000   0.97130239   -7.8000819    472.31463  0.022414324  0.022388082            3 
 1757000   0.97576146   -7.8572721    471.62866  0.022369031  0.022381846            3 
 1758000   0.96092221   -7.8441492    473.33546  0.022437213   0.02237562            3 
 1759000   0.95543616   -7.8318472    472.82084  0.022400078  0.022369428            3 
 1760000   0.97050707   -7.8069074     473.1723  0.022403992  0.022363245            3 
 1761000   0.96957234     -7.83004    473.16085  0.022390727  0.022357131            1 
 1762000   0.96461396   -7.8404466    472.56948  0.022350051  0.022350915            3 
 1763000   0.96074992   -7.8178392    473.53378  0.022382954  0.022344785            5 
 1764000   0.98880772   -7.8031693    473.99666  0.022392132  0.022338635            2 
 1765000   0.97888765   -7.8666822     473.0995  0.022337087  0.022332576            2 
 1766000   0.97962003      -7.8193    474.35979  0.022383909  0.022326425            4 
 1767000   0.98326979   -7.8489007    474.11397  0.022359648  0.022320211            4 
 1768000   0.97764144   -7.8297866    474.00039  0.022341647  0.022314024            3 
 1769000   0.95145976   -7.8277395    474.31211  0.022343702  0.022307907            3 
 1770000    0.9546179    -7.846676    474.00346  0.022316547  0.022301658            3 
 1771000   0.99493139   -7.8368665    474.97283  0.022349559  0.022295419            1 
 1772000   0.97270044   -7.8142697    473.67365  0.022275849  0.022289134            5 
 1773000   0.94543387   -7.8254587    474.91336  0.022321553  0.022282903            3 
 1774000   0.96513518   -7.8376327    475.17561   0.02232129  0.022276721            4 
 1775000   0.96521516   -7.8844815    473.87563  0.022247682  0.022270473            1 
 1776000   0.95831451   -7.8863561    474.37913  0.022258781  0.022264104            1 
 1777000   0.96368829   -7.8534939    474.14383   0.02223522    0.0222577            8 
 1778000   0.95360988    -7.867774    473.15974  0.022176591  0.022251287            1 
 1779000   0.96212028   -7.8387905    474.04697  0.022205685  0.022244864            1 
 1780000   0.97237329   -7.8721676    474.98532   0.02223714  0.022238521            5 
 1781000   0.96014244   -7.8283665    475.40997  0.022244524  0.022232207            2 
 1782000   0.95689977   -7.8782988      475.046   0.02221502  0.022225911            4 
 1783000   0.98157423   -7.8285712    475.20947  0.022210201  0.022219628            1 
 1784000   0.97703422   -7.8496929    474.73662  0.022175664  0.022213374            4 
 1785000   0.96155028    -7.835417    475.14689  0.022182395  0.022207134            3 
 1786000   0.96996553   -7.8483766    475.22405  0.022173575  0.022200848            5 
 1787000   0.96725389   -7.8181306    476.07176  0.022200697  0.022194669            1 
 1788000   0.97733845   -7.8374952    476.25482  0.022196813  0.022188374            1 
 1789000    0.9597149   -7.8452579    476.39098  0.022190748  0.022182147            2 
 1790000   0.96896706   -7.8227308    476.71346  0.022193364  0.022175941            1 
 1791000   0.95521111   -7.8656756    476.15738  0.022155099  0.022169651            1 
 1792000   0.96041464   -7.8379789    476.16822  0.022143239  0.022163327            1 
 1793000   0.97380324   -7.8264948    476.42789  0.022142958  0.022157024            4 
 1794000   0.97573274   -7.8055484    476.60585  0.022138882    0.0221507            1 
 1795000   0.95074514   -7.8314943    476.02172   0.02209943  0.022144434            2 
 1796000   0.96377666   -7.8529907    476.22974  0.022096777  0.022138072            2 
 1797000   0.94999549   -7.8249382    477.02194  0.022121218  0.022131727            7 
 1798000   0.96457347    -7.843312    476.39864  0.022080026  0.022125382            2 
 1799000   0.99452976   -7.8245285    475.79896  0.022039974  0.022118942            2 
 1800000   0.96104727   -7.8854776     475.5502  0.022016213   0.02211237            3 
 1801000     0.941553   -7.8668466    476.34451  0.022040742  0.022105909            3 
 1802000   0.97259772    -7.862063    476.46073  0.022033885  0.022099508            2 
 1803000   0.96876522   -7.8402639    477.24264  0.022057804  0.022093144            4 
 1804000    0.9661987   -7.8402727    477.70165   0.02206678  0.022086703            1 
 1805000   0.95632186   -7.8643854    476.80525  0.022013169  0.022080261            4 
 1806000   0.97796654   -7.8391473    476.64113  0.021993408  0.022073863            4 
 1807000   0.98359226   -7.8206569    478.40457  0.022062561  0.022067487            2 
 1808000   0.95387524   -7.8254337    478.54911   0.02205702  0.022061136            1 
 1809000   0.95588215   -7.8520257    477.92406  0.022016034  0.022054748            4 
 1810000   0.95463571   -7.7901886    478.10521  0.022012211  0.022048316            2 
 1811000   0.97027022   -7.8169189    478.63829  0.022024585  0.022041891            5 
 1812000    0.9683648   -7.8307985    478.01785  0.021983897  0.022035395            1 
 1813000   0.96244572   -7.8714908    477.13942  0.021931395  0.022028932            2 
 1814000   0.95762401   -7.7886819    479.02534  0.022005942  0.022022423            3 
 1815000   0.97661173   -7.8825778    475.82141  0.021846713  0.022015978            3 
 1816000   0.95222286   -7.8635766    477.18852  0.021897417  0.022009413            3 
 1817000    0.9649705   -7.8628952    477.35586  0.021893041  0.022002867            3 
 1818000    0.9640994   -7.8621978    478.52589   0.02193463  0.021996377            3 
 1819000   0.95708434   -7.8404313    477.81694  0.021890093  0.021989839            5 
 1820000   0.96219648   -7.8762334     478.2142  0.021896255  0.021983332            2 
 1821000   0.94179082   -7.8361233    478.83772  0.021912764  0.021976835            2 
 1822000   0.98464183   -7.8312499    479.88603  0.021948684  0.021970393            2 
 1823000   0.97365239   -7.8686188    479.18552  0.021904622  0.021963866            5 
 1824000    0.9526417   -7.8803214     478.9734  0.021882922  0.021957377            2 
 1825000   0.95654303   -7.8667863    477.60925  0.021808642  0.021950821            3 
 1826000   0.96078111   -7.8444442    478.22407  0.021824757  0.021944197            1 
 1827000     0.980435   -7.8085431    479.88036  0.021888358   0.02193772            1 
 1828000   0.96986056   -7.8568195    479.49527  0.021858829  0.021931196            2 
 1829000   0.96740081   -7.8907922    477.06854   0.02173631   0.02192462            7 
 1830000   0.95127815   -7.8743643    479.77871  0.021847847  0.021918008            3 
 1831000   0.94938758   -7.8805777    479.00781  0.021800829  0.021911429            4 
 1832000   0.95778924   -7.8376177     479.0898  0.021792658  0.021904833            2 
 1833000   0.96802597   -7.8879172    479.91539  0.021818303  0.021898297            1 
 1834000   0.93996921   -7.8515948    479.67877  0.021795655  0.021891778            1 
 1835000    0.9738144   -7.8448933    480.10902  0.021803316  0.021885207            2 
 1836000   0.93502565   -7.8414759      480.318  0.021800926  0.021878693            3 
 1837000   0.98430835   -7.8662052    478.44523  0.021704102  0.021872142            3 
 1838000   0.96144211   -7.8732242    481.23736  0.021818886  0.021865625            2 
 1839000   0.92762183   -7.8718719    480.28212  0.021763736  0.021859016            3 
 1840000   0.97149974   -7.8623522    480.37153  0.021755957  0.021852415            1 
 1841000   0.93403018   -7.8681286    478.96677  0.021680553  0.021845732            3 
 1842000    0.9695149   -7.8537842    481.14157  0.021767172  0.021839121            3 
 1843000   0.95263154   -7.9052699    480.03629  0.021705385   0.02183248            2 
 1844000    0.9576606   -7.8973478    481.26552  0.021749165  0.021825849            4 
 1845000   0.96508158   -7.8770837    481.67507  0.021755875   0.02181925            2 
 1846000   0.95076581     -7.87748    481.11725  0.021718908  0.021812631            5 
 1847000   0.95289882   -7.8643558     480.6784  0.021687349  0.021805949            1 
 1848000   0.95925102   -7.9453263    481.24393  0.021701115  0.021799264            2 
 1849000   0.95429729   -7.8942626    480.75793  0.021667475  0.021792564            2 
 1850000   0.95444967   -7.8777031    481.91742  0.021707992  0.021785913            3 
 1851000   0.95853043   -7.8850255    481.39923  0.021672935  0.021779297            2 
 1852000   0.96639757   -7.8425919    481.56011  0.021668471  0.021772667            1 
 1853000   0.96676763   -7.8420463    482.37542  0.021693444  0.021766145            3 
 1854000    0.9843635   -7.8512394    481.25384   0.02163133  0.021759524            2 
 1855000   0.96209892   -7.8689399    481.74372  0.021641677  0.021752799            5 
 1856000   0.94139703   -7.8791948    480.85276  0.021590013  0.021746064            3 
 1857000   0.96141828   -7.8553379    482.71641  0.021662018  0.021739415            3 
 1858000   0.96037849   -7.8622857    482.33069  0.021633059  0.021732745            2 
 1859000   0.97764924   -7.8609061    482.49227  0.021628666  0.021726156            2 
 1860000   0.94710705   -7.8671831    481.44707  0.021570209  0.021719529            3 
 1861000   0.96055143   -7.9075246    482.40571  0.021601546  0.021712852            3 
 1862000   0.93257294   -7.8604786    482.48449   0.02159347  0.021706165            8 
 1863000   0.94955396   -7.8899816     482.1193  0.021565544   0.02169949            3 
 1864000   0.95442817   -7.8427994    482.53273  0.021572458  0.021692839            2 
 1865000   0.95747534    -7.860996     482.9569  0.021579844  0.021686247            9 
 1866000   0.95120871   -7.8822445    482.58832  0.021551818  0.021679548            3 
 1867000   0.99829893   -7.9017705    483.39703  0.021576372  0.021672865            3 
 1868000   0.95601845   -7.8955603    483.71212  0.021578878  0.021666208            6 
 1869000   0.97320968   -7.8588613    482.71799  0.021523006  0.021659565            2 
 1870000   0.97124362   -7.8530593    484.40842  0.021586828  0.021652973            5 
 1871000   0.92878907   -7.9133655    482.25006  0.021479158  0.021646322            1 
 1872000   0.95966418   -7.9043991    483.72983  0.021533557  0.021639575            3 
 1873000    0.9765302   -7.9004995    483.06163  0.021492331  0.021632857            4 
 1874000   0.95090659   -7.9092169    482.68855  0.021464272  0.021626181            3 
 1875000   0.95049965   -7.8504807    483.97796  0.021510131  0.021619549            1 
 1876000   0.96308923   -7.9142115    484.07374   0.02150292  0.021612957            7 
 1877000   0.95151766   -7.8717004    485.58639  0.021558621  0.021606312            2 
 1878000   0.96196819   -7.8891612    484.53088  0.021500305  0.021599663            2 
 1879000   0.96020909   -7.8754324    483.74034  0.021453802  0.021593042            2 
 1880000   0.94967015   -7.8818084    484.94007   0.02149557  0.021586443            3 
 1881000   0.96540169   -7.8804469     486.1082  0.021535894   0.02157982            4 
 1882000   0.96233131    -7.866908    485.01995  0.021476264  0.021573259            4 
 1883000   0.93793501   -7.8695156    485.29205  0.021476901  0.021566676            4 
 1884000   0.95113081   -7.8653175    484.47713  0.021429455  0.021560096            6 
 1885000   0.96977019   -7.8749913    485.72572  0.021473285  0.021553512            6 
 1886000   0.95457301   -7.8822775    484.01893  0.021386485   0.02154684            4 
 1887000   0.97200386   -7.8913008    484.79155  0.021409272  0.021540187            1 
 1888000   0.91699292   -7.8679414    485.74991  0.021440233  0.021533498            4 
 1889000   0.94393638   -7.8773959    485.86541  0.021433978  0.021526797            1 
 1890000   0.93565875   -7.8928418    484.82671  0.021376839  0.021520111            3 
 1891000   0.96455695   -7.8855858    485.65143  0.021401879  0.021513462            2 
 1892000   0.94355472   -7.8724028    485.24268  0.021372563  0.021506789            9 
 1893000   0.93165284   -7.8873085    486.89612   0.02143406  0.021500207            7 
 1894000   0.93690739   -7.8608178    486.41553  0.021401599  0.021493627            1 
 1895000   0.96033565   -7.9039251    486.67616  0.021401766  0.021486963            2 
 1896000   0.98438994   -7.8815308    487.25806  0.021416054  0.021480335            1 
 1897000    0.9531778   -7.9100746     485.8153  0.021341386  0.021473749            2 
 1898000   0.93808362   -7.8838248     488.5255  0.021449135  0.021467104            2 
 1899000   0.95574768   -7.8989117     485.8176   0.02131901  0.021460559            3 
 1900000   0.94493883   -7.9250046    487.80075   0.02139477  0.021453937            2 
 1901000   0.95926284   -7.8839744    487.25389  0.021359543  0.021447299            2 
 1902000     0.935934   -7.9190832    487.22915  0.021347229  0.021440676            3 
 1903000    0.9459701    -7.888744     488.4483  0.021389398  0.021434026            4 
 1904000   0.94061427   -7.9018538    487.45153  0.021334538   0.02142736            4 
 1905000   0.94592038   -7.8981393    487.48928  0.021324991  0.021420668           12 
 1906000   0.92964723   -7.8984506    487.45541  0.021312321  0.021414035            4 
 1907000   0.93470128   -7.8442437    488.08338  0.021328587  0.021407379            2 
 1908000   0.95794039   -7.9203077    487.07269  0.021273266  0.021400687            2 
 1909000   0.93379945   -7.9235822    487.70604   0.02128977   0.02139404            2 
 1910000   0.92933924   -7.8780153     488.2568  0.021302653  0.021387376            1 
 1911000   0.95154041   -7.9149925    486.81299  0.021228545  0.021380738            2 
 1912000   0.95490938   -7.8986066    487.85762  0.021262972  0.021374115            2 
 1913000   0.93946533   -7.8974481    488.78735  0.021292357  0.021367496            2 
 1914000   0.94718757   -7.8862222    487.75699  0.021236372  0.021360856            2 
 1915000   0.95929454    -7.893569    488.44456  0.021255203  0.021354115            4 
 1916000   0.93217415   -7.8633523     488.6057  0.021251118  0.021347458            3 
 1917000   0.96277152   -7.9234309    487.71658  0.021201381  0.021340773            3 
 1918000    0.9614427   -7.9105825    485.96811   0.02111436  0.021334012            5 
 1919000   0.96292126   -7.9175432    487.69901  0.021178522  0.021327228            2 
 1920000   0.97994022   -7.8900572    489.85114    0.0212609  0.021320482            2 
 1921000   0.93438879   -7.8829878    489.12406  0.021218292   0.02131382            2 
 1922000   0.93986336    -7.894621    489.13962  0.021207927   0.02130707            2 
 1923000   0.94080927   -7.9063958    488.00247   0.02114762   0.02130034            1 
 1924000   0.94447869   -7.9453451    488.73277  0.021168259  0.021293567            3 
 1925000   0.94742168    -7.892901    489.34616  0.021183816  0.021286905            3 
 1926000   0.92926632   -7.8694694    490.64138  0.021228859  0.021280297            3 
 1927000   0.94016022   -7.8965856    489.67762  0.021176164   0.02127365            2 
 1928000   0.95347309   -7.9034003    488.69818  0.021122847  0.021266935            3 
 1929000     0.938473   -7.9214241    488.17741  0.021089399  0.021260136            3 
 1930000   0.94755363   -7.9037164    488.39922  0.021088049  0.021253325            6 
 1931000   0.93491219   -7.9334791    487.95689  0.021058039   0.02124652            2 
 1932000   0.93708324   -7.8956319    488.86032  0.021086108  0.021239726            5 
 1933000   0.92556529   -7.9082108    488.92976  0.021078193  0.021232942            4 
 1934000   0.92856753   -7.9184743    488.37393  0.021043344  0.021226126            4 
 1935000   0.93353613   -7.8789555    489.60544  0.021085505  0.021219334            2 
 1936000   0.95250708   -7.8833679    489.54197  0.021071882  0.021212594            1 
 1937000   0.93020752    -7.899344    489.52052  0.021060081  0.021205787            2 
 1938000   0.93573013   -7.9066524    489.50498  0.021048546  0.021198955            3 
 1939000   0.96018987   -7.8971934    489.09019  0.021019864   0.02119214            1 
 1940000   0.93773831   -7.9408797    488.60803  0.020988318  0.021185274            3 
 1941000   0.94112264    -7.967015    488.31239  0.020964812  0.021178333           10 
 1942000    0.9431943    -7.930889    489.77075  0.021016596  0.021171409            6 
 1943000   0.93464619   -7.9207088    489.35983  0.020988155  0.021164555            4 
 1944000   0.93316857   -7.9150135    489.80187  0.020996308  0.021157659            4 
 1945000   0.93322637   -7.8837059     489.6468  0.020978869  0.021150853            1 
 1946000   0.92272521   -7.8970038    490.14579  0.020989456  0.021144113            3 
 1947000   0.93593858   -7.9171898    489.26512  0.020940983  0.021137283            3 
 1948000   0.93832552   -7.9093758    491.04803  0.021006504  0.021130421            3 
 1949000   0.92720386   -7.9102331    491.10214  0.020998039  0.021123517            3 
 1950000   0.94435527   -7.9706628    489.84247  0.020933439  0.021116596            4 
 1951000   0.94610526   -7.9231995     491.1144  0.020977037  0.021109679            2 
 1952000   0.92319946   -7.9531734    489.37436  0.020892006  0.021102812            3 
 1953000   0.92128559   -7.9081867     490.7371  0.020939456  0.021096008            1 
 1954000   0.92348842   -7.9197792    489.68662   0.02088394   0.02108918            3 
 1955000   0.94072742    -7.908086    491.66011  0.020957379  0.021082309            3 
 1956000   0.95817266   -7.9432651    489.72722  0.020864316  0.021075422            3 
 1957000   0.91564509    -7.922721    491.73025  0.020938948  0.021068557            4 
 1958000   0.93948381   -7.9263885    491.21384  0.020906275  0.021061672            2 
 1959000   0.92815917   -7.9070361    491.69787  0.020916193  0.021054869            2 
 1960000   0.94756371   -7.9111299    491.91889  0.020914919  0.021048016            2 
 1961000   0.93141938    -7.906537    491.79174   0.02089885  0.021041225            1 
 1962000   0.93121566   -7.9085546     492.0857  0.020900684  0.021034394            4 
 1963000   0.93908045   -7.8994328    491.89372  0.020881886  0.021027652            5 
 1964000   0.96498756   -7.9010404    492.54873  0.020899047  0.021020896            2 
 1965000   0.95954863   -7.8959258    492.15484  0.020871706  0.021014129            3 
 1966000   0.93314991   -7.9259436     491.9211  0.020851183  0.021007351            2 
 1967000   0.92111957    -7.906035     491.4838  0.020822056  0.021000556            2 
 1968000   0.91625641   -7.9213378    491.74931  0.020822718  0.020993658            2 
 1969000   0.92809387   -7.9026609    493.42171  0.020882923  0.020986813            1 
 1970000   0.94638922   -7.9147287    492.44805  0.020831136  0.020979948            2 
 1971000   0.91080146   -7.9038491     491.8214  0.020794073  0.020973119            3 
 1972000   0.94506804   -7.9122074    492.78205  0.020824123  0.020966333            2 
 1973000   0.94060325    -7.908465    493.22117  0.020832116  0.020959543            3 
 1974000   0.94131159     -7.91172    492.60935  0.020795734  0.020952748            2 
 1975000   0.92765776   -7.9039583    493.81535  0.020836091  0.020945968            1 
 1976000   0.95167398   -7.9518419    491.38365  0.020722995  0.020939107            4 
 1977000   0.90996731   -7.9364582    493.15405  0.020787137  0.020932281            2 
 1978000   0.91312688   -7.9501631    493.60344  0.020795561  0.020925497            2 
 1979000   0.94712928   -7.9324095    493.21496  0.020768695  0.020918636            1 
 1980000   0.92814399   -7.8900416    492.89703  0.020744824  0.020911862            4 
 1981000    0.9538691   -7.9150458    493.28842  0.020750817  0.020905057            2 
 1982000    0.9401194    -7.927414    493.35337  0.020743078  0.020898249            2 
 1983000   0.95110516    -7.920586    492.97392  0.020716672  0.020891389            3 
 1984000   0.94122982   -7.9429136    493.51593  0.020728996  0.020884544            2 
 1985000    0.9233755   -7.9862404    492.48051  0.020675084  0.020877653            2 
 1986000    0.9543381   -7.9502666    493.23821  0.020696468  0.020870753            2 
 1987000   0.90938838   -7.9162258    494.65361  0.020745412    0.0208639            2 
 1988000   0.94428823   -7.8992045    496.28863  0.020803514  0.020857118            4 
 1989000   0.94468553   -7.9518768    494.45672  0.020716303   0.02085037            2 
 1990000   0.91124447    -7.918803    493.33594  0.020658959  0.020843509            4 
 1991000   0.91713161   -7.9337796    495.12521  0.020723473  0.020836686            2 
 1992000   0.93760517   -7.9329183    493.81932  0.020658439  0.020829864            2 
 1993000   0.92239755    -7.928908    495.09278   0.02070132  0.020823062            3 
 1994000    0.9136976   -7.9288455    494.77776  0.020677773  0.020816246            4 
 1995000   0.91189756   -7.9430389    494.40925  0.020652016  0.020809356            6 
 1996000   0.93002279    -7.939244    494.47826   0.02064455  0.020802486            4 
 1997000   0.93862489   -7.9783106     493.9424  0.020611851  0.020795512            2 
 1998000   0.93457363   -7.9345513    494.15497  0.020610401    0.0207886            3 
 1999000    0.9196319   -7.9882336    494.05292  0.020595836  0.020781664            2 
 2000000    0.9223075   -7.9635172    494.98986  0.020624578  0.020774697            3 
 2001000   0.93698189   -7.9562285    493.89724  0.020568767  0.020767834            6 
 2002000   0.94866997   -7.9730545    493.33877  0.020535247  0.020760886            1 
 2003000   0.92888095   -7.9238623    494.46591  0.020571889  0.020753919            2 
 2004000   0.92698869   -7.9235748    495.11452  0.020588595   0.02074697            2 
 2005000   0.91532123   -7.9369622    495.76097  0.020605194  0.020740076            1 
 2006000   0.94021597   -7.9757942    495.50375  0.020584237  0.020733223            1 
 2007000   0.95236588   -7.9328884    495.24004  0.020563031   0.02072639            3 
 2008000   0.93857499   -7.9088963    496.69162  0.020613032  0.020719557            2 
 2009000   0.91804892   -7.9415188    495.47563  0.020552332  0.020712726            4 
 2010000   0.93464729   -7.9180273    497.19473   0.02061338  0.020705822            3 
 2011000   0.91245468   -7.9315026    495.81881  0.020546113  0.020698945            3 
 2012000   0.95591981   -7.9440172    495.87067   0.02053805  0.020692093            2 
 2013000   0.93226536   -7.9709473    495.83781  0.020526487   0.02068523            7 
 2014000   0.93633656    -7.939176     496.7636  0.020554601  0.020678371            2 
 2015000   0.94306067   -7.9532901    495.66968   0.02049916  0.020671484            3 
 2016000   0.93488296   -7.9327569    496.64712  0.020529395  0.020664591            1 
 2017000   0.93224918   -7.9477944    495.73332  0.020481462  0.020657775            4 
 2018000   0.92093784   -7.9402323    496.83083  0.020516635  0.020650962            3 
 2019000   0.90829995   -7.9440284    496.70826  0.020501414  0.020644132            3 
 2020000    0.9487619    -7.930376    495.79833  0.020453726  0.020637252            2 
 2021000   0.93602717   -7.9354171    497.11273  0.020497803  0.020630415            2 
 2022000   0.93763942   -7.9144928    496.76441  0.020473311  0.020623566            8 
 2023000    0.9313204   -7.9319135    497.08346  0.020476333  0.020616714            5 
 2024000    0.9290314   -7.9357963     495.8153  0.020414003  0.020609803            3 
 2025000   0.92775946   -7.9569929    496.47099  0.020430905  0.020602862            3 
 2026000   0.92206633   -7.9230164    497.51093  0.020463595  0.020595904            3 
 2027000   0.94062817   -7.9148294    497.50759  0.020453363  0.020588987            3 
 2028000   0.94166602   -7.9394975     497.5093  0.020443347  0.020582065            2 
 2029000   0.91438076   -7.9554766    496.81937  0.020404936  0.020575111            2 
 2030000   0.92411612   -7.9645517    496.71953  0.020390785  0.020568189            2 
 2031000   0.91655056   -7.9377588    497.29828  0.020404492  0.020561319            3 
 2032000   0.91007479   -7.9381771     497.2762  0.020393545  0.020554414            2 
 2033000   0.93126274   -7.9264648     496.9913  0.020371836   0.02054758            3 
 2034000   0.91144915   -7.9430435    498.18772  0.020410837  0.020540792            2 
 2035000   0.91159246   -7.9427936    497.75736  0.020383184  0.020533979            5 
 2036000   0.91980012   -7.9348885    498.31624  0.020396048  0.020527174            2 
 2037000   0.93354548   -7.9270163    497.96023  0.020371471  0.020520375            4 
 2038000   0.93136704   -7.9036036    498.83535  0.020397258  0.020513585            5 
 2039000   0.92196816   -7.9436922    497.78464  0.020344313  0.020506739            5 
 2040000   0.91458876   -7.9212098    498.78668  0.020375273  0.020499879            1 
 2041000   0.92747028   -7.9451182     499.4444  0.020392144   0.02049307            5 
 2042000   0.91900749   -7.9418337    497.69164  0.020310629  0.020486268            1 
 2043000   0.90865628   -7.9398712    499.91865  0.020391526  0.020479449            1 
 2044000   0.90100013   -7.9339909    498.81827  0.020336688  0.020472556            1 
 2045000   0.92876019   -7.9705836    497.47351  0.020271944  0.020465684            2 
 2046000   0.92472661   -7.9804404    498.73031  0.020313225  0.020458793            2 
 2047000   0.94208418   -7.9548235    498.95725  0.020312541  0.020451932            4 
 2048000   0.92597883   -7.9671705     499.4211  0.020321497  0.020445106            2 
 2049000   0.92231213   -7.9601431    499.75318  0.020325084  0.020438305            6 
 2050000   0.91285563   -7.9703256    498.30669   0.02025637  0.020431519            3 
 2051000   0.92985957   -7.9378683    500.73844  0.020345297  0.020424725            2 
 2052000   0.91221274   -7.9548856    500.47498  0.020324682  0.020417959            2 
 2053000    0.9278202   -7.9537265    499.74504  0.020285153  0.020411191            5 
 2054000   0.93981406   -7.9454906     498.9752  0.020244044  0.020404386            3 
 2055000   0.93551034   -7.9430735    500.87084  0.020311064  0.020397672            3 
 2056000   0.92155251   -7.9398219    499.62656  0.020250752  0.020390953            2 
 2057000   0.93244022    -7.928514    500.09078  0.020259714  0.020384254            4 
 2058000   0.91250209    -7.941522    500.09799  0.020250161   0.02037748            1 
 2059000   0.91094736   -7.9514298    499.25801   0.02020633  0.020370696            2 
 2060000   0.93510298   -7.9515145    500.55925  0.020249161  0.020363908            2 
 2061000   0.91564818   -7.9487003     499.0613  0.020178768  0.020357047            2 
 2062000     0.932705   -7.9523329    499.67417  0.020193751  0.020350227            5 
 2063000   0.91636476    -7.963428    501.09842  0.020241494  0.020343398            3 
 2064000   0.93039549   -7.9803421    499.74775  0.020177154  0.020336518            4 
 2065000   0.92146376   -7.9546091     499.1204  0.020142066  0.020329622            3 
 2066000   0.93441944   -7.9777765    499.63037  0.020152887  0.020322755            3 
 2067000   0.92225399    -7.956938    501.27358  0.020209385  0.020315901            3 
 2068000   0.91065368   -7.9677545    499.38135  0.020123362  0.020309091            2 
 2069000   0.92849393   -7.9837486    499.40973  0.020114779  0.020302209            4 
 2070000   0.94810291   -7.9516549    500.73209  0.020158297  0.020295351            3 
 2071000   0.92436941   -8.0040788    498.93055  0.020076072  0.020288432            5 
 2072000   0.94072465   -7.9602452    500.74789  0.020139474  0.020281563            2 
 2073000   0.91130662   -8.0036414    500.35835    0.0201141  0.020274673            2 
 2074000   0.93156996   -7.9996599    499.69517  0.020077755  0.020267753            1 
 2075000   0.91812534   -7.9899681    500.50402  0.020100563  0.020260836            1 
 2076000    0.9248639   -7.9724026    500.56092  0.020093165  0.020253984            2 
 2077000   0.93272495   -7.9439693    501.41208  0.020117641  0.020247154            2 
 2078000   0.94288031   -7.9952693    499.29864  0.020023205  0.020240322            3 
 2079000   0.90738399   -7.9716585    501.08598  0.020085216  0.020233417            3 
 2080000   0.90862972   -7.9766699    501.66732  0.020098851  0.020226536            3 
 2081000   0.92918934   -8.0171591    500.06853  0.020025169  0.020219609            2 
 2082000   0.92662307   -7.9817533     500.9371  0.020050316  0.020212683            5 
 2083000   0.92717349    -7.958683    501.08781   0.02004672  0.020205822            5 
 2084000   0.92130915   -7.9983552    500.76931  0.020024365  0.020198914            6 
 2085000    0.9193042   -7.9856289    500.88874  0.020019534  0.020191989            2 
 2086000   0.91935533   -7.9863491    501.70532  0.020042558   0.02018513            2 
 2087000   0.93865688   -7.9986166    502.00684  0.020044995  0.020178272            1 
 2088000   0.92190565   -7.9805875    501.69099  0.020022788  0.020171437            2 
 2089000    0.9354316   -7.9619209    501.83028   0.02001876  0.020164597            8 
 2090000   0.91020692   -7.9603768    502.13234  0.020021226  0.020157785            4 
 2091000   0.89240042   -7.9796397    501.50347  0.019986588  0.020151027            4 
 2092000   0.91006466   -7.9762615    502.91326  0.020033192   0.02014422            2 
 2093000   0.91705571   -7.9410989    502.17988  0.019994421  0.020137447            2 
 2094000   0.91836679   -7.9416705    504.04657   0.02005916  0.020130679            5 
 2095000   0.92329694   -7.9686008    502.27497  0.019979116  0.020123915            2 
 2096000   0.92204428   -7.9778374    502.98896  0.019997971   0.02011712            2 
 2097000   0.92114457    -7.962616    504.27395  0.020039499  0.020110323            3 
 2098000   0.92678646   -7.9446392    502.29377  0.019951294  0.020103534            4 
 2099000   0.91695883   -7.9691322    502.67597  0.019956962  0.020096763            2 
 2100000   0.90496244   -7.9154759    504.26958  0.020010698  0.020090032            3 
 2101000   0.92562235    -8.005634     504.1938  0.019998168  0.020083264            2 
 2102000   0.91304981   -7.9930711    502.50268   0.01992161    0.0200764            1 
 2103000   0.91641729   -7.9860875    503.55411    0.0199538  0.020069555            4 
 2104000   0.92658974   -8.0140136    502.94401  0.019920153   0.02006273            2 
 2105000   0.92332329   -7.9383339    503.92293  0.019949443  0.020055929            1 
 2106000   0.93359948   -7.9815942    503.49691  0.019923113  0.020049156            5 
 2107000   0.92594568   -7.9976267    502.90967  0.019890432  0.020042351            2 
 2108000   0.89622223   -7.9593044    503.62319  0.019909203  0.020035596            3 
 2109000   0.91179614   -7.9828976    503.79446   0.01990653  0.020028773            4 
 2110000   0.92607375   -7.9757552    505.43378   0.01996184  0.020021973            2 
 2111000   0.90696125   -7.9948366    504.53235  0.019916799  0.020015192            2 
 2112000   0.89711731   -7.9664054    504.55157  0.019908127  0.020008503            3 
 2113000   0.93533437   -7.9744739    504.46902  0.019895449  0.020001793            3 
 2114000   0.91495241    -8.031057    503.57567  0.019850823  0.019995053            2 
 2115000   0.90446407   -7.9622717    505.15444  0.019903642  0.019988302            4 
 2116000   0.91192056    -8.006755    503.77245   0.01983981  0.019981533            3 
 2117000   0.92448547   -7.9741125    504.16931   0.01984606  0.019974761            1 
 2118000   0.92957252   -7.9815454    504.25938  0.019840234  0.019968009            2 
 2119000   0.92367272   -7.9315833    504.23896  0.019830068  0.019961221            3 
 2120000   0.89468439   -7.9473738    504.89726   0.01984659  0.019954486            3 
 2121000   0.91370794   -7.9917929    505.46297   0.01985946  0.019947775            3 
 2122000   0.90411868   -7.9752081      505.838  0.019864829  0.019941102            2 
 2123000   0.88934926   -7.9734981    505.40454  0.019838457  0.019934392            2 
 2124000   0.91598469   -7.9808868    505.53109  0.019834082  0.019927741            3 
 2125000   0.92092397   -7.9587451    505.72111    0.0198322  0.019921052            3 
 2126000   0.93588084   -7.9730181    506.43517  0.019850861  0.019914331            4 
 2127000   0.91344396   -7.9855699    506.49251  0.019843775  0.019907645            1 
 2128000   0.93353089   -8.0039854    505.55442  0.019797714  0.019901018            2 
 2129000    0.9323088    -7.983042    506.82325  0.019838079  0.019894346            2 
 2130000   0.90506553   -8.0211631    505.59267  0.019780621  0.019887669            3 
 2131000   0.89789377   -8.0223284    505.77603  0.019778509  0.019880928            5 
 2132000   0.88981627   -8.0197569    504.75476  0.019729314  0.019874212            3 
 2133000   0.90641727     -7.95272    507.23423  0.019816934  0.019867546            6 
 2134000   0.91676077   -7.9624261    508.47368  0.019856048  0.019860945            3 
 2135000   0.91129532   -8.0063433    505.98375  0.019749561  0.019854265            2 
 2136000   0.89704776   -7.9882418      507.573  0.019802318   0.01984763            4 
 2137000   0.90613022     -8.00573     506.4167  0.019747961  0.019840953            2 
 2138000   0.91659122   -7.9965743      508.289  0.019811701  0.019834247            2 
 2139000   0.91453441   -7.9802617    506.70655  0.019740788  0.019827536            2 
 2140000   0.92426234   -8.0102454    507.99192  0.019781617  0.019820832            4 
 2141000   0.91650461   -7.9995925    508.37887  0.019787438  0.019814144            3 
 2142000   0.91203673   -7.9896492    508.05313  0.019765528  0.019807456            5 
 2143000   0.92686468   -8.0261467    506.73958  0.019705225  0.019800732            1 
 2144000   0.90748815   -8.0167525    506.42056  0.019683635  0.019794056            2 
 2145000   0.90354743   -7.9660298    508.08943  0.019739294  0.019787351            2 
 2146000   0.89981867   -7.9548969    508.31544  0.019738872  0.019780731            2 
 2147000   0.90681382   -8.0023187     508.1095  0.019721685  0.019774156            2 
 2148000   0.90620726   -7.9339846    508.09226  0.019711835  0.019767615            4 
 2149000   0.90867992   -7.9917551    508.81625  0.019730737  0.019761044            7 
 2150000   0.91859681   -7.9722011    507.43376  0.019667975  0.019754436            4 
 2151000   0.89005694   -7.9967625    508.22588  0.019689519  0.019747805            4 
 2152000   0.92692576   -7.9957302    508.02413  0.019672558  0.019741162            2 
 2153000   0.92105283    -7.991475    508.75547  0.019691727  0.019734536            4 
 2154000   0.93581536   -8.0062845     508.8099  0.019684691  0.019727876            3 
 2155000   0.90353292   -8.0043237    508.17442  0.019650983  0.019721225            5 
 2156000   0.89595701   -8.0184826    507.71308  0.019624037  0.019714561            6 
 2157000   0.90836145   -7.9825809    508.67898  0.019652256   0.01970794            8 
 2158000   0.89583522   -8.0279716    508.92339  0.019652587  0.019701319            4 
 2159000   0.90531784   -8.0028342    506.93102  0.019566583  0.019694683            4 
 2160000   0.90245989   -7.9923925    509.21737  0.019645732  0.019688034            3 
 2161000   0.90358478   -8.0171869    509.19045  0.019635603   0.01968148            2 
 2162000   0.90971109   -8.0072359    509.15341  0.019625093  0.019674915            2 
 2163000    0.9060043   -8.0030504    510.17822  0.019655502  0.019668411            1 
 2164000   0.92578753   -7.9593904    511.27844  0.019688788   0.01966193            6 
 2165000   0.91056845   -7.9943566      509.683  0.019618283  0.019655463            3 
 2166000   0.91521144   -7.9714127    510.44174  0.019638417  0.019648987            3 
 2167000   0.91035746   -7.9704527    509.79832  0.019604612  0.019642474            3 
 2168000   0.92735999   -8.0288833    509.50327  0.019584228  0.019635971            2 
 2169000   0.88978977   -8.0212782    510.45613  0.019611807  0.019629452            5 
 2170000   0.90046924   -8.0199987      510.282  0.019596083  0.019622929            2 
 2171000   0.88896429    -8.026633     510.8929  0.019610506  0.019616424            5 
 2172000   0.91075898   -7.9764638    511.31347  0.019617613  0.019609944            2 
 2173000   0.89922717   -7.9951036    511.85014  0.019629166  0.019603526           10 
 2174000    0.9148075   -7.9811546    511.92904  0.019623161  0.019597091            3 
 2175000   0.90951982   -8.0330272    511.11417  0.019582918  0.019590663            4 
 2176000   0.90086521   -8.0266517    513.35299  0.019659658  0.019584237            3 
 2177000   0.87857306   -7.9867004    512.74701  0.019627431  0.019577813            2 
 2178000   0.86888259   -7.9761341    510.17773  0.019520115  0.019571405            4 
 2179000   0.88358324   -8.0270247    510.78703  0.019534459  0.019564935            2 
 2180000   0.88955273   -8.0233596    512.21938  0.019580252  0.019558495            2 
 2181000   0.90350957    -7.989982    513.04486  0.019602814  0.019552058            2 
 2182000   0.89824794   -7.9806727    511.77079  0.019545172  0.019545646            5 
 2183000   0.88365605   -8.0177473    512.05079  0.019546907  0.019539182            2 
 2184000   0.90910834   -7.9993967    512.77706  0.019565669  0.019532778            2 
 2185000   0.92126945   -7.9914309    513.20913  0.019573193  0.019526372            4 
 2186000    0.9059719   -8.0492178    511.95565  0.019516455  0.019519919            1 
 2187000    0.9241941   -8.0057952    513.47208  0.019565313  0.019513506            5 
 2188000   0.90167657   -8.0364215    511.63112  0.019486255  0.019507123            3 
 2189000   0.89406917   -8.0098174    513.66041  0.019554607   0.01950068            3 
 2190000    0.8884284   -8.0329753    512.82363  0.019513837  0.019494263            2 
 2191000   0.89943843     -7.98168    513.23778  0.019520682  0.019487851            1 
 2192000    0.9039735   -8.0275903    512.13408  0.019469818  0.019481403            3 
 2193000   0.89686011   -8.0452495    513.14078  0.019499194   0.01947499            3 
 2194000   0.89504434   -7.9900115    512.86235  0.019479731  0.019468517            6 
 2195000   0.89901946   -7.9988832    513.57024  0.019497731  0.019462075            3 
 2196000   0.91949003   -7.9928354    514.16555  0.019511443   0.01945569            4 
 2197000   0.88358103   -7.9524262    514.25863  0.019506093  0.019449321            2 
 2198000   0.87743283   -8.0130617    512.90166  0.019445771  0.019442905            3 
 2199000   0.90879685   -8.0220543    512.38767   0.01941745  0.019436454            3 
 2200000   0.90546932   -8.0289499    513.75135  0.019460278  0.019430017            2 
 2201000    0.9055935   -8.0206489    512.97178  0.019421921  0.019423498            3 
 2202000   0.91447143   -8.0094006    513.55166  0.019435046  0.019417052            2 
 2203000   0.90959741   -8.0462262    513.51303  0.019424763  0.019410571            2 
 2204000   0.90782718   -8.0155345    513.32517  0.019408846  0.019404114            3 
 2205000   0.92469478   -8.0444041    513.34403  0.019400757  0.019397625            2 
 2206000   0.90279729   -8.0221014    511.80908  0.019333979  0.019391175            2 
 2207000   0.90732496    -7.974703    514.79664  0.019438024  0.019384722            2 
 2208000   0.90579687   -8.0076963    513.40351  0.019376642  0.019378264            3 
 2209000    0.8765885   -8.0186413    512.70009  0.019341334  0.019371761            2 
 2210000   0.88478611   -8.0401429    514.67084  0.019406895   0.01936527            2 
 2211000    0.8907742   -8.0322489     513.1009  0.019338945  0.019358742            1 
 2212000   0.90983712   -8.0589111    512.63085  0.019312494  0.019352243            5 
 2213000   0.91810543   -8.0378214    512.84112  0.019311686  0.019345799            1 
 2214000   0.91328804   -8.0216951    513.51469  0.019328316  0.019339318            6 
 2215000   0.90388408   -7.9949741    513.61429  0.019323337  0.019332855            4 
 2216000   0.91890778   -8.0020587    514.48193  0.019347245  0.019326388            3 
 2217000    0.8734326    -8.032813    513.19965  0.019290319  0.019319961            2 
 2218000   0.89043663   -8.0129138    514.83463   0.01934305  0.019313494            3 
 2219000   0.88167621   -8.0139182    515.13559  0.019345636  0.019307081            4 
 2220000   0.88973625   -8.0033358    514.40865  0.019309634  0.019300674            2 
 2221000   0.90404303   -7.9965969    515.35081   0.01933629  0.019294232            2 
 2222000   0.91133242   -7.9971597    514.24372  0.019286068  0.019287799            3 
 2223000   0.88488037   -8.0451783    514.82493   0.01929918  0.019281285            2 
 2224000   0.88749011   -8.0452556     513.8638  0.019254489  0.019274802            5 
 2225000   0.89524259   -8.0410337     514.9561  0.019286745  0.019268296            2 
 2226000   0.89622839   -8.0344534    515.03582  0.019281065  0.019261799            2 
 2227000   0.89357269   -8.0914943    513.92245  0.019230746  0.019255325            4 
 2228000   0.90316109   -8.0366237    515.24064  0.019271418  0.019248853            1 
 2229000   0.90279466   -8.0239688    514.07194  0.019219079  0.019242361            3 
 2230000   0.90139779   -8.0324317    515.87558  0.019277862  0.019235928            4 
 2231000   0.90879661   -8.0467933    515.26183  0.019246296   0.01922951            5 
 2232000    0.9135359   -7.9825508    515.34337  0.019240717  0.019223125            3 
 2233000   0.89768211   -8.0354262    515.67185  0.019244359   0.01921674            2 
 2234000   0.90219877   -7.9903071    516.08797  0.019251267  0.019210316            5 
 2235000    0.8677568   -8.0480658    515.00291  0.019202197  0.019203938            7 
 2236000   0.88714397    -8.048303    514.12033  0.019160716  0.019197522            4 
 2237000   0.89866864   -8.0344227    515.84955  0.019216568  0.019191078            1 
 2238000   0.89521891   -8.0277534    514.56257   0.01916006  0.019184617            4 
 2239000   0.88809852    -8.042012    515.04793  0.019169567  0.019178101            3 
 2240000   0.87933688   -8.0270586    516.15029   0.01920202  0.019171567            2 
 2241000   0.90339753   -8.0286321    515.34696  0.019163579  0.019165063            3 
 2242000   0.88800334   -7.9946958    515.23861  0.019151004  0.019158598            1 
 2243000   0.89680626   -8.0389604    514.28523  0.019107045  0.019152131            1 
 2244000   0.89048453   -8.0581619    514.22598   0.01909633  0.019145607            2 
 2245000   0.87632202   -8.0368498    514.56341  0.019100349   0.01913908            2 
 2246000   0.90330052   -8.0456032    515.23473  0.019116753   0.01913258            3 
 2247000   0.88165307   -8.0264561    515.55652   0.01912018  0.019126059            6 
 2248000   0.91264355    -8.054425    514.62603  0.019077181  0.019119581            2 
 2249000   0.90005529   -8.0595996    514.63583  0.019069061  0.019113034            3 
 2250000   0.89316007   -8.0474263    514.18432  0.019043864    0.0191065            3 
 2251000   0.90136563   -8.0598759    515.39722  0.019080306   0.01909997            3 
 2252000   0.90071125   -8.0499006    515.11986   0.01906157  0.019093472            3 
 2253000     0.907199   -8.0695263    515.53096  0.019068315  0.019086981            2 
 2254000   0.90023208   -7.9942676    516.26598   0.01908703  0.019080545            2 
 2255000   0.90139568   -8.0597521      514.945  0.019029749  0.019074071            4 
 2256000    0.8917015   -8.0295137    516.35528  0.019073407  0.019067553            3 
 2257000   0.90927064   -8.0440973    514.48821   0.01899602  0.019060981            4 
 2258000   0.88848201   -8.0325117    516.53189  0.019063031  0.019054454            3 
 2259000   0.88582669   -8.0567364     516.0981   0.01903859  0.019047973            2 
 2260000   0.89153198   -8.0314119    517.44711  0.019079908  0.019041528            2 
 2261000   0.87796982   -8.0255629    516.08235  0.019021169  0.019035091            3 
 2262000   0.88811621   -8.0542973    517.30142  0.019057671  0.019028634            2 
 2263000   0.86202511   -8.0455296    517.34753  0.019050948  0.019022215            2 
 2264000   0.89250176    -8.029953    517.80493  0.019059369  0.019015794            2 
 2265000   0.90754224   -8.0563962    516.53167  0.019004109  0.019009375            2 
 2266000   0.88481111   -8.0572629    516.13034  0.018980963  0.019002936            2 
 2267000   0.89465185   -8.0473836    516.88862  0.019000464  0.018996501            2 
 2268000   0.87454627   -8.0442805    518.61037  0.019055349  0.018990054            2 
 2269000   0.88566874   -8.0267275    517.38672   0.01900201  0.018983608            2 
 2270000   0.89300635   -8.0467611    517.83878  0.019010234  0.018977186            2 
 2271000   0.89701424   -8.0674907    518.87392  0.019039847  0.018970777            2 
 2272000   0.87885985   -8.0629072    517.23911  0.018971505  0.018964318            4 
 2273000   0.88327655   -8.0854447    517.07333   0.01895708  0.018957883            4 
 2274000   0.89158596   -8.0416865    517.81106  0.018975779  0.018951504            4 
 2275000   0.88346776   -8.0645008    517.84735  0.018968767  0.018945108            5 
 2276000   0.88105604   -8.0789379    517.81007  0.018959068  0.018938713            2 
 2277000   0.91446433   -8.0507528    518.94909  0.018992428  0.018932346            2 
 2278000   0.89633905   -8.0825609    518.12896  0.018954089   0.01892602            4 
 2279000   0.89242247   -8.0666905    518.31409  0.018952541  0.018919703            4 
 2280000   0.88745613   -8.0501454    518.80441  0.018962149  0.018913374            4 
 2281000   0.89007038    -8.050476    518.84807  0.018955432  0.018907061            2 
 2282000   0.87746753   -8.0424129    518.86093  0.018947594  0.018900672            1 
 2283000   0.88335529   -8.0568628    517.55041  0.018891459  0.018894323            2 
 2284000   0.88710262   -8.0816636    518.05418  0.018901568  0.018887958            3 
 2285000   0.88699467   -8.0783335    519.35442  0.018940716  0.018881614            2 
 2286000    0.8798851   -8.1039765    518.00218  0.018883136  0.018875263            3 
 2287000   0.88529852   -8.0394103    518.11822  0.018879107  0.018868898            2 
 2288000   0.88347104   -8.0468457    519.50794  0.018921472  0.018862609            1 
 2289000   0.87740172   -8.0717861    519.41686   0.01890989  0.018856292            3 
 2290000   0.88115024   -8.0488353     518.8047  0.018879356  0.018849962            1 
 2291000   0.88945167   -8.0731585     519.2166  0.018886098  0.018843647           12 
 2292000   0.88954968   -8.0443303    518.96477  0.018868702  0.018837264            2 
 2293000   0.87624756   -8.0690693     518.8792  0.018857363  0.018830891            5 
 2294000   0.89352253   -8.0185542    519.29187  0.018864133  0.018824585            3 
 2295000   0.87240635   -8.0381913    520.06828  0.018884106  0.018818268            1 
 2296000   0.88497882   -8.0493736    519.94159  0.018871283  0.018811999            2 
 2297000   0.90114659   -8.0581777    518.94744  0.018827001  0.018805707            4 
 2298000   0.91322125   -8.0648645     520.0031  0.018857089  0.018799403            6 
 2299000   0.88145536    -8.054874    519.32567  0.018824332  0.018793098            2 
 2300000   0.89061946   -8.0455063    519.85551  0.018835345  0.018786777            3 
 2301000   0.87259866   -8.0476248    521.09067  0.018871892  0.018780468           10 
 2302000   0.88043873   -8.0572028    520.58725  0.018845469  0.018774159            2 
 2303000   0.90444903   -8.0282925    520.76505   0.01884372  0.018767852            3 
 2304000   0.90025019    -8.049053    519.49019  0.018789431  0.018761565            2 
 2305000   0.88062054   -8.0680705    520.38017  0.018813455  0.018755316            5 
 2306000   0.88697925   -8.0549358    520.65561   0.01881525  0.018749033            1 
 2307000    0.8848476   -8.0961081    520.23488  0.018791897  0.018742775            3 
 2308000   0.86666136   -8.0741666     520.6017     0.018797  0.018736474            2 
 2309000   0.88725063   -8.0563142    520.35921  0.018780107  0.018730174            1 
 2310000    0.8608956   -8.0457856    520.65739  0.018782734  0.018723884            3 
 2311000   0.87616583   -8.0602408     520.1241  0.018755376  0.018717552            3 
 2312000   0.89575553   -8.0886252    519.06052  0.018708929  0.018711179            2 
 2313000    0.8710694   -8.0940725    520.46553   0.01875146  0.018704788            2 
 2314000   0.86687282   -8.0968037    520.57137  0.018747168  0.018698423            5 
 2315000   0.87277201   -8.0906585      519.865  0.018713643  0.018692045            1 
 2316000   0.89055738   -8.1373751    519.38507  0.018688294  0.018685627            6 
 2317000   0.86927256   -8.1018826    521.25223  0.018747383  0.018679276            2 
 2318000   0.88290116    -8.132478    519.92252  0.018691491  0.018672886            2 
 2319000   0.89887662   -8.1161835    520.88999  0.018718197  0.018666465            3 
 2320000   0.89320972   -8.1037015    522.17712  0.018756362  0.018660062            3 
 2321000   0.88728859   -8.0680122    520.78421   0.01869827  0.018653685            2 
 2322000   0.86812319   -8.0642594    521.52112  0.018716664  0.018647366            1 
 2323000   0.89507381   -8.1045506     519.7493  0.018645046  0.018641032            2 
 2324000   0.88561876   -8.1002935     521.2974  0.018692535  0.018634681            4 
 2325000   0.87997402   -8.1306436    520.74953  0.018664858  0.018628381            4 
 2326000   0.89713207   -8.0996549    521.94933  0.018699818  0.018622026            2 
 2327000   0.89067514   -8.0600973    522.43882  0.018709312  0.018615774            4 
 2328000   0.88593077   -8.0655317    522.80379  0.018714339  0.018609544            5 
 2329000   0.87070261   -8.0521932     522.3417   0.01868977  0.018603326            2 
 2330000   0.87920315   -8.0805998    523.31561  0.018716581  0.018597059            3 
 2331000   0.87546815    -8.083069    521.72814    0.0186518  0.018590771            3 
 2332000   0.86644698   -8.0848471     522.3281  0.018665241  0.018584472            4 
 2333000   0.89194241   -8.0748163    522.18142  0.018652001  0.018578207            5 
 2334000   0.87018621    -8.100879    522.28621  0.018647751  0.018571915            2 
 2335000   0.87819305   -8.0992677    521.55631  0.018613716  0.018565584            4 
 2336000   0.87563719   -8.1085157    522.05628  0.018623583  0.018559272            3 
 2337000   0.87317944   -8.1004875    523.03111  0.018650375  0.018553011            5 
 2338000   0.86675551   -8.1415016    521.70312  0.018595064    0.0185467            5 
 2339000    0.8871608   -8.0975132    522.22668  0.018605767  0.018540371            3 
 2340000   0.88257697   -8.0779282    522.57685  0.018610287  0.018534042            1 
 2341000   0.87976096   -8.1091462     521.9412   0.01857971  0.018527717            5 
 2342000   0.86536566   -8.0609899    522.97438  0.018608539  0.018521386            3 
 2343000   0.87609158   -8.1120706    521.98818  0.018565521  0.018515099            5 
 2344000   0.89931471   -8.0938502    522.82967  0.018587517  0.018508774            6 
 2345000   0.89097434   -8.1238893     520.8306   0.01850855  0.018502463            3 
 2346000   0.88881776   -8.1238075    522.08406  0.018545185  0.018496109            4 
 2347000   0.88087791    -8.085266    521.98883  0.018533902  0.018489818            5 
 2348000   0.86718342   -8.0856303    522.93534  0.018559602  0.018483523            4 
 2349000   0.86862291   -8.0450694    524.51209  0.018607638  0.018477242            4 
 2350000   0.85505353   -8.1173186    522.60921  0.018532242  0.018470977            6 
 2351000   0.88111103   -8.0764794    523.16617  0.018544101  0.018464729            5 
 2352000    0.8835055   -8.0969452     523.2989  0.018540919  0.018458465            3 
 2353000   0.88296829   -8.0880764    523.74258  0.018548753  0.018452161            2 
 2354000   0.88105689   -8.0809135    524.88329  0.018581255  0.018445952            9 
 2355000   0.88474476   -8.0738684    525.08866  0.018580632  0.018439726           11 
 2356000   0.85026473     -8.11539    522.12553  0.018467938  0.018433519           11 
 2357000   0.87332744   -8.0924785     523.9417  0.018524314  0.018427312            3 
 2358000   0.87082651   -8.0940213    523.51027  0.018501211  0.018421101            6 
 2359000    0.8606458   -8.1039691    524.68837  0.018534985  0.018414882            2 
 2360000   0.88316087   -8.1269275    522.60772  0.018453662  0.018408643            3 
 2361000   0.88464668   -8.1242001    524.31362  0.018506057  0.018402348            3 
 2362000   0.86075528   -8.1310935    523.18298  0.018458333   0.01839607            4 
 2363000   0.86430609   -8.1048471    523.83709  0.018473589  0.018389819            2 
 2364000   0.87105036   -8.1034934    523.89165  0.018467698  0.018383586            2 
 2365000   0.87366865    -8.082709    525.49759  0.018516476  0.018377351            4 
 2366000   0.88590435   -8.0752481     524.4824  0.018472894  0.018371168            2 
 2367000   0.87813053    -8.118605    523.77908  0.018440328  0.018364947            3 
 2368000   0.87662665   -8.0770598    524.32156  0.018451632   0.01835872            4 
 2369000   0.88685123   -8.0812615    525.49089  0.018484976  0.018352523            5 
 2370000   0.87626928   -8.1220669     523.6086  0.018410991  0.018346335            3 
 2371000    0.8789395   -8.0971518    525.60341  0.018473338  0.018340143            2 
 2372000   0.88194915   -8.0769469    525.49811   0.01846185  0.018334001            4 
 2373000   0.87824734   -8.1004335    524.55465  0.018420939  0.018327858            3 
 2374000    0.8721592   -8.1136196    523.76246  0.018385371  0.018321642            5 
 2375000   0.87058493   -8.0996743    523.84391  0.018380488   0.01831543            4 
 2376000   0.86966337   -8.0935598    524.84029  0.018407698  0.018309232            2 
 2377000   0.88695579   -8.0669444    524.80763  0.018398809  0.018303045            5 
 2378000   0.87298436   -8.0982849    524.59771  0.018383716  0.018296861            5 
 2379000   0.87029824   -8.0790047    525.04721  0.018391734  0.018290678            3 
 2380000   0.85298991   -8.0939144    524.75504  0.018373776  0.018284502            3 
 2381000   0.88576931   -8.0977546    525.99742  0.018409542  0.018278305            3 
 2382000   0.88862796   -8.0937955    525.25378  0.018375797  0.018272129            2 
 2383000   0.87494112   -8.0877568    524.90784  0.018355988   0.01826601            3 
 2384000   0.88123494   -8.0924243    525.70694  0.018376221  0.018259859            2 
 2385000   0.84882805   -8.0908134    525.60865  0.018365082  0.018253701            6 
 2386000   0.87204859   -8.0997667    525.76569   0.01836287  0.018247564            3 
 2387000   0.86314464    -8.089886    525.66543  0.018351677  0.018241445            2 
 2388000   0.86978196   -8.1233788    525.10413  0.018324404  0.018235248            2 
 2389000   0.88180436   -8.1322966    525.21587  0.018320632  0.018229067            5 
 2390000   0.88601992   -8.0982392    526.60407  0.018361369  0.018222879            4 
 2391000    0.8437058     -8.11022    526.30556  0.018343286  0.018216676            3 
 2392000   0.87955962   -8.0950757    524.83459  0.018284371  0.018210449            1 
 2393000   0.87434916   -8.1241689    526.66502  0.018340473  0.018204258            2 
 2394000   0.87948548   -8.1093485    526.91604   0.01834155  0.018198072            1 
 2395000   0.86251232   -8.1415106    527.06324  0.018339013   0.01819194            3 
 2396000   0.85643163   -8.0856782    526.96015  0.018327774  0.018185775            1 
 2397000   0.85902771   -8.0925247    525.05712  0.018253968  0.018179626            1 
 2398000   0.85779934    -8.108656     525.5259  0.018262646  0.018173483            2 
 2399000   0.88495283   -8.1037335    525.85752  0.018266553  0.018167336            2 
 2400000   0.88517116   -8.1264063    525.04447  0.018230711   0.01816115            4 
 2401000   0.87031171    -8.111312    527.49211   0.01830807  0.018154996            2 
 2402000   0.86833741   -8.1214902    526.15039  0.018253899  0.018148864            2 
 2403000   0.86148747   -8.0783531    527.05778   0.01827777  0.018142742            2 
 2404000   0.86017343   -8.1261663    527.01784  0.018268783  0.018136608            5 
 2405000   0.87829867   -8.1083237    526.87811  0.018256345  0.018130484            1 
 2406000   0.87715845   -8.1033475    527.01269  0.018253418  0.018124342            4 
 2407000   0.84680495   -8.0891107    527.30536  0.018255967  0.018118205            4 
 2408000   0.85099095   -8.0870684    528.62692  0.018294121   0.01811207            6 
 2409000   0.85569926   -8.0779337    527.83782   0.01825923  0.018105953            4 
 2410000   0.89388985   -8.0987057    527.13205  0.018227249  0.018099843            2 
 2411000    0.8662875   -8.0988171    527.43236  0.018230069  0.018093735            7 
 2412000   0.86101882   -8.0995939    526.13465  0.018177676  0.018087591            4 
 2413000   0.86688525   -8.1147563    527.77544  0.018226808  0.018081449            4 
 2414000   0.86310227   -8.1089589    527.63204  0.018214307  0.018075312            3 
 2415000   0.86519045   -8.1433211    527.14344  0.018189905  0.018069147            1 
 2416000   0.84721357   -8.1111993    527.91694  0.018209055  0.018062984            4 
 2417000   0.86537978   -8.1072995    528.19132  0.018210982  0.018056838            3 
 2418000   0.87431888    -8.112019    529.00939  0.018231644  0.018050744            4 
 2419000   0.87661395   -8.1529669    527.25577  0.018163696  0.018044666            2 
 2420000   0.85387815   -8.0956152    528.97892  0.018215528  0.018038575            1 
 2421000   0.84872184   -8.1261391     526.8679   0.01813534  0.018032483            2 
 2422000   0.85562317   -8.1188877     527.8044  0.018160074  0.018026376            4 
 2423000   0.84157822   -8.1240791    528.90996  0.018190603  0.018020295            2 
 2424000   0.85293291   -8.1191651    527.56391  0.018136823  0.018014203            3 
 2425000   0.87775623   -8.1451161    528.07599  0.018146941  0.018008111            3 
 2426000   0.86360118   -8.1206773    529.35344  0.018183342  0.018002005            4 
 2427000   0.85702924   -8.1490131    527.91329    0.0181264  0.017995896            2 
 2428000    0.8561229   -8.0956855    527.83486  0.018116243  0.017989753            3 
 2429000   0.84709654   -8.1062687    528.54766  0.018133239  0.017983652            4 
 2430000   0.85495665   -8.1389801    526.86787  0.018068171  0.017977531            6 
 2431000   0.86739494    -8.121967    527.56217  0.018084539  0.017971385            3 
 2432000    0.8689998   -8.1748504    526.00893  0.018023881   0.01796519            4 
 2433000   0.85347624   -8.1425142    527.70673  0.018074624  0.017959006            3 
 2434000    0.8768926   -8.1522758    527.47392  0.018059228  0.017952823            2 
 2435000   0.86629139   -8.1407626    528.70421  0.018093915   0.01794669            2 
 2436000   0.86849781   -8.1224374    528.02692  0.018063318  0.017940561            5 
 2437000   0.87575862   -8.0967609     528.6401  0.018076874   0.01793448            2 
 2438000   0.84923801   -8.1131762    528.86018  0.018076982  0.017928405            5 
 2439000   0.86323242   -8.1226331    529.09512  0.018077597  0.017922285            4 
 2440000   0.86308566   -8.1159216    528.41729  0.018047038   0.01791618            5 
 2441000   0.86849203     -8.09904    529.32332  0.018070576  0.017910101            4 
 2442000   0.87325192   -8.0727981    529.78445  0.018078912  0.017904017            1 
 2443000   0.85763665   -8.1055908     528.7279  0.018035472   0.01789798            7 
 2444000    0.8583961   -8.1124844    528.73817  0.018028443  0.017891928            2 
 2445000   0.88116725   -8.1070767    528.66538  0.018018588  0.017885821            2 
 2446000   0.84826073   -8.1139647    529.00312  0.018022728  0.017879782            6 
 2447000   0.85334717   -8.1291502    529.12283   0.01801944  0.017873722            2 
 2448000    0.8762457    -8.083506    530.48348  0.018058397  0.017867698            3 
 2449000   0.87232715   -8.1169656    528.96923  0.017999497  0.017861679            2 
 2450000   0.86181103   -8.1165367    530.14816   0.01803225  0.017855643            2 
 2451000   0.86220319    -8.119969    529.11245  0.017989679  0.017849611            4 
 2452000   0.86129268   -8.1000658    530.17636  0.018018501  0.017843567            3 
 2453000   0.85445121   -8.1113405    530.06833  0.018007485  0.017837536            3 
 2454000   0.84478818   -8.1300097    529.44999  0.017979149  0.017831502            3 
 2455000   0.84553771   -8.1394602    528.85638  0.017951676  0.017825452            2 
 2456000   0.85466186   -8.1406243    529.80814   0.01797666  0.017819366            1 
 2457000   0.84724741   -8.1480677    529.08906  0.017944955  0.017813317            5 
 2458000   0.85042633   -8.1698798    529.63305  0.017956097  0.017807297            2 
 2459000   0.87182623   -8.1384587    529.29642  0.017937387  0.017801275            3 
 2460000   0.86540486   -8.1318258    531.32514  0.017998819  0.017795307            7 
 2461000    0.8618937   -8.1151041    531.98333  0.018013793  0.017789344            2 
 2462000   0.86306298   -8.1352555    530.36033  0.017951541  0.017783367            2 
 2463000   0.87931922   -8.1311321     530.7926  0.017958878  0.017777373            1 
 2464000   0.86179276   -8.1231724    530.69706  0.017948358  0.017771383            4 
 2465000   0.84769795   -8.1577373    530.12521  0.017921745  0.017765408            3 
 2466000    0.8617796   -8.0857678     531.9631  0.017976585  0.017759435            3 
 2467000   0.86927245    -8.149143    531.04317  0.017938223  0.017753465            3 
 2468000    0.8701272   -8.1310724     530.7919  0.017922471  0.017747463            3 
 2469000   0.85414617   -8.1384669    532.49097  0.017972559  0.017741483            2 
 2470000   0.85850338   -8.1531648    530.68188  0.017904247  0.017735489            5 
 2471000   0.83493262    -8.171678     530.6112  0.017894618  0.017729494            5 
 2472000   0.83542819   -8.1425233    532.20637  0.017941153  0.017723484            2 
 2473000   0.84818855   -8.1349399    530.71378  0.017883602  0.017717499            2 
 2474000   0.85593675   -8.1467205    531.39783  0.017899415  0.017711489            3 
 2475000   0.84960708   -8.1658452    532.12572  0.017916691  0.017705481            3 
 2476000   0.84433536   -8.1371399    530.58401  0.017857566  0.017699474            3 
 2477000   0.86009164   -8.1420187    530.99863  0.017864306  0.017693529            3 
 2478000    0.8630662   -8.1138832     531.1934  0.017863647  0.017687592            1 
 2479000   0.86941351   -8.1477496    532.19639  0.017890157  0.017681654            7 
 2480000   0.83421486    -8.089137    532.65364  0.017898308  0.017675736            2 
 2481000   0.85724559   -8.1461543    532.35704  0.017881131  0.017669841            2 
 2482000   0.86005872   -8.1443982    532.58812  0.017881685  0.017663893            3 
 2483000   0.85799795    -8.150127    531.98995  0.017854408  0.017657942            3 
 2484000   0.83237002    -8.119128     533.0637  0.017883243   0.01765203            3 
 2485000   0.86021974   -8.1544792    532.62143  0.017861215  0.017646143            3 
 2486000   0.85576126   -8.1699003    531.94717  0.017831428  0.017640195            3 
 2487000   0.85871866   -8.1751128    531.79702  0.017819227  0.017634222            4 
 2488000   0.85313221   -8.1598963    531.57505   0.01780463  0.017628263            2 
 2489000   0.85051749   -8.1667606    530.72925  0.017769159  0.017622341            5 
 2490000   0.86429232   -8.1637452    532.75044  0.017829667  0.017616404            2 
 2491000   0.85497969   -8.1156134    533.09149  0.017833918  0.017610498            3 
 2492000   0.83245104   -8.1306772    534.01663  0.017857699  0.017604629            4 
 2493000   0.83578783   -8.1433716    534.43967  0.017864677  0.017598782            4 
 2494000   0.82878628   -8.1570606     533.5972  0.017829364  0.017592905            4 
 2495000   0.86599854   -8.1352506    533.59947  0.017822294  0.017587042            4 
 2496000   0.85193057   -8.1549574    533.09865  0.017798433  0.017581186            4 
 2497000    0.8465807   -8.1559179    532.60877  0.017774956  0.017575349            3 
 2498000   0.85131495   -8.1598137    532.88808  0.017777158  0.017569445            3 
 2499000   0.85903931   -8.1513678    533.42226  0.017787857  0.017563559            2 
 2500000   0.85193557   -8.1596985    533.09647  0.017769882  0.017557697            9 
 2501000   0.84761427   -8.1561528    532.94134  0.017757608  0.017551879            6 
 2502000    0.8613079   -8.1450498    534.93159  0.017816799  0.017546032            4 
 2503000   0.85718536    -8.146713    533.65494  0.017767177  0.017540206            3 
 2504000   0.82523975   -8.1623723     535.1178  0.017808766  0.017534404            2 
 2505000   0.85617379   -8.1563834     534.4178   0.01777837  0.017528582            4 
 2506000   0.85105315   -8.1751431     533.4359  0.017738624  0.017522721            1 
 2507000   0.83078777   -8.1746033    534.57479  0.017769405  0.017516892            2 
 2508000   0.83454322   -8.1621976    534.10405  0.017746679  0.017511091            4 
 2509000   0.87480306   -8.1797741    534.86655  0.017764931  0.017505303            3 
 2510000   0.84345735   -8.1832295    534.17978  0.017735052  0.017499487            3 
 2511000   0.85500836   -8.1595114    535.88487  0.017784577   0.01749369            3 
 2512000   0.83968096   -8.1976049    534.24306  0.017723031  0.017487897            7 
 2513000   0.86350876   -8.1903025    535.09816  0.017744335  0.017482059            3 
 2514000   0.86091352   -8.1071513    536.17925  0.017773112  0.017476265            3 
 2515000   0.85068651    -8.096104    536.12904  0.017764382  0.017470503            5 
 2516000   0.84179326   -8.1411627     535.4327  0.017734258  0.017464775            6 
 2517000   0.85817794    -8.142598    535.01193  0.017713281  0.017459014            6 
 2518000   0.84155423   -8.1852367    535.50251  0.017722482  0.017453213            3 
 2519000   0.83276212   -8.1752383    536.11501  0.017735709  0.017447423            4 
 2520000   0.83690513   -8.1650048    535.29807  0.017701656   0.01744165           11 
 2521000   0.85505822   -8.1514815    534.38866  0.017664573   0.01743587            7 
 2522000   0.83082835   -8.1914895    535.08168  0.017680468  0.017430053            5 
 2523000   0.83780305    -8.175741    535.74565  0.017695391  0.017424216            3 
 2524000   0.85784246   -8.1778954    533.36752  0.017609863  0.017418379            3 
 2525000   0.85493968   -8.1844558    535.85502  0.017684984  0.017412554            4 
 2526000   0.86251044   -8.1785797    535.90624  0.017679673  0.017406757            3 
 2527000    0.8518201   -8.1392078    536.60119  0.017695594   0.01740099            1 
 2528000   0.82876572   -8.2067399    535.52358  0.017653071  0.017395205            2 
 2529000   0.84066154   -8.1772623    535.50873  0.017645602  0.017389423            2 
 2530000   0.86189642    -8.149737    536.24548  0.017662894  0.017383639            5 
 2531000    0.8530702   -8.1460125    534.56718  0.017600658  0.017377889            2 
 2532000   0.84786088   -8.1820933    536.16442  0.017646275  0.017372128            1 
 2533000   0.85770316   -8.1639035    535.89031   0.01763029  0.017366367            4 
 2534000    0.8595375   -8.1853387    535.47375  0.017609634  0.017360559            5 
 2535000   0.83664862   -8.1419757    535.05601  0.017588955  0.017354766            2 
 2536000    0.8411753   -8.1437686    537.09347   0.01764897  0.017349003            4 
 2537000   0.84906602   -8.1698435    535.69216  0.017595985  0.017343259            2 
 2538000   0.82661714   -8.1690927    535.50648  0.017582955  0.017337485            3 
 2539000   0.83388154   -8.1669339    535.37842  0.017571827  0.017331687            1 
 2540000   0.82817434   -8.1636828    536.23027  0.017592857  0.017325888            6 
 2541000   0.83333476   -8.1787465    536.26855  0.017587188  0.017320097            3 
 2542000   0.84816003   -8.2097269    535.04385  0.017540121  0.017314282            6 
 2543000   0.84865137    -8.188546    536.15905  0.017569768  0.017308436            2 
 2544000   0.84519481   -8.1854513    536.75312  0.017582322  0.017302638            2 
 2545000    0.8544432    -8.194696    535.94478  0.017548945  0.017296853            5 
 2546000   0.85352105   -8.1773335    536.59609   0.01756337  0.017291063            2 
 2547000   0.83478833   -8.2103602    535.76566  0.017529305  0.017285278            2 
 2548000   0.85252847   -8.1610408    536.08795  0.017532965  0.017279498            2 
 2549000   0.84669335   -8.1676571     536.9238  0.017553413  0.017273751            1 
 2550000   0.85657973   -8.1804408    535.61069  0.017503617  0.017267987            5 
 2551000   0.84845892   -8.2017013    535.68136  0.017499064  0.017262208            2 
 2552000   0.84645913   -8.1686049    535.20994  0.017476814  0.017256448            5 
 2553000   0.83568324   -8.1624301    537.09475  0.017531491  0.017250711            5 
 2554000   0.83762741   -8.1624927    538.13781   0.01755866  0.017244979            4 
 2555000   0.83284796   -8.1773584    537.31901  0.017525082  0.017239238            3 
 2556000   0.83822745   -8.1759333    536.66635  0.017496947  0.017233441            5 
 2557000   0.84929519   -8.1845423    536.47943  0.017484012  0.017227644            1 
 2558000   0.84482844   -8.1684943    537.96601  0.017525606   0.01722184            5 
 2559000   0.86409058   -8.1806489     537.1091  0.017490853  0.017216058            4 
 2560000   0.84396943   -8.2145477    536.97321  0.017479597    0.0172103            3 
 2561000   0.84138337   -8.1745015     537.7538  0.017498171  0.017204542            1 
 2562000   0.85297216   -8.1901592    536.85541   0.01746212  0.017198804            2 
 2563000   0.83009283   -8.1788412    537.54553  0.017477745  0.017193076            1 
 2564000   0.83758704   -8.1748694    538.40326  0.017498806   0.01718737            4 
 2565000   0.84631599   -8.1911065    536.41411  0.017427359  0.017181642            4 
 2566000   0.84031837   -8.2022966    536.59738  0.017426519  0.017175878            3 
 2567000   0.84097264   -8.1617756    537.14751   0.01743759  0.017170145            2 
 2568000   0.86017666   -8.1750178    538.17598  0.017464174  0.017164434            2 
 2569000    0.8466506   -8.1951862    538.23689  0.017459352  0.017158739            4 
 2570000   0.82602324   -8.2020364    538.20843  0.017451635  0.017153021            2 
 2571000   0.84276736   -8.1915134    538.69781  0.017460709  0.017147326            3 
 2572000   0.83821556   -8.2147211    537.91778  0.017428648   0.01714163            8 
 2573000   0.83917209    -8.185957     538.3792  0.017436818  0.017135942            3 
 2574000   0.84659145   -8.2000121    538.95361  0.017448641  0.017130244            6 
 2575000    0.8162741   -8.1820174    538.86065  0.017438856  0.017124577            4 
 2576000   0.83130272   -8.2312792    536.97866  0.017371204  0.017118875           13 
 2577000   0.83495142   -8.2356415    537.88413  0.017393744  0.017113186            2 
 2578000    0.8332131   -8.2011905    538.71971  0.017414007  0.017107528            2 
 2579000   0.83684228   -8.2256702     538.2933  0.017393476  0.017101873            4 
 2580000   0.83079462   -8.1894784    541.03437   0.01747527   0.01709624            1 
 2581000   0.85210605    -8.172035    538.34594  0.017381698  0.017090579            3 
 2582000   0.83701579   -8.1806434    540.79722   0.01745408   0.01708493            3 
 2583000   0.84800752   -8.2089509    539.59973  0.017408689  0.017079289            4 
 2584000     0.813786   -8.1512029    540.74237  0.017438802  0.017073686            7 
 2585000   0.83892484   -8.1763074     540.3298  0.017418756   0.01706808            4 
 2586000   0.85243754   -8.1812128    538.85226  0.017364407  0.017062424            2 
 2587000   0.84384202   -8.2020469    539.23671  0.017370078  0.017056754            6 
 2588000   0.83874192   -8.2060801     538.8231  0.017350048  0.017051086            3 
 2589000   0.84172632   -8.2006169    539.50531  0.017365305  0.017045408            1 
 2590000   0.83929146   -8.1943779    539.63097  0.017362644  0.017039741            2 
 2591000   0.82783055   -8.1861613    539.92368  0.017365357   0.01703408            5 
 2592000   0.83694708   -8.2001972    538.34945  0.017308046  0.017028425            4 
 2593000    0.8415903   -8.2115869    539.61612  0.017342079   0.01702275            6 
 2594000   0.83405987   -8.1977063    537.36017   0.01726292  0.017017029            4 
 2595000   0.83163003   -8.1723481    539.13711  0.017313331  0.017011312            2 
 2596000   0.83213542   -8.1923725    539.36537  0.017313988  0.017005621            6 
 2597000   0.82742946   -8.2007258    539.32099  0.017305898  0.016999911            2 
 2598000   0.82699818   -8.1873074    539.29005  0.017298244  0.016994216            2 
 2599000   0.84239013   -8.1979542    538.70888  0.017272954  0.016988549            8 
 2600000   0.84725102   -8.1484051    538.63974  0.017264094  0.016982903            3 
 2601000   0.82202264   -8.1737489    539.88674  0.017297409  0.016977214            9 
 2602000   0.83560617   -8.2210936    537.73071  0.017221711  0.016971517            3 
 2603000     0.825972   -8.2314487    538.78428  0.017248824  0.016965786            3 
 2604000   0.81424323   -8.2233495    537.55603  0.017202894  0.016960059            3 
 2605000   0.82339764   -8.2129801    540.04525   0.01727592  0.016954334            2 
 2606000   0.83752126   -8.2037362    538.51501  0.017220357  0.016948602            4 
 2607000   0.86210628   -8.2135497    540.26622  0.017269729  0.016942876            6 
 2608000   0.84936355   -8.1872382    539.44994  0.017237025  0.016937178            4 
 2609000    0.8355712   -8.1873273    540.48258  0.017263402  0.016931484            3 
 2610000   0.84273152    -8.193983    539.05223  0.017211119  0.016925748            4 
 2611000   0.82764903   -8.1943426    539.16648  0.017208173   0.01692004            5 
 2612000   0.83188181   -8.2067568    539.81265  0.017222201  0.016914317            3 
 2613000   0.82252839   -8.2398187    539.15119  0.017194514  0.016908582            3 
 2614000   0.84871232   -8.1969293    539.37425  0.017195047  0.016902858            4 
 2615000   0.83250271   -8.1810801    539.03923  0.017177796  0.016897126            4 
 2616000   0.82220976   -8.2183283    538.92131  0.017167473  0.016891409            4 
 2617000   0.84547438   -8.2309831    538.64576  0.017152139  0.016885687            4 
 2618000   0.83108866   -8.2201195    539.38053  0.017168976  0.016879965            3 
 2619000   0.83343873    -8.207241    539.47563  0.017165446  0.016874279            6 
 2620000   0.83223912   -8.2149549    539.86811  0.017171378  0.016868595            6 
 2621000   0.84120883   -8.2137983    539.17074  0.017142654  0.016862904            5 
 2622000   0.83321572    -8.218329     539.5787  0.017149082  0.016857208            3 
 2623000   0.82357959   -8.1920342    540.56444  0.017173861  0.016851528            4 
 2624000   0.83789749    -8.199037    540.80264  0.017174881  0.016845841            3 
 2625000   0.83020695   -8.2096203    540.81368  0.017168688  0.016840209            4 
 2626000   0.83608672   -8.2032935    540.62969  0.017156312  0.016834537            5 
 2627000   0.83972448   -8.2351363    539.35795  0.017109439  0.016828837            3 
 2628000   0.82892348   -8.2340996    539.82415  0.017117711  0.016823107            3 
 2629000   0.80648448   -8.2318218      539.701  0.017107297  0.016817394            2 
 2630000   0.83511383   -8.2261645    539.27323  0.017087238  0.016811704            3 
 2631000   0.82993067   -8.2476579    539.18606  0.017077982  0.016805979            3 
 2632000   0.81845289   -8.2603495    539.67891  0.017087098  0.016800273            2 
 2633000    0.8364935   -8.2287378    541.19737  0.017128667  0.016794595           10 
 2634000   0.82836916   -8.2400399     540.5755   0.01710249  0.016788927            5 
 2635000   0.84018989   -8.1696695    541.02669  0.017110269  0.016783292            3 
 2636000   0.82662195   -8.2277388    541.33824  0.017113627  0.016777624            4 
 2637000   0.81885403   -8.2082356    540.60212  0.017083874  0.016771993            6 
 2638000   0.82216668   -8.2238065    539.76888  0.017051077  0.016766318            4 
 2639000   0.82096983     -8.24545    540.01801  0.017052482  0.016760643            2 
 2640000   0.84272998   -8.2306026    539.93591  0.017043432  0.016754949            3 
 2641000   0.83171479    -8.233148    540.22746  0.017046178  0.016749243            4 
 2642000   0.82998053   -8.2374147    540.83976  0.017059039  0.016743559            3 
 2643000   0.82172747   -8.2459401    540.84634  0.017052792  0.016737877            3 
 2644000   0.81982122   -8.2503836    539.26245  0.016996421  0.016732177            2 
 2645000   0.83981743   -8.2318461    539.14549   0.01698631  0.016726504            2 
 2646000   0.81884343   -8.2366947    539.68168  0.016996777  0.016720837            1 
 2647000   0.82464884   -8.1988631    542.49164   0.01707882  0.016715177            3 
 2648000   0.81589948   -8.2400146    540.69635  0.017015872   0.01670953            2 
 2649000   0.83347745   -8.2439816    539.94663  0.016985864  0.016703891            4 
 2650000   0.83794537    -8.201348    541.93498  0.017041981  0.016698228            4 
 2651000    0.8109343   -8.2448365    541.14181  0.017010619  0.016692567            6 
 2652000   0.86006209   -8.2132765    540.98848  0.016999387   0.01668692            4 
 2653000   0.82383267    -8.228576    540.98833  0.016992974  0.016681301            5 
 2654000   0.83037449   -8.2370054     540.4659  0.016970168  0.016675621            4 
 2655000   0.82843532   -8.2320152    539.45201  0.016931953  0.016669952            3 
 2656000    0.8313429   -8.2253443    542.42885  0.017018978  0.016664317            2 
 2657000   0.82995082   -8.2186005    542.12831  0.017003146  0.016658687            3 
 2658000   0.81500358   -8.2354236    541.60502  0.016980343  0.016653077            3 
 2659000    0.8317613   -8.2055737    542.30507  0.016995897  0.016647465            3 
 2660000   0.81668051   -8.2238273    541.78837   0.01697332  0.016641871            3 
 2661000    0.8245076   -8.2111846    541.13792  0.016946571  0.016636289            4 
 2662000   0.83734377   -8.1933958    542.09181  0.016970067  0.016630717            6 
 2663000     0.819272   -8.2100064     541.9584  0.016959519  0.016625127            4 
 2664000    0.8213502   -8.2306518    542.33475  0.016964926  0.016619539            4 
 2665000   0.85395021   -8.2147266    541.56716  0.016934558  0.016613975            4 
 2666000   0.84073011   -8.2266701    541.92459  0.016939378  0.016608397            4 
 2667000   0.81917002   -8.2147595    542.28964  0.016944433  0.016602822            2 
 2668000   0.82227883    -8.219164    542.50394  0.016944776  0.016597243            5 
 2669000   0.80075242   -8.2413695    542.67567  0.016943789  0.016591683            7 
 2670000   0.81663656   -8.2362982    542.28304  0.016925188  0.016586105            6 
 2671000   0.81403648   -8.1934516    544.00354   0.01697253  0.016580577            5 
 2672000   0.82227835   -8.1964552    543.44444  0.016948741  0.016575067            2 
 2673000    0.8230948   -8.1841199     543.5258  0.016944937  0.016569542            3 
 2674000   0.81583907     -8.25063    541.63764  0.016879757   0.01656403            8 
 2675000   0.81959717   -8.2504835    542.86419  0.016911657  0.016558468            4 
 2676000   0.82356441   -8.2430717    543.40967  0.016922324  0.016552924            4 
 2677000   0.81909572   -8.2173533    543.66417  0.016923925  0.016547405            2 
 2678000   0.82170049   -8.2404877    543.62676  0.016916441  0.016541884            2 
 2679000   0.82024017   -8.2162234    543.51693   0.01690671  0.016536345            3 
 2680000   0.84018475   -8.2306794     544.2318  0.016922631  0.016530805            3 
 2681000   0.81770071   -8.2404575    541.92867  0.016844731  0.016525249            5 
 2682000   0.82872998   -8.2384357    543.54636  0.016888714   0.01651972            6 
 2683000   0.81021928    -8.243481    544.31223  0.016906207  0.016514188            4 
 2684000   0.80088177   -8.2457146    543.30458  0.016868622  0.016508657            6 
 2685000    0.8219496   -8.2064169    543.59011  0.016871201   0.01650313            5 
 2686000    0.8054404   -8.2139474    544.55588  0.016894883  0.016497617            5 
 2687000    0.8161433   -8.2292275     542.3555  0.016820354  0.016492081            7 
 2688000   0.82708408   -8.1944856    544.30563  0.016874554  0.016486543            5 
 2689000   0.81338713   -8.2095472    544.92651   0.01688752  0.016481061            3 
 2690000   0.81585889   -8.2335516    543.04916  0.016823084  0.016475545            9 
 2691000   0.82773854   -8.2432587    544.33063  0.016856517  0.016470033            2 
 2692000   0.82666255   -8.2633159    541.81733  0.016772453   0.01646449            6 
 2693000   0.83354858   -8.2325254    544.39945  0.016846127  0.016458956            2 
 2694000   0.82337515   -8.2240219     543.9993  0.016827496  0.016453426            3 
 2695000   0.81291651   -8.2285666    543.57542  0.016808145  0.016447893            3 
 2696000   0.82883105   -8.2406466    543.96839  0.016814058   0.01644239            4 
 2697000   0.80979993   -8.2175843    544.45881  0.016822977  0.016436888            4 
 2698000   0.82529325   -8.2352326    543.25969  0.016779704  0.016431367            5 
 2699000   0.81412377   -8.2487984     544.0938  0.016799241  0.016425854            3 
 2700000   0.79349886   -8.2359787    543.97624   0.01678939  0.016420327            6 
 2701000     0.825135   -8.2470738    542.31904  0.016732045  0.016414784            4 
 2702000   0.81083767   -8.2451081    543.39232  0.016758954   0.01640923            2 
 2703000   0.82157484   -8.2741629    542.83989  0.016735722  0.016403675            3 
 2704000   0.81193992   -8.2314699     544.3549  0.016776223  0.016398143            3 
 2705000   0.82521512   -8.2166212     544.4871  0.016774094  0.016392612            4 
 2706000   0.83308019   -8.2304746     544.1894  0.016758728  0.016387106            2 
 2707000    0.8028621   -8.2623962    543.26025  0.016723933  0.016381577            2 
 2708000   0.80583319   -8.2500939    543.19286  0.016715684  0.016375995            2 
 2709000   0.82032581   -8.2548068    542.46804  0.016687217  0.016370407            3 
 2710000   0.80815336    -8.265217    543.57913  0.016715225  0.016364851            3 
 2711000   0.82014824   -8.2408735     543.5519  0.016708223  0.016359287            5 
 2712000   0.81365618   -8.2498296    542.59527  0.016672667   0.01635375            6 
 2713000   0.82828045   -8.2490236    544.06928  0.016711797  0.016348196            2 
 2714000   0.82647949   -8.2703468    542.96837  0.016671837  0.016342653            2 
 2715000   0.81749845   -8.2469255    543.44677   0.01668038  0.016337092            9 
 2716000    0.8368444   -8.2399605    543.66395  0.016680902  0.016331528           10 
 2717000   0.81106758   -8.2282755    543.80649  0.016679134  0.016325982            9 
 2718000   0.81239342   -8.2363446    544.59279  0.016697105  0.016320431           10 
 2719000   0.83242884   -8.2714527    543.06035  0.016643997  0.016314886            7 
 2720000   0.81563556   -8.2964987    543.74424  0.016658831  0.016309353            6 
 2721000   0.83037168   -8.2704874    543.16714  0.016635034  0.016303816            4 
 2722000   0.82411943   -8.2729117    543.73749  0.016646384  0.016298289            4 
 2723000   0.82203073   -8.2487506    544.22998  0.016655343  0.016292738            4 
 2724000   0.82444685   -8.2716802    544.05572  0.016643898  0.016287219            1 
 2725000   0.80995133   -8.2613802    543.41886  0.016618314  0.016281678            3 
 2726000   0.81543459   -8.2398068    544.27547  0.016638404  0.016276105            2 
 2727000    0.8085576   -8.2412461    543.75292  0.016616334  0.016270576            2 
 2728000   0.80909246   -8.2608777    545.19974   0.01665444  0.016265044            5 
 2729000   0.82424222   -8.2758062    544.56888  0.016629073  0.016259518            5 
 2730000   0.82364962   -8.2829166    545.08306  0.016638677  0.016253976            1 
 2731000   0.82558206   -8.3067795    543.34151  0.016579443  0.016248388            3 
 2732000   0.81095882    -8.260831    543.65899  0.016583058  0.016242829            3 
 2733000   0.81403926   -8.2543198     543.9801  0.016586782  0.016237287            5 
 2734000   0.82188068    -8.270845    544.90076  0.016608777  0.016231734            6 
 2735000   0.81472802   -8.2015865    545.14469  0.016610137  0.016226211            5 
 2736000   0.81997594   -8.2482242    545.65682  0.016619664  0.016220698            3 
 2737000   0.81024528   -8.2737978    545.52913  0.016609704  0.016215169            6 
 2738000   0.81379933   -8.2963519    543.85843  0.016552789  0.016209619            7 
 2739000   0.81297703   -8.2461819    543.19538  0.016526572  0.016204092            1 
 2740000   0.80837818   -8.2466488     544.3406  0.016555371  0.016198572            2 
 2741000    0.8132313   -8.2598396     544.7039  0.016560376  0.016193068            2 
 2742000   0.80290354   -8.2612698    545.42053  0.016576116  0.016187531            5 
 2743000   0.83336027    -8.272931    544.35608  0.016537735  0.016181996            2 
 2744000   0.81724787   -8.2486221    543.72369  0.016512503  0.016176482            3 
 2745000   0.81413734   -8.2639714    543.88355   0.01651134  0.016170982            2 
 2746000   0.85116123   -8.2710451    545.12891  0.016543121  0.016165474            4 
 2747000   0.82098549   -8.2606171    545.79088   0.01655718  0.016159998            5 
 2748000   0.81479381   -8.2744565    544.88305  0.016523625  0.016154522            5 
 2749000    0.8159314   -8.2449222      544.844   0.01651643  0.016149033            6 
 2750000   0.80396014   -8.2721079    544.69986  0.016506057  0.016143543            9 
 2751000   0.80045396   -8.2497227    544.62933   0.01649792  0.016138046           16 
 2752000   0.79390223   -8.2626852    544.21184  0.016479283  0.016132557            7 
 2753000   0.81313663   -8.2707906     544.0549  0.016468546  0.016127068            4 
 2754000   0.81909969   -8.2827323    544.14179  0.016465196  0.016121581            7 
 2755000   0.81123709   -8.2794376    544.92601   0.01648294  0.016116068            7 
 2756000   0.78839256   -8.2611498    545.92311  0.016507109  0.016110591            6 
 2757000   0.81511269   -8.2599507    546.01915  0.016504025  0.016105143           13 
 2758000   0.79478492   -8.2467222    545.70184  0.016488453  0.016099704            6 
 2759000   0.82169554   -8.2509673    546.24394   0.01649885  0.016094255            4 
 2760000   0.80598038   -8.2535079    546.34276  0.016495856  0.016088801            5 
 2761000   0.82857223    -8.265702    546.67255  0.016499835  0.016083343            4 
 2762000    0.8038026   -8.2634432    546.90192  0.016500782  0.016077892           11 
 2763000   0.80043935   -8.2808092    545.63561  0.016456617  0.016072456            6 
 2764000   0.80460245   -8.2677358    545.83317   0.01645662  0.016067014            8 
 2765000   0.80049638   -8.2676116    545.91744  0.016453208   0.01606159            3 
 2766000    0.8013775   -8.2597056    546.44557  0.016463171  0.016056141            3 
 2767000    0.8324564   -8.2824661    545.92124   0.01644143  0.016050694            3 
 2768000   0.81440271   -8.2993263    545.49187  0.016422564  0.016045218            4 
 2769000   0.82388642   -8.2951778    545.18439  0.016407379   0.01603974            3 
 2770000   0.81109891   -8.2841834    545.84933   0.01642146  0.016034241            5 
 2771000   0.79792118   -8.2868241    546.73539  0.016442181  0.016028779            2 
 2772000   0.81691971   -8.2963634    545.36441  0.016395034  0.016023308            3 
 2773000   0.81913726   -8.3152638    544.52242  0.016363818  0.016017841            3 
 2774000   0.81730102   -8.2955612    545.82998    0.0163972  0.016012382            9 
 2775000   0.81092899   -8.2842614    546.01764  0.016396926  0.016006934            6 
 2776000   0.80437942   -8.2960727    545.05856  0.016362229   0.01600149            6 
 2777000   0.79666974    -8.282306    545.98443  0.016384121  0.015996034            2 
 2778000   0.78642503   -8.2918066     544.8757  0.016344963  0.015990544            2 
 2779000   0.80972584   -8.2667946    546.74851  0.016395241  0.015985119            7 
 2780000   0.81071257   -8.2640152    545.87326  0.016363107  0.015979673            3 
 2781000   0.79259004   -8.2824329     546.0139  0.016361438  0.015974242            3 
 2782000   0.80650765   -8.2943298    545.71412  0.016346577  0.015968806            5 
 2783000   0.80459807   -8.2766182    546.74326  0.016371519  0.015963373            4 
 2784000   0.79966715   -8.2685925    546.08293  0.016345873  0.015957953            3 
 2785000   0.79504391   -8.2819295    546.78695   0.01636107  0.015952532            2 
 2786000   0.79289532   -8.2769832    545.95776  0.016330395   0.01594708            3 
 2787000   0.79937222   -8.2941718    545.83642  0.016320907  0.015941645            2 
 2788000   0.79395165   -8.2972627     546.6177  0.016338406  0.015936182            2 
 2789000   0.81811275   -8.2829508    546.43329  0.016327038   0.01593074            3 
 2790000   0.81505093   -8.2741107    546.40576  0.016320363  0.015925298           10 
 2791000   0.79818873   -8.2860401    545.69824  0.016293391  0.015919858            2 
 2792000   0.79336853    -8.285892    546.46052  0.016310307  0.015914437            4 
 2793000   0.78604938   -8.2634546    546.79496  0.016314446  0.015909037            4 
 2794000   0.80119179   -8.2597977    547.76824  0.016337635  0.015903609            3 
 2795000   0.79610143   -8.3035185    546.45165  0.016292536  0.015898199            3 
 2796000   0.82298114   -8.3109211    545.53275  0.016259321  0.015892753            2 
 2797000   0.82138544   -8.3061127    546.95828   0.01629598  0.015887324            3 
 2798000   0.80271944     -8.32815    545.93453  0.016259666  0.015881877            4 
 2799000    0.8135569   -8.2899499    546.97011  0.016284688  0.015876431            2 
 2800000   0.80545859   -8.3240179    546.01869  0.016250556  0.015871003            2 
 2801000    0.8030249    -8.297746    546.43831  0.016257239  0.015865576            4 
 2802000    0.8048069   -8.3282848    545.93934  0.016236597  0.015860152            3 
 2803000   0.82052925   -8.3122124    546.35231  0.016243082  0.015854741            5 
 2804000   0.77925454   -8.2988154    545.94833  0.016225283   0.01584934            3 
 2805000   0.79298648   -8.3034391    546.44873  0.016234365  0.015843906            5 
 2806000   0.79254077   -8.2895721     548.3065  0.016283752  0.015838508            5 
 2807000     0.798784   -8.2711245    546.99552  0.016239031  0.015833142            4 
 2808000   0.79838771   -8.2538689     549.2446  0.016299994  0.015827775            2 
 2809000   0.79279928   -8.2702062    547.54709  0.016243832  0.015822394            3 
 2810000    0.8095237   -8.2756105    546.20711  0.016198313  0.015817008            4 
 2811000   0.79288573   -8.2941018    546.47772  0.016200573  0.015811598            3 
 2812000   0.80550216   -8.2990475    546.93298  0.016208303  0.015806192            8 
 2813000    0.7875382   -8.2786566    547.17651  0.016209756  0.015800783            3 
 2814000   0.80840668   -8.3045796    546.22328  0.016175766   0.01579536            3 
 2815000   0.79080241   -8.2992808    546.05552  0.016165054  0.015789939            3 
 2816000   0.80871061   -8.3171436     546.5908  0.016175154  0.015784508            4 
 2817000   0.82523554   -8.3090172    546.75495  0.016174268  0.015779096            6 
 2818000   0.82117371   -8.2906875     546.8795  0.016172211  0.015773688            6 
 2819000   0.80385608   -8.2966463    546.02885  0.016141328  0.015768284            6 
 2820000   0.80668708   -8.3252833    547.87417  0.016190135  0.015762868            4 
 2821000   0.79188634   -8.2956875    547.13799  0.016162649  0.015757449            5 
 2822000   0.79767835   -8.3130455    546.90125  0.016149931  0.015752008            6 
 2823000   0.82149623   -8.3319593     547.6024  0.016164907   0.01574658            4 
 2824000   0.80991756   -8.3255353    547.59529  0.016158973  0.015741166            4 
 2825000   0.79509728    -8.318447    546.69642  0.016126738   0.01573575            6 
 2826000   0.78355428   -8.2791418    547.25719  0.016137567  0.015730324            7 
 2827000   0.79182665   -8.3086017    546.83087  0.016119292  0.015724927            8 
 2828000   0.80650377   -8.2874925    547.79506  0.016142004  0.015719534            9 
 2829000   0.80631579   -8.3515476    546.82284   0.01610766  0.015714118            4 
 2830000   0.79434256    -8.299427      546.961  0.016106036  0.015708714            4 
 2831000   0.80564306   -8.2867061    547.59325  0.016118958  0.015703313            4 
 2832000   0.79506542   -8.3244079    547.53356   0.01611151  0.015697929            4 
 2833000   0.82256583   -8.2876611    546.76119  0.016083104  0.015692529            5 
 2834000   0.81274868   -8.3188112    548.02363   0.01611455  0.015687139            5 
 2835000   0.79276398   -8.3080273    548.11655  0.016111597  0.015681787            4 
 2836000   0.79715105   -8.2872399    548.36758  0.016113293   0.01567643            3 
 2837000    0.8101002   -8.3143796    547.47592  0.016081422  0.015671076            4 
 2838000   0.81251427   -8.3157086    546.19696  0.016038201  0.015665727            4 
 2839000   0.80848135   -8.2831948    548.14892  0.016089847  0.015660385            3 
 2840000   0.78427905   -8.2987266    548.56761  0.016096467  0.015655034            2 
 2841000   0.79024039   -8.3209566    547.33403  0.016054618  0.015649655            3 
 2842000   0.80010314   -8.3223765    547.37234  0.016050092  0.015644276            6 
 2843000   0.79053214   -8.3381351    546.47528  0.016018152  0.015638892            4 
 2844000   0.80287759   -8.3381516    547.58376     0.016045  0.015633488            3 
 2845000   0.78922832   -8.2982004    547.14493  0.016026506  0.015628108            9 
 2846000   0.80220052   -8.3419276    547.28141  0.016024871  0.015622771            5 
 2847000   0.79126697   -8.3149331    549.20964  0.016075683  0.015617422            3 
 2848000   0.78784024   -8.3232151     547.2567  0.016012895  0.015612063            4 
 2849000    0.7957067   -8.3201151    547.25673  0.016007275  0.015606717            3 
 2850000   0.79806633   -8.2980056    547.39016   0.01600556   0.01560138            3 
 2851000   0.77817235   -8.2898902    548.58324  0.016034819   0.01559603            3 
 2852000   0.80239549    -8.296978    548.45843   0.01602555  0.015590688            4 
 2853000   0.79736088   -8.3134957    547.82393    0.0160014  0.015585337            3 
 2854000   0.80266149   -8.2972776     549.3976  0.016041742  0.015580014            5 
 2855000   0.79913165   -8.2859537    548.50753  0.016010144  0.015574682            1 
 2856000   0.78383183   -8.2866421     547.3915  0.015971974  0.015569352            2 
 2857000   0.79897738   -8.3132811    548.83546  0.016008501  0.015564039            7 
 2858000    0.7745998   -8.2906177    548.98293    0.0160072  0.015558731            7 
 2859000   0.79628077   -8.3169807    547.71735  0.015964712  0.015553413            5 
 2860000   0.78396222   -8.2970228    548.92953   0.01599445  0.015548086            6 
 2861000   0.79137471   -8.3160911     549.4448  0.016003868  0.015542734            2 
 2862000   0.79289706   -8.3461457    548.59167  0.015973436  0.015537382            5 
 2863000   0.79173244   -8.3245739    546.81017  0.015916002  0.015532023            4 
 2864000   0.78672526    -8.339493    547.11311  0.015919259   0.01552666            4 
 2865000   0.78967679   -8.3013078    548.51526  0.015954487  0.015521315           14 
 2866000   0.78894919   -8.3079721    549.12157  0.015966549  0.015515989            8 
 2867000   0.77535404   -8.3510896    547.89029  0.015925191  0.015510648            3 
 2868000    0.7873684   -8.3464005    547.97969  0.015922236  0.015505297            4 
 2869000   0.78709169   -8.2962984    548.52006  0.015932382  0.015499988            7 
 2870000   0.78348768   -8.3376854    548.53636  0.015927304  0.015494653           20 
 2871000   0.78217491   -8.3025486    548.83249  0.015930352  0.015489311           11 
 2872000    0.8091764   -8.3343778    548.00059  0.015900667  0.015483981           18 
 2873000   0.79198241   -8.2970994    548.58977  0.015912222  0.015478647            7 
 2874000    0.7919729   -8.3302544    547.91686  0.015887174  0.015473322           13 
 2875000   0.79065363   -8.3544282    546.90763  0.015852395  0.015467967           17 
 2876000   0.78558245   -8.3443083    548.64515  0.015897228  0.015462604            6 
 2877000   0.78365339   -8.3661531    547.54401  0.015859808   0.01545723            8 
 2878000   0.77335633   -8.3289289    548.48644  0.015881586  0.015451859            7 
 2879000   0.77972104   -8.3466276    548.25095  0.015869253  0.015446482            6 
 2880000   0.79449478   -8.3668117    546.79103    0.0158215  0.015441117            8 
 2881000   0.80006804   -8.3371925     547.0392  0.015823186  0.015435746           10 
 2882000   0.77456039   -8.3576744    547.48243  0.015830512  0.015430384            3 
 2883000     0.786295   -8.3466369    548.79642  0.015863002   0.01542503            5 
 2884000   0.77249789   -8.3295626      548.089  0.015837061  0.015419679            4 
 2885000   0.79164156   -8.3357676    549.23719  0.015864737  0.015414338            7 
 2886000   0.80614538   -8.3440278    548.39866  0.015835027  0.015408979            4 
 2887000    0.7975512   -8.3397656    548.31914  0.015827247  0.015403634            3 
 2888000   0.81739756   -8.3545616    547.62854  0.015801839  0.015398288            3 
 2889000   0.78714016   -8.3272385    547.55176  0.015794155  0.015392897            4 
 2890000    0.7936199   -8.3338713    548.86771  0.015826635  0.015387542            2 
 2891000   0.78939142   -8.3823712    548.30511  0.015804944  0.015382182            1 
 2892000   0.79942045   -8.3847421    548.32516  0.015800056  0.015376797            5 
 2893000   0.79567281   -8.3667518    546.89131  0.015753293  0.015371405            5 
 2894000   0.78728541   -8.3818079    547.64831  0.015769647  0.015365992            2 
 2895000    0.7956088    -8.375822    547.34703  0.015755528  0.015360594           11 
 2896000   0.77813123   -8.3534804    548.57628  0.015785459  0.015355191            3 
 2897000   0.77696066   -8.3543686    547.88884  0.015760236  0.015349814            2 
 2898000    0.7941185   -8.3793579    547.59449  0.015746333  0.015344404            9 
 2899000   0.78575106   -8.3643083    547.76394  0.015745773  0.015339025           10 
 2900000    0.7798488    -8.358264     547.8963  0.015744147  0.015333642            7 
 2901000   0.78550119   -8.3505919    548.08981  0.015744278  0.015328268            6 
 2902000   0.77328386   -8.3669677    547.03397  0.015708533   0.01532288            3 
 2903000   0.78791906   -8.3741022    547.20489  0.015708029  0.015317502            3 
 2904000   0.77859347   -8.3507464    547.33089  0.015706235  0.015312116            4 
 2905000   0.77971048   -8.3746338    545.87869  0.015659171   0.01530672            3 
 2906000   0.79139611   -8.3694452    546.76471   0.01567919    0.0153013            4 
 2907000   0.77197872   -8.3600477    547.72824  0.015701417  0.015295895            2 
 2908000   0.78785754   -8.3757053    548.23807  0.015710628  0.015290489            2 
 2909000   0.75694393   -8.3733523    547.45163  0.015682698  0.015285095            4 
 2910000   0.78698522   -8.3462446    547.20567  0.015670265  0.015279708            3 
 2911000   0.76516235    -8.336791    548.04271  0.015688844   0.01527437            3 
 2912000   0.77535295   -8.3663356    547.69937  0.015673631     0.015269            8 
 2913000   0.77960531    -8.376248     547.4188  0.015660224  0.015263633            7 
 2914000   0.78523767   -8.3589489    548.36311  0.015681855  0.015258239            4 
 2915000   0.78277834   -8.3547633    547.54947  0.015653215  0.015252842            5 
 2916000    0.7802387    -8.367448    547.32285  0.015641371  0.015247447            4 
 2917000   0.78214359   -8.3946957     547.1938  0.015632322  0.015242068            2 
 2918000   0.77700974    -8.372526    548.21428  0.015656108  0.015236712            2 
 2919000   0.79224388   -8.3716542     546.7189  0.015608054  0.015231326            3 
 2920000   0.77738148   -8.3659476    547.21297  0.015616809  0.015225957            2 
 2921000   0.80196323   -8.3551732     548.5606  0.015649909  0.015220574            3 
 2922000   0.77749565   -8.3847269    546.09354  0.015574194  0.015215202            4 
 2923000   0.80874527   -8.3858098    547.57026  0.015610967  0.015209809            2 
 2924000   0.79110476   -8.3240837    548.34809  0.015627796  0.015204434            3 
 2925000   0.77999171    -8.357521     547.7366  0.015605031  0.015199062            4 
 2926000   0.79984564   -8.3776854    546.42301  0.015562287  0.015193688            2 
 2927000   0.78196982    -8.380293    546.76058  0.015566581  0.015188289            3 
 2928000   0.77594479   -8.3461816    548.20556  0.015602389  0.015182921            2 
 2929000   0.78955841   -8.3527068    548.28462  0.015599312  0.015177576            6 
 2930000   0.78481871   -8.3653185    547.44868  0.015570213  0.015172229            2 
 2931000   0.79737591   -8.3580914    546.96356  0.015551108  0.015166878            3 
 2932000   0.78930327   -8.3476271    547.53496  0.015562044  0.015161528            3 
 2933000   0.78645344   -8.3913623    547.40417  0.015553022  0.015156171            2 
 2934000   0.77275051   -8.3601393    547.59861  0.015553244  0.015150807            9 
 2935000   0.79825197   -8.3700097    547.13819  0.015534872   0.01514545            7 
 2936000   0.76105651   -8.3314194    549.42117  0.015594379  0.015140111            3 
 2937000   0.78841701   -8.3883013    548.14144  0.015552759  0.015134747            9 
 2938000   0.77701343   -8.3898805    547.60064  0.015532126  0.015129373            3 
 2939000   0.78576552   -8.3701907    547.07001  0.015511796  0.015124016            2 
 2940000   0.79003789   -8.3516548    547.91767  0.015530546   0.01511865            3 
 2941000   0.78440141   -8.3792483     547.1135  0.015502479  0.015113296            2 
 2942000   0.78970002   -8.3756211    548.52449  0.015537177  0.015107942            2 
 2943000    0.8023927   -8.3789745    547.80221  0.015511446  0.015102616            7 
 2944000   0.77596797   -8.3411814    548.74632  0.015532901  0.015097294            5 
 2945000   0.79641014   -8.3579712    547.74318  0.015499241  0.015091988            6 
 2946000    0.7741468   -8.3410807    549.11472  0.015532777  0.015086695            5 
 2947000    0.7868475   -8.3389379    548.90928  0.015521697  0.015081383            5 
 2948000   0.76973182   -8.3591506    549.49529  0.015532997  0.015076064            7 
 2949000   0.78050126   -8.3616261    548.20881  0.015491376  0.015070776            3 
 2950000   0.79857638   -8.3812231    547.77159  0.015473774  0.015065472            5 
 2951000    0.7749513   -8.3442426    547.42526   0.01545875  0.015060145            5 
 2952000   0.80248003   -8.3640882    548.17205  0.015474595  0.015054852            5 
 2953000   0.78946241    -8.360815    549.14619  0.015496845   0.01504956            6 
 2954000   0.78140794   -8.3516781    548.93186  0.015485552  0.015044277            4 
 2955000   0.77173183   -8.3874757    548.94449  0.015480668   0.01503898            2 
 2956000   0.78791604   -8.3429842    548.38668  0.015459706  0.015033688            4 
 2957000    0.8033208    -8.354706    548.29338  0.015451848  0.015028416            3 
 2958000   0.77655166   -8.3706057    548.65783  0.015456892  0.015023134            3 
 2959000     0.785493   -8.3542217    548.21314  0.015439144   0.01501783            5 
 2960000   0.78508705   -8.3582968    549.60706  0.015473172   0.01501256            2 
 2961000     0.766063   -8.3746661    548.88747  0.015447694  0.015007302            3 
 2962000   0.77145555   -8.3456897    548.99169  0.015445411  0.015002021            2 
 2963000   0.78954005   -8.3452888    548.09863  0.015415081  0.014996737            4 
 2964000   0.77260483    -8.379907    549.32386  0.015444328  0.014991424            3 
 2965000     0.794924   -8.3685986    548.03411   0.01540287  0.014986146            4 
 2966000    0.7718066   -8.3686827    548.07514   0.01539883  0.014980852            1 
 2967000    0.7738539   -8.3576249    549.11245  0.015422774  0.014975557            2 
 2968000   0.79589333    -8.352184    548.91157  0.015411938  0.014970282            4 
 2969000   0.77059004   -8.3719907     549.3746  0.015419743  0.014964994            1 
 2970000   0.77481181   -8.3613581    550.08716  0.015434544  0.014959703            3 
 2971000   0.77390556   -8.3795631    549.92356  0.015424761  0.014954429            2 
 2972000   0.77147681   -8.3504061    550.12728  0.015425283  0.014949163            4 
 2973000   0.78711081   -8.3616272    548.97604  0.015387825  0.014943919            4 
 2974000    0.7760766   -8.3331459    550.13164  0.015415031  0.014938678            2 
 2975000   0.77624971    -8.321565    549.48087  0.015391621  0.014933462            2 
 2976000   0.77070159   -8.3694857    549.11102  0.015376093  0.014928222            2 
 2977000   0.76827451   -8.3631837    548.92037  0.015365591  0.014922995            4 
 2978000   0.75341098   -8.3565822    550.07403  0.015392714  0.014917772            2 
 2979000   0.76714059   -8.3744609    550.26914  0.015393005  0.014912537            2 
 2980000   0.75638653   -8.3482948    549.24143    0.0153591  0.014907314            5 
 2981000   0.77973764   -8.3737594    549.05688  0.015348789  0.014902077            2 
 2982000   0.76753438   -8.3843623    550.19723  0.015375509  0.014896825            2 
 2983000   0.76869912   -8.3773401      548.291  0.015317103  0.014891568            3 
 2984000   0.77022428   -8.3671464    549.76813  0.015353221  0.014886344            2 
 2985000   0.77903721   -8.3380942    550.41934  0.015366257  0.014881117            3 
 2986000    0.7590978   -8.3378521    550.57697  0.015365511  0.014875909            3 
 2987000   0.78718369   -8.3612063     549.3485  0.015326094  0.014870699            4 
 2988000   0.78310232   -8.3765022    548.20593  0.015289099  0.014865464            4 
 2989000   0.77413856   -8.3273702    550.59734  0.015350656  0.014860241            6 
 2990000   0.76448082   -8.3688098    549.13539  0.015304777  0.014855026            6 
 2991000     0.777314   -8.3748514     549.4976  0.015309751  0.014849791            4 
 2992000   0.77082834   -8.3579748    549.37068  0.015301099   0.01484455            6 
 2993000   0.76210009   -8.3651088    550.78887  0.015335474  0.014839296           13 
 2994000   0.78872372   -8.3989719    549.16074  0.015285035  0.014834041           16 
 2995000   0.77588347   -8.3657406     549.1282  0.015279026  0.014828782           17 
 2996000   0.78191996   -8.3290291    550.58102  0.015314336  0.014823555            6 
 2997000   0.76185833    -8.357699    549.91923  0.015290825  0.014818318           20 
 2998000   0.78299854   -8.4214618    548.49722  0.015246198  0.014813048            3 
 2999000    0.7725931   -8.4070514    547.23235  0.015205967  0.014807791            2 
 3000000   0.78140462   -8.3927629    548.88096  0.015246693  0.014802521            7 
 3001000    0.7670936    -8.405998    548.03083  0.015218006  0.014797251            4 
 3002000   0.77786791   -8.3866896    548.76183  0.015233229  0.014791992            3 
 3003000   0.78078916    -8.422689    549.41714  0.015246341  0.014786745            7 
 3004000   0.77000102    -8.380298    549.41034  0.015241077   0.01478152            3 
 3005000   0.77466895     -8.36331    549.40578  0.015235878  0.014776273            2 
 3006000   0.77033663   -8.3960305    549.92594   0.01524523  0.014771041            7 
 3007000   0.75701308   -8.3882279    548.52185  0.015201249   0.01476581            3 
 3008000   0.76886965   -8.4120554    548.73484  0.015202096  0.014760574            4 
 3009000   0.75410575   -8.3510519    549.86626  0.015228378  0.014755339            5 
 3010000   0.75931395   -8.3940312     549.8837  0.015223801  0.014750108            4 
 3011000   0.77872653   -8.3568937    549.95372  0.015220683  0.014744883            3 
 3012000   0.76431851   -8.3579802    549.66004  0.015207504  0.014739665            2 
 3013000   0.77222146   -8.3697766    548.39417  0.015167446  0.014734418            4 
 3014000   0.75585114   -8.3929903    548.72753   0.01517163  0.014729167            2 
 3015000    0.7832688   -8.4134197    549.13227  0.015177785  0.014723897            1 
 3016000    0.7791532   -8.3779368    549.16014  0.015173523  0.014718641            4 
 3017000   0.77127214   -8.3950594    548.67464  0.015155084  0.014713387            2 
 3018000   0.76976456   -8.4003638    547.88268  0.015128194  0.014708147            2 
 3019000   0.77187826   -8.3731419    550.10544  0.015184538  0.014702919           10 
 3020000   0.74830501    -8.339892    550.23874  0.015183188  0.014697691           12 
 3021000   0.77647436   -8.3780374    548.57497  0.015132268   0.01469247            4 
 3022000   0.77647794   -8.3858988    548.70323  0.015130797  0.014687232            2 
 3023000   0.77142355   -8.3918922    549.15667  0.015138292  0.014681997            5 
 3024000   0.76152614   -8.3545219    548.18541   0.01510652  0.014676763            5 
 3025000   0.74863657   -8.3647595    549.14532   0.01512797  0.014671521            3 
 3026000   0.74492646   -8.3917188    549.36367  0.015128984  0.014666269            8 
 3027000     0.767807   -8.3792938    549.69134  0.015133007  0.014661018           10 
 3028000   0.75997477    -8.385065    549.36576  0.015119049   0.01465578            9 
 3029000   0.76595481   -8.3928009     549.4975  0.015117682  0.014650568            2 
 3030000   0.76618812   -8.4028091    549.27431  0.015106554  0.014645347            6 
 3031000   0.77089253   -8.4140781     548.6962  0.015085676   0.01464011            3 
 3032000   0.76426454   -8.3804886    547.80738  0.015056271  0.014634877            9 
 3033000    0.7775281   -8.3648354    549.15227  0.015088259  0.014629665            2 
 3034000   0.76693385   -8.3651763    550.31351  0.015115181   0.01462447            6 
 3035000    0.7730437   -8.3724684    550.81882  0.015124075   0.01461929            4 
 3036000   0.77370811   -8.4071486    549.49214  0.015082678  0.014614076            2 
 3037000   0.76609521   -8.4226922    549.56617  0.015079743  0.014608843            5 
 3038000   0.75225111   -8.4093643     549.2395  0.015065819  0.014603618           15 
 3039000   0.76412665   -8.3858065    549.03803  0.015055337   0.01459841            5 
 3040000   0.74912803   -8.3884557    548.71595  0.015041556  0.014593208            3 
 3041000   0.77061923   -8.3667956    550.06359  0.015073539  0.014588002            5 
 3042000   0.77175371   -8.4002293    549.12109  0.015042765  0.014582781            3 
 3043000   0.77184813   -8.3894335    549.17034   0.01503917  0.014577574            1 
 3044000   0.76254718   -8.4039922    549.45532  0.015042031  0.014572349            2 
 3045000   0.73666983   -8.4076285    550.15689  0.015056292  0.014567131            5 
 3046000   0.76965009   -8.3978543    548.64453  0.015009973  0.014561923            1 
 3047000     0.761942   -8.3610873    549.68267  0.015033439  0.014556729            7 
 3048000   0.75860551   -8.3701322    549.52697   0.01502425  0.014551542            5 
 3049000   0.78776669   -8.3999887    549.36627   0.01501493  0.014546353            2 
 3050000   0.75607178   -8.3903042    548.90923   0.01499752  0.014541168            2 
 3051000    0.7512059   -8.4237111    548.99014  0.014994814  0.014535976            2 
 3052000   0.75382707   -8.3977598    550.01084  0.015017771  0.014530774            8 
 3053000   0.76900397   -8.3855827    548.78347   0.01497935  0.014525569            6 
 3054000   0.76773071   -8.3940932    550.16736  0.015012207  0.014520389            4 
 3055000   0.77818651   -8.3747418    550.45804  0.015015222  0.014515215            3 
 3056000   0.76480968   -8.3954129    548.90695  0.014968012  0.014510025            7 
 3057000   0.75528997   -8.3999636     549.5347  0.014980228  0.014504854            5 
 3058000   0.77534814   -8.3866596    549.16358  0.014965216  0.014499666            4 
 3059000      0.76735    -8.412902    549.55101  0.014970879  0.014494481            5 
 3060000   0.75249058   -8.3937984    549.44605  0.014963128   0.01448931            3 
 3061000   0.76809634   -8.4141212    550.16185  0.014977727  0.014484142            1 
 3062000   0.77270894   -8.3873518    548.34848  0.014923483  0.014478961           11 
 3063000    0.7604726   -8.4163508    549.69788  0.014955324  0.014473791            3 
 3064000   0.74992112   -8.4118383    549.94621  0.014957197  0.014468605            3 
 3065000   0.75765956   -8.4225391    549.26363  0.014933758    0.0144634            3 
 3066000   0.74089685   -8.4274732    549.42975  0.014933403  0.014458197            3 
 3067000   0.75794144   -8.4258253     550.1089  0.014946987  0.014452998            8 
 3068000   0.76624048   -8.3979808    550.14901  0.014943204  0.014447788            4 
 3069000   0.75455621   -8.4151221    549.49889  0.014920682  0.014442589            3 
 3070000   0.77311426   -8.3915384    548.94259  0.014900722  0.014437397            2 
 3071000   0.75139526   -8.4158237     550.1358  0.014928248  0.014432216            3 
 3072000    0.7603001   -8.4314666    549.22189  0.014898597  0.014427038            3 
 3073000   0.78000512   -8.4369023    549.36349  0.014897589  0.014421859            5 
 3074000   0.76238622   -8.4177571    549.44956  0.014895076  0.014416667            3 
 3075000   0.76079898   -8.4407778    549.26227  0.014885156  0.014411488            3 
 3076000   0.75785276   -8.4454859    549.01445  0.014873603  0.014406293            4 
 3077000    0.7564496   -8.4409587     549.6807  0.014886814  0.014401105            2 
 3078000   0.77741488   -8.4116609    549.99015  0.014890355   0.01439592            3 
 3079000   0.75692318   -8.4222406    548.75233  0.014852017  0.014390741            3 
 3080000   0.75180779   -8.4650953    547.83245  0.014822307  0.014385542            3 
 3081000   0.75580464    -8.433826    549.53098  0.014863437  0.014380347            2 
 3082000   0.74679306   -8.4240943    549.39188  0.014854853  0.014375174            3 
 3083000   0.75916738   -8.4204976    550.37693   0.01487666   0.01437001            7 
 3084000   0.76788824   -8.4442451    548.93318  0.014832825  0.014364841            3 
 3085000   0.77166379   -8.3921847    549.89221  0.014853922  0.014359661            9 
 3086000   0.75795806   -8.4025882    549.95777  0.014850879  0.014354475            5 
 3087000   0.76906302   -8.4200677    550.46194  0.014859679  0.014349294            4 
 3088000   0.75269091   -8.4106552    550.30685  0.014850681  0.014344115            3 
 3089000   0.74089856    -8.382511    550.06443  0.014839334  0.014338959            6 
 3090000   0.75653699   -8.4169801    547.94603  0.014777401  0.014333796            3 
 3091000    0.7452059   -8.4163413     548.7785  0.014795064  0.014328634            4 
 3092000   0.76178054   -8.4332737    550.44364  0.014835156   0.01432347            6 
 3093000   0.76114294   -8.4188763     549.3319  0.014800407    0.0143183            7 
 3094000   0.73514297    -8.438884    548.34382   0.01476901  0.014313145            3 
 3095000   0.74454107   -8.4235305    549.08302  0.014784142  0.014307965            9 
 3096000   0.76075614   -8.4253369    549.27651  0.014784574  0.014302796            5 
 3097000   0.74996456    -8.399595    549.59926  0.014788485  0.014297653            5 
 3098000   0.74888311    -8.443983    549.45383    0.0147798  0.014292492            7 
 3099000   0.74145792   -8.4462367    550.13675  0.014793394   0.01428733            5 
 3100000   0.75885789   -8.4443199    549.63613  0.014775165  0.014282154            7 
 3101000   0.76792784   -8.4307166    549.25098   0.01476005  0.014276971            9 
 3102000   0.76565853   -8.4566168    548.52391  0.014735759  0.014271781            6 
 3103000   0.74590034   -8.4447138    548.53744  0.014731374  0.014266578           10 
 3104000   0.75444949   -8.4581343    548.87843  0.014735783  0.014261386            3 
 3105000   0.74365432   -8.4728947    549.10196  0.014737036   0.01425619            3 
 3106000   0.76068212   -8.4598037    548.97302  0.014728832  0.014251008            3 
 3107000     0.761649   -8.4130753    549.93771  0.014749965   0.01424583            1 
 3108000   0.75417087   -8.4378644     548.5181  0.014707156  0.014240667           12 
 3109000   0.75225122   -8.3968807    550.52788  0.014756296  0.014235502            3 
 3110000   0.76550856   -8.4420791    548.86922  0.014707107  0.014230345            3 
 3111000   0.77264747   -8.4561749    548.15963  0.014683372  0.014225158            6 
 3112000   0.76280081   -8.4422048    548.01272  0.014674719  0.014219979            2 
 3113000   0.73855594   -8.4760238    548.56804  0.014684871  0.014214797            4 
 3114000    0.7570727   -8.4483609    549.27471  0.014699066  0.014209618            7 
 3115000   0.74838226    -8.438723    550.07093  0.014715648   0.01420445            7 
 3116000   0.77773691   -8.4499145    548.43127  0.014667075  0.014199279            4 
 3117000   0.76186789   -8.4661517    549.14974  0.014681578  0.014194107            5 
 3118000   0.74519328   -8.4598261    548.97647  0.014672238  0.014188954            2 
 3119000   0.77190105    -8.458648    548.25065  0.014648142  0.014183786            2 
 3120000   0.76059259   -8.4363949    550.03673  0.014691152  0.014178628            2 
 3121000   0.74300454   -8.4736532     549.7399  0.014678519   0.01417349            2 
 3122000   0.76718939   -8.4645882     548.6796  0.014645516  0.014168334            2 
 3123000   0.75162329   -8.5007213    548.66759  0.014640506  0.014163159           17 
 3124000   0.75485121   -8.4676453    548.48356   0.01463091  0.014157984            3 
 3125000   0.74609505   -8.4558307    548.89236   0.01463713  0.014152816            9 
 3126000   0.74844145   -8.4803553    548.26729  0.014615784  0.014147649            6 
 3127000   0.73524109    -8.454685    548.85278  0.014626713  0.014142483            5 
 3128000   0.74618929   -8.4570969       548.85  0.014621963  0.014137334            9 
 3129000   0.74645253   -8.4829495    548.41447  0.014605691  0.014132171            3 
 3130000   0.75364725    -8.487381    549.27282  0.014623877   0.01412702            7 
 3131000    0.7560089   -8.4730738      549.308  0.014620143  0.014121846            5 
 3132000   0.73602885    -8.488193    548.18888  0.014585698  0.014116681            5 
 3133000   0.75486812   -8.4547752     549.5734  0.014617869  0.014111529            9 
 3134000   0.75431472   -8.4821117    550.00985   0.01462481  0.014106395            9 
 3135000   0.72989865   -8.4639598    549.34272  0.014602411  0.014101259            3 
 3136000    0.7456274   -8.4423647     549.2146  0.014594351  0.014096137            5 
 3137000   0.74082678   -8.4518148     549.1022  0.014586712  0.014091016            3 
 3138000   0.76569286   -8.4723208    548.54385  0.014567236  0.014085896            3 
 3139000   0.73858553   -8.4480779    549.00426  0.014574818  0.014080768            5 
 3140000   0.75278259   -8.4813952    548.86366  0.014566445  0.014075643            5 
 3141000   0.73179438   -8.4355281    549.33806  0.014574394  0.014070532            3 
 3142000   0.74172456   -8.4687154    549.85836  0.014583555  0.014065421            4 
 3143000    0.7609256   -8.4427818    549.96489   0.01458174  0.014060314            3 
 3144000   0.74311503   -8.4523675    549.80597  0.014572889  0.014055191            3 
 3145000   0.75329977   -8.4838665    548.90332  0.014544338  0.014050066            2 
 3146000    0.7361692   -8.4686682    547.75743  0.014509362  0.014044944            9 
 3147000   0.74285389   -8.4496286    549.28901  0.014545308  0.014039824           11 
 3148000   0.74587093   -8.4652745    549.13368  0.014536576  0.014034715            4 
 3149000   0.74060488   -8.4644932    548.89072   0.01452553  0.014029596            6 
 3150000   0.75388057   -8.4751502    549.36425  0.014533446  0.014024484            2 
 3151000    0.7594744   -8.4614542    549.31163  0.014527442  0.014019373            4 
 3152000   0.74178633   -8.4562389    549.82355  0.014536367  0.014014239            8 
 3153000   0.75822729   -8.4634365    549.05051  0.014511326  0.014009129            3 
 3154000    0.7365806    -8.514901    548.35523  0.014488354     0.014004            2 
 3155000   0.76878122   -8.4775693    549.18237  0.014505609  0.013998875            4 
 3156000   0.75677201   -8.4745705    548.46135  0.014481975  0.013993762            3 
 3157000   0.73538456   -8.4519569    549.00464  0.014491729  0.013988651            4 
 3158000   0.73994987   -8.4634964    549.57148  0.014502097  0.013983554            5 
 3159000    0.7529338   -8.4561949    548.61444   0.01447226  0.013978458            8 
 3160000   0.73839594    -8.474338    549.26249   0.01448477  0.013973365            3 
 3161000   0.76444488   -8.4832778    548.77114  0.014467234  0.013968253            5 
 3162000   0.76463516   -8.4754123    549.05744  0.014470205  0.013963152            3 
 3163000   0.75892656   -8.4797499    548.33294  0.014446542  0.013958043            4 
 3164000    0.7332246   -8.4874083    549.09165  0.014461959  0.013952917            5 
 3165000   0.74368637    -8.486746     547.3665  0.014411967  0.013947779            9 
 3166000   0.72673956    -8.493608    547.95549  0.014422918  0.013942664            8 
 3167000   0.72905113   -8.4567072    549.60332  0.014461723   0.01393754            3 
 3168000   0.76178747   -8.4913149    548.56867  0.014429942  0.013932409            6 
 3169000   0.74953449   -8.4778398    548.83938  0.014432507  0.013927287            6 
 3170000   0.74740549   -8.4931091    549.50463  0.014445442  0.013922176           11 
 3171000   0.74657087   -8.4663058    549.19762  0.014432819  0.013917063            4 
 3172000   0.74630328   -8.4844559    548.58399  0.014412148  0.013911963           11 
 3173000   0.76285854   -8.4995951     548.6287   0.01440878   0.01390686            3 
 3174000   0.73910774   -8.4676746    548.55511  0.014402308  0.013901767            4 
 3175000   0.74968615   -8.4797413    549.36898  0.014419133  0.013896684            5 
 3176000   0.72879199   -8.4901505    548.15087  0.014382632  0.013891579            3 
 3177000   0.75006697   -8.4814684    548.17078  0.014378627  0.013886464            3 
 3178000   0.75383911   -8.4935152    549.52747  0.014409678  0.013881364            4 
 3179000    0.7448259   -8.5011565    548.05686  0.014366595  0.013876259            5 
 3180000   0.73493913   -8.5131158    547.99221  0.014360383  0.013871155            3 
 3181000   0.74029312   -8.5037092    547.90265  0.014353522  0.013866049            3 
 3182000   0.73935082   -8.4825886     550.0095  0.014404188  0.013860953            5 
 3183000   0.75457109    -8.472981    549.25938  0.014380024   0.01385586            6 
 3184000   0.74403667   -8.4846238    547.48311  0.014329018  0.013850773            4 
 3185000   0.72501006   -8.4973601    547.88061  0.014334919  0.013845698            2 
 3186000   0.73274271   -8.4896666    549.56445  0.014374463  0.013840623            3 
 3187000   0.74232679   -8.5030739    548.36643  0.014338626  0.013835552            3 
 3188000   0.75157935   -8.4755844    549.27756  0.014357945  0.013830493            2 
 3189000   0.76289454   -8.4734529    550.71955  0.014391125   0.01382544            2 
 3190000   0.72556885   -8.4912065     549.5993  0.014357348  0.013820386            4 
 3191000   0.74443924   -8.4606295    549.68895   0.01435519  0.013815338            3 
 3192000   0.73952614      -8.4564    550.42729  0.014369969  0.013810298            5 
 3193000   0.73659121    -8.469816    549.35841  0.014337572  0.013805266            2 
 3194000   0.73034399   -8.4895112    549.31675  0.014331996  0.013800219            5 
 3195000   0.73576074    -8.477545     549.3618  0.014328685  0.013795181            2 
 3196000   0.73924191   -8.4624151     548.6886  0.014306649  0.013790154            3 
 3197000   0.73795629   -8.4585888    549.97925  0.014335816   0.01378514            1 
 3198000   0.74502593   -8.4741013    549.33204  0.014314468  0.013780107            5 
 3199000   0.74359074   -8.4536492    549.72399  0.014320204  0.013775087            4 
 3200000   0.73164398   -8.4629667    549.93357  0.014321187   0.01377006            5 
 3201000   0.73111515   -8.5008767    549.89443  0.014315694  0.013765045            4 
 3202000    0.7300896   -8.4717147    549.47684  0.014300355  0.013760018            3 
 3203000   0.72281305   -8.4721099      550.242  0.014315798  0.013754977            2 
 3204000    0.7406369    -8.489222    550.02609  0.014305714  0.013749953            1 
 3205000    0.7263905    -8.498512    549.55282  0.014288945  0.013744935            4 
 3206000   0.74458325   -8.4776704    549.38552  0.014280139  0.013739919            5 
 3207000   0.72447648     -8.46827    549.70464  0.014283979  0.013734917            7 
 3208000   0.74902964   -8.4665776    549.76265  0.014281033  0.013729904            3 
 3209000   0.74183305   -8.4602862     550.1131  0.014285684  0.013724888            5 
 3210000    0.7444348   -8.4832032     549.0992  0.014254912  0.013719868            5 
 3211000   0.75434371   -8.4637817    548.98015  0.014247383  0.013714842            5 
 3212000   0.73012587   -8.4918409    549.46767  0.014255595  0.013709824            7 
 3213000    0.7379468    -8.504994    548.60818  0.014228867  0.013704814            4 
 3214000   0.73337336   -8.4997902    549.75947   0.01425429  0.013699788            3 
 3215000   0.74958722   -8.5013847    550.01128  0.014256384  0.013694774            4 
 3216000   0.72638511   -8.4999705    550.04563  0.014252841  0.013689746           12 
 3217000   0.73815919    -8.478375    551.00208  0.014273186  0.013684731           13 
 3218000     0.742188    -8.506171    549.84172  0.014238702  0.013679717            2 
 3219000   0.74516234   -8.4886955    550.03447  0.014239269  0.013674707            3 
 3220000   0.73287449   -8.4671563    549.51378  0.014221371  0.013669702            9 
 3221000   0.75128769   -8.5110535    549.68612  0.014221415   0.01366468           10 
 3222000   0.72803657   -8.5041969      549.185   0.01420404  0.013659659           11 
 3223000   0.73864841   -8.5002296    548.71463  0.014187471  0.013654645            3 
 3224000   0.73549152   -8.5182145    547.81177  0.014159734  0.013649632            9 
 3225000   0.74449149   -8.4999662     549.1332  0.014189488  0.013644607            9 
 3226000   0.73545003   -8.5105905    548.45824  0.014167655  0.013639579            4 
 3227000   0.73152353   -8.5167834    548.74439  0.014170654  0.013634562           17 
 3228000   0.73327561   -8.5053479    549.96951  0.014197891  0.013629563            5 
 3229000   0.74187699   -8.5360818    549.45875  0.014180313  0.013624557           12 
 3230000   0.73754441   -8.5356074    548.77309  0.014158232  0.013619554            6 
 3231000    0.7353068    -8.487569    549.54736   0.01417382  0.013614546            7 
 3232000   0.72949266   -8.5067904    548.27278  0.014136571  0.013609539            5 
 3233000   0.73841032   -8.4933379    550.24121  0.014182937  0.013604544            3 
 3234000    0.7365905   -8.4864192    548.42005  0.014131624  0.013599549            5 
 3235000   0.73532319   -8.5000436    549.45311  0.014153867  0.013594575            5 
 3236000   0.74323129   -8.4838328    549.81355  0.014158775  0.013589612           11 
 3237000   0.73159963   -8.4769166    550.99609  0.014184844  0.013584649            6 
 3238000   0.75020784   -8.4789765    549.93412  0.014153133  0.013579691            8 
 3239000   0.73558199   -8.4801469    549.77094  0.014144565   0.01357475            5 
 3240000   0.71376632   -8.4697336    551.39747  0.014182034  0.013569808            8 
 3241000   0.72313399   -8.4547467    549.54266  0.014129967  0.013564869            4 
 3242000   0.75351763   -8.4749724    550.02055  0.014137892  0.013559929            8 
 3243000   0.74135952   -8.4535519     549.8991  0.014130412  0.013554998            5 
 3244000   0.72078484   -8.4715885    549.77666   0.01412291  0.013550054           13 
 3245000   0.71334491   -8.4613482    550.79826  0.014144794  0.013545117            6 
 3246000   0.72687398   -8.4689524    551.24187  0.014151825  0.013540187            4 
 3247000   0.74311448   -8.4690051    549.55672  0.014104217  0.013535272           12 
 3248000   0.73866861   -8.4724515    551.89768  0.014159936  0.013530346            3 
 3249000   0.73016572   -8.5151157    550.28759  0.014114281  0.013525407            5 
 3250000   0.71976417   -8.4714293    548.94161  0.014075426  0.013520455            5 
 3251000   0.71394734    -8.490044    550.10663  0.014100959  0.013515497            8 
 3252000   0.73388445   -8.5017628    550.85488  0.014115798  0.013510533            6 
 3253000   0.73196901   -8.5066221    549.21935   0.01406956  0.013505571            8 
 3254000   0.72968858   -8.5016599    549.66591  0.014076673  0.013500605            4 
 3255000   0.74608401   -8.5262488    549.54992  0.014069378  0.013495642            8 
 3256000   0.73883248   -8.5071409    549.00679  0.014051157  0.013490683            5 
 3257000   0.74868959   -8.4957602    549.47257   0.01405876  0.013485734            4 
 3258000   0.75417706   -8.5015784     549.6112  0.014057991  0.013480788            8 
 3259000   0.73062539   -8.5244725    549.23571  0.014044076  0.013475827            8 
 3260000    0.7228296   -8.5239945    548.65019    0.0140248  0.013470861            9 
 3261000   0.71539661   -8.5246286    549.19518  0.014034427  0.013465908            7 
 3262000   0.73441236   -8.5103598    549.14365  0.014028808  0.013460963            5 
 3263000   0.72198589   -8.5074868     548.8756  0.014017663  0.013456019            8 
 3264000   0.74061037   -8.4812491    549.44992  0.014028031   0.01345107            3 
 3265000   0.73068366   -8.5332953    549.36509   0.01402157  0.013446128            9 
 3266000   0.73416715   -8.5070077    549.82978  0.014029133  0.013441186            6 
 3267000   0.74066086   -8.5170345    549.36011  0.014012859  0.013436249            6 
 3268000    0.7276207   -8.5096117    548.66464  0.013990836  0.013431313            4 
 3269000   0.73113004   -8.5001357    549.80971  0.014015747  0.013426363            4 
 3270000    0.7473731   -8.5444334     550.2114  0.014021697  0.013421418            6 
 3271000    0.7269179   -8.4877263     549.8793   0.01400895  0.013416499            6 
 3272000   0.73399108   -8.5082291    549.99363   0.01400758  0.013411581            5 
 3273000   0.72168391   -8.4941428     550.4349  0.014014536  0.013406665           11 
 3274000   0.71792073   -8.4901515    550.75123  0.014018306  0.013401769            5 
 3275000   0.73839266   -8.4618281    550.50837  0.014007846  0.013396901            2 
 3276000   0.71906009   -8.5137503    549.90866  0.013988316  0.013392025            3 
 3277000   0.73430536   -8.4940635    550.03067   0.01398715  0.013387149            5 
 3278000    0.7284862   -8.4963371    550.07173  0.013983927  0.013382269            5 
 3279000   0.74440368   -8.5229069    549.74804  0.013971435  0.013377373           11 
 3280000   0.73498225   -8.5223916    550.12861  0.013976845  0.013372486            6 
 3281000   0.72380289   -8.5008244    549.70761  0.013961892  0.013367588            6 
 3282000   0.71693308   -8.5107923    549.90114  0.013962552    0.0133627            6 
 3283000   0.71566521   -8.4852524    550.52089   0.01397403  0.013357804            3 
 3284000   0.72674287   -8.4829198    550.44186  0.013967769  0.013352914            4 
 3285000   0.73516654   -8.5052212     550.2744  0.013959269  0.013348022            2 
 3286000   0.71555435   -8.4958897    549.71487  0.013940832  0.013343145            3 
 3287000   0.73081147   -8.4940895    549.29388  0.013925917  0.013338262            3 
 3288000   0.71238287   -8.5157383    549.48345  0.013926486  0.013333376            5 
 3289000   0.71326756   -8.5516567    549.79415  0.013930124  0.013328492            8 
 3290000   0.71155138   -8.5037885    550.17327  0.013935493  0.013323609           11 
 3291000   0.73896711   -8.5132443    548.87709  0.013898437  0.013318723            6 
 3292000   0.73963224   -8.4880921    550.08337  0.013924751  0.013313837            7 
 3293000   0.71419173   -8.5546954    548.54367  0.013881559  0.013308933           11 
 3294000   0.71656057   -8.5268279    550.08501  0.013916338  0.013304042            6 
 3295000   0.72857769   -8.5107057     549.0287    0.0138854  0.013299167            5 
 3296000   0.73718056   -8.5199617     549.9307  0.013903992  0.013294294            4 
 3297000   0.73171578    -8.499266    551.00383  0.013926899  0.013289425           10 
 3298000    0.7269231   -8.5019842    549.09937  0.013874554  0.013284557            6 
 3299000   0.71122612   -8.5103825    549.10492  0.013870489  0.013279685            4 
 3300000   0.73626005   -8.5371092    549.44096  0.013874772  0.013274805            7 
 3301000   0.70558766   -8.5441265    549.19617  0.013864389  0.013269928            8 
 3302000   0.72036716   -8.5207535    549.20875  0.013860508   0.01326505            4 
 3303000    0.7133326   -8.5433453    548.66893  0.013842692  0.013260162           10 
 3304000   0.72686973   -8.5337401    549.08814  0.013849075  0.013255279            5 
 3305000   0.73152782   -8.5102604    549.54985  0.013856527  0.013250402            2 
 3306000   0.72113496   -8.5391085    549.40543  0.013848695  0.013245537            6 
 3307000   0.71946552   -8.5334276    549.35343  0.013843197  0.013240666            7 
 3308000   0.71435654   -8.5544646    549.03092  0.013830888  0.013235782            6 
 3309000   0.71850032   -8.5423058    549.11237  0.013828759  0.013230902            2 
 3310000   0.71338842   -8.5442363     548.2693  0.013803356  0.013226023            3 
 3311000   0.71891411   -8.5543898    549.78903  0.013837437  0.013221142            3 
 3312000   0.71679091   -8.5407145    549.53107  0.013826768  0.013216263            2 
 3313000   0.69658686   -8.5480058    548.87244  0.013806028  0.013211384            2 
 3314000   0.71521417    -8.542853    549.94042  0.013828717  0.013206511            3 
 3315000    0.7141404   -8.5448535    548.14375   0.01377938  0.013201629            5 
 3316000   0.71809306   -8.5341824    549.49641  0.013809218  0.013196751            3 
 3317000   0.72920929   -8.5344819    549.00908  0.013792812  0.013191866            3 
 3318000   0.71369595   -8.5518277    549.36863  0.013797685  0.013186988            2 
 3319000   0.71899339   -8.5554686     549.1211  0.013787313  0.013182118            2 
 3320000   0.71134228   -8.5311232    548.82293  0.013775676  0.013177237            3 
 3321000   0.72435386   -8.5434523    548.30113  0.013758434  0.013172365            3 
 3322000   0.70802841   -8.5322585    549.60949  0.013787113  0.013167491            2 
 3323000   0.72023182    -8.515125    549.28193   0.01377475  0.013162638            4 
 3324000   0.72704135    -8.557152    550.41539  0.013799022  0.013157778            7 
 3325000   0.73304991   -8.5280438    548.47154  0.013746154  0.013152925            4 
 3326000   0.73047411    -8.550592    549.23046  0.013761036  0.013148065            4 
 3327000   0.72032803   -8.5600973    547.96245  0.013725139  0.013143197            4 
 3328000   0.72757238   -8.5625246    548.60168  0.013737021  0.013138311            4 
 3329000   0.71834308   -8.5491567    548.44343  0.013728933  0.013133444            5 
 3330000   0.70873101    -8.551144    548.21075  0.013718988  0.013128567            3 
 3331000   0.71383161    -8.593006    547.89233  0.013706903  0.013123692            2 
 3332000   0.71838657   -8.5735532    549.02693  0.013731166  0.013118801            3 
 3333000   0.70185396   -8.5550724     549.3367  0.013734791  0.013113932            2 
 3334000   0.71032302   -8.5821679     548.0526  0.013698575  0.013109058            2 
 3335000    0.7215458   -8.5571332    548.78985   0.01371289  0.013104197            4 
 3336000   0.70622936   -8.5728443    548.82544  0.013709668   0.01309934            4 
 3337000   0.71179276    -8.551173    548.33513  0.013693316  0.013094469            4 
 3338000   0.72810977   -8.5548513    548.90699   0.01370349   0.01308961            6 
 3339000   0.71663305     -8.58512    548.85141  0.013697999  0.013084751            3 
 3340000   0.70840948   -8.5779738    548.48665  0.013684797  0.013079891            5 
 3341000   0.70128987   -8.5539932    549.14894   0.01369722  0.013075034            5 
 3342000   0.72865793   -8.6043419    548.37549  0.013673835   0.01307016            5 
 3343000   0.73058424   -8.5628192    548.23255  0.013666182  0.013065294            6 
 3344000   0.72292501   -8.5612185    549.58717  0.013695853  0.013060428            9 
 3345000   0.73717217    -8.560143    549.93266  0.013700365  0.013055577            3 
 3346000   0.69756263   -8.5640429    548.93702  0.013671474  0.013050714            4 
 3347000   0.71282939   -8.5864767    547.81258  0.013639393  0.013045859            2 
 3348000   0.72400806   -8.5658206    547.79889  0.013634978  0.013041004            7 
 3349000   0.70965076   -8.5432496    549.25717  0.013667194  0.013036163            4 
 3350000   0.71552193   -8.5532805    548.58931    0.0136465  0.013031316            2 
 3351000   0.70800145   -8.5827033    549.17345  0.013656954  0.013026477            4 
 3352000   0.72350492    -8.578744    547.95873  0.013622681  0.013021635            7 
 3353000   0.71448039   -8.5973593    548.17127  0.013623901   0.01301679            4 
 3354000   0.70765499   -8.5637149    548.51902  0.013628479  0.013011947            6 
 3355000    0.7256264   -8.5795619     546.9727  0.013586009  0.013007104            7 
 3356000   0.71539384    -8.572469    547.58175  0.013597084  0.013002255            3 
 3357000    0.7130602   -8.5750774    548.35064   0.01361212  0.012997413            3 
 3358000   0.72133057   -8.5710427    548.12607  0.013602493  0.012992566            4 
 3359000   0.72644166   -8.5946736    547.60809  0.013585593  0.012987719            6 
 3360000   0.70260274    -8.561226    548.49738  0.013603606  0.012982879           12 
 3361000    0.7207004   -8.5692707    548.49407  0.013599476   0.01297803            5 
 3362000   0.71845069   -8.5842777    547.84281  0.013579288  0.012973188            6 
 3363000   0.71464296   -8.5971763    547.45492  0.013565639  0.012968353           10 
 3364000   0.72211181   -8.5635583     549.1056  0.013602497  0.012963523            6 
 3365000   0.71479671   -8.5820225    548.37209  0.013580289  0.012958695            6 
 3366000   0.70208653   -8.5782027     548.2546  0.013573346  0.012953862            1 
 3367000   0.70940664   -8.5921359    548.22184  0.013568504  0.012949031            2 
 3368000   0.73550225   -8.5867235    547.26102  0.013540702  0.012944207            9 
 3369000   0.71561559   -8.5943702    548.37681  0.013564283  0.012939383            6 
 3370000   0.72211303    -8.604942    549.00135  0.013575701  0.012934569            5 
 3371000    0.7003352   -8.5789521    548.66396  0.013563333  0.012929754            3 
 3372000   0.70704303   -8.5894996    548.28452  0.013549934   0.01292494            2 
 3373000   0.72101346   -8.5738462    547.83396  0.013534785  0.012920122            1 
 3374000   0.71866246   -8.5480092     548.6741  0.013551524  0.012915316            6 
 3375000   0.71359778   -8.5645712    549.12682  0.013558687  0.012910516            2 
 3376000   0.70310115   -8.5639141    549.74618  0.013569959   0.01290571            4 
 3377000   0.71686318   -8.5768585    549.16947  0.013551709  0.012900903            7 
 3378000   0.69666631   -8.5764913    549.11257  0.013546294    0.0128961            3 
 3379000    0.7148774    -8.577388    548.65942  0.013531109  0.012891292            6 
 3380000   0.71510509   -8.5830854    547.62246   0.01350154  0.012886481            3 
 3381000   0.70899025   -8.5666706    548.00482  0.013506971  0.012881689            3 
 3382000   0.70523914   -8.5928696    548.37281  0.013512044  0.012876893            3 
 3383000   0.72257966   -8.5820062    549.11242  0.013526269  0.012872116            4 
 3384000   0.71143852   -8.5825286     548.0572  0.013496286  0.012867329            6 
 3385000   0.72820146   -8.5816183    549.87199  0.013536977  0.012862541            2 
 3386000   0.70188751   -8.5907422    547.30964  0.013469916  0.012857756            6 
 3387000   0.71302779   -8.5731444    548.88139   0.01350461  0.012852974            2 
 3388000   0.70862378   -8.5723037    548.21219  0.013484164  0.012848193           13 
 3389000    0.7175312   -8.5851997    547.14832  0.013454026  0.012843413           17 
 3390000   0.70816042   -8.5635479    548.94077  0.013494119  0.012838637           10 
 3391000   0.71030157   -8.5614522    548.47769   0.01347876  0.012833868            8 
 3392000   0.71486659   -8.5715458    548.81607  0.013483099  0.012829093            4 
 3393000   0.69277767   -8.6104084    548.00535  0.013459214  0.012824314           11 
 3394000   0.71535738    -8.608032    548.08463  0.013457195  0.012819544           11 
 3395000   0.71629935   -8.5766391     548.6382  0.013466819  0.012814766            3 
 3396000   0.69984805   -8.5826225    548.15999  0.013451119  0.012809997            4 
 3397000   0.69917347   -8.5647851    548.30666  0.013450757  0.012805222            2 
 3398000   0.70851869   -8.5872831    548.14921  0.013442937  0.012800446            5 
 3399000   0.72076673   -8.5727976    547.64209  0.013426549  0.012795666            8 
 3400000   0.70513508   -8.5846543    548.50015  0.013443631  0.012790895            8 
 3401000   0.70913621   -8.5990101    548.55873  0.013441114  0.012786117           10 
 3402000   0.69771874    -8.600786    547.53378  0.013412056  0.012781343            9 
 3403000    0.7043818   -8.5560514    548.69118  0.013436457  0.012776579            8 
 3404000   0.70229508   -8.6025361    548.43179   0.01342616  0.012771815           12 
 3405000   0.71122029   -8.5942378    548.13962  0.013415067  0.012767047           19 
 3406000   0.70342299   -8.5737361    548.73175  0.013425615  0.012762289            2 
 3407000   0.72019926   -8.5915039    548.03923  0.013404736  0.012757532           10 
 3408000   0.71664176   -8.5777779    546.96256  0.013374476  0.012752781           12 
 3409000   0.70179201   -8.5641574    548.59314  0.013410412  0.012748037           10 
 3410000   0.70537719   -8.6163083    548.29924  0.013399297  0.012743292            4 
 3411000   0.69581277   -8.5919338     549.5823  0.013426715  0.012738535            2 
 3412000    0.7078087   -8.5899032    549.29324   0.01341572  0.012733792            3 
 3413000   0.69382078   -8.5884645    549.02563  0.013405255  0.012729046            4 
 3414000   0.69871247   -8.5787696    548.83195  0.013396601  0.012724301            6 
 3415000   0.68570888   -8.6051136    548.24392  0.013378329  0.012719561            9 
 3416000   0.70745418   -8.5629519    549.81963  0.013412852   0.01271482            8 
 3417000   0.68415021   -8.5729841    548.22942  0.013370145  0.012710096            6 
 3418000   0.71589442   -8.5815202    548.78996    0.0133799  0.012705362            7 
 3419000   0.71884676   -8.5663952    548.40155  0.013366519  0.012700631            9 
 3420000   0.70858557   -8.5758234    549.61204  0.013392106  0.012695915            6 
 3421000   0.69826879   -8.5770357    548.23606  0.013354674  0.012691188            3 
 3422000   0.70971066   -8.5854647    547.73919  0.013338671  0.012686466            3 
 3423000   0.69721276   -8.5881302    549.11698  0.013368317  0.012681748            3 
 3424000   0.71533762    -8.575607    547.42018  0.013323116  0.012677031            8 
 3425000   0.69699545   -8.5878074     549.3541   0.01336628  0.012672317            4 
 3426000   0.69809583   -8.5740449    549.01297  0.013354081    0.0126676            5 
 3427000   0.68338072   -8.6019054    546.91109  0.013299073  0.012662868           15 
 3428000   0.68873379   -8.5924418    548.77946  0.013340613  0.012658143            9 
 3429000   0.69679246   -8.5767671    548.62322  0.013332926  0.012653421           14 
 3430000   0.70236219   -8.5918125    548.33207  0.013321965    0.0126487           12 
 3431000   0.69710886   -8.5991025    548.34457  0.013318386  0.012643982            8 
 3432000    0.7101203   -8.6134011    548.91115  0.013328262  0.012639278            9 
 3433000   0.67417162   -8.5997029    547.84389  0.013298473  0.012634577            5 
 3434000   0.70174726   -8.5962692    548.17355    0.0133026  0.012629887            6 
 3435000   0.71444291   -8.6113253    548.17887  0.013298857  0.012625194            9 
 3436000   0.70279923   -8.5931022    548.28416   0.01329754  0.012620486           11 
 3437000    0.7076576   -8.6237884    547.17548   0.01326679  0.012615782           11 
 3438000   0.70227098   -8.5972502    548.70097  0.013299907  0.012611084           11 
 3439000   0.69309222   -8.5662092    548.95827  0.013302275  0.012606396            2 
 3440000   0.71261844   -8.5802981    549.23911  0.013305211  0.012601712           11 
 3441000   0.69523705   -8.5829753    548.91275  0.013293441  0.012597023            6 
 3442000   0.70788134   -8.5860376    548.93574  0.013290135  0.012592345           10 
 3443000   0.70371427   -8.5885297    548.63889   0.01327909  0.012587662            9 
 3444000   0.69789997   -8.5744158    549.08169  0.013285949  0.012582978            2 
 3445000   0.70188642   -8.5597364    547.50267  0.013243896  0.012578289            7 
 3446000   0.70463686    -8.607543    547.46853  0.013239227  0.012573601            5 
 3447000   0.69060295   -8.5725852    549.03482  0.013273253  0.012568906            5 
 3448000   0.69164341   -8.5841663    549.03666  0.013269448   0.01256421            7 
 3449000   0.69590623    -8.601103    548.02084  0.013241056  0.012559519            3 
 3450000   0.70807698   -8.6132228     547.4604  0.013223681  0.012554825            5 
 3451000   0.70223293   -8.5876678     547.8763  0.013229892   0.01255013            6 
 3452000   0.68841226   -8.6126745    548.06269  0.013230559  0.012545439            6 
 3453000   0.70774217   -8.5757248    548.17743  0.013229497  0.012540752           10 
 3454000   0.69853981   -8.5789526    547.98525   0.01322103  0.012536073            5 
 3455000   0.71949677   -8.5846828    547.80087  0.013212756  0.012531395           18 
 3456000   0.68217957   -8.6020595    548.84446  0.013234097  0.012526716           12 
 3457000   0.71959751   -8.5983583    548.42712  0.013220208  0.012522029           13 
 3458000   0.69940811   -8.5661212    547.53906  0.013194984  0.012517351            3 
 3459000   0.71546899   -8.6013485    548.20789  0.013207283  0.012512683            8 
 3460000   0.70317292    -8.624172    547.30656  0.013181757   0.01250801           16 
 3461000   0.70890806   -8.5803857    548.69762  0.013211442  0.012503337            8 
 3462000   0.69558246   -8.5888699    547.75701  0.013184985  0.012498674            5 
 3463000   0.69931192   -8.5807908    548.08771  0.013189135  0.012494009            7 
 3464000   0.68973915   -8.5886699    548.27036  0.013189722  0.012489349            6 
 3465000   0.69728333   -8.5678047    548.56369   0.01319297  0.012484692            5 
 3466000   0.69880096   -8.5725476    548.53326  0.013188432  0.012480041            7 
 3467000   0.70638281   -8.5816807    549.11315  0.013198566  0.012475395            8 
 3468000   0.71392664   -8.5925792    548.39427  0.013177486  0.012470759            4 
 3469000   0.68801165   -8.5834014    547.65751  0.013155989  0.012466115            4 
 3470000   0.70767406   -8.5827404    548.93877  0.013182968  0.012461473            8 
 3471000   0.69623827    -8.602814     548.8837  0.013177847   0.01245685            6 
 3472000   0.69104116   -8.5773943    548.64608  0.013168349  0.012452223            3 
 3473000    0.6932304    -8.572789    548.80423  0.013168352  0.012447593            4 
 3474000   0.67786789   -8.6038413    548.59816  0.013159618  0.012442961            4 
 3475000   0.69594081   -8.5920444    546.97932   0.01311701  0.012438324            2 
 3476000   0.68459675   -8.5897555    548.54797  0.013150843  0.012433684            4 
 3477000   0.69219809   -8.5968222    548.82397  0.013153676  0.012429044            5 
 3478000   0.68480449   -8.6103075    547.49308  0.013118006  0.012424405            4 
 3479000   0.70214086   -8.5908073    548.53717  0.013139244  0.012419773            4 
 3480000    0.6988262   -8.5943874    548.60258  0.013137035  0.012415148            4 
 3481000   0.69186531   -8.5981136    549.28187  0.013149523  0.012410521            3 
 3482000   0.69285619   -8.5813136    548.25736  0.013121227  0.012405891            4 
 3483000   0.70185719   -8.5893749     547.9486  0.013110073  0.012401265            4 
 3484000   0.69754364   -8.6000893    548.29504  0.013114596  0.012396635            7 
 3485000   0.69298275    -8.621761    548.95517  0.013126618   0.01239201            2 
 3486000   0.70219734   -8.5999281    548.60351  0.013114446  0.012387387            2 
 3487000   0.69140939   -8.5987332    549.01698  0.013120566  0.012382768            4 
 3488000   0.70573746   -8.5917394    548.64874  0.013108007  0.012378145            8 
 3489000   0.70076985   -8.6148833    549.02653  0.013113273  0.012373535            2 
 3490000   0.69314294   -8.6093343    548.16382  0.013088917  0.012368914            3 
 3491000   0.68596835   -8.6218296    547.97622  0.013080689  0.012364287           13 
 3492000   0.70304118   -8.5980709    548.34483   0.01308574  0.012359675            8 
 3493000   0.69019053   -8.6089777    548.95625   0.01309658  0.012355063            3 
 3494000   0.70026135   -8.5974177    548.00249  0.013070084   0.01235045            4 
 3495000   0.70462729   -8.6151475    548.14565  0.013069758  0.012345831            4 
 3496000   0.70420762   -8.6234584    548.40638  0.013072235  0.012341216            5 
 3497000   0.69347147   -8.5980848    547.10488  0.013037482  0.012336615            4 
 3498000   0.68188888   -8.6026365      548.373  0.013063965   0.01233201            7 
 3499000   0.68181585   -8.6101317    547.89075  0.013048746  0.012327414            4 
 3500000   0.69395538     -8.58851    548.05249  0.013048869  0.012322807            4 
 3501000   0.68647072   -8.6226446    546.94359  0.013018747  0.012318204            4 
 3502000   0.70318554   -8.5836031    548.97438  0.013063354  0.012313602            8 
 3503000    0.6996839   -8.5994601    549.19032  0.013064762  0.012309008            8 
 3504000    0.6905464   -8.6167004    548.15153  0.013036328  0.012304407           11 
 3505000    0.6750941   -8.6067555    548.64976  0.013044455  0.012299805            4 
 3506000   0.66760683   -8.5961265    548.80418  0.013044404  0.012295202            9 
 3507000   0.68213268   -8.5753731    547.59738  0.013012009  0.012290605            5 
 3508000   0.70028585   -8.6143498    547.85954  0.013014527  0.012286011            7 
 3509000   0.68044727   -8.6090345    547.93203   0.01301254  0.012281415            4 
 3510000   0.70692272   -8.6212588    546.76662  0.012981164  0.012276814           11 
 3511000   0.69128191   -8.6099332    547.50037  0.012994882  0.012272224            4 
 3512000   0.67175072   -8.6242312    547.79262  0.012998117  0.012267626            3 
 3513000   0.70012068   -8.5935959    547.61539  0.012990212  0.012263045            2 
 3514000   0.68725814   -8.6011614    548.78737  0.013014309  0.012258483            2 
 3515000   0.69163356   -8.5906848    548.87118  0.013012593  0.012253921            7 
 3516000   0.67918516    -8.598355    548.65393  0.013003743  0.012249356            3 
 3517000   0.68216204   -8.6014531    548.51276  0.012996701  0.012244786           11 
 3518000   0.69229023   -8.6066643    548.50583  0.012992842  0.012240223            1 
 3519000   0.68955042   -8.6003356    548.72591  0.012994362  0.012235667            2 
 3520000   0.67372005    -8.602176    547.94525  0.012972189  0.012231116            2 
 3521000   0.69584742   -8.5856312    548.85573  0.012990053  0.012226553            5 
 3522000   0.69339132   -8.6127706    548.22388  0.012971415   0.01222199            2 
 3523000    0.6850183   -8.6191859    547.95985  0.012961488  0.012217431            3 
 3524000   0.68873585   -8.6068105    546.97259  0.012934463  0.012212867            1 
 3525000   0.67884919   -8.6181396    548.15287  0.012958697    0.0122083            5 
 3526000   0.68918685   -8.6198944    547.86206  0.012948149  0.012203724            4 
 3527000   0.69933814   -8.6115922    548.24634  0.012953557  0.012199156            5 
 3528000   0.67547544   -8.6350612     548.1222  0.012946953  0.012194593            5 
 3529000    0.6740171   -8.6218051    547.23998  0.012922452  0.012190026            4 
 3530000   0.69630388   -8.6291606    547.27919  0.012919717  0.012185457            7 
 3531000   0.68907039   -8.6065897     548.4612  0.012943954  0.012180894            6 
 3532000   0.68512368   -8.6340665    548.26047  0.012935553  0.012176333            5 
 3533000   0.68924515   -8.6374846    547.17298  0.012906241  0.012171765            5 
 3534000     0.670425   -8.6538163    547.58585  0.012912324  0.012167205            2 
 3535000    0.6967028   -8.6418325    548.06852   0.01292005  0.012162636            3 
 3536000   0.69943256   -8.6376048     548.2131  0.012919803  0.012158071            5 
 3537000   0.68537295   -8.6450389    547.84291  0.012907429  0.012153506            3 
 3538000   0.69220632   -8.6480728    546.84409  0.012880255  0.012148938            5 
 3539000   0.69615247   -8.6354201    546.90447  0.012878037  0.012144382            5 
 3540000   0.67015724   -8.6652107    547.10952  0.012879226  0.012139829            3 
 3541000   0.67435042   -8.6441507    547.18342  0.012877328  0.012135264            6 
 3542000   0.67126693   -8.6524652    546.85557  0.012865979  0.012130698            5 
 3543000   0.67894809   -8.6288551    546.57108  0.012855656  0.012126138            3 
 3544000    0.6767965   -8.6658806     546.1525  0.012842186  0.012121578            6 
 3545000   0.67915071   -8.6577751    547.50757  0.012870418  0.012117014            7 
 3546000   0.68193432   -8.6643803     546.4093  0.012840978  0.012112456            4 
 3547000   0.69176816    -8.633184    546.45037  0.012838323  0.012107894            3 
 3548000   0.67195023   -8.6598082    546.64949  0.012839381  0.012103339            2 
 3549000    0.6749331   -8.6519143    547.71226  0.012860718  0.012098793            4 
 3550000   0.69350297   -8.6173478    547.80594  0.012859294  0.012094249            4 
 3551000   0.68117572   -8.6457234    547.13611  0.012839954  0.012089714            3 
 3552000   0.67384085   -8.6597315    547.53306  0.012845652  0.012085178            3 
 3553000   0.68922758   -8.6573896    547.73939  0.012846876  0.012080637            2 
 3554000   0.67971521   -8.6633214     545.7501  0.012796616  0.012076104            2 
 3555000   0.67898112   -8.6571775    547.74581  0.012839799  0.012071575            5 
 3556000   0.66818807   -8.6373472    547.68893  0.012834855  0.012067041            3 
 3557000   0.67066853   -8.6268091    547.05974  0.012816506   0.01206252            6 
 3558000   0.68487948   -8.6484437    547.94857  0.012833721  0.012057992            2 
 3559000   0.68300629   -8.6621289    545.88062  0.012781695  0.012053468            4 
 3560000   0.67304845   -8.6439631    547.16252  0.012808111  0.012048937            4 
 3561000   0.67911029   -8.6580621    547.71412  0.012817423  0.012044421            4 
 3562000   0.67451212   -8.6485592    548.08297  0.012822454  0.012039906            4 
 3563000   0.67491542   -8.6534241    546.83161  0.012789588  0.012035387            3 
 3564000   0.68195395   -8.6317333    547.15385  0.012793534  0.012030873            4 
 3565000   0.68494448   -8.6420686    547.86354  0.012806534  0.012026362            2 
 3566000   0.68318798     -8.63833    548.03515  0.012806953  0.012021847            2 
 3567000   0.68711807   -8.6301831    547.50916  0.012791075  0.012017333            3 
 3568000   0.68623384   -8.6373258    547.72901  0.012792624  0.012012828            3 
 3569000   0.68585504   -8.6253555    548.00434  0.012795469  0.012008325            3 
 3570000   0.67617769    -8.660844    546.79223  0.012763591   0.01200382            3 
 3571000   0.67794957   -8.6468275    547.57871   0.01277837  0.011999327            2 
 3572000   0.67891731   -8.6598077    547.62941  0.012775975  0.011994819            3 
 3573000    0.6893536   -8.6590047    547.13523  0.012760874  0.011990313            2 
 3574000   0.69774622    -8.665603    547.52086  0.012766295  0.011985813            2 
 3575000   0.67209278   -8.6682152    546.62264  0.012741786   0.01198131            3 
 3576000   0.67003082   -8.6654727    547.25413  0.012752939  0.011976804            2 
 3577000    0.6907339   -8.6843082    546.49336   0.01273165  0.011972298            4 
 3578000   0.67079663   -8.6693175    547.44795  0.012750325  0.011967784            5 
 3579000   0.67209275   -8.6584966    546.16694  0.012716935  0.011963278            4 
 3580000   0.69191541   -8.6569761    547.63216   0.01274749  0.011958774            4 
 3581000   0.69262315   -8.6663682    546.54144  0.012718548  0.011954283            4 
 3582000    0.6802669   -8.6652378    546.80916  0.012721226  0.011949789            7 
 3583000   0.67460194   -8.6821155    547.40409  0.012731512  0.011945311            2 
 3584000   0.69263907   -8.6552886    547.53858  0.012731087  0.011940835            5 
 3585000   0.66636046   -8.6681951    547.38148  0.012723884  0.011936349            7 
 3586000   0.68142335   -8.6655858     546.5349  0.012700662  0.011931869            3 
 3587000   0.68114835   -8.6547541    546.77216  0.012702634  0.011927406            4 
 3588000   0.66473177   -8.6587081    547.73099  0.012721363  0.011922934            6 
 3589000   0.67601843   -8.6481103    548.04962  0.012725216   0.01191847            5 
 3590000     0.693015   -8.6767905    547.27546  0.012703701  0.011913992            5 
 3591000   0.67474159   -8.6560278    546.68587  0.012686482  0.011909521            3 
 3592000   0.66865273   -8.6489899    547.05465  0.012691505  0.011905062            5 
 3593000    0.6763578   -8.6354998    547.43034  0.012696687    0.0119006            4 
 3594000   0.68293371   -8.6625621    547.90515  0.012704163  0.011896142            6 
 3595000   0.68061256   -8.6739407    547.76629  0.012697411  0.011891692            3 
 3596000   0.68633314   -8.6627093    546.86793  0.012673061  0.011887246            6 
 3597000    0.6780608   -8.6672183    547.50831  0.012684374  0.011882795            7 
 3598000     0.681083   -8.6665942    547.89846  0.012689885  0.011878341            4 
 3599000   0.67696271   -8.6717132    547.06587   0.01266708   0.01187389           11 
 3600000   0.66496564   -8.6384311    548.78909  0.012703451  0.011869439            4 
 3601000   0.66964212   -8.6731249    547.42521  0.012668361  0.011864998            6 
 3602000   0.69549981   -8.6666704    547.42057  0.012664736   0.01186056            4 
 3603000   0.70061253    -8.666463    547.97614  0.012674071  0.011856121            5 
 3604000   0.65892957   -8.6833506    546.25182  0.012630684  0.011851686            7 
 3605000   0.67018024    -8.671746    546.68317  0.012637151   0.01184724            2 
 3606000   0.68501058   -8.6819026    547.19675  0.012645516  0.011842803            4 
 3607000    0.6726945   -8.6833729    547.37474  0.012646122  0.011838358            5 
 3608000    0.6608566   -8.6704235    547.48149  0.012645082  0.011833924            4 
 3609000   0.67370913   -8.6650887    545.95516  0.012606335  0.011829483            9 
 3610000   0.67368306   -8.6659513    547.08318  0.012628882  0.011825046            6 
 3611000   0.66962062   -8.7030755    546.27559  0.012606748  0.011820609            7 
 3612000   0.66852497   -8.6730338    547.85265  0.012639642  0.011816175            4 
 3613000   0.67933594   -8.6824346    548.18031  0.012643701  0.011811751            2 
 3614000   0.67369448   -8.6791064    546.99038  0.012612765  0.011807334            3 
 3615000   0.67301875   -8.6725259    546.72162   0.01260308  0.011802917            6 
 3616000   0.67249227   -8.6663004     546.9293  0.012604381  0.011798508            6 
 3617000   0.67461574   -8.6748994     547.6123  0.012616632  0.011794093            3 
 3618000   0.68252264   -8.7240536     547.1743  0.012603056  0.011789676            5 
 3619000   0.66803725   -8.6647304    548.60627  0.012632547  0.011785263            4 
 3620000   0.67510996    -8.684831    547.61069  0.012606139  0.011780847            9 
 3621000    0.6751774   -8.6891232    546.93033     0.012587  0.011776437            7 
 3622000   0.66956361   -8.6813756    547.07748  0.012586911  0.011772037            3 
 3623000   0.68770234   -8.6726045    548.71529  0.012621108  0.011767642            5 
 3624000   0.66851227   -8.6910168    546.43625  0.012565219  0.011763238            2 
 3625000   0.68303691    -8.683036    547.16518   0.01257851  0.011758839            4 
 3626000   0.67241239   -8.6816016    547.05604  0.012572533  0.011754437            6 
 3627000   0.69102265   -8.6873463    548.21177   0.01259562  0.011750041           12 
 3628000   0.68977368   -8.6860233    546.66606  0.012556644  0.011745643            4 
 3629000   0.66002183   -8.6886513    545.16034  0.012518608  0.011741246            6 
 3630000   0.67288982    -8.707529    547.00261  0.012557452  0.011736858            3 
 3631000   0.66542162   -8.6708276    547.31718  0.012561213  0.011732478            8 
 3632000   0.67519869   -8.6822522    547.86189  0.012570253    0.0117281            2 
 3633000   0.66420591   -8.7152671    547.30767   0.01255408  0.011723713            4 
 3634000   0.66758991   -8.6840149    545.57927   0.01251099  0.011719318            2 
 3635000   0.65647895   -8.6907808    548.25297  0.012568844  0.011714924            2 
 3636000    0.6664213   -8.6881426    546.74872  0.012530911  0.011710541            4 
 3637000   0.66839122   -8.6940104    547.24011  0.012538725  0.011706159            4 
 3638000   0.65203361   -8.6983713    546.57561  0.012520057  0.011701778            2 
 3639000   0.66934675   -8.6668663    546.86734  0.012523297  0.011697404            3 
 3640000   0.66441765   -8.6837194    547.08733  0.012524893  0.011693031            8 
 3641000   0.67850139   -8.7067281     547.3811  0.012528177  0.011688656           10 
 3642000    0.6661746   -8.6751961    546.85592   0.01251272  0.011684281            6 
 3643000   0.67775171   -8.6758226    547.67069  0.012527923  0.011679908            5 
 3644000   0.68385808   -8.6794319    547.44885  0.012519412   0.01167554           10 
 3645000   0.65797771   -8.6570118    548.32333   0.01253597  0.011671179            3 
 3646000   0.66733401   -8.6643016    547.88943  0.012522614  0.011666826            4 
 3647000    0.6634193   -8.6815536    547.72625  0.012515452  0.011662468            3 
 3648000   0.67019176   -8.7003034    547.88479  0.012515643  0.011658117            4 
 3649000   0.67973391   -8.6964258    547.69979  0.012507988   0.01165376            4 
 3650000   0.69037738   -8.6986407    547.35089  0.012496596   0.01164941            7 
 3651000   0.66586996   -8.6888424     547.2424  0.012490696  0.011645056            4 
 3652000   0.67501944   -8.7167503      546.466   0.01246956  0.011640697            7 
 3653000   0.66626745   -8.6826816    547.66463   0.01249349  0.011636347            3 
 3654000   0.65223385   -8.7038177    547.98021  0.012497268  0.011631992            9 
 3655000    0.6611522   -8.7001868    547.24659  0.012477123  0.011627648            5 
 3656000   0.66273975   -8.7070308    547.16227  0.012471788  0.011623302            6 
 3657000   0.66185605   -8.6976667     547.3671  0.012473045  0.011618949            7 
 3658000   0.67347875   -8.6823999    546.95182  0.012460175    0.0116146            6 
 3659000   0.67338978   -8.6831493    547.04556  0.012458904  0.011610262            5 
 3660000   0.65700008   -8.6796314    546.86078  0.012451293  0.011605915            4 
 3661000   0.66694037   -8.6907085    547.51913  0.012462877  0.011601566            2 
 3662000   0.65882092   -8.6983606    547.07194  0.012449298  0.011597217            4 
 3663000   0.66545733    -8.681102    546.54075  0.012433814  0.011592874            4 
 3664000   0.66055217   -8.7044224    546.91226  0.012438871  0.011588546            7 
 3665000   0.66877683   -8.6877371    547.65385  0.012452339  0.011584214            2 
 3666000   0.67737163   -8.6993333     546.7032  0.012427332  0.011579886            6 
 3667000    0.6885682   -8.7057042    546.64232   0.01242256  0.011575557            4 
 3668000   0.66259544   -8.6958085    547.28097  0.012433683  0.011571228            6 
 3669000    0.6731007   -8.6884997    545.04603  0.012379532  0.011566896            3 
 3670000   0.66583207   -8.7066415    547.00853   0.01242072  0.011562569            4 
 3671000   0.65636674   -8.6993831    547.44838  0.012427322  0.011558247            4 
 3672000   0.65351321   -8.6776718    547.23135  0.012419012  0.011553942            2 
 3673000   0.67145524   -8.6823979    547.81682  0.012428914  0.011549632            1 
 3674000   0.66047449   -8.7127659    546.92295  0.012405257  0.011545316            8 
 3675000   0.67771508   -8.6832313    546.32232  0.012388261  0.011541002            6 
 3676000   0.65313809   -8.6901648    547.05631  0.012401531  0.011536692            3 
 3677000   0.66539158    -8.723231    545.97742  0.012373706  0.011532376            4 
 3678000   0.64645789   -8.6965899    546.81965  0.012389425  0.011528058            3 
 3679000   0.64389157   -8.7088729     547.3035  0.012397017  0.011523743            7 
 3680000   0.67111724   -8.6789295    547.06264  0.012388194   0.01151943            9 
 3681000   0.65144444   -8.7018612    547.92528  0.012404357  0.011515124            6 
 3682000   0.68621249   -8.7235863    547.33654  0.012387664  0.011510813            3 
 3683000   0.65747209   -8.6995085    546.79976  0.012372155   0.01150651            3 
 3684000   0.65400618   -8.7142609    546.42143  0.012360239  0.011502205            7 
 3685000   0.65809201   -8.7069445     547.6052  0.012383654  0.011497898            6 
 3686000   0.65535587   -8.7076743    546.42238  0.012353554  0.011493597            6 
 3687000     0.666047   -8.7087092    546.43647  0.012350521  0.011489302            6 
 3688000   0.66402301   -8.7015105    546.58499  0.012350528  0.011485006            5 
 3689000   0.66517979   -8.7161374    546.28126  0.012340319  0.011480705            5 
 3690000   0.65112518    -8.720394    546.78017  0.012348242  0.011476416            5 
 3691000   0.64552751   -8.7267838    546.88602  0.012347287  0.011472114            3 
 3692000   0.67114947   -8.7113229    546.40431   0.01233307  0.011467816            5 
 3693000    0.6539155   -8.6987774    547.74113  0.012359896  0.011463525            6 
 3694000   0.66016373   -8.7187749    546.70441  0.012333162  0.011459231            3 
 3695000   0.66465584   -8.7344466    545.66035  0.012306278  0.011454943            5 
 3696000   0.66868518   -8.7137117    546.38884  0.012319373  0.011450655            6 
 3697000   0.66454941   -8.7058338    547.20035  0.012334333  0.011446372            3 
 3698000   0.65459667   -8.7175649    547.39654  0.012335419  0.011442093            3 
 3699000   0.64149377   -8.6801895    547.53266   0.01233515  0.011437813            2 
 3700000   0.64893133   -8.6975073    546.49387  0.012308421  0.011433545            2 
 3701000    0.6470657    -8.724621    546.31104  0.012300978  0.011429268            5 
 3702000   0.65782714   -8.7094073    547.77625  0.012330638  0.011424999            3 
 3703000   0.66592635   -8.7186652    547.16632  0.012313582  0.011420719            2 
 3704000   0.64781506   -8.7001433    547.86821  0.012326049  0.011416446            3 
 3705000   0.66614589   -8.7026986    547.56861  0.012315983  0.011412172            4 
 3706000   0.65849199   -8.7303392    546.11212  0.012279909  0.011407909            4 
 3707000   0.65949752   -8.6939918    546.71196  0.012290081  0.011403654            5 
 3708000   0.66292482   -8.7021137    546.73536  0.012287292  0.011399384            6 
 3709000   0.65653294   -8.7116689    545.97216  0.012266832  0.011395118            4 
 3710000   0.67185049   -8.7189087    546.99997  0.012286612  0.011390851            2 
 3711000   0.64607428   -8.7029586    546.52786    0.0122727  0.011386585            7 
 3712000   0.64806134   -8.7124405    546.20674  0.012262184   0.01138233            7 
 3713000   0.65922155   -8.7110632    547.14525  0.012279945  0.011378075            4 
 3714000   0.66313276   -8.7027921    547.36674  0.012281609  0.011373826            4 
 3715000   0.65155536    -8.706246    547.16595  0.012273799  0.011369575            4 
 3716000   0.64192216   -8.6908676    546.62224  0.012258303  0.011365331            2 
 3717000   0.66347468   -8.7095318     546.2078  0.012245713  0.011361091            8 
 3718000   0.67166416   -8.7180116    545.95672  0.012236792   0.01135685            3 
 3719000   0.64802614   -8.7152337    547.49743  0.012268025  0.011352611            1 
 3720000   0.66549536   -8.7104217    546.25427  0.012236879  0.011348374            5 
 3721000   0.66171136   -8.6918406    547.99992  0.012272685  0.011344143            5 
 3722000   0.66722281   -8.7360616     547.9329  0.012267887   0.01133992            6 
 3723000   0.65072613   -8.6898723    547.34892   0.01225152  0.011335688            6 
 3724000   0.65012111    -8.690143    547.10527  0.012242778  0.011331454            3 
 3725000   0.65787206   -8.7193916    546.85475  0.012233887  0.011327227            4 
 3726000   0.64654605   -8.6965269    546.78021  0.012228937  0.011323002            4 
 3727000   0.65015836   -8.7202537    547.69247  0.012246053  0.011318779            4 
 3728000   0.65002733   -8.7175808    546.54528  0.012217124  0.011314561            6 
 3729000   0.65273706   -8.6980279    546.89528   0.01222167   0.01131034            3 
 3730000   0.65491198   -8.6984554    546.39207  0.012207151  0.011306126            4 
 3731000   0.65780487   -8.7255183    546.77746  0.012212487  0.011301912            4 
 3732000   0.65412476   -8.7334188    546.89093  0.012211748  0.011297695            5 
 3733000   0.66730023   -8.7087147    547.19603  0.012215288  0.011293482            6 
 3734000   0.63965078   -8.7111944     545.8668  0.012182351  0.011289277            3 
 3735000   0.65491523   -8.7093167    546.75422  0.012198889  0.011285062            5 
 3736000   0.64976529   -8.7012591    546.76345   0.01219583  0.011280856            5 
 3737000   0.65539361   -8.7322979    547.01471  0.012198169  0.011276654            7 
 3738000   0.65179668   -8.7154512    547.04345  0.012195547  0.011272457            2 
 3739000   0.65116387   -8.7160399    545.32041  0.012153883  0.011268253            4 
 3740000   0.63987422   -8.7293173    546.57776  0.012178649  0.011264041            5 
 3741000   0.64193506   -8.7108051    546.88613  0.012182263  0.011259837            8 
 3742000   0.64694928   -8.7227913    546.62532  0.012173199  0.011255636            6 
 3743000   0.65777245   -8.7313236    545.50509  0.012145006  0.011251421            6 
 3744000   0.63931672   -8.7141463    546.66719  0.012167628  0.011247222           11 
 3745000   0.65496485   -8.7333046    545.99044   0.01214932  0.011243019            6 
 3746000   0.65387117   -8.7107505    545.95033  0.012145184  0.011238826           10 
 3747000   0.64673578   -8.7114909    546.42897  0.012152588  0.011234634           11 
 3748000   0.66081223   -8.7316013    546.16541  0.012143486  0.011230449            5 
 3749000   0.65217179   -8.7221646    545.20186  0.012118829  0.011226258            4 
 3750000   0.64885694   -8.7266717    546.02912   0.01213398  0.011222068            5 
 3751000   0.63817374   -8.7340524    546.89739  0.012150035  0.011217885            7 
 3752000   0.65124823   -8.7233137    546.90821  0.012147037  0.011213702            8 
 3753000   0.65786158   -8.7379525    546.46735  0.012134012   0.01120951            4 
 3754000   0.65079448   -8.7360838    546.26667  0.012126325  0.011205329           10 
 3755000   0.65762968   -8.7462328    546.08266  0.012119012  0.011201144            5 
 3756000     0.651134   -8.7262216    545.82376  0.012110041  0.011196952           12 
 3757000   0.65507497   -8.7405016    547.24249  0.012138286  0.011192768            3 
 3758000    0.6490782   -8.7339169    546.07374  0.012109139  0.011188585            5 
 3759000   0.65286972   -8.7157317    547.08145  0.012128258  0.011184409            5 
 3760000    0.6300816   -8.7049548    546.61891  0.012114781  0.011180232            6 
 3761000   0.64348981    -8.741983    546.40476  0.012106815  0.011176053            4 
 3762000   0.65677917   -8.7371307    547.53346  0.012128599   0.01117188            4 
 3763000   0.64566534   -8.7424106    546.60866  0.012104895  0.011167707            4 
 3764000   0.63995987   -8.7233744    546.49322  0.012099124  0.011163535            3 
 3765000   0.63841264   -8.7108686    546.25256  0.012090583  0.011159362            4 
 3766000   0.63957539   -8.7383722    547.27355  0.012109965  0.011155199            3 
 3767000   0.65415911   -8.7145968    546.59458   0.01209173  0.011151042            2 
 3768000   0.63344806   -8.7274729    546.44252  0.012085158  0.011146884            2 
 3769000   0.63264578   -8.7456478     546.0514  0.012073304  0.011142725            3 
 3770000    0.6431266   -8.7280452    545.66214  0.012061497  0.011138563            3 
 3771000    0.6584973   -8.7526268    545.10808  0.012046055  0.011134397            6 
 3772000   0.65972104   -8.7393952    546.52025   0.01207406  0.011130238            4 
 3773000    0.6445128   -8.7329584     546.0361  0.012060167  0.011126085            2 
 3774000   0.64885064   -8.7222259    546.57813  0.012068939  0.011121936            3 
 3775000   0.65088531    -8.727659    545.68698   0.01204607  0.011117784            4 
 3776000   0.64551975   -8.7359722    545.97327  0.012049198  0.011113625            3 
 3777000   0.64800936   -8.7289622    546.68464  0.012061703  0.011109472            8 
 3778000   0.63283752    -8.748869    546.28144  0.012049617  0.011105324            5 
 3779000   0.66082949    -8.751245    545.82701  0.012036408  0.011101178            2 
 3780000   0.64640732   -8.7529334    545.76871  0.012031938  0.011097033            4 
 3781000   0.66258024   -8.7277349    545.71095  0.012027483  0.011092889            3 
 3782000   0.65584637   -8.7315358    546.26774  0.012036571  0.011088748            2 
 3783000   0.64308058   -8.7449809    545.99636  0.012027411  0.011084609            3 
 3784000   0.63813724   -8.7478777     545.8055  0.012020029  0.011080464            4 
 3785000   0.64824861    -8.750466    545.59784  0.012012282  0.011076323            4 
 3786000   0.64615669   -8.7513349    546.16709  0.012021639  0.011072179            3 
 3787000   0.63827867   -8.7658372    545.82697   0.01201098  0.011068036            4 
 3788000   0.63421465    -8.772028    545.47154   0.01199999  0.011063891            5 
 3789000   0.65143173   -8.7489781    545.80525  0.012004162  0.011059743            5 
 3790000   0.65253347   -8.7559702    545.45195  0.011993227  0.011055603            4 
 3791000    0.6482738    -8.751192    545.55376  0.011992301  0.011051464            3 
 3792000   0.64163016   -8.7507412    545.77984  0.011994107  0.011047323            3 
 3793000   0.63424046   -8.7625532    546.15534  0.011999195  0.011043188            3 
 3794000   0.64052713   -8.7311063    545.24804  0.011976104   0.01103905            3 
 3795000   0.65677911   -8.7580943    544.51198  0.011956785  0.011034921            3 
 3796000   0.64904942   -8.7464584    546.12229  0.011988986  0.011030793            4 
 3797000    0.6449343   -8.7444245    546.83126  0.012001388  0.011026663            3 
 3798000   0.64152757    -8.753318    546.10481  0.011982289   0.01102254            5 
 3799000   0.65424344   -8.7690786    546.37797  0.011985127  0.011018416            4 
 3800000   0.65032987    -8.759388    544.90996   0.01194978  0.011014281            5 
 3801000   0.64350554   -8.7813174    544.73169  0.011942728  0.011010152           13 
 3802000   0.64566992   -8.7517165    545.50843  0.011956611  0.011006023            3 
 3803000   0.63284555   -8.7720445    545.87768  0.011961558  0.011001904            5 
 3804000   0.65489322    -8.733509    545.82055  0.011957163   0.01099779            5 
 3805000   0.65177255   -8.7467183    545.84074  0.011954462  0.010993676            7 
 3806000   0.63282039   -8.7507726    546.24346  0.011960139  0.010989558            4 
 3807000   0.64942546   -8.7576059    545.56519   0.01194215   0.01098545            4 
 3808000   0.64822261   -8.7555459    544.87958   0.01192401  0.010981343            7 
 3809000   0.63907409   -8.7728061    545.80383  0.011941101  0.010977236            3 
 3810000   0.64603516   -8.7548052    545.56372  0.011932715  0.010973132            5 
 3811000   0.62975582    -8.748554    546.08957  0.011941082  0.010969032            8 
 3812000    0.6413876   -8.7593367    546.01797  0.011936384  0.010964937            5 
 3813000   0.63079396   -8.7754753    545.31467  0.011917883  0.010960838            7 
 3814000   0.64107728   -8.7538095    546.06446  0.011931141  0.010956743            7 
 3815000   0.64569176   -8.7532848    545.51744  0.011916065  0.010952649            5 
 3816000   0.64250108   -8.7293906    545.43439  0.011911128  0.010948558            6 
 3817000   0.64719787   -8.7675347    545.99813  0.011920315  0.010944466            5 
 3818000   0.64246616   -8.7572982    545.93688  0.011915857   0.01094038            5 
 3819000   0.63526552    -8.735615    546.33465  0.011921416  0.010936296            5 
 3820000     0.638904   -8.7781088    545.57778  0.011901784  0.010932205            4 
 3821000   0.64864298    -8.766902    544.70411  0.011879615  0.010928123            4 
 3822000   0.63467398   -8.7512719    546.30011  0.011911305  0.010924039            4 
 3823000   0.62765328   -8.7674771    545.17086  0.011883574  0.010919948            5 
 3824000   0.63881675   -8.7492087    545.78613  0.011893875  0.010915868            6 
 3825000   0.65101782   -8.7505002    545.54066  0.011885417  0.010911792            3 
 3826000   0.63734422    -8.754881    544.78691  0.011865894  0.010907722            4 
 3827000   0.63606992   -8.7506262     545.1065  0.011869752  0.010903657            4 
 3828000   0.65518292   -8.7526074    546.00546  0.011886221  0.010899594            5 
 3829000   0.64992871    -8.763369    544.34113  0.011846895  0.010895524            5 
 3830000   0.63975679   -8.7377547      544.988  0.011857876  0.010891462            5 
 3831000   0.63642967   -8.7716245    546.83048  0.011894859    0.0108874            4 
 3832000   0.64196342   -8.7544704    545.01205  0.011852211  0.010883335            5 
 3833000   0.63148519   -8.7700781    545.55205  0.011860859  0.010879268            4 
 3834000   0.64908613   -8.7627762    544.94726   0.01184462    0.0108752            3 
 3835000   0.64540419   -8.7252043    546.56119  0.011876601  0.010871146            6 
 3836000   0.64971231   -8.7487318    544.76126  0.011834403  0.010867087            4 
 3837000   0.63268953   -8.7669334    545.13141  0.011839358   0.01086303            3 
 3838000   0.63695625   -8.7614608    545.75605  0.011849836  0.010858972            4 
 3839000   0.63632965   -8.7740296    545.08313  0.011832142  0.010854914            3 
 3840000   0.63349857   -8.7591847    545.21951  0.011832021  0.010850861            6 
 3841000   0.63909559   -8.7583364    545.50368  0.011835105   0.01084681            3 
 3842000   0.63203128   -8.7855555    545.38401  0.011829429  0.010842757            4 
 3843000   0.64978453   -8.7574024    544.71088  0.011811755  0.010838705            3 
 3844000   0.63879125   -8.7558571    544.90947  0.011812987  0.010834663            4 
 3845000   0.63460713   -8.7551782    546.05053  0.011834645  0.010830619            7 
 3846000   0.63471811   -8.7663044    545.14782  0.011812009  0.010826581            8 
 3847000   0.65079081   -8.7623886    545.18951  0.011809841  0.010822539            5 
 3848000   0.63437862   -8.7760709    545.89404   0.01182203  0.010818503            5 
 3849000   0.63634195   -8.7710994    544.69027  0.011792896  0.010814468            7 
 3850000   0.62736314   -8.7666688    545.73646  0.011812477  0.010810437            5 
 3851000   0.62992996   -8.7704196    545.08008  0.011795207  0.010806408            4 
 3852000   0.63399812   -8.7784527      546.066  0.011813473   0.01080238            7 
 3853000   0.64193665   -8.7862569    543.86554  0.011762815  0.010798347            4 
 3854000   0.63474315   -8.7751194    545.47355  0.011794533  0.010794311            5 
 3855000   0.63199234    -8.763262    545.41937  0.011790302  0.010790282            6 
 3856000   0.63485534   -8.7689539    545.01514  0.011778508  0.010786256            4 
 3857000   0.65263349   -8.7676828    545.59531   0.01178799  0.010782231           12 
 3858000   0.63329349   -8.7642759    545.35055  0.011779647  0.010778215            4 
 3859000   0.63603064   -8.7641899    544.98381  0.011768675  0.010774202            3 
 3860000   0.63867556   -8.7668208    544.99413  0.011765849  0.010770181            7 
 3861000   0.63381872   -8.7631685    545.82686  0.011780775   0.01076616            5 
 3862000   0.63520169   -8.7627461    545.93631  0.011780086  0.010762139            3 
 3863000   0.63568761   -8.7865465    545.46022  0.011766766  0.010758122            5 
 3864000   0.63078026   -8.7558662    545.36974   0.01176177  0.010754104            3 
 3865000   0.62803257   -8.7742282    545.87181  0.011769552  0.010750092            2 
 3866000   0.62688334   -8.7758462    546.11152  0.011771674  0.010746083            2 
 3867000   0.62038485   -8.7792609    545.32365  0.011751652  0.010742077            4 
 3868000   0.63027378   -8.7577124    545.22832   0.01174656  0.010738069            5 
 3869000   0.63706072   -8.7530774    545.88595  0.011757688  0.010734065            8 
 3870000   0.62681581   -8.7399377    545.09494  0.011737617  0.010730064            4 
 3871000   0.63353285   -8.7728753    544.78356  0.011727882  0.010726058            2 
 3872000   0.62560372   -8.7928293    544.76452  0.011724443  0.010722056            4 
 3873000   0.62881114   -8.7853724    545.10613  0.011728766  0.010718056            5 
 3874000   0.63512388   -8.7626156    544.53418  0.011713435  0.010714057            2 
 3875000   0.62325265   -8.7712834    545.41112  0.011729271  0.010710063            5 
 3876000   0.62222194   -8.7770515    545.53915  0.011728998  0.010706068            2 
 3877000    0.6379741   -8.7693642    545.73024   0.01173008  0.010702073            6 
 3878000   0.63044226   -8.7637905    546.24938  0.011738211  0.010698085            3 
 3879000    0.6161404    -8.763309    545.51599  0.011719429  0.010694094            4 
 3880000   0.63362246   -8.7947478    545.13421  0.011708209  0.010690108            3 
 3881000    0.6358101   -8.7612188    545.04744  0.011703329  0.010686121            2 
 3882000   0.63449666   -8.7791098    544.88025  0.011696725  0.010682146            7 
 3883000   0.63665348   -8.7628039    544.59023  0.011687489  0.010678163            3 
 3884000   0.62052708   -8.7778926    544.93097  0.011691791  0.010674184            5 
 3885000    0.6373601    -8.766922    544.33806  0.011676063  0.010670204            4 
 3886000   0.62692846   -8.7837622    543.98015  0.011665383  0.010666225            5 
 3887000   0.63199037   -8.7883572    545.75753  0.011700487  0.010662246            4 
 3888000   0.62869469   -8.7861508    544.96145  0.011680415  0.010658268            9 
 3889000   0.63707132    -8.780993    544.73769  0.011672617  0.010654293            5 
 3890000   0.63253921   -8.7578651    544.97554  0.011674712  0.010650315            4 
 3891000   0.63240236    -8.764156     545.3636  0.011680022  0.010646344            6 
 3892000    0.6295343   -8.7733033    545.59464  0.011681968  0.010642369            7 
 3893000   0.60950368   -8.7994333    545.44475  0.011675759  0.010638396            6 
 3894000   0.63718967    -8.760707    545.17202  0.011666924   0.01063443            3 
 3895000   0.63486136   -8.7874901    545.19942  0.011664515  0.010630467            8 
 3896000   0.61868951   -8.7738404    546.13789  0.011681594  0.010626507            6 
 3897000   0.61934585   -8.7777208    545.21053  0.011658766  0.010622551            3 
 3898000   0.62442524   -8.7727566    545.05071  0.011652358  0.010618589            5 
 3899000   0.61667478   -8.7864489    544.82666  0.011644581  0.010614628            4 
 3900000   0.62813624   -8.8077707    545.10758  0.011647598  0.010610672            5 
 3901000   0.63294093    -8.781077    544.38661  0.011629211  0.010606708            4 
 3902000    0.6328223   -8.7977521    545.43285  0.011648575  0.010602745            5 
 3903000   0.62120549   -8.8060268    545.66593  0.011650566  0.010598787            5 
 3904000   0.63595074   -8.7845271    544.51881  0.011623096  0.010594833            6 
 3905000   0.62403131   -8.7923711    544.72957  0.011624617  0.010590879            3 
 3906000   0.61953896   -8.7916636    544.81813  0.011623531  0.010586937            4 
 3907000    0.6360675   -8.7772677    545.24461  0.011629652  0.010582994            6 
 3908000    0.6261492    -8.782097    544.86146  0.011618506  0.010579052            9 
 3909000   0.61127744   -8.7990511    545.54744  0.011630158  0.010575114            5 
 3910000   0.63917827   -8.7972501    545.23786  0.011620585  0.010571174           11 
 3911000   0.63330474   -8.7647693    544.43552  0.011600518  0.010567238            5 
 3912000   0.61364897   -8.8225099    544.04398  0.011589212    0.0105633            6 
 3913000   0.62692929   -8.7900063    545.44263  0.011616037  0.010559362            6 
 3914000   0.61001496   -8.7929885     545.2691  0.011609374  0.010555422            8 
 3915000   0.62249918   -8.7771721    543.97764   0.01157892  0.010551486            5 
 3916000   0.61398265   -8.7950103    544.73722  0.011592127  0.010547549            6 
 3917000   0.62753632   -8.7908883    545.36987  0.011602627  0.010543616            9 
 3918000    0.6392766   -8.7947681    544.77409  0.011586994  0.010539684            9 
 3919000   0.61598228   -8.7913069    545.35761  0.011596445   0.01053575            4 
 3920000   0.62665898   -8.7899125    544.89674  0.011583689  0.010531819            4 
 3921000   0.61764496   -8.7970791    544.78747  0.011578413  0.010527891            6 
 3922000   0.62059702   -8.7786777    545.73528  0.011595599  0.010523965            8 
 3923000    0.6236587   -8.7750655    544.77607  0.011572268  0.010520043            4 
 3924000   0.62042497   -8.7953487    545.66814  0.011588263  0.010516121           10 
 3925000   0.62790262   -8.7934366    545.23963  0.011576213  0.010512194            8 
 3926000   0.63067936    -8.784039    544.94951  0.011567106   0.01050827            8 
 3927000   0.61023057   -8.7830732    544.03398  0.011544733  0.010504351            4 
 3928000   0.62076113   -8.8020865    544.68011  0.011555501  0.010500436            3 
 3929000   0.61626038   -8.8029792    544.73637  0.011553753  0.010496524            6 
 3930000   0.62387233   -8.8299355    544.36866  0.011543016  0.010492605            3 
 3931000   0.62324301   -8.7900327    544.63793  0.011545788  0.010488694            6 
 3932000   0.62558903   -8.7875786    544.75633  0.011545361  0.010484775            6 
 3933000   0.63229238   -8.8000372    544.04233  0.011527297  0.010480869            7 
 3934000   0.61685908   -8.7931108    545.26413  0.011550248  0.010476961            7 
 3935000   0.61327196   -8.8124551    544.82951  0.011538109  0.010473051            7 
 3936000   0.62488712   -8.8091122    544.69818  0.011532397  0.010469143            4 
 3937000   0.61744254   -8.8010415    543.76547  0.011509726  0.010465243            6 
 3938000   0.62373739   -8.7968221    544.61211  0.011524719  0.010461345            6 
 3939000   0.61010225   -8.7852328    544.88198  0.011527502  0.010457454            8 
 3940000   0.62592472   -8.8158071    543.64048  0.011498318  0.010453557            5 
 3941000   0.62883211   -8.8033586    545.34073  0.011531353  0.010449661            4 
 3942000   0.61203326   -8.7700425    544.83645  0.011517767  0.010445766            9 
 3943000   0.62593076    -8.816921    544.18516  0.011501081  0.010441874            3 
 3944000   0.60924998   -8.8008377    544.62914  0.011507546  0.010437989            3 
 3945000    0.6254779   -8.8152401    545.06789  0.011513897  0.010434104            4 
 3946000   0.62520031   -8.8093263    544.84489   0.01150627  0.010430216            4 
 3947000   0.61955663   -8.8028256    545.33376  0.011513676   0.01042633            5 
 3948000   0.62310863   -8.7956499    544.08842  0.011484474  0.010422448            4 
 3949000   0.62900147   -8.8003053    544.09356  0.011481674  0.010418566            3 
 3950000   0.62687973   -8.8031164    544.47876  0.011486894  0.010414684            4 
 3951000   0.62332883   -8.7793478    543.82957  0.011470294  0.010410806            5 
 3952000    0.6283653   -8.8345098    544.81575  0.011488186  0.010406922            7 
 3953000   0.61812771   -8.7996811    544.76166   0.01148414  0.010403046            8 
 3954000   0.60640154    -8.786503    544.73703  0.011480716  0.010399176            6 
 3955000   0.62086455   -8.7995417    543.83203  0.011458745  0.010395304            5 
 3956000   0.63721956    -8.826648    543.89396  0.011457153  0.010391426            3 
 3957000   0.62890867   -8.8178493    544.28473  0.011462487  0.010387552            4 
 3958000   0.61707104   -8.8119866    544.08833  0.011455456  0.010383682            5 
 3959000   0.60477417   -8.8127631    543.95527  0.011449762  0.010379813            5 
 3960000   0.62086434   -8.8164197    543.20077  0.011430993  0.010375949            4 
 3961000   0.63711642   -8.8146766    544.40268  0.011453393  0.010372082            5 
 3962000   0.61817456   -8.7834509    544.34807  0.011449354  0.010368219            5 
 3963000   0.63572218   -8.8109663    544.34504  0.011446401  0.010364362            6 
 3964000   0.62324521   -8.8055705    544.52548  0.011447307  0.010360505            7 
 3965000   0.61717106   -8.7971197     544.6108  0.011446213  0.010356655            3 
 3966000   0.61455943   -8.8143626    543.71893  0.011424587  0.010352804            5 
 3967000   0.62237446   -8.8081349    545.10173  0.011450755  0.010348957            5 
 3968000   0.61946378   -8.7902921    543.92037  0.011423059  0.010345109            6 
 3969000   0.62284789   -8.8177414    544.42796  0.011430838  0.010341262            7 
 3970000   0.61651902   -8.8132589    544.18374  0.011422833  0.010337419            3 
 3971000   0.61665567   -8.7894639     543.7779  0.011411439  0.010333579            6 
 3972000   0.60913746   -8.8145618    543.50262  0.011402791  0.010329736            4 
 3973000   0.61621068   -8.8142042    543.91657  0.011408603  0.010325896            4 
 3974000   0.62434384   -8.8061639    545.03021  0.011429085   0.01032206           10 
 3975000   0.62533155   -8.8040283    545.09693  0.011427609  0.010318225            6 
 3976000    0.6180328   -8.8245658    543.67963  0.011395029  0.010314389            6 
 3977000   0.61061271   -8.7790493    544.07124   0.01140037  0.010310555            9 
 3978000    0.6013964   -8.8037463    543.97979  0.011395588  0.010306724            4 
 3979000   0.62684097   -8.8198031    543.76894  0.011388308  0.010302892            8 
 3980000   0.60904537   -8.7948693    543.51503   0.01138013  0.010299064            8 
 3981000   0.60829145   -8.8276597    544.01191  0.011387673  0.010295242            3 
 3982000   0.61497349   -8.8036418    544.76288  0.011400529  0.010291423            5 
 3983000   0.60892275   -8.8016214    544.32483  0.011388502  0.010287603            4 
 3984000   0.62705569   -8.7935185    543.10811  0.011360193  0.010283781            6 
 3985000   0.61603578    -8.823073    543.75387  0.011370846  0.010279962            3 
 3986000   0.59313928    -8.802839    543.55177  0.011363768  0.010276141            6 
 3987000   0.61286392   -8.8252562     544.4917  0.011380564  0.010272321            6 
 3988000   0.62539549   -8.8038771    545.13505  0.011391154  0.010268505           13 
 3989000   0.61248861   -8.8149408    544.69274  0.011379058  0.010264691           10 
 3990000   0.61370329    -8.792527     544.6657  0.011375641  0.010260879            3 
 3991000   0.61417362   -8.7982556    544.34715  0.011366139  0.010257066            8 
 3992000   0.61561805   -8.8091952     543.9785  0.011355597  0.010253255           11 
 3993000   0.61912568   -8.7982746    543.79021  0.011348823  0.010249444            6 
 3994000   0.60853048   -8.8304036    544.02352   0.01135085  0.010245638            3 
 3995000   0.61982667   -8.8224918    543.87495  0.011344909  0.010241831            8 
 3996000   0.61471121   -8.8121327    543.77566      0.01134   0.01023803            5 
 3997000   0.61178571   -8.8093077    543.98254  0.011341476  0.010234229            6 
 3998000   0.62001221   -8.8188608    543.74632  0.011333715   0.01023043            9 
 3999000   0.60406841   -8.8230624    544.35891  0.011343646  0.010226634            9 
 4000000   0.61466682    -8.827399    543.89092  0.011331061  0.010222839            3 
 4001000   0.60794745   -8.8094876    544.80087  0.011347181  0.010219046            3 
 4002000   0.60797678    -8.818855    544.90971  0.011346612  0.010215248            6 
 4003000   0.60380912   -8.8032332    544.23927  0.011329821  0.010211458            8 
 4004000   0.60129934   -8.8073684    544.19054  0.011325977  0.010207668            5 
 4005000   0.62631424   -8.8011995    543.91703  0.011317458  0.010203878            7 
 4006000   0.60814345   -8.8039751    543.71764  0.011310485  0.010200099            7 
 4007000   0.60645435   -8.8302985    543.60828  0.011305388  0.010196315           10 
 4008000   0.61273907   -8.8144054    543.62319  0.011302877  0.010192527            9 
 4009000   0.60627875   -8.8065392    544.49834  0.011318249   0.01018875           13 
 4010000   0.61057606   -8.8208024     544.0864  0.011306866  0.010184973            6 
 4011000   0.60649518   -8.8095509    544.74237  0.011317676  0.010181201            6 
 4012000   0.62115689   -8.8229573     543.8616   0.01129656  0.010177428            4 
 4013000   0.61006585   -8.8158802    544.97284  0.011316821  0.010173661            4 
 4014000   0.60540699   -8.8349864    543.80498  0.011289756  0.010169892            4 
 4015000   0.60447003   -8.8142401    544.57901   0.01130301  0.010166127            6 
 4016000   0.60217409   -8.8276121    544.06196  0.011289466  0.010162352           10 
 4017000   0.59973416   -8.8276429    544.59408  0.011297695  0.010158587            4 
 4018000   0.61602564   -8.8285553    544.09244  0.011284479  0.010154821            9 
 4019000   0.60961329   -8.8231989    545.15689  0.011303742  0.010151058            3 
 4020000   0.61080962   -8.8018131    545.13286  0.011300432  0.010147296            7 
 4021000   0.59627501   -8.8376358    543.93013  0.011272696  0.010143534            3 
 4022000   0.60399073   -8.8234929    544.27026  0.011276941  0.010139772            6 
 4023000   0.60491407   -8.8120117    543.99321  0.011268399  0.010136012            3 
 4024000   0.59972236   -8.8199841    543.82789  0.011262175   0.01013225            5 
 4025000   0.60786292   -8.8203517    543.64468  0.011255583  0.010128491            7 
 4026000   0.62429428   -8.8366292    544.35468  0.011267484   0.01012474            4 
 4027000   0.60072168   -8.8331873    543.87937   0.01125485  0.010120982            5 
 4028000    0.6087949    -8.840112    544.53509  0.011265622  0.010117228            6 
 4029000   0.60535797   -8.8209874    543.65617  0.011244646  0.010113478            2 
 4030000   0.61940237   -8.8329406    544.01668  0.011249311  0.010109725            3 
 4031000   0.60401353   -8.8187992    543.38391  0.011233439  0.010105982            5 
 4032000   0.61550314   -8.8252718    543.99657  0.011243315  0.010102238            5 
 4033000   0.60888228    -8.809313    543.15625  0.011223164  0.010098491            5 
 4034000   0.60800559   -8.8321785    544.15308  0.011240974  0.010094753            6 
 4035000    0.5955712   -8.8368325    543.09485  0.011216333  0.010091012            8 
 4036000   0.60372564   -8.8296038    544.30403  0.011238521  0.010087277            7 
 4037000   0.59091468   -8.8480334    543.12082  0.011211312  0.010083536            4 
 4038000   0.59498044   -8.8333163     543.3752  0.011213786  0.010079801            5 
 4039000   0.59822819   -8.8356411    543.07261  0.011204766  0.010076066            6 
 4040000   0.60522423   -8.8455408    544.61018  0.011233708  0.010072336            3 
 4041000   0.60067224   -8.8449549    544.10408  0.011220492  0.010068608            6 
 4042000   0.60053921   -8.8364895    543.28161  0.011200759  0.010064883            8 
 4043000   0.61232671   -8.8233124    544.48284  0.011222748  0.010061161            4 
 4044000   0.60242626   -8.8405491    544.80526  0.011226617  0.010057442            2 
 4045000    0.6014994   -8.8309717    544.28328  0.011213088  0.010053721            3 
 4046000   0.61293576   -8.8279899     543.9639  0.011203738  0.010049997            2 
 4047000   0.60483497   -8.8306482    543.35612  0.011188455  0.010046277            5 
 4048000   0.60260783   -8.8331073    544.48485  0.011208927  0.010042554            5 
 4049000   0.61550617   -8.8232136    543.77584  0.011191567  0.010038834            9 
 4050000    0.6013603   -8.8294661    543.78621  0.011189017  0.010035117            6 
 4051000   0.60130734   -8.8457022    543.40579  0.011178429  0.010031403            3 
 4052000   0.61009502   -8.8327405    543.91905  0.011186226  0.010027692            5 
 4053000   0.59835262   -8.8392566    544.25601  0.011190394  0.010023981            7 
 4054000   0.59836558    -8.822338    543.98024  0.011181965  0.010020275            6 
 4055000   0.58609007   -8.8237646     542.9877   0.01115881  0.010016574            4 
 4056000   0.61258591    -8.830351    544.13866  0.011179706  0.010012875            4 
 4057000   0.61528066   -8.8212509    543.35843  0.011160924  0.010009177            6 
 4058000   0.60325647   -8.8383669    544.35776  0.011178696  0.010005484            4 
 4059000   0.60492777   -8.8325599    544.95946  0.011188295  0.010001789            4 
 4060000   0.59890578   -8.8315089    544.11291  0.011168163 0.0099980926            3 
 4061000   0.60014717   -8.8509324    544.11193  0.011165393 0.0099943961            7 
 4062000   0.61831891    -8.835196    542.16801  0.011122764 0.0099906973            5 
 4063000   0.60370918   -8.8219206    544.57255  0.011169344 0.0099870062            3 
 4064000    0.5952232   -8.8447087     543.8808  0.011152412 0.0099833124            3 
 4065000   0.60046712   -8.8522889     543.0891  0.011133438 0.0099796199            3 
 4066000   0.60651855    -8.822354     543.7864  0.011144991 0.0099759308            3 
 4067000   0.60284411    -8.851573    544.07027  0.011148067 0.0099722482            6 
 4068000   0.60358515   -8.8411455    544.12992  0.011146549 0.0099685648            2 
 4069000   0.59764673   -8.8287224    543.99863   0.01114112 0.0099648816            5 
 4070000   0.58036881   -8.8445044    544.41327  0.011146873 0.0099611998            3 
 4071000   0.60056773   -8.8697176    542.96166   0.01111442 0.0099575178            3 
 4072000   0.59015786   -8.8416884    543.35327  0.011119705  0.009953839            2 
 4073000   0.59520155   -8.8373312    544.19531  0.011134203 0.0099501604           11 
 4074000   0.61501244   -8.8563704    543.96623  0.011126784 0.0099464835            6 
 4075000   0.59942283   -8.8397675    544.23743    0.0111296 0.0099428063            3 
 4076000   0.60517141   -8.8423434    543.89704   0.01111991 0.0099391326            4 
 4077000   0.58969347   -8.8641456    543.28245   0.01110462 0.0099354576            4 
 4078000   0.59760599   -8.8398122    543.93414  0.011115215 0.0099317883            4 
 4079000   0.60377056   -8.8573718    543.64403  0.011106563 0.0099281154            6 
 4080000   0.60628508   -8.8449316    542.62463  0.011083019 0.0099244474            8 
 4081000   0.59448037   -8.8585038    542.57628  0.011079316  0.009920778            9 
 4082000   0.60080088    -8.840082      543.779  0.011101156 0.0099171105            4 
 4083000   0.59717753   -8.8461651    543.72488  0.011097332  0.009913442            4 
 4084000   0.60367672   -8.8572978     542.7301  0.011074316  0.009909781            5 
 4085000   0.59885194   -8.8465217    543.40195  0.011085311 0.0099061218            2 
 4086000   0.59828429   -8.8467503    542.97405  0.011073871 0.0099024589            7 
 4087000   0.58542364   -8.8440911    543.18777  0.011075519 0.0098987984            8 
 4088000   0.59542601   -8.8391394    543.05249  0.011070052 0.0098951394            7 
 4089000     0.600703   -8.8722974    542.80013  0.011062202 0.0098914775           14 
 4090000   0.59987971   -8.8646597    542.84424  0.011060396 0.0098878214            7 
 4091000   0.59782502   -8.8487843     543.6342  0.011073784 0.0098841647           16 
 4092000   0.59814815   -8.8503131    543.10157  0.011060231  0.009880513            4 
 4093000   0.60619907    -8.836469     542.7546  0.011050464 0.0098768628            5 
 4094000   0.59805878    -8.861978    542.49151   0.01104241 0.0098732183            4 
 4095000   0.60890439   -8.8404834    542.74773  0.011044927 0.0098695747           14 
 4096000   0.60017516   -8.8625235    542.97174  0.011046788 0.0098659331           11 
 4097000    0.5884566   -8.8428182    543.56035  0.011056064 0.0098622928            4 
 4098000   0.59651477   -8.8530834    543.57702  0.011053706 0.0098586546            2 
 4099000   0.58410094   -8.8494685    543.96897  0.011058977 0.0098550205            7 
 4100000   0.60415348   -8.8629756    542.98552  0.011036291 0.0098513863            3 
 4101000   0.60141756   -8.8262706    543.45013  0.011043041 0.0098477498            2 
 4102000   0.60333984    -8.853248    543.33535  0.011038017 0.0098441159            4 
 4103000   0.59338022   -8.8422261    542.51543  0.011018674  0.009840482            7 
 4104000   0.58925093    -8.851206       542.97  0.011025219 0.0098368497            7 
 4105000   0.60279702    -8.838781    542.59066  0.011014833 0.0098332168            4 
 4106000   0.59442494   -8.8574043    543.01989  0.011020862 0.0098295875            6 
 4107000   0.58447288   -8.8567823    543.59314   0.01102981 0.0098259591            5 
 4108000    0.5945439   -8.8419404    543.24799  0.011020123 0.0098223359            4 
 4109000   0.58884387   -8.8527461    543.29672  0.011018429 0.0098187095            6 
 4110000   0.58576967   -8.8660307    543.72224  0.011024376 0.0098150829            8 
 4111000   0.59816377   -8.8653485    543.44777  0.011016131 0.0098114634            4 
 4112000   0.57166557   -8.8782396    542.74936  0.010999298 0.0098078434            5 
 4113000    0.5885359   -8.8585948    544.12385  0.011024472 0.0098042208            4 
 4114000   0.59971881   -8.8523065    543.50292  0.011009215 0.0098006058            5 
 4115000   0.59873117   -8.8626039    543.99378   0.01101648 0.0097969877            4 
 4116000   0.59740467    -8.879055    542.46602  0.010982872 0.0097933707            6 
 4117000   0.59621123   -8.8464417     543.1743  0.010994541 0.0097897584            5 
 4118000   0.58586401   -8.8604214    542.57089   0.01097966 0.0097861471            3 
 4119000   0.59367934   -8.8666157    542.76553  0.010980932 0.0097825393            3 
 4120000   0.59947332   -8.8529573    543.32863  0.010989657 0.0097789353            7 
 4121000   0.59536218   -8.8407751    542.84378  0.010977186 0.0097753272            5 
 4122000   0.58861672   -8.8599665    542.85318  0.010974713 0.0097717221            6 
 4123000   0.60014776   -8.8584337    543.14719  0.010977993 0.0097681153            5 
 4124000   0.58219337   -8.8848979    543.33459  0.010979118  0.009764511            6 
 4125000   0.59608433   -8.8616167    542.00226  0.010949541 0.0097609112            3 
 4126000   0.59242764   -8.8382794     543.5355  0.010977854 0.0097573167            3 
 4127000   0.58461592    -8.862937    543.44698  0.010973406 0.0097537225            2 
 4128000   0.60091089    -8.853756    542.96195  0.010960957  0.009750128            5 
 4129000   0.57398511   -8.8760103    543.19238  0.010962953 0.0097465387            4 
 4130000   0.59325231   -8.8485302    543.33476  0.010963171 0.0097429505            4 
 4131000   0.59855332   -8.8640127    542.47757  0.010943225  0.009739363            7 
 4132000   0.59450625   -8.8700979    544.01101  0.010971503 0.0097357791            4 
 4133000   0.58875144   -8.8577009    543.32503  0.010955017 0.0097321933            6 
 4134000   0.57949899   -8.8486398    543.46401  0.010955169 0.0097286117            9 
 4135000   0.59003127   -8.8749628    542.82642   0.01093967 0.0097250322            4 
 4136000   0.59260888   -8.8384041    543.73399  0.010955311 0.0097214547            5 
 4137000   0.59090662   -8.8680873    543.01005   0.01093808 0.0097178746           14 
 4138000    0.5873322    -8.856637     543.9178  0.010953717 0.0097143013            5 
 4139000   0.58456744   -8.8588791    542.11053  0.010914684 0.0097107279            6 
 4140000   0.59289825   -8.8661397    543.16125  0.010933198 0.0097071537            4 
 4141000    0.5859517   -8.8691582    543.55133  0.010938407 0.0097035826            3 
 4142000    0.5687292   -8.8622864    543.06866  0.010926056 0.0097000093           13 
 4143000   0.60096617   -8.8763755    542.99089  0.010921854 0.0096964404            5 
 4144000    0.5951619    -8.864891    542.20739  0.010903463 0.0096928724            5 
 4145000   0.60145962    -8.870728    543.20705   0.01092093 0.0096893033            4 
 4146000   0.57374925   -8.8670477    543.59651  0.010926124 0.0096857405            7 
 4147000   0.58632086   -8.8718024     542.9353  0.010910202 0.0096821826            4 
 4148000   0.58639571   -8.8754991    542.53792  0.010899589 0.0096786216            3 
 4149000   0.59736202   -8.8621396    542.36126  0.010893413  0.009675065            4 
 4150000   0.58835766   -8.8625207    543.12088  0.010906042 0.0096715094            5 
 4151000   0.58369559   -8.8610063    543.31105  0.010907232 0.0096679634            3 
 4152000   0.59440364   -8.8475118    542.70268  0.010892395 0.0096644099           10 
 4153000   0.58412593   -8.8796307    543.59631  0.010907704 0.0096608575            3 
 4154000   0.58441653   -8.8620506     543.1869  0.010896865 0.0096573116            7 
 4155000   0.59038813   -8.8493857    542.75315  0.010885543 0.0096537581            5 
 4156000   0.58374052   -8.8614327    542.51905  0.010878229 0.0096502109            5 
 4157000   0.60156146   -8.8642105    542.82095  0.010881664 0.0096466687            4 
 4158000   0.57640031   -8.8786232    543.85474  0.010899766 0.0096431254            3 
 4159000   0.58272755   -8.8830669    543.15485  0.010883122 0.0096395815            4 
 4160000   0.57294154   -8.8569129    542.87877  0.010874975 0.0096360376            5 
 4161000   0.57730822   -8.8605494    542.85973  0.010871981 0.0096324972            6 
 4162000   0.58295917   -8.8569788    543.31946  0.010878573 0.0096289583            4 
 4163000   0.58917019   -8.8643287     541.8337  0.010846219  0.009625423            2 
 4164000   0.57982722   -8.8595465     542.9782  0.010866519 0.0096218907            3 
 4165000   0.58028929   -8.8774844    542.68849  0.010858113 0.0096183587           11 
 4166000   0.58269762    -8.873599    542.15251  0.010844785  0.009614825            6 
 4167000   0.58131062   -8.8803291     542.7762  0.010854656 0.0096112908            5 
 4168000   0.60704207   -8.8742407    542.71061   0.01085074 0.0096077601            5 
 4169000    0.5852266    -8.874052     542.3037  0.010840004 0.0096042276            4 
 4170000   0.58107621   -8.8831133    541.96133  0.010830562 0.0096007015            6 
 4171000   0.59267413   -8.8750274    542.77749  0.010844272 0.0095971778            3 
 4172000   0.58002591    -8.872521    542.49763  0.010836082 0.0095936547            3 
 4173000   0.59395208   -8.8515199     543.5538  0.010854577 0.0095901314            6 
 4174000   0.57674559   -8.8691319    543.23306  0.010845573 0.0095866107            2 
 4175000   0.57643443   -8.8654824    543.64536  0.010851205 0.0095830918           10 
 4176000   0.58911991   -8.8674087    542.65363  0.010828816 0.0095795745            4 
 4177000   0.58934509   -8.8645941    542.28355   0.01081884 0.0095760613            5 
 4178000   0.58607836   -8.8530268     543.6476  0.010843458 0.0095725485            6 
 4179000     0.600839   -8.8608178    542.71334  0.010822233 0.0095690443           15 
 4180000   0.58393613   -8.8809186     543.1497  0.010828343  0.009565541            5 
 4181000   0.59632335   -8.8606907    543.20685  0.010826892 0.0095620374            7 
 4182000   0.58204485   -8.8776209    542.65065   0.01081322 0.0095585339            3 
 4183000   0.57760745   -8.8396901    542.76716  0.010812956 0.0095550322            5 
 4184000   0.59221685   -8.8487204    542.23966  0.010799866 0.0095515331            6 
 4185000   0.58352219   -8.8711346    543.07499  0.010813919  0.009548036            6 
 4186000   0.58134028   -8.8592345    543.02265  0.010810293  0.009544543            7 
 4187000   0.58331818   -8.8769486    543.20283  0.010811298 0.0095410466            6 
 4188000   0.57894082    -8.854029    542.54921   0.01079571 0.0095375501            4 
 4189000   0.59216268   -8.8868683    542.61471  0.010794436 0.0095340529            5 
 4190000   0.57453767   -8.8604247    541.91616  0.010777967  0.009530558            4 
 4191000   0.58355526   -8.8442245    543.11462  0.010799225 0.0095270672            5 
 4192000   0.58167906   -8.8681629    543.15086  0.010797369 0.0095235756            2 
 4193000   0.57808578   -8.8561802    543.68312  0.010805372  0.009520084            5 
 4194000   0.57892817   -8.8700198    542.97642  0.010788754 0.0095165947            5 
 4195000   0.57956097   -8.8798048     541.1542  0.010749984 0.0095131052            4 
 4196000   0.57636458   -8.8524676    542.65026  0.010777134 0.0095096239            6 
 4197000   0.58723792   -8.8688711    542.63967  0.010774356 0.0095061392           10 
 4198000   0.58937236   -8.8649142    542.64312  0.010771858 0.0095026519            4 
 4199000   0.58852982   -8.8741555    542.66556  0.010769738 0.0094991694            6 
 4200000   0.57693975   -8.8544235    543.44981  0.010782734  0.009495691            5 
 4201000   0.57661326   -8.8813792    542.10402  0.010753472 0.0094922144            8 
 4202000   0.57243813   -8.8748472    541.21673  0.010733316  0.009488737            7 
 4203000   0.59225774   -8.8755752    542.52575  0.010756716 0.0094852608            9 
 4204000   0.57439871   -8.8677582    542.63021  0.010756228 0.0094817852            4 
 4205000   0.57874755   -8.8819288    542.54256  0.010751933 0.0094783155            4 
 4206000    0.5775085   -8.8698611    542.78249  0.010754131 0.0094748449            2 
 4207000   0.57962979   -8.8805929    542.33613  0.010742733 0.0094713749            6 
 4208000   0.57657216   -8.8754882    543.59996  0.010765208 0.0094679083            4 
 4209000   0.57104238    -8.869392    543.77472  0.010766111 0.0094644448            6 
 4210000    0.5864308   -8.8968211    543.23189  0.010752809 0.0094609859            8 
 4211000   0.57592962   -8.8443463    541.90069  0.010723911 0.0094575194            6 
 4212000   0.57200185   -8.8831356    542.83562  0.010739863 0.0094540586            9 
 4213000   0.56553253    -8.891715    543.15231  0.010743578 0.0094505948            3 
 4214000   0.56394179   -8.8828256    543.08972   0.01073979 0.0094471391            8 
 4215000    0.5792484   -8.8931397    542.99782  0.010735426 0.0094436839            4 
 4216000   0.56378517   -8.8708062    542.43198  0.010721695 0.0094402311            6 
 4217000   0.58660395   -8.8894764    542.17327   0.01071404 0.0094367743            6 
 4218000   0.58748956   -8.8944256    541.81405  0.010704403 0.0094333243           12 
 4219000   0.58492252   -8.9046967    542.74557  0.010720265 0.0094298681            5 
 4220000   0.56656621   -8.8793372    542.33308  0.010709579 0.0094264169            5 
 4221000   0.57165733   -8.8955652    543.44378   0.01072897 0.0094229647            2 
 4222000   0.58296842   -8.8868048    542.93289  0.010716345 0.0094195209            4 
 4223000   0.55720624   -8.8975743    542.26294  0.010700587 0.0094160767            8 
 4224000   0.58296962   -8.8780896    543.13394  0.010715237 0.0094126318            4 
 4225000   0.57901179   -8.9041781    542.32152  0.010696677 0.0094091879           10 
 4226000   0.57555749   -8.8875561    542.30934  0.010693906 0.0094057485            7 
 4227000   0.56838683   -8.8836737    542.23683  0.010689946 0.0094023075            4 
 4228000   0.57594501   -8.8847446    542.24192  0.010687518 0.0093988749            3 
 4229000   0.57302732   -8.8818742     542.6872  0.010693765 0.0093954399            4 
 4230000   0.58311315   -8.8989109    542.22193  0.010682071 0.0093920041            9 
 4231000   0.57328516   -8.9085307    541.03009  0.010656072 0.0093885699            7 
 4232000   0.58113702   -8.8829181    541.74115  0.010667556 0.0093851338            5 
 4233000   0.57064129   -8.8772131    542.14395  0.010672965  0.009381701           10 
 4234000   0.57712398   -8.9036536    542.60478  0.010679515 0.0093782692            8 
 4235000    0.5801668   -8.8909039    542.34567  0.010671894 0.0093748438            8 
 4236000   0.56266259   -8.8859235    542.52649  0.010672932 0.0093714165            9 
 4237000   0.57596167   -8.8921134    542.65585  0.010672957 0.0093679932           10 
 4238000   0.56637875   -8.8830382    542.04541  0.010658436 0.0093645656            7 
 4239000   0.58001034    -8.868901    542.22851  0.010659521 0.0093611461           10 
 4240000    0.5764828   -8.8769122    542.42101   0.01066079 0.0093577225            7 
 4241000   0.57364965   -8.8967046    542.54115  0.010660637 0.0093542991            4 
 4242000    0.5694717    -8.884549    542.94449  0.010666048 0.0093508809            8 
 4243000   0.58275024   -8.9034234    542.62841  0.010657326 0.0093474616            9 
 4244000   0.57028208   -8.8892739    542.68179  0.010655863 0.0093440422            6 
 4245000   0.57378941    -8.901005    542.28246  0.010645514 0.0093406238            5 
 4246000   0.56536225   -8.9117567    541.73523  0.010632266 0.0093372074            7 
 4247000   0.57415128   -8.8796324    541.53821  0.010625897 0.0093337938            9 
 4248000   0.56741889   -8.8837148    543.21221  0.010656234 0.0093303867            4 
 4249000   0.56455792   -8.8862751    543.71498  0.010663587 0.0093269801            7 
 4250000   0.57991568     -8.92586    542.71595  0.010641489 0.0093235746            9 
 4251000    0.5724002   -8.8942926    541.80234  0.010621076 0.0093201677            6 
 4252000   0.57718094   -8.8899731    542.63142  0.010634827 0.0093167605            7 
 4253000   0.56679903   -8.8843425    542.03836  0.010620706 0.0093133615            4 
 4254000   0.57222796   -8.9140276    542.22019  0.010621771 0.0093099623            6 
 4255000   0.56696582     -8.86679    542.45131  0.010623802 0.0093065642            9 
 4256000   0.56173917   -8.9008934    541.79076  0.010608372 0.0093031646            8 
 4257000   0.56854231   -8.8739243    542.22242   0.01061433 0.0092997721           15 
 4258000   0.55893266   -8.9095911    542.37505  0.010614824 0.0092963767           10 
 4259000   0.57259938   -8.8830764    541.57495  0.010596677 0.0092929848            4 
 4260000   0.57607644   -8.9064227    541.79447  0.010598483 0.0092895948            3 
 4261000   0.57644133   -8.8960365    542.50993  0.010609988 0.0092862081            6 
 4262000    0.5597745   -8.8811329    542.53988  0.010608085 0.0092828188            9 
 4263000   0.56229625   -8.9091162    542.67908  0.010608317 0.0092794301           10 
 4264000   0.57226334   -8.9080868    541.66011  0.010585915 0.0092760479            5 
 4265000   0.58073838   -8.9042593    542.45893  0.010599041 0.0092726603            8 
 4266000   0.56700063   -8.8949848    542.34332  0.010594298 0.0092692742           14 
 4267000   0.59182875   -8.9027972     542.5457  0.010595768 0.0092658937            4 
 4268000   0.57818205   -8.8972495     542.0082   0.01058279 0.0092625082            7 
 4269000   0.56624014   -8.8920673    541.77022  0.010575666 0.0092591277           11 
 4270000   0.56974426   -8.9135976    542.68569  0.010591056 0.0092557472           13 
 4271000   0.57124925   -8.8826645    542.03388  0.010575858  0.009252369           10 
 4272000   0.56548734   -8.8758438    541.79465  0.010568716 0.0092489928           12 
 4273000   0.56165459   -8.8959173    542.21678  0.010574475 0.0092456225            7 
 4274000   0.57478406   -8.8994742    542.02117  0.010568187 0.0092422519           21 
 4275000   0.56839893   -8.9085817    542.00714  0.010565441 0.0092388832            9 
 4276000   0.56582923   -8.9122918    542.62088  0.010574931 0.0092355135            5 
 4277000   0.57500275   -8.8950473    541.15331  0.010543865 0.0092321468           10 
 4278000   0.56972658   -8.9146415    541.48593  0.010547879 0.0092287804           10 
 4279000   0.58127373   -8.9024067    541.69667  0.010549518 0.0092254143            9 
 4280000    0.5530232   -8.9052657    541.80153  0.010549095 0.0092220513            8 
 4281000   0.56361079   -8.9101665    542.04343   0.01055134 0.0092186894            9 
 4282000   0.56880563   -8.9062472    542.62816  0.010560255 0.0092153312            8 
 4283000   0.56659894   -8.8912199    542.10519  0.010547614 0.0092119716           13 
 4284000    0.5611288   -8.9010859    542.72869  0.010557281 0.0092086136            6 
 4285000   0.55760136   -8.8856882    541.98139  0.010540284 0.0092052609            6 
 4286000   0.57198193   -8.9013793    542.03614  0.010538889 0.0092019128            8 
 4287000     0.565219   -8.8963086    541.88093  0.010533414 0.0091985577            9 
 4288000   0.56839535   -8.9132222    541.34747   0.01052059  0.009195208            9 
 4289000   0.57323568   -8.9227019    541.63554  0.010523734 0.0091918629            4 
 4290000   0.57479982    -8.905672      541.769  0.010523873 0.0091885161            4 
 4291000   0.55132782   -8.9074531    541.23743  0.010511097 0.0091851704            7 
 4292000    0.5630172   -8.9049845    542.62265  0.010535544 0.0091818267            9 
 4293000   0.56198291   -8.8879231    541.95955  0.010520218 0.0091784832            5 
 4294000   0.55988565   -8.9127582    541.96652  0.010517903 0.0091751383            9 
 4295000   0.56719523   -8.9044317    541.54513  0.010507279 0.0091717978           15 
 4296000   0.56636807   -8.9167769    541.15699  0.010497304 0.0091684618            6 
 4297000   0.56375077   -8.8941144    542.40086  0.010518983 0.0091651296           12 
 4298000   0.55906396   -8.8883121    542.67384  0.010521829  0.009161794           15 
 4299000   0.55672778    -8.901158     541.5395  0.010497393 0.0091584582            3 
 4300000   0.57287153   -8.9020405     541.2603  0.010489541 0.0091551251           12 
 4301000   0.56760688    -8.925664    542.33376    0.0105079 0.0091517946            4 
 4302000   0.55494831   -8.9036486    542.63729  0.010511338 0.0091484649            5 
 4303000   0.57662576   -8.8908861    542.23017   0.01050101  0.009145135           10 
 4304000   0.57182105    -8.899244    541.76179  0.010489502 0.0091418095            4 
 4305000   0.55481567   -8.8953114    541.91232  0.010489979 0.0091384848            5 
 4306000   0.56214374    -8.905081    541.18292  0.010473427 0.0091351612            4 
 4307000   0.56834183   -8.9209622    541.18147  0.010470967 0.0091318361            3 
 4308000   0.56103337   -8.9034881    541.22717  0.010469421 0.0091285119            5 
 4309000   0.56473678   -8.9286081    541.52273  0.010472707 0.0091251893           15 
 4310000   0.56009448   -8.9139289    541.85291  0.010476661 0.0091218686            8 
 4311000   0.56908716   -8.9150476    542.46319  0.010486028 0.0091185537           10 
 4312000   0.56901143   -8.9100311    542.13442  0.010477242 0.0091152398            6 
 4313000   0.56642721    -8.902214     542.4763  0.010481419 0.0091119284            4 
 4314000   0.56329073   -8.9057186    540.94392  0.010449388 0.0091086173            5 
 4315000   0.55568565   -8.9158941    542.15691  0.010470392 0.0091053074            4 
 4316000   0.55212506   -8.9127518    541.80809  0.010461231 0.0091020013            6 
 4317000   0.56969716   -8.9193889    541.29876  0.010448976 0.0090986974            4 
 4318000   0.56068218   -8.9089089    542.35778  0.010466994 0.0090953937            9 
 4319000   0.55785757   -8.9104066    541.91986  0.010456121 0.0090920889            4 
 4320000   0.55984531   -8.9225844    541.76129  0.010450642 0.0090887861            6 
 4321000   0.57119244   -8.9064521    542.54921  0.010463419 0.0090854824            7 
 4322000   0.56119527   -8.9166998    541.66502   0.01044395 0.0090821801           13 
 4323000   0.55266582    -8.938365    541.79703  0.010444079 0.0090788765            4 
 4324000   0.56111871   -8.9029159    542.16323  0.010448721 0.0090755766            3 
 4325000   0.56474826   -8.9167302    541.95694   0.01044233 0.0090722778           11 
 4326000   0.54974999   -8.9246856    540.93394   0.01042021 0.0090689792           12 
 4327000    0.5703133   -8.9152226    540.96273  0.010418356 0.0090656863           13 
 4328000   0.57975091   -8.9124051    540.97802  0.010416243 0.0090623927            6 
 4329000   0.54727718   -8.9260252    541.24648  0.010419005 0.0090591002            5 
 4330000   0.55980096   -8.9411938    541.60086  0.010423419 0.0090558119            9 
 4331000   0.56507711   -8.9148734      542.449  0.010437332 0.0090525255            6 
 4332000   0.55072032   -8.9221413    541.56363  0.010417891 0.0090492373            4 
 4333000   0.54787084   -8.8999261    541.98823  0.010423652 0.0090459519           15 
 4334000   0.53947475   -8.9143235    541.23186  0.010406704 0.0090426724           11 
 4335000   0.56024521   -8.9093672    542.08025  0.010420612 0.0090393955            7 
 4336000   0.56302149   -8.9230532    540.25062  0.010383045 0.0090361158            7 
 4337000   0.55564649    -8.919722    541.43712  0.010403449 0.0090328388            4 
 4338000   0.55098395   -8.9128066    542.18448  0.010415408 0.0090295635            6 
 4339000   0.56001259   -8.9037182    541.53026  0.010400443 0.0090262909            7 
 4340000   0.55527875   -8.9121078    541.22257  0.010392139  0.009023017            8 
 4341000   0.57377828   -8.9133795    540.51086  0.010376082 0.0090197434           12 
 4342000   0.53732384   -8.9190036    542.05583  0.010403344 0.0090164743           11 
 4343000   0.56334464    -8.917952     541.3172  0.010386776 0.0090132064            8 
 4344000   0.55448542    -8.930623    540.97486  0.010377817  0.009009937            4 
 4345000    0.5627885   -8.9370653    542.17051   0.01039836 0.0090066719           13 
 4346000   0.56223695   -8.9037788    541.00088   0.01037354   0.00900341            6 
 4347000     0.567591   -8.9085684    541.71529  0.010384849 0.0090001497            5 
 4348000   0.55369794   -8.9106104    541.18241  0.010372248 0.0089968919            9 
 4349000   0.55593147   -8.9182983    541.27927  0.010371719 0.0089936346            9 
 4350000   0.55378941   -8.9143398    541.24961  0.010368767 0.0089903803            3 
 4351000   0.55873545   -8.9185033    541.87837  0.010378426 0.0089871236            9 
 4352000   0.55866583   -8.9150085    541.61644  0.010371026   0.00898387            9 
 4353000   0.56177547   -8.9043522     541.9612  0.010375243 0.0089806149            8 
 4354000   0.54795895   -8.9360137    541.62877  0.010366498 0.0089773629            7 
 4355000   0.56028339    -8.905372    542.83285  0.010387157 0.0089741141            8 
 4356000   0.55563891   -8.9365588    541.68756  0.010362863 0.0089708649            7 
 4357000   0.55389136   -8.9038924    541.49954  0.010356888 0.0089676163            7 
 4358000   0.56248193   -8.9110251    541.41223  0.010352842 0.0089643726            6 
 4359000   0.55060788   -8.9348602     541.9591  0.010360922 0.0089611302           12 
 4360000   0.55678077   -8.9315811    541.62654  0.010352189 0.0089578883            6 
 4361000    0.5512804   -8.9344068    541.39298  0.010345352 0.0089546445            7 
 4362000   0.55532281   -8.9194883    541.92836  0.010353209 0.0089514008           12 
 4363000   0.54893123   -8.9399537    541.64723  0.010345466 0.0089481628           10 
 4364000   0.55355446   -8.9337035    542.06008  0.010350979 0.0089449249            7 
 4365000   0.54890184   -8.9244353    541.66939  0.010341149 0.0089416897            6 
 4366000    0.5667471   -8.9302391    542.13008  0.010347574 0.0089384569            7 
 4367000   0.55371703   -8.9161196    541.63451  0.010335747 0.0089352269           14 
 4368000   0.54888123   -8.9271275      541.434  0.010329556 0.0089319979            8 
 4369000   0.56428795   -8.9283113    541.12706  0.010321337 0.0089287692           10 
 4370000   0.56257294   -8.9205022    541.94764  0.010334623 0.0089255409           12 
 4371000   0.56175396    -8.918637      541.394  0.010321704 0.0089223136           13 
 4372000   0.55464747   -8.9229733    541.09962  0.010313732 0.0089190912            4 
 4373000   0.55599956   -8.9292181    540.15301  0.010293334 0.0089158673            4 
 4374000   0.55991535   -8.9382291    541.68531  0.010320174 0.0089126408           12 
 4375000   0.55289177    -8.951483    540.74519  0.010299908 0.0089094165           12 
 4376000   0.56335263     -8.92068    541.57154  0.010313291 0.0089061975           11 
 4377000   0.53888052   -8.9296436    541.80064  0.010315297 0.0089029799           11 
 4378000   0.54890735   -8.9421552     541.1637  0.010300817 0.0088997627            6 
 4379000   0.53723325   -8.9438239    542.25607  0.010319252 0.0088965428            4 
 4380000   0.55305036   -8.9238565    541.56748  0.010303795 0.0088933301           10 
 4381000   0.54189902   -8.9337186     540.7017  0.010284975 0.0088901192            9 
 4382000   0.54726257   -8.9196415    541.07913  0.010289805 0.0088869096            6 
 4383000   0.54815429   -8.9335848    541.74081  0.010300038 0.0088836996            8 
 4384000   0.54180462   -8.9203783    541.80918  0.010298988 0.0088804874            5 
 4385000   0.55922215   -8.9450044    542.37676  0.010307426 0.0088772792            4 
 4386000   0.54487555    -8.946645     540.7053  0.010273319 0.0088740743            7 
 4387000   0.54810118   -8.9296304    541.19767   0.01028033 0.0088708715            8 
 4388000   0.55500501    -8.934297    541.52852   0.01028427 0.0088676679           11 
 4389000   0.53835691   -8.9284796    541.14174  0.010274583 0.0088644662           11 
 4390000   0.53735525   -8.9363912     541.4212  0.010277547 0.0088612646           12 
 4391000    0.5557589   -8.9134266    541.91571  0.010284592 0.0088580693           11 
 4392000   0.55247701   -8.9517347     541.5222  0.010274784  0.008854873            6 
 4393000   0.54237946   -8.9330241     540.7787  0.010258341  0.008851677            5 
 4394000   0.54824413   -8.9364089    541.75847  0.010274588 0.0088484821            4 
 4395000   0.54648402   -8.9320606    541.63074  0.010269828 0.0088452831            5 
 4396000   0.54858442    -8.930088    541.32819  0.010261757 0.0088420924            7 
 4397000   0.55084198   -8.9221455    541.34266  0.010259697 0.0088389041           12 
 4398000   0.55089868   -8.9391144    541.35688  0.010257634 0.0088357179           11 
 4399000   0.55336757   -8.9500828    541.20209   0.01025237 0.0088325298            4 
 4400000   0.54498802   -8.9105164    542.01211  0.010265381 0.0088293476            5 
 4401000   0.54189739   -8.9344815    541.79299  0.010258899 0.0088261649            5 
 4402000    0.5549426   -8.9422366    541.02402  0.010242012 0.0088229833           10 
 4403000   0.54902624   -8.9360114    541.25033  0.010243969 0.0088197997            8 
 4404000   0.55090938   -8.9358886    541.18494  0.010240405 0.0088166197            6 
 4405000   0.54445551   -8.9443961    540.90947  0.010232869 0.0088134386            6 
 4406000   0.54096345   -8.9404392    541.11825  0.010234496  0.008810261            8 
 4407000   0.53695394   -8.9406575     540.7851  0.010225874 0.0088070875            6 
 4408000   0.54560163   -8.9165524    541.22585  0.010231886 0.0088039142            9 
 4409000   0.55416123   -8.9409922      540.262  0.010211348 0.0088007418            6 
 4410000   0.55147701    -8.939045    541.21569  0.010227054  0.008797569            4 
 4411000   0.54253887   -8.9195313    541.08202   0.01022221 0.0087944032            9 
 4412000   0.54382959   -8.9238931    541.11306  0.010220479 0.0087912358            4 
 4413000     0.530567   -8.9404099    540.56836  0.010207877 0.0087880671            4 
 4414000   0.53811485   -8.9446399     540.9663  0.010213078 0.0087849004            3 
 4415000   0.53958905   -8.9397461    541.73241  0.010225225 0.0087817363            5 
 4416000   0.54630997   -8.9610741    540.65294  0.010202539  0.008778572            7 
 4417000   0.55044953   -8.9477339     541.1147  0.010208941   0.00877541           10 
 4418000   0.55288947   -8.9481282    540.80257  0.010200743 0.0087722474            6 
 4419000   0.55452947   -8.9400406    540.80865  0.010198549 0.0087690872            9 
 4420000   0.54557886   -8.9387726    541.55845  0.010210378 0.0087659292           10 
 4421000   0.54079717   -8.9458237    540.70365  0.010191956 0.0087627689           14 
 4422000   0.54201839   -8.9278387    540.62944  0.010188253 0.0087596176            9 
 4423000   0.55324575   -8.9405235    540.97983  0.010192551 0.0087564611            8 
 4424000   0.54884147   -8.9486976    541.37897  0.010197765 0.0087533065            6 
 4425000   0.54639973   -8.9244548    541.06184  0.010189489 0.0087501534            4 
 4426000   0.54790414   -8.9173481    541.12738   0.01018842  0.008747001            6 
 4427000   0.53405514   -8.9509008    540.28306  0.010170226 0.0087438513            5 
 4428000   0.54326426   -8.9441893    541.20135  0.010185211 0.0087407048            4 
 4429000   0.55266132   -8.9396366    541.19731  0.010182835  0.008737555            7 
 4430000   0.53344274   -8.9451715    540.45417  0.010166557 0.0087344131            5 
 4431000   0.54933883   -8.9315596    541.57818  0.010185402 0.0087312685            6 
 4432000   0.54274085   -8.9483645    540.97106  0.010171688 0.0087281265            9 
 4433000   0.54484576   -8.9322437     541.1691  0.010173116 0.0087249845            6 
 4434000    0.5489441   -8.9561666    540.01262  0.010149087 0.0087218414           11 
 4435000   0.54269748   -8.9358904     541.3286  0.010171526 0.0087187076            7 
 4436000   0.54142405   -8.9374532    541.42986  0.010171135 0.0087155695            7 
 4437000   0.54104372   -8.9166614    540.97132  0.010160231 0.0087124376            7 
 4438000   0.54421153    -8.958873    540.85965  0.010155844 0.0087093043            4 
 4439000   0.52609918   -8.9316758    541.20082  0.010159961 0.0087061747            4 
 4440000   0.55094705   -8.9463098    540.28773  0.010140536 0.0087030488            6 
 4441000    0.5387268   -8.9408349    540.64609  0.010144976 0.0086999207           10 
 4442000   0.53798264    -8.942341     540.5349  0.010140607 0.0086967943            8 
 4443000   0.54050249   -8.9371664    540.18001  0.010131668 0.0086936691            8 
 4444000   0.52768227    -8.929573    540.64225  0.010138056 0.0086905445            8 
 4445000     0.527765    -8.950117    541.09014  0.010144172 0.0086874174            8 
 4446000   0.54956936   -8.9312727    541.26247  0.010145121 0.0086842939            3 
 4447000    0.5398898   -8.9328097    541.01669  0.010138233  0.008681176            9 
 4448000   0.53564643   -8.9372535    541.11691  0.010137832 0.0086780567            3 
 4449000    0.5534634    -8.949207    540.49641  0.010123931 0.0086749369            3 
 4450000   0.54211683   -8.9448159    541.36609  0.010137942 0.0086718205            3 
 4451000   0.53884007   -8.9422508    540.97136  0.010128274 0.0086687045            5 
 4452000   0.54180578   -8.9512885    539.96465  0.010107155 0.0086655876            5 
 4453000   0.53876308   -8.9517679    540.73419  0.010119286 0.0086624736            6 
 4454000   0.54394918   -8.9261883    540.88513  0.010119839 0.0086593614            7 
 4455000   0.54916134   -8.9446816    541.31575  0.010125622 0.0086562493            4 
 4456000   0.53104218   -8.9586571    540.17812  0.010102074 0.0086531376           14 
 4457000   0.53406758   -8.9452105    541.70153  0.010128291 0.0086500312            5 
 4458000   0.53927974   -8.9410846    540.99357  0.010112785 0.0086469242            6 
 4459000   0.53649395   -8.9659677    540.25521  0.010096719 0.0086438168            4 
 4460000   0.52908054   -8.9408875    541.25561  0.010113147 0.0086407128            7 
 4461000   0.52872455   -8.9422206    540.18252  0.010090834 0.0086376122            8 
 4462000   0.54521094   -8.9565953    539.80821  0.010081582 0.0086345095            8 
 4463000   0.53233392   -8.9459842    540.88932  0.010099509 0.0086314105           11 
 4464000    0.5356355   -8.9413304    541.13091  0.010101757 0.0086283112            9 
 4465000    0.5448512   -8.9514339    540.20372   0.01008219 0.0086252141           13 
 4466000   0.53179719   -8.9509608    540.24695  0.010080739 0.0086221182            8 
 4467000   0.52657224   -8.9523267     540.8201  0.010089174  0.008619026            6 
 4468000   0.54375398   -8.9472512    541.40735  0.010097869 0.0086159312            6 
 4469000   0.54074733   -8.9654698    540.60737  0.010080692 0.0086128378           11 
 4470000   0.53599439   -8.9582142    540.39854  0.010074544 0.0086097503            8 
 4471000   0.53943222   -8.9596913    540.48974  0.010073991 0.0086066636            7 
 4472000   0.53675484   -8.9516142    540.96062  0.010080512 0.0086035789            8 
 4473000   0.53249606    -8.952098    540.88344  0.010076821 0.0086004952           13 
 4474000   0.53129778   -8.9436902    541.51898  0.010086406 0.0085974129           12 
 4475000   0.52655836   -8.9575716    540.41185  0.010063535 0.0085943319            4 
 4476000   0.53671608   -8.9505865    541.75859   0.01008636 0.0085912506            4 
 4477000   0.53250516   -8.9661717    540.65151  0.010063501 0.0085881725            7 
 4478000   0.52561355   -8.9466908    539.76026  0.010044668 0.0085850957            6 
 4479000   0.54071613   -8.9533653    540.56749  0.010057444  0.008582018            8 
 4480000   0.52849547   -8.9422073    539.73998  0.010039806 0.0085789457            7 
 4481000   0.53500724   -8.9640517    540.16374  0.010045446 0.0085758706            4 
 4482000   0.54940565   -8.9296144     540.6226  0.010051736 0.0085727945            6 
 4483000    0.5331819   -8.9535955    540.69382  0.010050818 0.0085697231           10 
 4484000   0.53184057   -8.9838523     540.2377    0.0100401 0.0085666512            8 
 4485000   0.53043383   -8.9501518    540.61169   0.01004481  0.008563584            9 
 4486000   0.53470151   -8.9601219    539.54904  0.010022831 0.0085605175            5 
 4487000   0.53901308   -8.9660708    539.93092   0.01002769 0.0085574489            9 
 4488000    0.5363962   -8.9686682    540.27917  0.010031922 0.0085543828            6 
 4489000   0.54558731   -8.9402722     540.5072   0.01003392 0.0085513213           11 
 4490000   0.52944863   -8.9510133    540.93081  0.010039547 0.0085482631            9 
 4491000   0.52870157   -8.9457581    540.96336  0.010037916 0.0085452071           10 
 4492000    0.5342097   -8.9423588    539.99001  0.010017624 0.0085421456            6 
 4493000    0.5306283    -8.959835    540.99822  0.010034094 0.0085390871           10 
 4494000    0.5384329   -8.9516386    540.54127  0.010023388 0.0085360348           15 
 4495000   0.52870655   -8.9751722    540.57346  0.010021755 0.0085329799            8 
 4496000    0.5356648     -8.95337    541.47619  0.010036258 0.0085299258            8 
 4497000   0.52649151   -8.9521041    539.96059  0.010005941 0.0085268699           10 
 4498000   0.52544731   -8.9555673    540.56328  0.010014882 0.0085238169            7 
 4499000   0.52746227   -8.9563842    540.91305  0.010019135  0.008520767            9 
 4500000   0.52254753   -8.9555885     540.7046  0.010013048 0.0085177184            6 
 4501000   0.53645172   -8.9613918    539.57685 0.0099899439 0.0085146681           13 
 4502000   0.53508528   -8.9734913    540.05995 0.0099966671 0.0085116225            7 
 4503000   0.52901442   -8.9756083    539.76342 0.0099889596 0.0085085748            3 
 4504000    0.5319742   -8.9548769    540.03987 0.0099918567 0.0085055287            7 
 4505000   0.53920935   -8.9447592    540.51717 0.0099984678 0.0085024867            3 
 4506000   0.52489992   -8.9669995     539.9269 0.0099853326 0.0084994464           21 
 4507000   0.53743778   -8.9770439    540.21539 0.0099884511 0.0084964088            5 
 4508000   0.54204324   -8.9705188    540.41794 0.0099899797 0.0084933722           10 
 4509000    0.5305635   -8.9645919    540.26364 0.0099849125 0.0084903383            7 
 4510000   0.52946441   -8.9633825    540.50089 0.0099870822 0.0084873048            8 
 4511000   0.51888429   -8.9613221    540.38415 0.0099827118 0.0084842703            6 
 4512000    0.5299722   -8.9600527    540.30128 0.0099789687 0.0084812383           10 
 4513000   0.52854045   -8.9763321    539.85877 0.0099685865 0.0084782061            7 
 4514000   0.53183686   -8.9698242    539.37356 0.0099574206 0.0084751775           17 
 4515000   0.53266497   -8.9762211    540.06728 0.0099680191 0.0084721493            9 
 4516000   0.52265248   -8.9499879    541.27824 0.0099881576 0.0084691222            6 
 4517000   0.52152463    -8.977233    540.28124  0.009967553  0.008466094            5 
 4518000   0.52562711   -8.9795301    540.75474 0.0099740804   0.00846307           12 
 4519000   0.53005297   -8.9584561    541.13649  0.009978913 0.0084600484           11 
 4520000   0.53238496   -8.9613627    540.28875 0.0099610757 0.0084570267           10 
 4521000   0.52192574   -8.9729225    540.61982 0.0099649749 0.0084540072           11 
 4522000   0.53742253   -8.9557651    540.17056 0.0099544921  0.008450983           11 
 4523000   0.53933919    -8.963261    540.27777 0.0099542664 0.0084479646           10 
 4524000   0.52257739   -8.9592191    540.66873 0.0099592679 0.0084449513            7 
 4525000   0.52820137    -8.957792    540.75411 0.0099586393 0.0084419379           12 
 4526000   0.52763062   -8.9737599    539.95287 0.0099416863 0.0084389256            7 
 4527000    0.5133121     -8.96882    540.44264  0.009948506  0.008435915           12 
 4528000   0.52573315   -8.9899678    539.24709  0.009924306 0.0084329036           11 
 4529000   0.52337276   -8.9662801    540.81356 0.0099509376 0.0084298941           10 
 4530000   0.51834623    -8.957121    540.20825 0.0099376057 0.0084268875           14 
 4531000   0.52863369   -8.9606825     540.2468 0.0099361216 0.0084238804           17 
 4532000   0.52294157   -8.9653535    539.47683  0.009919771  0.008420874            4 
 4533000   0.53438085   -8.9713141      539.836 0.0099241856 0.0084178715            5 
 4534000   0.52553235   -8.9732495    539.87231 0.0099226641 0.0084148636           12 
 4535000   0.51032451   -8.9669217    540.06278 0.0099239762 0.0084118624            6 
 4536000   0.53645171    -8.968207    540.03663 0.0099213079 0.0084088608            8 
 4537000   0.51925608   -8.9758513    540.14252  0.009921066 0.0084058621           17 
 4538000   0.51991708   -8.9558427    540.81686  0.009931263 0.0084028633            9 
 4539000   0.52895885   -8.9587395    540.44229 0.0099221981  0.008399867           11 
 4540000   0.53327181   -8.9840715    540.15961 0.0099148241 0.0083968701           12 
 4541000   0.52827647   -8.9540648    540.20628  0.009913497 0.0083938762           11 
 4542000    0.5320011   -8.9672547     541.0394 0.0099265999 0.0083908836            7 
 4543000   0.52327326   -8.9673204    539.53146 0.0098967544 0.0083878954           11 
 4544000   0.52020244   -8.9792974    539.96623 0.0099025498 0.0083849058            9 
 4545000   0.52236083   -8.9713258    539.54721 0.0098926882 0.0083819176           11 
 4546000   0.53179462   -8.9716377    540.40697 0.0099062724 0.0083789327            5 
 4547000   0.52591434   -8.9877281    540.87127  0.009912603 0.0083759466           15 
 4548000   0.53225265   -8.9684471    540.76179 0.0099084175 0.0083729645           17 
 4549000    0.5359448   -8.9917352    539.96673 0.0098916746 0.0083699801            3 
 4550000   0.52190214   -8.9784541    539.54165 0.0098817152 0.0083669991            4 
 4551000   0.51982914   -8.9539539    540.87459 0.0099039514 0.0083640204            6 
 4552000   0.51007225   -8.9859702     540.7191 0.0098989289  0.008361041            7 
 4553000    0.5209255   -8.9847323    540.02954 0.0098841338 0.0083580627            7 
 4554000   0.51736781   -8.9630794     538.8106 0.0098596581 0.0083550849           13 
 4555000   0.52739293   -8.9619923    540.28812 0.0098845248 0.0083521124            9 
 4556000   0.51283937   -8.9619874      541.288 0.0099006439 0.0083491394           11 
 4557000   0.53424325   -8.9703457    540.72102  0.009888103  0.008346169           19 
 4558000    0.5239681   -8.9725516     539.9324 0.0098715153 0.0083431976            3 
 4559000   0.52927925   -8.9763221    540.05648 0.0098716181 0.0083402312            8 
 4560000   0.51901108   -8.9749508    539.70136 0.0098629635 0.0083372621           10 
 4561000     0.520608   -8.9786737    540.31883 0.0098720826 0.0083342937           10 
 4562000    0.5088103   -8.9784913     540.2075 0.0098678851 0.0083313291            6 
 4563000   0.51784968   -8.9819147    540.28538 0.0098671448 0.0083283687           10 
 4564000   0.53307006    -8.983508    539.54449 0.0098514551 0.0083254048            6 
 4565000   0.52954348    -8.968723    540.26201 0.0098623952 0.0083224427           13 
 4566000   0.51362455   -8.9737607    539.62719 0.0098486492  0.008319483            9 
 4567000   0.51297818   -8.9777057    539.92251 0.0098518815 0.0083165238            5 
 4568000   0.52223401   -8.9769054    539.59253 0.0098437048 0.0083135653            8 
 4569000    0.5116895    -8.969129    539.39257 0.0098379034 0.0083106123            8 
 4570000    0.5154142   -8.9522969    540.58178 0.0098574357 0.0083076597            5 
 4571000   0.50791348   -8.9734048    539.68535 0.0098389366 0.0083047064            5 
 4572000   0.53323223   -8.9822726    539.58192 0.0098348993 0.0083017539            5 
 4573000    0.5273137    -8.966617    540.20524 0.0098441074 0.0082988031            4 
 4574000   0.51126036   -8.9847572    540.63938 0.0098498648 0.0082958554           11 
 4575000   0.52194566   -8.9777445    539.72399  0.009831038 0.0082929066            5 
 4576000   0.52490983    -8.973606     540.1752 0.0098371066 0.0082899607            5 
 4577000   0.52008419   -8.9804343    540.65494 0.0098436921 0.0082870113           14 
 4578000    0.5180717   -8.9785317    539.70879 0.0098243191 0.0082840673            6 
 4579000   0.51936031   -8.9795437    540.07008 0.0098287486 0.0082811242           11 
 4580000   0.53432043   -8.9557061    539.93272 0.0098241034 0.0082781816            4 
 4581000   0.52143439   -8.9543855    540.64626 0.0098349389 0.0082752438            8 
 4582000   0.52020881   -8.9724693    539.57813 0.0098133663 0.0082723069            7 
 4583000   0.52288735   -8.9680345    540.25973 0.0098236185 0.0082693717            5 
 4584000   0.52438496   -8.9785783    540.10046 0.0098185802 0.0082664366            6 
 4585000   0.52372665   -8.9659174    540.45079  0.009822806 0.0082635072            5 
 4586000   0.51919869   -8.9767814    539.50573 0.0098034913 0.0082605762            8 
 4587000   0.52447231   -8.9863758    539.24033 0.0097965324 0.0082576447            8 
 4588000   0.51428645   -8.9961686    540.76076 0.0098220132 0.0082547149           11 
 4589000   0.51574247   -8.9683799    540.26917 0.0098109459 0.0082517871           17 
 4590000   0.51840011   -8.9810771    539.40943 0.0097931996 0.0082488608           12 
 4591000   0.51819414   -8.9819788    539.49036 0.0097925353 0.0082459337            9 
 4592000   0.52140974   -8.9648977    540.99219 0.0098176573 0.0082430115            4 
 4593000   0.52153823   -8.9819922    538.93569 0.0097782076 0.0082400886           11 
 4594000   0.51275205   -8.9840445    539.58105 0.0097877856 0.0082371662           10 
 4595000   0.50142169   -8.9652612    539.68465 0.0097875344 0.0082342459            9 
 4596000   0.51617077   -8.9914844    538.78284 0.0097690536 0.0082313267            7 
 4597000   0.51684959   -8.9767849    539.99706 0.0097889396 0.0082284072           14 
 4598000   0.51873879    -8.971839    538.82589 0.0097655845 0.0082254868           10 
 4599000   0.51251444   -8.9863198    540.03634 0.0097853942 0.0082225723            6 
 4600000   0.50493659   -8.9779812    539.69312 0.0097770493 0.0082196548            6 
 4601000   0.51688059   -8.9783149    540.27085 0.0097853881 0.0082167398            8 
 4602000   0.52064904   -8.9731205    540.29825 0.0097837579 0.0082138252           13 
 4603000    0.5163061    -8.985316    540.11665 0.0097783447 0.0082109149            4 
 4604000   0.51192182   -8.9789472    539.78893 0.0097702891 0.0082080027            5 
 4605000     0.519658   -8.9810855    539.87944 0.0097698053 0.0082050956            8 
 4606000   0.50342064   -8.9941588    540.48402 0.0097786225 0.0082021889            9 
 4607000   0.51397484   -8.9979843    539.31597 0.0097553716 0.0081992822           11 
 4608000   0.51907753   -8.9893748    539.84632 0.0097628458 0.0081963716            4 
 4609000   0.50310395   -8.9864694     539.7233 0.0097585034 0.0081934656            9 
 4610000   0.50902881   -9.0022581    539.11761 0.0097454377 0.0081905614            4 
 4611000   0.51494827   -8.9904282    539.32195 0.0097470172 0.0081876594            9 
 4612000   0.51455107   -8.9861267     539.3592 0.0097455768 0.0081847567            4 
 4613000    0.5167667   -8.9893367    539.83404  0.009752042 0.0081818563            8 
 4614000   0.50855191   -8.9674458    540.06253 0.0097540553 0.0081789612            7 
 4615000    0.4962846   -8.9803212    539.54022 0.0097425103 0.0081760639            3 
 4616000   0.50810977   -8.9909025    540.02858 0.0097492161 0.0081731672            5 
 4617000   0.50366644   -8.9724959    540.59022 0.0097572417 0.0081702725           12 
 4618000   0.50854773   -8.9836084    539.81083 0.0097410644 0.0081673776            7 
 4619000   0.52427082   -8.9885385    540.12785 0.0097446751 0.0081644862            3 
 4620000   0.51012709   -8.9765153    540.08857 0.0097418573 0.0081615975            5 
 4621000   0.51425452   -8.9823977     539.4773 0.0097287258 0.0081587083            7 
 4622000    0.5146646   -8.9832824    539.47494 0.0097265782 0.0081558208           13 
 4623000   0.51685726   -9.0073775    539.88524 0.0097318703 0.0081529379            6 
 4624000   0.51444433   -8.9795145    539.28183 0.0097188912 0.0081500517            4 
 4625000   0.50497347   -8.9886075       539.61 0.0097227027 0.0081471656            8 
 4626000   0.51391934   -9.0054985    539.04549 0.0097104319 0.0081442817            6 
 4627000   0.50894889   -8.9801053    540.02447 0.0097259649 0.0081413995           11 
 4628000    0.5003637   -9.0044974    539.96486 0.0097227899 0.0081385207           13 
 4629000   0.51343358    -8.995368    539.05636 0.0097043343   0.00813564            5 
 4630000   0.51842962   -8.9865429    539.90496 0.0097175118 0.0081327638            7 
 4631000   0.50805287    -8.980301    539.56958 0.0097093785 0.0081298858            8 
 4632000   0.51376885    -8.983458    539.99823 0.0097149941 0.0081270108            9 
 4633000   0.50840587   -8.9703938    539.84046 0.0097100594 0.0081241374            8 
 4634000    0.5122595   -8.9864742    539.22417 0.0096968812 0.0081212645            6 
 4635000   0.51871682   -8.9745885    539.72049 0.0097037125 0.0081183928            6 
 4636000   0.51233858   -8.9795013    539.52757 0.0096981516 0.0081155252           10 
 4637000   0.51560632   -9.0061517    538.86417 0.0096841378 0.0081126589            3 
 4638000   0.50367207   -8.9710565    538.62647  0.009677779 0.0081097918            3 
 4639000   0.50883719   -9.0006588    539.74729 0.0096958269 0.0081069264            5 
 4640000   0.50131796   -9.0026947    539.53937 0.0096900031 0.0081040606            4 
 4641000   0.50068056   -9.0017098    539.35227 0.0096845555 0.0081011974            8 
 4642000   0.51294924    -8.987346    539.22003 0.0096800953 0.0080983361            7 
 4643000   0.50354866   -9.0021899    538.78357 0.0096701768 0.0080954749           10 
 4644000   0.50855867   -8.9992925    539.85647  0.009687347 0.0080926153           12 
 4645000   0.52202805   -8.9854678    539.00301   0.00966995 0.0080897572            3 
 4646000   0.51818879   -8.9869525    538.96521 0.0096671905 0.0080869019           13 
 4647000    0.5116899   -8.9969765    540.26003   0.00968833 0.0080840446           11 
 4648000   0.50944307    -8.996742    540.25109 0.0096860852 0.0080811889            4 
 4649000   0.51355803   -8.9993012    539.01489 0.0096618429 0.0080783365            6 
 4650000   0.50587006   -8.9933949    539.77831 0.0096734465 0.0080754846            9 
 4651000   0.50286212     -8.99686     539.0833 0.0096589138 0.0080726347            3 
 4652000   0.51469946   -8.9812682    539.33816 0.0096614031 0.0080697869            3 
 4653000   0.49940206   -8.9995597    539.72076 0.0096661788 0.0080669422            5 
 4654000   0.50132973   -9.0084235    539.16633 0.0096541743 0.0080640953            8 
 4655000   0.50595117   -8.9694693    538.76138  0.009644851 0.0080612505           10 
 4656000   0.50960111   -8.9947121    539.83005 0.0096619067 0.0080584051            6 
 4657000   0.52196395   -9.0063575    539.25791 0.0096495939 0.0080555616            7 
 4658000   0.49219387   -8.9876362    539.08008 0.0096443409 0.0080527203            9 
 4659000   0.51413461   -9.0020387    539.83818 0.0096558307 0.0080498797            4 
 4660000   0.49458327   -9.0034201    539.34707 0.0096449763 0.0080470388            7 
 4661000   0.49701928   -8.9959596    539.17864 0.0096398957 0.0080442005            6 
 4662000   0.50438227   -8.9913133    539.39402 0.0096416778 0.0080413658            6 
 4663000   0.50659633   -8.9990598    538.90461 0.0096308637 0.0080385306            6 
 4664000   0.50784992   -8.9986231    538.82592 0.0096273929 0.0080356959           14 
 4665000   0.51142235   -8.9910246    539.86198 0.0096438368 0.0080328641            5 
 4666000   0.50000238   -8.9963794    540.07157 0.0096455131 0.0080300348            6 
 4667000   0.49090732   -8.9885062    538.73661 0.0096196096 0.0080272046            5 
 4668000   0.49124479   -9.0057564    538.77268 0.0096181927 0.0080243748            8 
 4669000   0.49616823   -9.0071524    539.30644 0.0096256594 0.0080215443           10 
 4670000   0.50100582   -8.9897409    538.97807 0.0096177385 0.0080187165            3 
 4671000   0.49309882     -9.01708    538.90174 0.0096143178 0.0080158892            6 
 4672000   0.49012424   -9.0075778    538.81791 0.0096107647 0.0080130617            6 
 4673000   0.51129456   -9.0055126    538.96248 0.0096112862 0.0080102378            3 
 4674000   0.50119161   -8.9812893    538.51922 0.0096013268 0.0080074118            9 
 4675000   0.50201215   -9.0004632    539.39038 0.0096148018 0.0080045918            6 
 4676000   0.50283538   -8.9909843    538.77526 0.0096017833 0.0080017711           10 
 4677000   0.52410642   -8.9878446    538.66862 0.0095978301 0.0079989528            7 
 4678000   0.50835445   -9.0088876    539.28907 0.0096068311 0.0079961366            7 
 4679000    0.5076917   -9.0178316    539.60241 0.0096103585 0.0079933211            8 
 4680000   0.49353645   -9.0025146     538.5586 0.0095897186 0.0079905055            8 
 4681000   0.48907843   -8.9850828    539.73978 0.0096086979 0.0079876936            5 
 4682000   0.50525562   -8.9932627    538.84593 0.0095907364 0.0079848811            4 
 4683000    0.4911357   -9.0132744    539.58314  0.009601807 0.0079820733            6 
 4684000   0.50294776   -9.0108136    538.65607 0.0095832634  0.007979263            4 
 4685000   0.50528482   -9.0003876    539.04867 0.0095882012  0.007976455            5 
 4686000   0.50895313   -8.9971804    539.64213 0.0095967088 0.0079736464            8 
 4687000   0.51740029   -9.0118768     539.4799 0.0095917769 0.0079708412            5 
 4688000   0.49903683   -9.0054159    539.08517 0.0095827142 0.0079680378            8 
 4689000   0.50178822   -9.0132634    538.50649 0.0095703862 0.0079652341           11 
 4690000   0.50866082   -8.9966836    539.91935 0.0095934497 0.0079624341           14 
 4691000   0.49251144   -9.0000836    538.51541 0.0095664644 0.0079596319           11 
 4692000    0.4976962    -9.002885    538.67557   0.00956727 0.0079568318            7 
 4693000   0.50399992   -9.0176069    540.09701 0.0095904718 0.0079540314            6 
 4694000   0.49908488    -9.004948    538.31665 0.0095568216 0.0079512328           11 
 4695000   0.50559486   -9.0038786    539.39521 0.0095739299 0.0079484373            4 
 4696000   0.49852374   -8.9975169    538.48637 0.0095557633 0.0079456475            5 
 4697000   0.50326217   -9.0049866    539.24696  0.009567223 0.0079428554            7 
 4698000   0.50801928   -9.0100678    538.54358 0.0095527101 0.0079400643            8 
 4699000   0.50992644   -9.0062924    538.90739  0.009557129 0.0079372735            4 
 4700000   0.50422311   -9.0183428    538.86451 0.0095543353 0.0079344883           10 
 4701000   0.49132257   -8.9986091    539.43788 0.0095624668 0.0079317004           10 
 4702000   0.49750768   -9.0199014    539.44878 0.0095606264 0.0079289156            4 
 4703000   0.50444455   -9.0087815    538.94191 0.0095496121 0.0079261316            4 
 4704000   0.49602966   -9.0070719    538.52409 0.0095401802 0.0079233485            5 
 4705000   0.51183735   -9.0124269    540.21077 0.0095680263 0.0079205691            5 
 4706000   0.49134739   -9.0180612     538.3448 0.0095329508 0.0079177905            3 
 4707000    0.4965547    -9.007795    539.91056 0.0095586461 0.0079150118            5 
 4708000   0.50621545   -9.0201965    537.86521 0.0095204122 0.0079122344            7 
 4709000   0.49154761   -9.0202509    539.44208 0.0095462957 0.0079094604            6 
 4710000   0.49515247   -9.0059845    539.16178 0.0095393097  0.007906685            8 
 4711000   0.50700894   -9.0123376    537.65933 0.0095107078 0.0079039132            6 
 4712000   0.50132615   -9.0215623     539.0451 0.0095331972 0.0079011395           10 
 4713000   0.49247849   -9.0183068    539.68624 0.0095425108 0.0078983694            3 
 4714000   0.49924201   -9.0125671    538.91007 0.0095267656 0.0078955995            6 
 4715000   0.48666768   -9.0111031    538.88004 0.0095242142 0.0078928293            4 
 4716000   0.49169075   -9.0205933    538.89388 0.0095224393 0.0078900643            8 
 4717000   0.50159505   -9.0161532    538.54768 0.0095143043 0.0078872993            4 
 4718000   0.48718989   -9.0073486    538.32285 0.0095083165 0.0078845321            8 
 4719000   0.49805113   -9.0163375    539.04731  0.009519095 0.0078817687            2 
 4720000   0.50902571   -9.0015153    538.56737 0.0095086048 0.0078790086            5 
 4721000   0.50001474   -9.0129449    538.91436 0.0095127156 0.0078762464           10 
 4722000   0.49598158   -9.0064895    538.27171 0.0094993595 0.0078734886           10 
 4723000    0.4919379   -9.0248431    538.32122 0.0094982219 0.0078707289            9 
 4724000   0.50116068   -9.0096498    538.49836 0.0094993359  0.007867968            5 
 4725000   0.49824329   -9.0313646    539.43385 0.0095138246 0.0078652102           13 
 4726000   0.49691759   -8.9985579    538.14129 0.0094890198 0.0078624556            7 
 4727000    0.4962542   -9.0304217    538.85046 0.0094995145 0.0078597024            5 
 4728000   0.48540181   -9.0119988    538.86715 0.0094977995   0.00785695            7 
 4729000   0.48954261   -9.0183755    538.97448 0.0094976825 0.0078541985            5 
 4730000   0.49775888   -9.0066975    538.69961 0.0094908318  0.007851446            5 
 4731000   0.49414562   -9.0293269    538.27567 0.0094813582 0.0078486965            3 
 4732000   0.49702246   -9.0108177    538.65252 0.0094859911 0.0078459468            6 
 4733000   0.49524294   -9.0184784    539.42848 0.0094976491 0.0078431992            5 
 4734000   0.50704892   -9.0146837    539.13615  0.009490497 0.0078404525            4 
 4735000   0.49460407   -9.0178585    538.79129 0.0094824233 0.0078377065            9 
 4736000    0.5041061   -9.0191399    539.01242  0.009484312 0.0078349598            4 
 4737000   0.49855545   -9.0201712    538.94365    0.0094811 0.0078322167            9 
 4738000   0.48158517   -9.0300409    538.88404 0.0094780506 0.0078294749           16 
 4739000   0.49155913   -9.0053259    538.46672 0.0094687121 0.0078267358            2 
 4740000   0.50100487   -9.0222464    538.35747 0.0094647937 0.0078239952            6 
 4741000   0.49649463   -9.0100875    538.96181 0.0094734201 0.0078212575            3 
 4742000   0.50568889   -9.0094921    539.56294 0.0094819862 0.0078185228            5 
 4743000   0.48972504   -9.0243988    538.85653 0.0094675755 0.0078157877            5 
 4744000   0.49301712   -9.0112783    539.31894 0.0094737026 0.0078130548            6 
 4745000   0.50040504    -9.030392    537.81837 0.0094453526 0.0078103234            3 
 4746000   0.49198432   -9.0223495    539.34534 0.0094701738 0.0078075907            8 
 4747000   0.49668116   -9.0164168    539.65377 0.0094735933 0.0078048591            7 
 4748000   0.50170779   -9.0174156    538.66947 0.0094543223 0.0078021297            6 
 4749000   0.48358621   -9.0184421    537.24445  0.009427326 0.0077994008            7 
 4750000   0.48854339   -9.0219349    539.04747 0.0094569732 0.0077966732           10 
 4751000   0.48214648   -9.0293229    538.20992 0.0094402918 0.0077939471            5 
 4752000   0.48920268    -9.027927    538.03036 0.0094351564 0.0077912227            7 
 4753000    0.4919904   -9.0182017    538.62274 0.0094435574 0.0077884961            5 
 4754000   0.49382796   -9.0296603    538.81098 0.0094448706 0.0077857718            5 
 4755000   0.48885108   -9.0377856    538.41967 0.0094360265 0.0077830498            6 
 4756000   0.49803106   -9.0278051     538.5331 0.0094360299  0.007780328            7 
 4757000   0.48725029   -9.0400663    538.35483 0.0094309234 0.0077776091            4 
 4758000   0.49314874   -9.0331717    538.74628 0.0094357973 0.0077748912            7 
 4759000   0.48147349   -9.0298605    538.01944 0.0094210871 0.0077721731            6 
 4760000   0.48556939   -9.0274061    538.23937 0.0094229581 0.0077694562            4 
 4761000   0.48769757   -9.0284899    538.83246 0.0094313601 0.0077667396            9 
 4762000   0.48560618   -9.0193833    538.76341 0.0094281712 0.0077640262            2 
 4763000   0.48930278   -9.0208851    537.75015 0.0094084636 0.0077613121            4 
 4764000    0.4885058   -9.0216121    538.78305 0.0094245565  0.007758605            7 
 4765000   0.48709907   -9.0199533    538.23573 0.0094130068 0.0077558953            6 
 4766000   0.47983983    -9.040517    538.48126 0.0094153248 0.0077531883            7 
 4767000   0.48646752   -9.0172945    539.08305 0.0094238699 0.0077504813            6 
 4768000   0.49841441   -9.0212882    539.27636 0.0094252719  0.007747775            6 
 4769000   0.50721393    -9.024995    538.34522 0.0094070249 0.0077450719            4 
 4770000   0.47597265    -9.030849    537.86652 0.0093966897 0.0077423703            5 
 4771000   0.48543213   -9.0174711    538.62835 0.0094080268 0.0077396702            6 
 4772000   0.48893765   -9.0264248    538.51954 0.0094041551 0.0077369711            4 
 4773000   0.48194655    -9.030133    537.90724 0.0093914946  0.007734273            8 
 4774000   0.49081034   -9.0190195    539.31229 0.0094140534 0.0077315747            7 
 4775000   0.48988137   -9.0330452    538.59443 0.0093995537 0.0077288792            8 
 4776000    0.4909285   -9.0340799    538.81338  0.009401406 0.0077261837            5 
 4777000   0.48920369   -9.0086901    537.59301 0.0093781489 0.0077234878            6 
 4778000   0.49130382   -9.0283147    538.37517 0.0093898279 0.0077207952            6 
 4779000   0.49618889   -9.0249118    537.45413 0.0093718024 0.0077181038            6 
 4780000   0.49260277   -9.0297119    538.95433  0.009395996 0.0077154139            6 
 4781000   0.47983418    -9.042432    538.31817 0.0093829423 0.0077127235            5 
 4782000   0.48896913   -9.0253392    538.68088 0.0093873009 0.0077100348            4 
 4783000   0.48831702   -9.0390981    537.60829 0.0093666509 0.0077073458            6 
 4784000   0.48169312   -9.0395163    537.98202  0.009371203  0.007704658            7 
 4785000   0.48466501   -9.0340691    538.76088 0.0093828089 0.0077019729            9 
 4786000   0.48037438   -9.0435039    538.47442 0.0093758605 0.0076992892            6 
 4787000   0.48227607   -9.0301272    538.45561 0.0093735745 0.0076966055            8 
 4788000   0.47948978   -9.0165895    538.54214 0.0093731227 0.0076939244            7 
 4789000   0.46129733   -9.0246328    538.18267 0.0093649104 0.0076912433            4 
 4790000    0.4885786   -9.0173402    538.52018  0.009368827 0.0076885626            5 
 4791000   0.49138791   -9.0325584    538.31615 0.0093633227 0.0076858837            6 
 4792000   0.49263302   -9.0296455    537.44507 0.0093462206 0.0076832054            6 
 4793000    0.4779155   -9.0222599    537.96361 0.0093532861 0.0076805281            4 
 4794000   0.48982098   -9.0359222    539.13074 0.0093716232 0.0076778531            8 
 4795000   0.48627029   -9.0264547    537.85584  0.009347512   0.00767518            6 
 4796000   0.48476627   -9.0305249    538.29733 0.0093532341 0.0076725089           11 
 4797000   0.48232827   -9.0260493    538.79896 0.0093599986 0.0076698391            6 
 4798000   0.47979063   -9.0342994     538.9719 0.0093610514 0.0076671684           12 
 4799000   0.47344207   -9.0327148     538.6685 0.0093538323 0.0076645016            7 
 4800000    0.4895515   -9.0348752    538.04917 0.0093411314  0.007661834            6 
 4801000   0.48721397   -9.0260112    538.30108 0.0093435583 0.0076591671            5 
 4802000    0.4890132   -9.0257919    537.94558 0.0093354432 0.0076565026            7 
 4803000   0.49372398   -9.0318987     538.4506 0.0093422618 0.0076538383            5 
 4804000   0.47580337   -9.0415806    538.57088 0.0093424035 0.0076511742            4 
 4805000   0.47475929   -9.0215556    538.15179 0.0093331909 0.0076485133            8 
 4806000   0.47588666    -9.032744    537.70576  0.009323515 0.0076458548            6 
 4807000   0.46719461   -9.0464161    538.23353 0.0093307247  0.007643196            6 
 4808000   0.47475619    -9.007049    538.16851 0.0093276573 0.0076405389            8 
 4809000   0.48366056   -9.0225547    538.55584 0.0093324295  0.007637883            4 
 4810000   0.49370098   -9.0512862    539.03947 0.0093388682 0.0076352293            6 
 4811000   0.48420261   -9.0447998    537.71053 0.0093139079 0.0076325728            9 
 4812000   0.47919601   -9.0442302    538.37708 0.0093235155 0.0076299193            5 
 4813000   0.49047483   -9.0524318    538.08399 0.0093165038 0.0076272668            6 
 4814000   0.48638848   -9.0447448    537.73863 0.0093085901 0.0076246134            6 
 4815000   0.47716675   -9.0340957    538.49796 0.0093197985  0.007621962            4 
 4816000   0.49301556   -9.0324459    538.22847 0.0093132002 0.0076193142            7 
 4817000   0.48248216   -9.0617362    538.13127 0.0093095853 0.0076166654            5 
 4818000   0.46824138   -9.0353005    538.98426 0.0093224066 0.0076140177            5 
 4819000   0.47143384   -9.0386165    539.04943  0.009321599 0.0076113711            3 
 4820000   0.48296752   -9.0532962    537.27645  0.009289012 0.0076087247            5 
 4821000   0.47532704   -9.0332475    538.50528  0.009308326  0.007606081            4 
 4822000   0.49041234   -9.0371195    538.05105 0.0092985457 0.0076034363            5 
 4823000   0.49007471   -9.0426871    537.25041  0.009282784 0.0076007939            4 
 4824000   0.48747285   -9.0352259    538.34304 0.0092997347 0.0075981534            4 
 4825000   0.46837683   -9.0425149    538.01636 0.0092921651 0.0075955141            3 
 4826000   0.48740193    -9.030932    538.44251 0.0092975982  0.007592876            6 
 4827000   0.47536243   -9.0509346    537.92849 0.0092867981 0.0075902384            6 
 4828000   0.48314714   -9.0400133    538.00986  0.009286279 0.0075876024            6 
 4829000   0.48128054   -9.0494275    538.37672 0.0092906868 0.0075849696            8 
 4830000   0.48303103   -9.0561233    537.23882 0.0092691308 0.0075823372           11 
 4831000   0.49103112   -9.0331416    538.03416 0.0092809315  0.007579706            6 
 4832000   0.48079047      -9.0607    537.57228 0.0092710451  0.007577077            9 
 4833000    0.4749647   -9.0252724    538.65406 0.0092877795 0.0075744468            6 
 4834000   0.48439075   -9.0603715    537.47133 0.0092654691 0.0075718203            4 
 4835000   0.46928925   -9.0398352    538.28217 0.0092775279 0.0075691946            5 
 4836000    0.4687626   -9.0438339    537.29073 0.0092585251  0.007566568            8 
 4837000    0.4720335   -9.0537858    538.46825 0.0092768976 0.0075639471            7 
 4838000   0.47754592   -9.0407678    538.31778 0.0092723884 0.0075613256            7 
 4839000   0.48391312   -9.0407444    538.29336 0.0092700517 0.0075587048            7 
 4840000   0.48203961   -9.0462257    538.34628 0.0092690475 0.0075560842            4 
 4841000   0.48464396   -9.0446597    538.30693 0.0092664554 0.0075534659            8 
 4842000   0.48234673   -9.0563704    537.62093 0.0092527353 0.0075508471            5 
 4843000   0.49952368   -9.0436637    537.37448  0.009246584 0.0075482297            4 
 4844000    0.4794358   -9.0651054    537.35991 0.0092444245 0.0075456152            6 
 4845000    0.4757872   -9.0400166    537.55218 0.0092458235 0.0075429992            6 
 4846000   0.47446385   -9.0442805    537.92025  0.009250245 0.0075403847            7 
 4847000   0.47995866   -9.0492754     537.1106 0.0092344165 0.0075377724            5 
 4848000   0.47553031   -9.0276772    537.84867 0.0092451985 0.0075351607            6 
 4849000   0.47517091   -9.0508669    537.49137 0.0092371514 0.0075325529            5 
 4850000   0.47422294   -9.0399378    537.51936 0.0092357279  0.007529944            8 
 4851000   0.47891531   -9.0403803    537.58126 0.0092348873 0.0075273377            4 
 4852000   0.47712783   -9.0440047    538.18474 0.0092433487 0.0075247339            6 
 4853000   0.46217513   -9.0476574     537.5657 0.0092308143 0.0075221285            3 
 4854000   0.47329559    -9.052483    538.30136 0.0092415424 0.0075195249            6 
 4855000   0.47256895   -9.0471568    537.88905 0.0092325618 0.0075169219            4 
 4856000   0.47431536   -9.0491083     538.1759 0.0092355831 0.0075143196            6 
 4857000   0.47841075   -9.0469257    537.17699  0.009216543 0.0075117199            4 
 4858000    0.4758921   -9.0536301     538.0808 0.0092301496 0.0075091198            3 
 4859000   0.46453942   -9.0486937     537.8451 0.0092242077 0.0075065218            7 
 4860000   0.47728364   -9.0302277    538.92128 0.0092407627 0.0075039255            7 
 4861000   0.45669438   -9.0442489    538.34686 0.0092290142 0.0075013312            5 
 4862000   0.47929863   -9.0369325    537.49527 0.0092125201 0.0074987376            4 
 4863000   0.48291469   -9.0622217    538.11041 0.0092211667 0.0074961461            6 
 4864000   0.47088783   -9.0570541    537.31296 0.0092056085 0.0074935544            4 
 4865000   0.46311711    -9.052041    537.66207 0.0092096963 0.0074909627            7 
 4866000   0.47678048   -9.0500657    537.68884  0.009208262 0.0074883721            7 
 4867000    0.4787106   -9.0549093     537.3508 0.0092005821 0.0074857832            4 
 4868000   0.47002237   -9.0419989     538.1253 0.0092119504 0.0074831966            9 
 4869000   0.46961193     -9.04261    538.06482 0.0092090235 0.0074806095            8 
 4870000   0.46487873   -9.0592761    538.11917 0.0092080625 0.0074780245            4 
 4871000   0.48235438   -9.0604192    538.22238 0.0092079378 0.0074754389            7 
 4872000    0.4777544   -9.0625848    538.19413 0.0092055647 0.0074728571            5 
 4873000   0.46765664   -9.0471926    537.76589 0.0091963522 0.0074702715            4 
 4874000   0.47481904   -9.0547392    538.31251 0.0092038112 0.0074676928            6 
 4875000   0.47496813   -9.0650591    537.58955  0.009189565 0.0074651127            7 
 4876000   0.47018089   -9.0563461    537.75724 0.0091905463 0.0074625345            3 
 4877000    0.4848931   -9.0552963    538.00344 0.0091928686 0.0074599582            8 
 4878000   0.47627193    -9.071995    537.59835 0.0091840637 0.0074573827            5 
 4879000   0.47129042   -9.0358402    538.35506 0.0091951059 0.0074548099            4 
 4880000   0.46672773   -9.0721918    537.58415 0.0091800572 0.0074522381            9 
 4881000   0.47133849   -9.0558234    537.90221 0.0091836067 0.0074496657            6 
 4882000   0.46576467   -9.0599559    538.41639 0.0091905024 0.0074470938            4 
 4883000    0.4667923   -9.0647548    537.72994 0.0091769052 0.0074445238            5 
 4884000   0.46831949   -9.0437218    537.88424  0.009177659 0.0074419539            4 
 4885000   0.47752947   -9.0622259    538.04421 0.0091785091  0.007439387            9 
 4886000   0.46948759   -9.0696602    537.00583 0.0091589205 0.0074368196            2 
 4887000   0.45986708   -9.0642577    537.89516 0.0091722112  0.007434252            5 
 4888000   0.46532046    -9.051482     537.6756 0.0091665917 0.0074316877            4 
 4889000   0.46713771   -9.0565586    537.12117 0.0091552664 0.0074291225            6 
 4890000   0.46515094   -9.0474939    537.90534 0.0091667577 0.0074265607            6 
 4891000    0.4741566   -9.0635708     538.5196 0.0091753493 0.0074239979            5 
 4892000   0.47196375   -9.0442044     537.5433 0.0091568429 0.0074214388            3 
 4893000   0.45334876   -9.0466606    539.01924 0.0091801083 0.0074188804            7 
 4894000   0.45845896   -9.0372454    537.78592  0.009157232 0.0074163234            4 
 4895000   0.46783344    -9.060516     537.7401 0.0091545811 0.0074137668            5 
 4896000    0.4767512   -9.0597508    537.83053 0.0091542506 0.0074112106            9 
 4897000   0.47676514    -9.036898    537.28803 0.0091431494 0.0074086572            5 
 4898000   0.46541002   -9.0652826    537.98024 0.0091530598 0.0074061074            5 
 4899000   0.46648442   -9.0559098    537.07724 0.0091358312 0.0074035567            7 
 4900000   0.47260199   -9.0628004    538.39146 0.0091563173 0.0074010068            8 
 4901000   0.45542382   -9.0582989    537.45534 0.0091385319 0.0073984572            6 
 4902000   0.46279629   -9.0666813    537.95428 0.0091451496 0.0073959081            8 
 4903000   0.47491169   -9.0549041    538.38303 0.0091505716 0.0073933615           11 
 4904000   0.45999574   -9.0477958    537.56953 0.0091348819 0.0073908146            7 
 4905000   0.46843429   -9.0463875    538.47113 0.0091483373 0.0073882683            5 
 4906000   0.46304427   -9.0632208    536.84516 0.0091188538 0.0073857263            7 
 4907000   0.47206916   -9.0705635    537.48952 0.0091279384  0.007383184            6 
 4908000   0.47776625   -9.0575183    536.53127 0.0091098083 0.0073806424            4 
 4909000   0.46324636    -9.069684     537.9428 0.0091319142 0.0073781032            6 
 4910000   0.46301388   -9.0544385    537.63735 0.0091248702 0.0073755643            3 
 4911000   0.47276694   -9.0783312    538.04255 0.0091298879 0.0073730254            3 
 4912000   0.46592212   -9.0575161    537.20252 0.0091137778 0.0073704854            6 
 4913000   0.46561314   -9.0742528    537.31635 0.0091138536 0.0073679483            5 
 4914000   0.47114718   -9.0518624    537.43639 0.0091140345 0.0073654118            8 
 4915000   0.46285603   -9.0550016    537.50086 0.0091132733  0.007362877            5 
 4916000   0.46295697    -9.059176    537.49812  0.009111373 0.0073603462            6 
 4917000   0.46728231   -9.0750755    537.79635 0.0091145745 0.0073578141            4 
 4918000    0.4784798   -9.0794156    537.73513 0.0091116837 0.0073552829            5 
 4919000    0.4623643   -9.0706579    537.27657 0.0091020629 0.0073527537            8 
 4920000    0.4752281   -9.0585335    537.87898 0.0091104163 0.0073502262            8 
 4921000   0.45940933   -9.0581802    536.80353 0.0090903531 0.0073476965            6 
 4922000   0.46788989   -9.0625447    537.51694 0.0091005848 0.0073451701            6 
 4923000   0.45643065   -9.0701701    537.81571 0.0091037936 0.0073426447            5 
 4924000   0.45776321   -9.0620738    537.62214 0.0090986688 0.0073401192            5 
 4925000   0.46429494   -9.0730811    537.67772 0.0090977618 0.0073375953            5 
 4926000   0.45705659   -9.0638495     536.9783 0.0090840827 0.0073350717            3 
 4927000   0.46449793   -9.0757585    537.28015 0.0090873445 0.0073325487            6 
 4928000   0.46955706   -9.0538484    537.90772 0.0090961127 0.0073300269            4 
 4929000   0.46390786   -9.0677878    537.47766 0.0090869964 0.0073275071            5 
 4930000    0.4612018   -9.0695184    537.94015 0.0090929708 0.0073249869            8 
 4931000    0.4498756   -9.0589251    537.63301 0.0090859361  0.007322469            3 
 4932000   0.46645881   -9.0606072    537.40387 0.0090802222 0.0073199524            9 
 4933000   0.46255101    -9.051894    536.17236 0.0090575775 0.0073174361            7 
 4934000   0.46361784   -9.0696886    537.45687 0.0090774367 0.0073149227            4 
 4935000   0.47027686   -9.0568299    537.94715 0.0090838762 0.0073124095            8 
 4936000   0.45943185   -9.0717683    535.86874 0.0090469466 0.0073098976            7 
 4937000   0.45657667   -9.0632051    536.92509 0.0090629446 0.0073073854            8 
 4938000   0.45911758   -9.0860848    536.70112 0.0090573296 0.0073048749           10 
 4939000    0.4663465   -9.0567249    537.14546 0.0090629929 0.0073023672            7 
 4940000   0.47133954   -9.0630023    537.86261 0.0090732559  0.007299862            4 
 4941000   0.45227955   -9.0710013    537.29286 0.0090618104 0.0072973553            2 
 4942000    0.4603893   -9.0675342    537.74718 0.0090676376 0.0072948505            4 
 4943000   0.45999184   -9.0757855    536.84302   0.00905056 0.0072923468            5 
 4944000   0.46430928   -9.0643418    537.10969 0.0090532243 0.0072898452            3 
 4945000   0.46847511   -9.0943369    537.91259  0.009064924 0.0072873437           11 
 4946000   0.46400903   -9.0792856    537.22097 0.0090514384  0.007284847            7 
 4947000   0.47154103   -9.0719514    537.32985 0.0090514429  0.007282347            4 
 4948000   0.46186002   -9.0734658    536.67212 0.0090385361 0.0072798469            6 
 4949000   0.45941374   -9.0698652    536.94841  0.009041362 0.0072773496            8 
 4950000   0.46565598    -9.070607    537.48741 0.0090486097 0.0072748545            8 
 4951000   0.45351413   -9.0688104    537.55192 0.0090478678 0.0072723583            4 
 4952000   0.45199939   -9.0661231    537.67164 0.0090480554 0.0072698638            5 
 4953000   0.46982184    -9.054878     537.2333 0.0090388535 0.0072673714            6 
 4954000   0.45770241   -9.0706874    536.81244 0.0090299496 0.0072648806            6 
 4955000   0.46707443   -9.0761445    537.22021  0.009034985 0.0072623907           10 
 4956000   0.45928788   -9.0744971    537.04605 0.0090302336 0.0072599023            5 
 4957000    0.4533436   -9.0848527    537.17733 0.0090306189 0.0072574151            6 
 4958000   0.45975938   -9.0702412    536.77874 0.0090220979 0.0072549268            7 
 4959000   0.47300135   -9.0928239    536.63718 0.0090178997 0.0072524396            4 
 4960000   0.45696649   -9.0771258    536.67812 0.0090167695 0.0072499539            8 
 4961000   0.46502446   -9.0732293    537.35109 0.0090262563 0.0072474709            8 
 4962000   0.46110266   -9.0627557    537.78139 0.0090316637 0.0072449858            7 
 4963000   0.45479602   -9.0782917    537.38082 0.0090231181 0.0072425035            6 
 4964000   0.46005798   -9.0781982    537.26905  0.009019424 0.0072400259            5 
 4965000   0.45943913   -9.0723183     537.1512 0.0090156294 0.0072375452           11 
 4966000   0.45548176    -9.085463    538.11483 0.0090299843 0.0072350672            6 
 4967000   0.46164469   -9.0762529    537.24101  0.009013506 0.0072325904           11 
 4968000   0.45579122   -9.0707797    537.94828 0.0090235555 0.0072301148            7 
 4969000    0.4572998   -9.0696867    536.54424 0.0089981927 0.0072276409            5 
 4970000   0.45415467   -9.0799086    536.82602 0.0090011069 0.0072251671            4 
 4971000   0.46020363   -9.0829512    537.37451 0.0090084911 0.0072226932            4 
 4972000   0.46952972   -9.0784697    536.70801 0.0089955083 0.0072202218            5 
 4973000   0.44973558   -9.0778816    537.17749 0.0090015667 0.0072177511            4 
 4974000   0.44545266   -9.0797715    536.55021 0.0089892475 0.0072152811            9 
 4975000   0.45418166   -9.0795693    537.15396 0.0089975538 0.0072128126            5 
 4976000   0.45291041    -9.093666    537.23297 0.0089970687 0.0072103456            6 
 4977000   0.46274587   -9.0712926    537.15063 0.0089938823 0.0072078805            6 
 4978000   0.45520672   -9.0699818    537.87239 0.0090041581 0.0072054142            5 
 4979000   0.45598546   -9.0691371    537.49132 0.0089959718 0.0072029493            3 
 4980000   0.44743993   -9.0756721    536.87333 0.0089838241 0.0072004864            6 
 4981000   0.45972073   -9.0808713    537.48836 0.0089923101 0.0071980245            6 
 4982000   0.45252162   -9.0588332    537.18743 0.0089854715 0.0071955626            4 
 4983000   0.45413528   -9.0720208    537.16152  0.008983235 0.0071931036            3 
 4984000   0.45510032   -9.0799625    536.82533 0.0089758115 0.0071906435            6 
 4985000   0.44665588   -9.0870385    537.46703  0.008984738 0.0071881849            7 
 4986000   0.45230661   -9.0738546    537.16359 0.0089778645   0.00718573            6 
 4987000   0.46540067   -9.0737522    537.54792 0.0089824865 0.0071832757            5 
 4988000   0.44508296   -9.0867795     537.3372 0.0089771652 0.0071808209            7 
 4989000   0.47301599   -9.0978859    537.26586 0.0089741741 0.0071783678            4 
 4990000   0.45262598   -9.0915967    536.30537 0.0089563355 0.0071759158            5 
 4991000   0.46475237   -9.0864353    536.39962 0.0089561147  0.007173463            5 
 4992000   0.45363292   -9.0741975    537.32026 0.0089696891 0.0071710095            5 
 4993000   0.45756663   -9.0801384    537.31682 0.0089678352 0.0071685605            6 
 4994000   0.44747417   -9.0922039    536.84685 0.0089581973 0.0071661134            6 
 4995000   0.43905419   -9.0744588    536.97968   0.00895862 0.0071636661            7 
 4996000   0.45587949    -9.086987    536.78746 0.0089536206 0.0071612199            5 
 4997000   0.45509027   -9.0862392     535.8166 0.0089356381 0.0071587758            6 
 4998000   0.45942532   -9.0715762    536.96243 0.0089529551 0.0071563326            8 
 4999000    0.4484804   -9.0879211     536.6876 0.0089465826 0.0071538903           10 
 5000000   0.45115102   -9.0889648    536.60536 0.0089434226 0.0071514477            7 
 5001000   0.44560582   -9.0900919    537.07324 0.0089494308 0.0071490058            5 
 5002000   0.44439945   -9.0908543    537.62782  0.008956881 0.0071465665           10 
 5003000   0.45292912   -9.0838008    537.34572 0.0089503918 0.0071441279            7 
 5004000   0.46805972   -9.1036715    537.42205 0.0089498742 0.0071416906            7 
 5005000   0.45087005   -9.0833982    536.56739 0.0089338561 0.0071392522            4 
 5006000   0.45012651   -9.0900992    537.21507  0.008942853 0.0071368166            5 
 5007000   0.45152035    -9.080614    536.41229  0.008927706 0.0071343821           10 
 5008000    0.4539104   -9.0956869    537.10083 0.0089373807 0.0071319488            4 
 5009000    0.4433813   -9.0883521     535.9959  0.008917214 0.0071295149            6 
 5010000   0.44750473   -9.0801417    537.26884 0.0089366074 0.0071270842            6 
 5011000   0.44697827   -9.0888351    536.23544 0.0089176385 0.0071246536           11 
 5012000   0.44978076   -9.1035441    536.24959 0.0089160946 0.0071222228            7 
Loop time of 12448.9 on 48 procs for 5000000 steps with 4000 atoms

Performance: 69403.590 tau/day, 401.641 timesteps/s
99.4% CPU use with 48 MPI tasks x no OpenMP threads

MPI task timing breakdown:
Section |  min time  |  avg time  |  max time  |%varavg| %total
---------------------------------------------------------------
Pair    | 854.94     | 917.71     | 985.13     | 107.3 |  7.37
Neigh   | 82.747     | 86.165     | 89.931     |  18.6 |  0.69
Comm    | 790.09     | 858.92     | 927.38     | 110.1 |  6.90
Output  | 13.518     | 13.523     | 13.603     |   0.3 |  0.11
Modify  | 10434      | 10460      | 10481      |  12.1 | 84.03
Other   |            | 112.3      |            |       |  0.90

Nlocal:        83.3333 ave          90 max          76 min
Histogram: 1 0 5 5 9 15 2 8 0 3
Nghost:        2229.23 ave        2245 max        2206 min
Histogram: 1 3 1 3 9 8 5 7 8 3
Neighs:        14974.4 ave       16085 max       13528 min
Histogram: 1 2 4 6 6 6 9 3 6 5
FullNghs:      29948.0 ave       32645 max       27440 min
Histogram: 1 1 4 13 10 5 9 2 2 1

Total # of neighbors = 1437506
Ave neighs/atom = 359.37650
Neighbor list builds = 266633
Dangerous builds = 1

#clear
#
#next RN
#
#jump SELF
Total wall time: 3:27:32
