
units lj                  # Use reduced LJ style units
atom_style atomic         # Uncharged point particles
atom_modify map hash      # Needed for indexing of clusters etc
                          # Used to be able to find where atoms are in relation to each other.

lattice fcc 1.0 spacing 1 1 1
Lattice spacing in x,y,z = 1.5874011 1.5874011 1.5874011
region box block 0 10 0 10 0 10 units lattice
create_box 2 box
Created orthogonal box = (0.0000000 0.0000000 0.0000000) to (15.874011 15.874011 15.874011)
  3 by 4 by 4 MPI processor grid
create_atoms 1 box
Created 4000 atoms
  using lattice units in orthogonal box = (0.0000000 0.0000000 0.0000000) to (15.874011 15.874011 15.874011)
  create_atoms CPU = 0.002 seconds
set type 1 type/fraction 2 0.61 78393
Setting atom values ...
  2454 settings made for type/fraction
mass 1 1.0
mass 2 1.0
pair_style lj/cut  3.5
pair_modify tail  yes
pair_coeff 1  1  1.0  1.0   # Intearaction between 1 and 1 set with epsilon = 1 and sigma = 1
pair_coeff 1  2  1.5  0.8
pair_coeff 2  2  0.5  0.88

write_data data.0
System init for write_data ...
Neighbor list info ...
  update every 1 steps, delay 10 steps, check yes
  max neighbors/atom: 2000, page size: 100000
  master list distance cutoff = 3.8
  ghost atom cutoff = 3.8
  binsize = 1.9, bins = 9 9 9
  1 neighbor lists, perpetual/occasional/extra = 1 0 0
  (1) pair lj/cut, perpetual
      attributes: half, newton on
      pair build: half/bin/atomonly/newton
      stencil: half/bin/3d
      bin: standard
WARNING: Not all mixed pair coeffs generated from mixing. Use write_data with 'pair ij' option to store all pair coeffs. (../write_data.cpp:312)


#############################
#   M E L T   S Y S T E M   #
#############################

velocity all create 2.4 9622624 mom yes dist gaussian # Assign velocities
                                                    # Temperature 2.4, random number seed, zero linear momentum
                                                                                # Gaussian distribution

timestep 0.002   # simulation timestep
thermo 1000       # output thermodynamic data every 1000 steps bf 100

# Define a fix  in this case with index 1 applied to all
# particles in the simulation. This fix is for simulations
# in the anisotropic NPT ensemble. Note that we use the MTK
# correction.
fix 1 all npt temp 2.4 2.4 0.1 iso 5.68 5.68 0.5 mtk yes tchain 5 pchain 5 # Use NPT ensemble
                                                                         # Set temperature and pressure and damping
                                                                         # Numbers of thermostats in chain and in barostat
run 10000          # run for 10000 steps
Per MPI rank memory allocation (min/avg/max) = 3.642 | 3.644 | 3.648 Mbytes
Step Temp E_pair E_mol TotEng Press Volume 
       0          2.4   -4.6675525            0   -1.0684525   -4.0420614         4000 
    1000     2.385622   -4.3711188            0  -0.79358051    5.8314583    3624.9892 
    2000    2.3812536   -4.3734863            0  -0.80249895    5.4596933    3644.1357 
    3000    2.5027824   -4.4064397            0  -0.65320456    6.0004431    3598.0889 
    4000    2.4255871    -4.397429            0    -0.759958    6.0014653     3590.942 
    5000    2.4123813   -4.4087468            0  -0.79107953    5.5000692    3631.7038 
    6000    2.4312523   -4.4182393            0  -0.77227252    5.7386157    3608.3437 
    7000    2.4354924    -4.413136            0  -0.76081067     5.672719    3613.0966 
    8000    2.4043432   -4.3833538            0   -0.7777406    5.6361867    3634.4752 
    9000    2.4230164   -4.4173347            0  -0.78371872    5.9110761    3593.0003 
   10000    2.4508111    -4.435897            0   -0.7605995    5.6843724    3614.4279 
Loop time of 2.7386 on 48 procs for 10000 steps with 4000 atoms

Performance: 630978.542 tau/day, 3651.496 timesteps/s
99.6% CPU use with 48 MPI tasks x no OpenMP threads

MPI task timing breakdown:
Section |  min time  |  avg time  |  max time  |%varavg| %total
---------------------------------------------------------------
Pair    | 1.197      | 1.2668     | 1.4001     |   2.8 | 46.26
Neigh   | 0.21653    | 0.22355    | 0.23772    |   0.8 |  8.16
Comm    | 0.80817    | 0.90907    | 0.99035    |   4.5 | 33.19
Output  | 0.00024585 | 0.0002507  | 0.00032221 |   0.0 |  0.01
Modify  | 0.27309    | 0.32342    | 0.38492    |   5.1 | 11.81
Other   |            | 0.0155     |            |       |  0.57

Nlocal:        83.3333 ave          97 max          70 min
Histogram: 1 0 6 7 11 13 2 6 1 1
Nghost:        1753.73 ave        1778 max        1720 min
Histogram: 2 0 3 3 5 11 9 10 2 3
Neighs:        10564.3 ave       12381 max        8365 min
Histogram: 1 0 1 9 8 12 8 4 3 2

Total # of neighbors = 507086
Ave neighs/atom = 126.77150
Neighbor list builds = 906
Dangerous builds = 206

# Equilibrate just above the melting temperature to avoid step fn in T

fix 1 all npt temp 1.25 1.25 0.1 iso 5.68 5.68 0.5 mtk yes tchain 5 pchain 5
run 2000
Per MPI rank memory allocation (min/avg/max) = 3.644 | 3.646 | 3.650 Mbytes
Step Temp E_pair E_mol TotEng Press Volume 
   10000    2.4508111    -4.435897            0   -0.7605995    5.6843724    3614.4279 
   11000    1.2515141   -6.4635232            0   -4.5867213    5.5583238    2772.9796 
   12000    1.2292351   -6.5473561            0   -4.7039644    5.4892099    2748.9642 
Loop time of 0.695883 on 48 procs for 2000 steps with 4000 atoms

Performance: 496635.042 tau/day, 2874.045 timesteps/s
99.5% CPU use with 48 MPI tasks x no OpenMP threads

MPI task timing breakdown:
Section |  min time  |  avg time  |  max time  |%varavg| %total
---------------------------------------------------------------
Pair    | 0.29772    | 0.32222    | 0.36571    |   2.3 | 46.30
Neigh   | 0.041551   | 0.043434   | 0.046118   |   0.6 |  6.24
Comm    | 0.23542    | 0.28141    | 0.31219    |   2.7 | 40.44
Output  | 4.9824e-05 | 5.161e-05  | 6.7046e-05 |   0.0 |  0.01
Modify  | 0.039228   | 0.043922   | 0.048579   |   1.3 |  6.31
Other   |            | 0.004846   |            |       |  0.70

Nlocal:        83.3333 ave          92 max          75 min
Histogram: 2 1 7 5 11 7 6 6 2 1
Nghost:        2122.54 ave        2146 max        2103 min
Histogram: 5 1 8 6 11 2 5 6 2 2
Neighs:        13889.8 ave       15230 max       12102 min
Histogram: 2 0 4 6 8 5 10 0 9 4

Total # of neighbors = 666709
Ave neighs/atom = 166.67725
Neighbor list builds = 143
Dangerous builds = 11

#############################
# L I N E A R  Q U E N C H  #
#############################

# Define solid atoms. This closely follows ten Wolde  Ruiz-Montero and Frenkel  Faraday Discuss  1996  104  93-110
# Compute components of the per-atom q6 vector
compute q6 all orientorder/atom degrees 1 6 components 6 nnn NULL cutoff 1.3 # compute the Q6 parameter.
                                                                             # Use all neighbours within 1.3 unit cell.

# get number of connections
compute coord_number all coord/atom orientorder q6 0.5

# An atom is solid if it has 8 or more connections (of a possible 14)
variable is_solid atom c_coord_number>=8
group solid dynamic all var is_solid    # Must be dynamic to update
dynamic group solid defined

# do clustering
compute cluster solid cluster/atom 1.3 # Create a cluster where all atoms within are solid and max 1.3 units from another member

# define chunks one chunk per cluster
compute clus_chunks solid chunk/atom c_cluster nchunk every compress yes  # Says which atoms are in which chunk

# count the size of each chunk
compute size_chunks solid property/chunk clus_chunks count


# Find the maximum entry in the vector of chunk sizes
variable max_n equal max(c_size_chunks)


# Thermo style which includes this variable
# thermo_style custom step temp pe vol v_max_n

thermo ${N}  # Print the thermo information every 100 steps
thermo 1000  

# Reset the npt fix at a lower temperature (below freezing)
fix 1  all npt temp  ${temp} ${temp}  0.1  iso  5.68  5.68  0.5  mtk yes tchain  5  pchain  5
fix 1  all npt temp  0.45 ${temp}  0.1  iso  5.68  5.68  0.5  mtk yes tchain  5  pchain  5
fix 1  all npt temp  0.45 0.45  0.1  iso  5.68  5.68  0.5  mtk yes tchain  5  pchain  5

dump dmp2 all dcd ${N} traj.dcd
dump dmp2 all dcd 1000 traj.dcd


compute msd all msd com yes
variable twopoint equal c_msd[4]/6/(step*dt+1.0e-6)
fix 9 all vector 10 c_msd[4]
variable fit equal slope(f_9)/6/(10*dt)
thermo_style custom step temp pe c_msd[4] v_twopoint v_fit v_max_n

fix 1 all npt temp 1.25 ${temp} 0.1 iso 5.68 5.68 0.5 mtk yes tchain 5 pchain 5
fix 1 all npt temp 1.25 0.45 0.1 iso 5.68 5.68 0.5 mtk yes tchain 5 pchain 5
run 5000000 # 5000000  # Run for this many steps
Neighbor list info ...
  update every 1 steps, delay 10 steps, check yes
  max neighbors/atom: 2000, page size: 100000
  master list distance cutoff = 3.8
  ghost atom cutoff = 3.8
  binsize = 1.9, bins = 8 8 8
  4 neighbor lists, perpetual/occasional/extra = 1 3 0
  (1) pair lj/cut, perpetual
      attributes: half, newton on
      pair build: half/bin/atomonly/newton
      stencil: half/bin/3d
      bin: standard
  (2) compute orientorder/atom, occasional
      attributes: full, newton on
      pair build: full/bin/atomonly
      stencil: full/bin/3d
      bin: standard
  (3) compute coord/atom, occasional
      attributes: full, newton on
      pair build: full/bin/atomonly
      stencil: full/bin/3d
      bin: standard
  (4) compute cluster/atom, occasional
      attributes: full, newton on
      pair build: full/bin/atomonly
      stencil: full/bin/3d
      bin: standard
Per MPI rank memory allocation (min/avg/max) = 9.848 | 9.853 | 9.857 Mbytes
Step Temp PotEng c_msd[4] v_twopoint v_fit v_max_n 
   12000    1.2292351   -6.5473561 2.0774652e-30 1.4426841e-32 8.3333333e+20            3 
   13000    1.2323146   -6.5212713    0.4942274 0.0031681243  0.040587613            2 
   14000    1.2188433   -6.5392491   0.97293744 0.0057912941  0.039584859            3 
   15000    1.2504344   -6.5865744    1.3884499 0.0077136105  0.037950711            2 
   16000    1.2451032   -6.5045451    1.8832202 0.0098084382  0.037742611            2 
   17000    1.2234029   -6.5520662    2.3284071   0.01141376  0.038203672            7 
   18000    1.2535676    -6.544821    2.8061425    0.0129914  0.038390049            2 
   19000    1.2624995   -6.5422088     3.181181  0.013952548  0.037965814            5 
   20000    1.2701008   -6.5161976    3.6292303  0.015121793  0.037613641            3 
   21000     1.250006   -6.5349165    4.0497011  0.016070242  0.037344176            2 
   22000    1.2688181   -6.6171917    4.4688861  0.016927598  0.037115266            6 
   23000    1.2539672   -6.5592982    4.8642686  0.017624161  0.036870904            2 
   24000     1.255304   -6.5582365    5.2962854   0.01838988  0.036556038            2 
   25000     1.252741   -6.5188369    5.7378517  0.019126172  0.036402303            2 
   26000    1.2544629   -6.5873153     6.166046  0.019762968  0.036328972            3 
   27000    1.2359174   -6.5346005    6.5808804  0.020311359  0.036206777            3 
   28000    1.2337998   -6.5244328    7.1003374  0.021131956   0.03617446            1 
   29000    1.2301104   -6.5407316    7.3898513  0.021235204  0.036089992            2 
   30000    1.2455255   -6.5400872    7.8334208  0.021759502   0.03592891            3 
   31000     1.246339   -6.6142651     8.224885  0.022109906  0.035830058            1 
   32000    1.2639227   -6.6178421     8.708368  0.022678041  0.035750772            2 
   33000    1.2341688   -6.5773856    9.2069994  0.023249998  0.035757202            4 
   34000    1.2599714   -6.5221027    9.5789578  0.023477837  0.035783444            3 
   35000    1.2758271   -6.5453562    10.081251  0.024002979  0.035808931            3 
   36000    1.2316385   -6.5829203    10.562722  0.024450744   0.03586308            3 
   37000    1.2560569   -6.5430846     11.09596    0.0249909  0.035969365            3 
   38000     1.227131   -6.5743747    11.523733  0.025271344   0.03608261            4 
   39000    1.2456059   -6.5638557    12.039686  0.025725825  0.036198932            4 
   40000    1.2139574   -6.5909873    12.432451   0.02590094  0.036318843            3 
   41000    1.2233977   -6.5409218    12.817605  0.026052042  0.036379236            4 
   42000    1.2610738   -6.5512007    13.356197   0.02650039  0.036434259            3 
   43000     1.253201   -6.5762848    13.725626  0.026600051   0.03648524            2 
   44000     1.265786   -6.5961785    14.204067  0.026901642  0.036543224            2 
   45000    1.2403334   -6.5395215    14.751063  0.027316783  0.036597077            5 
   46000    1.2393341   -6.5412267    15.204859  0.027545034  0.036695693            4 
   47000    1.2535718   -6.5620294    15.787823  0.027992593   0.03680801            2 
   48000    1.2158015   -6.5975575    16.319273   0.02833207  0.036949737            2 
   49000    1.2482603   -6.5519324    16.805024  0.028579972  0.037083253            2 
   50000    1.2537514     -6.57115    17.397166  0.028995277  0.037226398            2 
   51000    1.2515085   -6.5231588    17.789199  0.029067318  0.037371663            1 
   52000     1.241622   -6.5272528    18.181286  0.029136676  0.037471966            4 
   53000    1.2535209   -6.5885426    18.725143  0.029442048  0.037581879            4 
   54000    1.2587894   -6.5877453    19.240147  0.029691584  0.037676659            5 
   55000     1.233673   -6.5690637     19.50816  0.029557819  0.037746072            1 
   56000    1.2391291   -6.5836034    19.834583  0.029515748  0.037775424            1 
   57000    1.2629204   -6.5990615    20.321636  0.029709995  0.037793457            2 
   58000    1.2543576   -6.5377139    20.666612  0.029693408   0.03778489            3 
   59000    1.2237803   -6.6150167    21.117387  0.029826818  0.037779342            2 
   60000    1.2547294   -6.5573136    21.656311  0.030078209  0.037773243            4 
   61000    1.2667608   -6.5836781    21.980257  0.030027673  0.037761595            3 
   62000    1.2341031   -6.5820972    22.380073  0.030080744  0.037736494            3 
   63000    1.2369547    -6.604654    22.707833  0.030036816  0.037705993            2 
   64000    1.2428933   -6.6079689    23.271549  0.030301496  0.037681052            2 
   65000    1.2578771   -6.5926519    23.835809  0.030558729  0.037663123            2 
   66000    1.2791245   -6.5626036    24.152751  0.030495898  0.037649217            2 
   67000    1.2273049   -6.6156933    24.587009  0.030580856  0.037636779            2 
   68000    1.2315974    -6.577171    24.914944  0.030533019  0.037604121            1 
   69000    1.2288499   -6.5661628     25.37516  0.030646328  0.037575907            2 
   70000    1.2375065   -6.5570533    25.887966  0.030819007  0.037543554            2 
   71000    1.2544053   -6.5851436    26.359967  0.030938928  0.037523086            4 
   72000    1.2532352   -6.5845399    26.701499  0.030904513  0.037508876            3 
   73000    1.2261776    -6.567669    27.223068  0.031076562  0.037482141            1 
   74000    1.2337633   -6.5472819    27.571606  0.031049106   0.03745147            2 
   75000     1.279747   -6.5373582    27.966944  0.031074382  0.037411175            2 
   76000    1.2501305   -6.6020915    28.289575   0.03101927  0.037377205            3 
   77000    1.2255601   -6.6123864    28.749998  0.031114716  0.037336897            2 
   78000    1.2356982   -6.6040597    29.262147  0.031262977  0.037299194            2 
   79000    1.2310797   -6.5548191    29.692409  0.031321106  0.037271324            2 
   80000    1.2421952   -6.5536807    30.096818  0.031350852  0.037239997            2 
   81000     1.241599   -6.5750655    30.420175  0.031296476  0.037205901            7 
   82000    1.2352668   -6.5617404    30.598138  0.031095669  0.037149811            4 
   83000    1.2310485   -6.5771144    31.066985  0.031191751  0.037092238            1 
   84000    1.2555277   -6.5453698    31.366154  0.031117216  0.037030469            2 
   85000    1.2355348   -6.5474644    31.847308  0.031222851  0.036962943            4 
   86000    1.2434787   -6.5960089    32.145439  0.031148681  0.036901248            3 
   87000    1.2312061   -6.5473829    32.613402  0.031238891  0.036838718            2 
   88000     1.233557   -6.5682316    33.042374  0.031290127  0.036779694            1 
   89000    1.2463933   -6.6053402    33.532416  0.031397393  0.036734193            3 
   90000    1.2466837   -6.5818992    34.031297   0.03151046  0.036691338            5 
   91000    1.2254542   -6.5644307    34.420687  0.031520776  0.036648447            1 
   92000    1.2558929   -6.5666913    34.959744  0.031666435  0.036607312            2 
   93000    1.2710307   -6.5976542    35.236028  0.031573501  0.036571217            6 
   94000    1.2440958   -6.5851811    35.509945  0.031480447  0.036534218            2 
   95000    1.2353378   -6.5985031    36.017555  0.031594346  0.036500566            3 
   96000    1.2320618   -6.5516734    36.561142  0.031737102  0.036469571            5 
   97000    1.2240607   -6.6107196    36.928668  0.031725659   0.03643639            1 
   98000    1.2487746   -6.5874653    37.290857  0.031709913  0.036405771            2 
   99000    1.2589503   -6.5931635    37.796126   0.03181492  0.036381648            4 
  100000    1.2202973   -6.6162062    38.295113  0.031912594  0.036359629            2 
  101000    1.2357491    -6.553161    38.688465  0.031921175  0.036329697            2 
  102000    1.2650364   -6.6201331    39.002468  0.031864761  0.036297881            4 
  103000    1.2095229   -6.5653275    39.359969  0.031844635  0.036267056            4 
  104000    1.2302308   -6.5970042    39.854367  0.031934589  0.036235311            1 
  105000    1.2395206   -6.5956217    40.057083  0.031791336  0.036201286            7 
  106000    1.2765459   -6.5693474     40.81931  0.032090652  0.036168529            3 
  107000    1.2155243   -6.5912573    40.810411  0.031783809  0.036136327            3 
  108000      1.24443   -6.6027644    41.465189  0.031994744   0.03610236            4 
  109000    1.2227596   -6.6065874    41.637891   0.03183325  0.036070361            3 
  110000    1.2244701   -6.6142366    41.858477  0.031710967  0.036027733            3 
  111000    1.2409713    -6.610216    42.273441  0.031736817  0.035978874            1 
  112000    1.2057309   -6.6052659    42.734032  0.031796154  0.035938506            2 
  113000    1.2376648   -6.5819898    43.221442  0.031874219  0.035901301            2 
  114000    1.2529697   -6.6780301    43.200942  0.031579635  0.035863968            6 
  115000    1.2233435   -6.6155501    43.911306  0.031819787  0.035818144            2 
  116000    1.2383528   -6.6280804    44.188621  0.031744699  0.035772814            2 
  117000    1.2399155   -6.5936564    44.713097  0.031846935  0.035730792            1 
  118000       1.2172   -6.5989938    45.072304  0.031830723  0.035693701            2 
  119000    1.2398787   -6.5897754    45.463895  0.031837461  0.035654071            2 
  120000    1.2276151   -6.6062216    45.642506  0.031696185  0.035611949            3 
  121000    1.2236496   -6.5793541    46.186984  0.031809218   0.03556343            1 
  122000    1.2044575   -6.6109788    46.314839  0.031635819  0.035518303            3 
  123000    1.2374307   -6.6388955      47.0203  0.031856572  0.035472192            2 
  124000    1.2280488   -6.5506874    47.550457  0.031955952  0.035437932            1 
  125000    1.1979924   -6.6032297     47.97337  0.031982247  0.035407865            4 
  126000    1.2127777   -6.5766153    48.639764  0.032169156  0.035388247            4 
  127000    1.2422019   -6.6118684    49.116312  0.032228551  0.035369331            3 
  128000    1.2298971   -6.5761956    49.563139  0.032267669  0.035353381            2 
  129000    1.2187035   -6.5939228    50.092662    0.0323596  0.035346618            3 
  130000    1.2049351   -6.6262792    50.493419  0.032367576  0.035339587            7 
  131000     1.217395   -6.6064742    50.950673   0.03241137  0.035334399            4 
  132000    1.2375973   -6.5567066    51.332675  0.032406992  0.035317989            3 
  133000    1.2280095   -6.6448044    51.197314  0.032078517   0.03529993            3 
  134000    1.2361119   -6.6127386    51.967421  0.032318048  0.035278555            2 
  135000    1.2332534   -6.6133767    52.167945  0.032202435  0.035258994            4 
  136000    1.2099049    -6.581869    52.555101   0.03220288  0.035238839            4 
  137000    1.1946465   -6.6332045    52.732668  0.032075832    0.0352111            3 
  138000    1.2289915   -6.5671129    53.228721  0.032142947  0.035187064            2 
  139000    1.2420445   -6.5941787    53.763306  0.032232198   0.03516704            1 
  140000    1.2353738   -6.6608064    53.986417  0.032134772  0.035144258            2 
  141000    1.2620547   -6.6170542    54.488987  0.032203893  0.035119832            2 
  142000    1.2391054   -6.6180295    54.976319  0.032263098  0.035096766            3 
  143000    1.2503261   -6.5962694    55.452617  0.032315045  0.035076458            2 
  144000    1.2414065    -6.566549    55.608285   0.03218072  0.035055464            2 
  145000    1.2206162   -6.6158012    55.705983  0.032014933  0.035032953            3 
  146000    1.2473748   -6.6079979     56.23031  0.032094926  0.035008351            3 
  147000    1.2126863   -6.5939715    56.598209  0.032085153  0.034982205            1 
  148000    1.2220393   -6.5870388    57.180799  0.032196396  0.034959283            2 
  149000    1.2155438   -6.5882418    57.873223  0.032367574  0.034942326           12 
  150000    1.2289797   -6.6009903    58.209115  0.032338397  0.034924858            1 
  151000    1.2063854   -6.6182857    58.552778  0.032313895   0.03491267            2 
  152000    1.2118123   -6.6341279    58.761093  0.032215512  0.034896158            2 
  153000    1.2373155   -6.6120226    59.197188  0.032242477  0.034880177            2 
  154000    1.1937713   -6.6340543    60.012176  0.032474121  0.034868418            2 
  155000    1.2645611   -6.5764866    60.389738  0.032467601  0.034861713            4 
  156000    1.2680694   -6.6006855    61.027806  0.032600323  0.034855565            1 
  157000     1.232762   -6.6139509     61.06272   0.03241121  0.034848405            4 
  158000    1.2379313   -6.6146493    61.685313  0.032534448  0.034838931            4 
  159000    1.2336533   -6.6009551    62.223687  0.032611995   0.03482988            3 
  160000    1.2377772   -6.6385077    61.927858  0.032254092  0.034818325            2 
  161000    1.2314065   -6.5727747    62.555646  0.032378699  0.034806001            3 
  162000     1.217719   -6.6503499    62.960828  0.032387257  0.034794772            3 
  163000    1.2282148   -6.5876651    64.063402   0.03275225    0.0347865            2 
  164000     1.210102   -6.5722414    64.550812  0.032800209  0.034782992            3 
  165000    1.2372044    -6.588673    65.256999   0.03295808  0.034782843            3 
  166000    1.2069982   -6.6189599    65.502911  0.032882988  0.034784841            3 
  167000     1.249849   -6.5794337    66.006185  0.032937218  0.034787818            2 
  168000    1.2175402   -6.6388828     66.02303  0.032749519  0.034792096            1 
  169000    1.2218123   -6.6104672    66.806955  0.032942285  0.034797405            2 
  170000    1.2334718   -6.6217891     67.50949  0.033092887  0.034807802            3 
  171000    1.1916062   -6.6019782    68.151584  0.033212273  0.034819942            1 
  172000    1.2133704   -6.6175858    68.431939  0.033155009  0.034833826            3 
  173000      1.26842   -6.5817643    69.306094  0.033384438  0.034853255            3 
  174000    1.2194836   -6.5775012    69.764265  0.033412004  0.034872531            3 
  175000    1.2248401   -6.6760671    70.092051  0.033377167  0.034890478            2 
  176000    1.2116985   -6.6318146    70.576442  0.033416876  0.034907962            3 
  177000    1.2286501   -6.6392857    70.527559  0.033205065  0.034923485            2 
  178000    1.2128479    -6.573564    71.470481  0.033459963  0.034937182            4 
  179000    1.2466123   -6.6254184    71.841677  0.033445846  0.034952807            2 
  180000    1.2290192   -6.6275584    72.432168  0.033533411  0.034969457            1 
  181000    1.1829636   -6.6243782    72.830032  0.033531322  0.034987859            6 
  182000     1.214752   -6.6296254    73.454314  0.033632927    0.0350083            4 
  183000    1.2164682   -6.6055137    74.053052   0.03372179  0.035029454            2 
  184000    1.2253101   -6.5977607    74.242956  0.033624527  0.035051835            2 
  185000    1.2169778   -6.6486531    74.708272  0.033652375  0.035072826            2 
  186000    1.2230795    -6.588079    75.320428  0.033745711  0.035092207            5 
  187000    1.2591853   -6.6139088    75.573819  0.033678173  0.035109364            3 
  188000    1.2171821   -6.6301025    75.566139  0.033495629  0.035125808            3 
  189000    1.2185588   -6.5669724    76.433073  0.033700649  0.035141724            3 
  190000    1.2473002   -6.6235908    76.815768  0.033691126  0.035156627            3 
  191000    1.2221252   -6.6595523    76.985316  0.033588707  0.035169689            2 
  192000    1.2114058   -6.6267845    77.433156  0.033608141   0.03518187            4 
  193000    1.2161336   -6.6251875    77.910014  0.033639902   0.03519179            3 
  194000    1.2069899   -6.6229085    78.239333  0.033607961  0.035201296            9 
  195000      1.22242   -6.6102056    78.809868  0.033679431  0.035211152            2 
  196000    1.2325645   -6.6323391    79.363235  0.033742872  0.035220391            4 
  197000    1.2452531   -6.6116987    79.664462  0.033699011  0.035228576            3 
  198000    1.2203149   -6.6570665     79.75876  0.033568502  0.035238856            4 
  199000    1.2427314   -6.6624336    80.132806  0.033556452   0.03524845            3 
  200000    1.2276144   -6.6746651     80.86912  0.033695466  0.035256674            4 
  201000    1.2288389   -6.6424593    81.320521  0.033714975  0.035267094            2 
  202000    1.1971654    -6.620462    81.401886  0.033581636  0.035274596            2 
  203000    1.2274897   -6.7053958    81.618705  0.033505215   0.03528142            7 
  204000    1.2101026   -6.6807952    82.669316  0.033770146  0.035288642            2 
  205000     1.205493    -6.604338    83.109466  0.033784336  0.035298344            3 
  206000    1.2551616   -6.6149304    83.655248   0.03384112  0.035310233            1 
  207000    1.2186252   -6.6447261    84.083805  0.033850163  0.035322488            4 
  208000     1.239806   -6.6392076    84.367448  0.033801061  0.035332944            2 
  209000    1.2521852   -6.6326747    84.792575  0.033808842  0.035343531            4 
  210000    1.2269512   -6.6070464    85.306936  0.033851959  0.035353388            3 
  211000    1.2386523   -6.6248399    85.949133  0.033945155  0.035365624            1 
  212000    1.2310887   -6.6114232    86.305112  0.033924965  0.035375644            2 
  213000    1.1976067   -6.6181067     87.12366  0.034085939  0.035386054            2 
  214000    1.2324425   -6.6294087    87.086305  0.033912112  0.035396224            3 
  215000    1.2011483   -6.6216998    87.411045   0.03388025  0.035407046            3 
  216000    1.2377266   -6.6177706    87.717628  0.033841678   0.03541543            1 
  217000    1.2286441   -6.6174017    88.419105  0.033955109  0.035422937            1 
  218000    1.2209213   -6.6162892    88.763965  0.033931179  0.035429345            2 
  219000     1.202514   -6.6020194    89.261524  0.033965572   0.03543778            3 
  220000    1.2380034   -6.6343247    89.471424  0.033890691  0.035443821            2 
  221000    1.2130527    -6.620842    89.956838  0.033920376   0.03544867            3 
  222000     1.220819   -6.6621179    90.004413   0.03378544  0.035453006            2 
  223000    1.2054036   -6.6343247    90.557731  0.033840706  0.035456708            3 
  224000    1.1959248   -6.6118264    91.483301  0.034033966  0.035462084            3 
  225000     1.230393   -6.6584879    91.481706  0.033882113  0.035467101            4 
  226000    1.2287893   -6.6624186    91.966956  0.033911119  0.035473928            5 
  227000    1.2052462    -6.574166    93.404562  0.034289487  0.035480727            3 
  228000    1.2228444   -6.6612086    92.865011   0.03394189  0.035489165            1 
  229000    1.2148043   -6.5912671    94.095213  0.034241344  0.035498122            4 
  230000    1.2126548   -6.5900654    94.476848  0.034230742   0.03550769            3 
  231000    1.2173144   -6.6243202    94.574998  0.034117965  0.035515224            2 
  232000    1.2113646   -6.6411484    94.679811  0.034008553  0.035519424            2 
  233000    1.2293333   -6.6016744    95.354777  0.034103998  0.035524992            2 
  234000    1.2400508   -6.6404057    95.624896   0.03405445  0.035530661            2 
  235000     1.221143   -6.6293631    96.243333  0.034128841  0.035535839            2 
  236000    1.2014701   -6.6485811    96.864989  0.034203739  0.035541959            3 
  237000    1.2266376   -6.6095785    97.260769  0.034198583  0.035549481            4 
  238000    1.2411828   -6.6659228    97.474357  0.034129677  0.035554429            2 
  239000    1.1934463    -6.642751    97.821343   0.03410786  0.035561716            2 
  240000    1.1887564   -6.6754619    98.180124  0.034090321   0.03556696            3 
  241000    1.1892304   -6.6461234    98.657172  0.034113821  0.035570845            1 
  242000    1.1902382   -6.6000272    99.181029  0.034153247  0.035576179            1 
  243000    1.2078365   -6.6868668    99.322342   0.03406116  0.035580382            2 
  244000    1.2089422   -6.6345688    100.03979  0.034166596  0.035585158            2 
  245000     1.192321   -6.6284695    100.46835   0.03417291  0.035588466            9 
  246000    1.1997145   -6.6271606    100.81011  0.034149765  0.035591884            2 
  247000    1.2310928    -6.600305    101.40743  0.034213033  0.035595625            3 
  248000    1.2097075   -6.6552913    101.65051  0.034156759  0.035599535            1 
  249000    1.2164782   -6.6438433    101.77518  0.034061304  0.035601558            1 
  250000    1.2240177   -6.6750152     102.0841  0.034028032  0.035602027            2 
  251000    1.2359837   -6.6389389    102.77799  0.034122837  0.035605265            3 
  252000    1.2015866   -6.6585015    102.94745  0.034043469  0.035607411            2 
  253000    1.2147889   -6.6265766    103.17506  0.033983879   0.03560742            2 
  254000    1.2208085    -6.630478    104.34399  0.034233594  0.035607958            2 
  255000    1.2159835   -6.6908209    103.99609   0.03398565  0.035608271            2 
  256000    1.2230769   -6.6542611    104.35052  0.033968268  0.035606727            2 
  257000    1.1979877   -6.6322259    104.77489  0.033973701  0.035603891            2 
  258000    1.2089497   -6.6418933    104.81815   0.03385599  0.035601058            2 
  259000    1.1961184   -6.6641805    105.50688  0.033946872  0.035598517            4 
  260000    1.2102496   -6.6398466    105.74866  0.033893802  0.035595639            3 
  261000    1.2017001   -6.6113288     106.6496  0.034051596  0.035594264            3 
  262000    1.2109286   -6.6551709    106.49386  0.033872093  0.035590207            5 
  263000    1.1986335   -6.6549056    106.66825  0.033798557  0.035585088            1 
  264000    1.1913606   -6.6591895    107.39055  0.033898532  0.035579771            2 
  265000    1.2142949   -6.6602516    107.50935  0.033807972  0.035574087            3 
  266000    1.2034956   -6.6394081     108.1119  0.033869643  0.035568391            2 
  267000    1.2057196   -6.6262498    108.35716  0.033819337  0.035563039            3 
  268000    1.2246948   -6.6519379    108.43146   0.03371625  0.035557801            4 
  269000    1.2449825   -6.6692667    109.15682  0.033815619  0.035551221            2 
  270000    1.2232673   -6.6328102    109.53253  0.033806337  0.035544695            2 
  271000    1.2338293   -6.6080923    110.45168  0.033964231  0.035537959            2 
  272000    1.2185285   -6.6735096     110.0256  0.033708824  0.035530605            2 
  273000    1.2055405    -6.622993     110.5942  0.033758913  0.035521626            3 
  274000    1.2229446   -6.6523863    110.83903  0.033710168  0.035512059            3 
  275000    1.1986033   -6.6621204    111.10892  0.033669369  0.035502656            3 
  276000    1.1948346   -6.6769227    111.80259  0.033756819   0.03549268            3 
  277000    1.2258716    -6.622931    112.49736   0.03384397  0.035484533            5 
  278000    1.2098293    -6.626662    112.23606  0.033643904  0.035474709            2 
  279000    1.1915512   -6.6932103    112.69443  0.033660225  0.035463469            3 
  280000    1.1950331   -6.6584782    113.13994    0.0336726  0.035452243            4 
  281000     1.189269   -6.6924534    112.90599   0.03348339  0.035438984            2 
  282000    1.2199665   -6.6193316    113.83795  0.033640056  0.035426209            2 
  283000    1.2152451   -6.6763348     113.9179  0.033544729  0.035413419            3 
  284000    1.2300758   -6.6712491    114.43547  0.033578483  0.035402842            4 
  285000    1.2294691   -6.6524512     114.6261  0.033516405  0.035392276            2 
  286000    1.2055506   -6.6515222    115.51797  0.033659082   0.03538295            2 
  287000    1.1921056   -6.6101846    115.79155  0.033621238  0.035373242            2 
  288000     1.213345   -6.6755603    116.24468  0.033635613  0.035363943            2 
  289000    1.2093342   -6.6498967    116.68777  0.033646993  0.035353865            8 
  290000    1.2053522   -6.6745874    116.96909  0.033611807  0.035342491            2 
  291000     1.209255    -6.706631    116.94587  0.033489654  0.035333478            3 
  292000    1.2005798   -6.6609448    117.96071  0.033664586  0.035324119            2 
  293000    1.1852053   -6.7090135    118.24476  0.033630478  0.035314328            3 
  294000    1.1983681   -6.6796461    118.08364  0.033470419  0.035303027            2 
  295000    1.2318516   -6.7136179    119.00995  0.033618631  0.035292253            2 
  296000    1.1838477   -6.6652344    119.81586  0.033731942  0.035282365            2 
  297000    1.2050075   -6.6164401     120.6174  0.033843267  0.035272469            1 
  298000    1.2040032   -6.6074362    120.70683  0.033754707  0.035264451            6 
  299000    1.2068979   -6.6669511    120.54798  0.033597543  0.035256082            3 
  300000     1.190025   -6.6059642    121.02209  0.033617246  0.035247179            2 
  301000    1.1896525   -6.6492934    121.56777  0.033656636  0.035239461            3 
  302000    1.2045716    -6.685227    122.04017  0.033675544  0.035232421            1 
  303000    1.1552398   -6.6233393    122.78326  0.033768772  0.035226228            4 
  304000    1.1972502   -6.6879076    123.10307  0.033745359  0.035220802            2 
  305000     1.210778   -6.6849197    123.00614  0.033608235  0.035215443            3 
  306000    1.1698429   -6.6205125    124.44641  0.033890635  0.035209204            3 
  307000    1.2110927   -6.6765992    124.12764  0.033693714  0.035202749            2 
  308000    1.2107468   -6.7095959    124.20616  0.033605562  0.035196375            4 
  309000    1.1915694    -6.660584    125.49592  0.033844637   0.03519149            5 
  310000    1.1775413     -6.63689     125.8943  0.033842553  0.035187276            2 
  311000    1.2158299   -6.6179537    126.99899  0.034029739  0.035182674            2 
  312000    1.1782318   -6.6630755    126.60667  0.033815883  0.035178558            3 
  313000    1.2120841   -6.6245258     127.0019  0.033813071  0.035173337            2 
  314000    1.1669982   -6.6708661    127.51114  0.033840535  0.035167543            1 
  315000    1.1942101   -6.6502538      127.979  0.033856878  0.035161998            2 
  316000    1.1962848   -6.6633043    128.43975  0.033871241  0.035157255            3 
  317000    1.1864632   -6.7228048    128.91407  0.033889084  0.035153743            2 
  318000    1.1841348   -6.6977033    129.55619  0.033950784  0.035152079            1 
  319000     1.211747   -6.6889936    129.75414  0.033896067  0.035150588            5 
  320000    1.2050773   -6.6690023    130.42872  0.033965811  0.035147683            4 
  321000    1.2106924   -6.7189805    130.19431  0.033799146  0.035145477            2 
  322000    1.2056553   -6.6836592    131.32816  0.033987619   0.03514304            2 
  323000     1.195049    -6.697809    131.52093  0.033932129  0.035140388            2 
  324000    1.1911499   -6.6947345     131.7779  0.033893492   0.03513838            3 
  325000    1.2071338   -6.6702445    132.21299  0.033900766   0.03513571            4 
  326000     1.216391    -6.658629    133.36169  0.034090411  0.035134198            2 
  327000    1.1888897   -6.6579008    133.73313  0.034080817   0.03513331            2 
  328000    1.2096918    -6.679374    134.14659  0.034081959  0.035133773            2 
  329000    1.1942346   -6.7091511    134.03091  0.033949064  0.035133244            3 
  330000    1.2067682   -6.6659237    134.89371  0.034064069  0.035133038            4 
  331000    1.1813451   -6.6780781    135.24176  0.034048782  0.035131216            3 
  332000    1.2126495   -6.6536054    135.65463  0.034049858  0.035129596            3 
  333000    1.1723279   -6.6680558     135.4781  0.033903428  0.035127914            3 
  334000    1.1828276   -6.6830156    136.02705  0.033938885   0.03512558            6 
  335000    1.1889831    -6.664689    137.06849  0.034096639  0.035123582            2 
  336000     1.171974   -6.6845167    136.86872  0.033945615  0.035122124            4 
  337000    1.1686457   -6.6679071    137.44475  0.033987328  0.035119522           10 
  338000    1.2092424   -6.6888237    137.97493  0.034017488  0.035116573            2 
  339000    1.1926226   -6.6888901    137.81267  0.033877255  0.035113541            2 
  340000    1.1794798    -6.656522    138.57489  0.033964433  0.035111078            1 
  341000    1.1986328   -6.7051763    138.61118    0.0338737  0.035109734            4 
  342000    1.2085121   -6.7617711    138.65512   0.03378536  0.035106013            2 
  343000    1.2084453   -6.7373139    139.08083   0.03379029  0.035101848            7 
  344000    1.2351568   -6.6969884    139.67757   0.03383662   0.03509726            4 
  345000    1.1970953    -6.678253    140.42371   0.03391877  0.035092571            2 
  346000    1.1734772   -6.6854165     140.2255  0.033773002  0.035088048            1 
  347000    1.1717508   -6.7030358      140.844  0.033824208  0.035082076            4 
  348000    1.2093546   -6.6976662    141.47011  0.033876941  0.035077981            2 
  349000    1.1738696   -6.6675744    142.35688  0.033991615  0.035074675            3 
  350000    1.1679075    -6.699182    142.67068   0.03396921  0.035071207            2 
  351000    1.2036103    -6.678416    142.64163  0.033865535   0.03506666            2 
  352000    1.1952927    -6.665347    143.07981  0.033873061  0.035062951            3 
  353000    1.1863348   -6.6748605    143.68433  0.033919813  0.035059194            4 
  354000    1.1860587   -6.6845307    143.95894   0.03388864  0.035055301            4 
  355000    1.2024326   -6.6831722    144.35525   0.03388621  0.035050992            2 
  356000    1.1921652   -6.6404734    145.16229  0.033979937  0.035047787            3 
  357000    1.1907901   -6.7114632    145.12344  0.033875687  0.035044462            2 
  358000    1.2064293   -6.6858099    145.44351  0.033855564  0.035040072            6 
  359000    1.1987025   -6.6689393    145.44861  0.033762444  0.035035789            5 
  360000    1.2062557   -6.7287132    145.47862  0.033675606  0.035028998            4 
  361000    1.1860022   -6.6597329    145.65809   0.03362375  0.035021643            4 
  362000     1.183857   -6.5950119    146.80967  0.033795965  0.035013908            2 
  363000    1.2172315   -6.6415956    147.17742  0.033787287   0.03500693            3 
  364000    1.1935547   -6.6967875    146.97765  0.033648729  0.034999859            3 
  365000    1.2102989    -6.699649    146.83159  0.033523194  0.034992128            2 
  366000    1.1709566   -6.6825941    147.75515  0.033641882  0.034984017            4 
  367000    1.1833258   -6.6555979    148.19052  0.033649073   0.03497611            4 
  368000    1.1900808   -6.6639026    148.98806  0.033738238  0.034967854            3 
  369000    1.1874582   -6.6673842    148.51621  0.033540246  0.034960233            3 
  370000    1.1615094   -6.6835566    149.36099  0.033639864  0.034952786            4 
  371000    1.1967846   -6.6982425    149.40163  0.033558318  0.034944767            3 
  372000    1.1927948   -6.6640668    150.40291  0.033692409  0.034937411            1 
  373000    1.1978906    -6.684879    150.46155  0.033615181  0.034930325            2 
  374000    1.1711987   -6.6832779    150.98839  0.033642689  0.034922752            4 
  375000    1.1868892   -6.6791982    151.09858  0.033577462  0.034915603            3 
  376000    1.1977841   -6.7049397    151.30555  0.033534031  0.034909202            4 
  377000    1.1964608   -6.7200267    151.75353  0.033544105  0.034901845            2 
  378000    1.1868657   -6.7085988    152.94745  0.033718574   0.03489582            1 
  379000    1.2074091   -6.7292463    153.09101  0.033661172  0.034889944            4 
  380000    1.1898728   -6.6946291    154.16081  0.033807196  0.034884815            3 
  381000    1.1965543   -6.6798768    153.95384  0.033673194  0.034878846            3 
  382000    1.1690871   -6.7077231    154.80162  0.033769987   0.03487263            6 
  383000    1.1643277   -6.7299422    154.44252  0.033603682  0.034866398            5 
  384000    1.1721334   -6.6781277    155.29969   0.03370219  0.034859155            3 
  385000    1.1871528   -6.7215955    154.94707  0.033538327  0.034851726            2 
  386000    1.1961451   -6.6840773     155.9498  0.033667918  0.034844156            2 
  387000    1.1865495   -6.6951327    156.04525  0.033601476  0.034836618            1 
  388000     1.219288    -6.673681    157.11178  0.033743938  0.034830405            2 
  389000    1.1753628   -6.6973801    156.97745  0.033628416  0.034824277            3 
  390000     1.211246   -6.7260339    156.93246  0.033532577  0.034817123            2 
  391000    1.1949301   -6.7368917     157.6946   0.03360925  0.034810842            3 
  392000    1.2059345   -6.7121227    158.23816  0.033639065  0.034804731            2 
  393000    1.1585709   -6.7168555    158.91967  0.033697979  0.034797761            7 
  394000    1.1788894   -6.6410413    158.99587  0.033628568  0.034791956            1 
  395000    1.1842896   -6.6951289    159.45507  0.033640311  0.034785917            2 
  396000     1.188963   -6.6918159    159.50437  0.033565734  0.034778989            3 
  397000    1.1829762    -6.728803    159.91254  0.033566864  0.034772509            2 
  398000    1.1846032   -6.7139072    160.64354  0.033635581  0.034765882            4 
  399000    1.1739131   -6.7177527    160.65879  0.033554467  0.034759664            4 
  400000     1.187486   -6.7058341    161.31152  0.033606566  0.034752885            2 
  401000    1.1855822   -6.7105638    161.26047  0.033512151   0.03474626            4 
  402000     1.197477    -6.717183    162.02868  0.033588035  0.034739456            2 
  403000    1.1565393   -6.6955521    162.74739  0.033653307  0.034732758            3 
  404000    1.1799463   -6.6885702    162.56104  0.033531568  0.034725712            5 
  405000    1.1881137   -6.6981998    163.52232  0.033646567  0.034718422            4 
  406000     1.208132   -6.6897274    163.50283  0.033559694  0.034711809            4 
  407000    1.1770077    -6.717019    163.60829   0.03349883  0.034704717            2 
  408000    1.1924432   -6.6862906     163.6786  0.033431087  0.034696194            2 
  409000     1.215123   -6.6960657    164.20025  0.033455633  0.034686936            3 
  410000    1.1967156   -6.7433615    164.12325  0.033358383  0.034678421            5 
  411000     1.189575   -6.7459739     164.5966  0.033373195  0.034669858            3 
  412000    1.2048769   -6.7305344    165.16554  0.033407269  0.034662285            3 
  413000     1.152398   -6.7104963    166.05949  0.033506758  0.034655284            4 
  414000    1.1863133    -6.685919    166.47755  0.033509973  0.034647963            3 
  415000    1.2097605   -6.7145794    167.27166  0.033588687  0.034641086            5 
  416000     1.180285   -6.7318007     167.0309  0.033459716  0.034633827            2 
  417000    1.2161816   -6.7370668    167.61878  0.033496959  0.034626828            4 
  418000     1.170035   -6.6930911    168.38303  0.033569184  0.034619085            1 
  419000    1.2021528   -6.7044339    168.41365  0.033495157  0.034612206            3 
  420000     1.201134   -6.7239238    168.69354   0.03347094  0.034604972            2 
  421000    1.1975526   -6.7035169    169.46332  0.033543808  0.034597842            1 
  422000     1.178757   -6.7482832    169.73041  0.033517063  0.034591934            3 
  423000    1.1552885   -6.7103563    170.75454  0.033639586  0.034586162            2 
  424000    1.1851174   -6.7257724    169.96576  0.033405221  0.034579483            5 
  425000    1.1729129    -6.751972    170.85065  0.033500127  0.034572648            3 
  426000    1.1717381   -6.7513085    170.71656  0.033395258   0.03456625            4 
  427000    1.1953321   -6.7282963    171.71718   0.03351233  0.034559876            2 
  428000    1.1936502   -6.7091249    172.33616  0.033554548  0.034554012            2 
  429000    1.1879594    -6.704364    172.74219  0.033555204  0.034547914            2 
  430000    1.1630214   -6.7495713    172.15458  0.033363291  0.034541415            3 
  431000    1.1784746    -6.757182    172.68712  0.033388847  0.034534208            2 
  432000    1.1880859   -6.7239893    173.48875  0.033466195   0.03452729            3 
  433000    1.1696958   -6.6936191    173.98715  0.033484824   0.03452022            3 
  434000    1.2009072   -6.7407258     173.9378  0.033398194  0.034513775            3 
  435000    1.1580457   -6.7211226    174.59331  0.033446994  0.034507527            2 
  436000    1.1921452   -6.7131173    175.80943   0.03360272  0.034502131            3 
  437000    1.1713589   -6.7240937    175.24306  0.033417822  0.034496368            2 
  438000    1.1740209   -6.6874089    176.83005  0.033643464  0.034490958            1 
  439000    1.1853666   -6.7172521    176.74149  0.033550016  0.034485222            3 
  440000    1.1807217   -6.7557639     176.1534  0.033362387   0.03447826            4 
  441000    1.1451336   -6.7569509    176.32443  0.033319053  0.034470642            5 
  442000    1.1940754   -6.7250283    178.01788  0.033562949  0.034463664            3 
  443000    1.1860669   -6.7114614     177.7203  0.033431208  0.034456992            1 
  444000    1.1716147   -6.7193202    177.14673  0.033248259  0.034450182            1 
  445000    1.1792674   -6.7529692    177.73899  0.033284456  0.034441522            5 
  446000    1.1794025   -6.7641564    177.68942  0.033200564  0.034433008            3 
  447000     1.168752   -6.7060938     178.2848  0.033237285  0.034424155            4 
  448000    1.1768587   -6.7504009    178.37156  0.033179233  0.034414807            2 
  449000    1.1887271     -6.70998    179.19021  0.033257278  0.034406181            2 
  450000    1.1725935   -6.6915746     179.8938  0.033313667  0.034397199            2 
  451000    1.1755791   -6.7356295    179.49487  0.033166089  0.034389165            2 
  452000     1.161053   -6.7132475    180.22049  0.033226492  0.034380242            2 
  453000    1.1797351   -6.7420918    180.24538  0.033157723  0.034371223            3 
  454000    1.1771179    -6.728731    179.77059  0.032997539  0.034361303            3 
  455000    1.1880944   -6.7447869    180.23387  0.033009866  0.034350917            1 
  456000    1.1887973     -6.70027    181.42873  0.033155834  0.034340587            3 
  457000    1.1765117   -6.7410919     180.9345  0.032993161  0.034330256            4 
  458000    1.1598453    -6.741981     182.1249  0.033137719  0.034319872            2 
  459000    1.2059485   -6.7140809    182.53326  0.033139662  0.034309316            2 
  460000     1.195876    -6.733319    182.04315  0.032978832  0.034298905            3 
  461000    1.1842601   -6.7510069    182.22943  0.032940966  0.034288523            3 
  462000    1.1771892   -6.7213744    182.76731  0.032966687  0.034277123            1 
  463000    1.2016162   -6.7891506    182.77977  0.032897727  0.034266148           12 
  464000    1.1992186   -6.7901398    182.54087  0.032783921  0.034254217            3 
  465000    1.1558673   -6.7802923    183.32685  0.032854274  0.034241558            5 
  466000    1.1657131   -6.7702745    183.52154  0.032818587  0.034229138            2 
  467000     1.158175   -6.7486344    184.16787  0.032863646  0.034217229            2 
  468000    1.1752557   -6.7392137    184.34966  0.032825794  0.034205158            6 
  469000    1.1786343   -6.7206854    185.29956  0.032924584  0.034193338            3 
  470000    1.1752853   -6.7544767     185.4848  0.032887376   0.03418253            2 
  471000    1.1663746   -6.7247843    185.55839  0.032830572  0.034171511            2 
  472000    1.1953916   -6.7569458    186.37867  0.032905839  0.034160942            3 
  473000     1.168152   -6.7432091    186.44696  0.032848301   0.03414981            3 
  474000    1.1747202   -6.7450265    186.82323  0.032845152  0.034138488            4 
  475000    1.1742452   -6.7601168    187.08818  0.032822487    0.0341274            2 
  476000    1.1741786   -6.7752592    186.84475  0.032710916   0.03411572            4 
  477000    1.1570255   -6.7431281    188.07759   0.03285772  0.034104755            3 
  478000    1.1827899   -6.6860415    189.13627  0.032973547  0.034094116            2 
  479000    1.2219216   -6.7338833    189.41481  0.032953168  0.034083504            3 
  480000     1.165787   -6.7864395    189.30186  0.032864906  0.034073261            2 
  481000    1.2020473   -6.7331067     190.0795  0.032931306  0.034063417            3 
  482000    1.1636544   -6.7272247    191.29614  0.033073331   0.03405327            2 
  483000    1.1876252   -6.7008243    190.84815  0.032927563  0.034044005            4 
  484000    1.1928814    -6.724079    191.46757   0.03296618  0.034034874            3 
  485000    1.1626981   -6.7720184     191.4476  0.032894777  0.034025411            3 
  486000    1.1886167   -6.7227717     191.8863  0.032902315  0.034015851            2 
  487000    1.2025688    -6.709536    192.45895  0.032932743  0.034005649            2 
  488000    1.1845332     -6.75709    193.12728  0.032979385  0.033995601            3 
  489000    1.1590896   -6.7725328    192.77131   0.03285128  0.033984943            2 
  490000    1.1544051   -6.7244026    193.72512  0.032946448  0.033975358            1 
  491000    1.1690475   -6.7902575    193.29138  0.032805734  0.033966241            3 
  492000    1.1624189   -6.7818126    193.65112  0.032799987  0.033956539            2 
  493000    1.1775394   -6.7838929    193.35098  0.032682721  0.033945652            2 
  494000    1.1454382    -6.679768    194.84954  0.032869355  0.033935118            1 
  495000    1.1845715   -6.7323105    194.96796  0.032822889  0.033924548            3 
  496000    1.1963456   -6.7541971    194.81111  0.032730362  0.033913516            2 
  497000    1.1667312   -6.7803543    194.47462  0.032608084  0.033902146            2 
  498000    1.1669977    -6.722023    195.50673  0.032715317  0.033890463            3 
  499000      1.17522   -6.7321592    195.54452  0.032656066  0.033879144            2 
  500000    1.1571537   -6.7471451      195.896  0.032649334  0.033867238            3 
  501000    1.1694352   -6.7472235    196.67556  0.032713832  0.033855406            5 
  502000     1.191625   -6.7690805    195.80082  0.032503456  0.033843453            3 
  503000    1.1860248   -6.7371927     196.4472  0.032545925  0.033831017            7 
  504000    1.1754902   -6.7523508    196.34208  0.032463969  0.033818607            4 
  505000    1.1546062   -6.7673603    197.07373  0.032520417  0.033805807            3 
  506000    1.1700036   -6.7554214    197.52851  0.032531046  0.033793059            2 
  507000    1.1813574   -6.7411281    198.05771  0.032553865  0.033780147            3 
  508000    1.1709784   -6.7169817     198.3044  0.032530249  0.033767586            1 
  509000     1.157282   -6.7005181    198.19179  0.032447902  0.033755079            2 
  510000    1.1803775   -6.7590326    198.76475  0.032477901   0.03374298            2 
  511000    1.1564142   -6.7883967    198.30843  0.032339927  0.033730104            2 
  512000    1.1645344   -6.7529494    198.79856  0.032356537  0.033717055            2 
  513000    1.1899407   -6.7361892    199.41147  0.032393026  0.033704316            3 
  514000    1.1636476   -6.7315367    200.62428  0.032526634  0.033691884            5 
  515000    1.1897226   -6.7414674    200.25657  0.032403975  0.033679738            3 
  516000    1.1674858    -6.757639    200.89761  0.032444705    0.0336672            6 
  517000    1.1515097   -6.7140819     201.6398   0.03250158  0.033655454            3 
  518000    1.1526441   -6.6980447    202.50982    0.0325788  0.033644749            2 
  519000     1.183072   -6.7882003    202.22536  0.032470354  0.033633993            3 
  520000    1.1690436   -6.7761198    203.49221   0.03261093  0.033623506            4 
  521000    1.1754022   -6.6952967    204.47701  0.032705856  0.033613761            3 
  522000    1.1652629   -6.7560961    203.74612   0.03252652  0.033604169            4 
  523000    1.1551762   -6.7187337    204.51861  0.032587414  0.033593705            4 
  524000    1.1753271   -6.7537845    204.28231  0.032487645  0.033582927            2 
  525000    1.1710917   -6.7713107    204.03013  0.032385735  0.033571636            3 
  526000    1.1634542    -6.767524    204.85869  0.032455433  0.033560906            3 
  527000    1.1782019    -6.720387    205.38473  0.032477028  0.033550087            1 
  528000    1.1582214   -6.7615552    206.05745  0.032521693  0.033538451            4 
  529000    1.1443964   -6.7714809    205.00077  0.032293757  0.033526862            2 
  530000    1.1605559   -6.7179381    206.22658  0.032425563  0.033515362            4 
  531000    1.1775599   -6.7471134    206.03258  0.032334051  0.033504011            5 
  532000     1.182874   -6.7347504    206.64378  0.032369013  0.033493086            2 
  533000    1.1515002   -6.7250157    207.25316  0.032403558  0.033481721            4 
  534000    1.1631411   -6.7407105    207.13677  0.032324714  0.033470153            7 
  535000    1.1693648   -6.7683215    207.65196  0.032344543  0.033458795            2 
  536000    1.1771768   -6.7281457    207.90882  0.032324132  0.033446977            3 
  537000    1.1565312   -6.8109864    207.84115  0.032253437  0.033435387            2 
  538000    1.1620817   -6.7972273    208.02956   0.03222267  0.033423341            5 
  539000    1.1522281   -6.7834398     209.1662   0.03233862    0.0334118            1 
  540000    1.1741197   -6.7706012    209.46628  0.032325044  0.033401361            4 
  541000    1.1775201   -6.7399235    210.48252   0.03242183  0.033390796            4 
  542000    1.1637589   -6.7232745    210.49031  0.032363208  0.033380571            2 
  543000    1.1781896   -6.7787434    210.52263  0.032308568  0.033369744            2 
  544000    1.1501402   -6.7718027    211.00329  0.032322807  0.033358521            2 
  545000    1.1643947   -6.7827878    211.20878   0.03229492  0.033347382            3 
  546000    1.1624243   -6.7511652    211.20972  0.032235916  0.033336447            3 
  547000    1.1803371   -6.8131865    211.26977  0.032186132   0.03332512            6 
  548000    1.1725791   -6.7801078    211.58828  0.032175833  0.033313877            4 
  549000    1.1688703   -6.7924163     211.8271  0.032153477  0.033302727            2 
  550000      1.16784   -6.7835758    213.06002  0.032281821  0.033291467            2 
  551000    1.1837587   -6.8314905    212.92233   0.03220241  0.033280265            2 
  552000     1.198104   -6.7939799    213.20688  0.032187028  0.033269099            2 
  553000    1.1748573   -6.7806167    213.77931  0.032215086  0.033257978            4 
  554000    1.1695806   -6.8335181    214.07385  0.032201242  0.033246675            2 
  555000    1.1849866   -6.8259514    214.10893  0.032148488  0.033235931            7 
  556000    1.1674335   -6.8234679    215.09999  0.032239207  0.033225117            1 
  557000    1.1549858   -6.7726286    215.11224  0.032183159  0.033213591            2 
  558000    1.1649085   -6.7763199    214.89894  0.032093628  0.033203525            5 
  559000    1.1265405   -6.7681751    216.37175  0.032255777  0.033192982            5 
  560000    1.1630362   -6.7960565    216.62268  0.032235517  0.033182782            4 
  561000    1.1593769   -6.8166089    217.47261  0.032304309  0.033172775            2 
  562000    1.1517673   -6.7233567    217.80163  0.032295616  0.033163002            4 
  563000    1.1487386   -6.7357761    218.18892  0.032295577  0.033153019            2 
  564000    1.1641871   -6.8069658    218.12896  0.032229456  0.033143009            3 
  565000    1.1581427   -6.7880098    218.57476  0.032238166  0.033133557            3 
  566000    1.1458084    -6.771889    218.78909  0.032212763  0.033124173            3 
  567000    1.1836877   -6.7830059    219.18412  0.032214009  0.033113714            5 
  568000    1.1618927   -6.7961784    219.40437  0.032189609  0.033103627            6 
  569000    1.1615089   -6.7526516     219.7478  0.032183333  0.033093647            3 
  570000    1.1567802   -6.8242275    220.22472  0.032196596  0.033084087           10 
  571000    1.1520017   -6.8072545     220.5592  0.032189025  0.033073974            4 
  572000    1.1785137   -6.7701263    220.42611  0.032113361  0.033064928            4 
  573000    1.1528322   -6.7468992    220.70884  0.032098435  0.033055865            2 
  574000    1.1754601   -6.7391213    221.48639  0.032155399  0.033046223            3 
  575000    1.1516163   -6.8070748    220.74246  0.031991661  0.033036781            3 
  576000    1.1402099   -6.8069913    222.34122  0.032167423   0.03302635            5 
  577000    1.1277796   -6.8143695    222.28125  0.032103012  0.033016252            2 
  578000    1.1689489   -6.7663478    222.87228  0.032132682  0.033006147            1 
  579000    1.1412554   -6.7768403    222.87775  0.032077971  0.032995434            3 
  580000     1.139526   -6.7617466    223.44083  0.032103567  0.032985046            4 
  581000    1.1608987   -6.7603204    223.59521  0.032070455  0.032975085            7 
  582000     1.160735   -6.7818383     223.4472  0.031994159  0.032964787            3 
  583000     1.160358   -6.7691486     224.2413  0.032052787  0.032954668            2 
  584000    1.1938701   -6.8200458    224.13222  0.031982337  0.032944372            5 
  585000    1.1448979   -6.7792473    225.12897  0.032069654  0.032934061            2 
  586000    1.1673641   -6.8219072    224.65275  0.031947205  0.032924299            3 
  587000    1.1538913   -6.7818021    225.32977  0.031988895  0.032913682            4 
  588000     1.200794   -6.7975318    225.43992  0.031950101  0.032903652            7 
  589000    1.1508198   -6.7665475    226.00154  0.031975316  0.032893027            1 
  590000    1.1544067   -6.7746262    226.24114  0.031954963  0.032882188            4 
  591000    1.1638103   -6.7987334    225.37467  0.031778718  0.032871183            4 
  592000    1.1877367   -6.7907326    226.60468  0.031898181   0.03286026            3 
  593000    1.1471862   -6.7902629    226.78661  0.031869956  0.032849453            3 
  594000    1.1696541   -6.7681074    227.79804  0.031958199  0.032838799            4 
  595000     1.162086    -6.787001    226.68153  0.031748113  0.032827462            3 
  596000    1.1851281   -6.7735291    228.44778  0.031941804  0.032816308            2 
  597000    1.1619873    -6.758114    228.04819  0.031832523  0.032805465            2 
  598000    1.1697629   -6.7594992    228.11006  0.031787913  0.032794104            5 
  599000    1.1596569   -6.7901787    227.45383  0.031643549  0.032782734            4 
  600000    1.1644095   -6.8168787     227.7911  0.031637652  0.032770992            4 
  601000    1.1478927   -6.7467662    229.02438  0.031756016  0.032759393            3 
  602000    1.1530688   -6.8053063    228.42394  0.031620147  0.032747978            2 
  603000    1.1403238    -6.781953    229.89523  0.031771037   0.03273672            2 
  604000    1.1542983   -6.7635231    230.09046  0.031745372   0.03272626            2 
  605000    1.1437474   -6.7318225    230.92237  0.031807489  0.032714937            4 
  606000    1.1455826   -6.8096231    229.36339  0.031540621  0.032703086            3 
  607000    1.1630537   -6.7934627    230.73298  0.031676686  0.032691091            3 
  608000    1.1163092   -6.7924487    230.53213  0.031597058  0.032679236            4 
  609000    1.1764542   -6.7871457    230.73805   0.03157335  0.032666925            2 
  610000    1.1612178   -6.7817582    230.61217  0.031504395  0.032654271            3 
  611000    1.1505628   -6.7870487    231.02699  0.031509409  0.032641581            3 
  612000    1.1587907   -6.8106462    230.86234  0.031435503  0.032628954            6 
  613000    1.1367638   -6.7750128    232.12056  0.031555269  0.032616849            3 
  614000     1.166418   -6.8203309    231.66904  0.031442595  0.032604324            4 
  615000    1.1499924    -6.826725     232.3044  0.031477562  0.032591698            2 
  616000    1.1466842   -6.7991108    232.60955  0.031467742  0.032579446            2 
  617000    1.1556694   -6.8000789    233.64782  0.031556972  0.032567655            2 
  618000    1.1386714   -6.8810103    233.04673  0.031424856  0.032555914            7 
  619000    1.1438807   -6.7496543    235.08581  0.031648601    0.0325445            2 
  620000    1.1572811   -6.7691944    235.36254   0.03163475  0.032533118            4 
  621000    1.1781096   -6.8116206    235.34936   0.03158204  0.032522333            4 
  622000    1.1480745   -6.7599738    235.62944  0.031568789  0.032511306            1 
  623000    1.1530205   -6.8016189    235.41818  0.031489858  0.032500113            5 
  624000    1.1605272    -6.807341    236.05943   0.03152503  0.032488764            2 
  625000    1.1376964   -6.8109506    235.84379  0.031445839   0.03247707            4 
  626000    1.1587054   -6.7830651    236.89358  0.031535354  0.032465356            5 
  627000    1.1512747   -6.7977711    236.94644  0.031492084  0.032453961            1 
  628000     1.161793   -6.7937814    237.27932  0.031486109  0.032442743            2 
  629000    1.1430302   -6.8232567    237.85056  0.031511732  0.032431303            4 
  630000    1.1520881   -6.8048353    237.81546  0.031457071  0.032419545            3 
  631000    1.1368093   -6.8440334    238.00411  0.031432133  0.032407961            3 
  632000    1.1693533   -6.7578808    239.09842  0.031526691  0.032396364            1 
  633000    1.1453926    -6.792191    238.53623  0.031402874  0.032385607            2 
  634000    1.1362765     -6.80985    239.98568  0.031543859  0.032374416            4 
  635000    1.1639293   -6.8257794    239.56835  0.031439416  0.032363511            2 
  636000    1.1412981   -6.8029282    240.54382  0.031517796  0.032352484            4 
  637000    1.1567289   -6.7604126    241.60291  0.031606869  0.032341743            6 
  638000    1.1834614   -6.7506588     242.4179   0.03166378  0.032331335            4 
  639000    1.1338801   -6.7751117    242.36452  0.031607266  0.032321312            3 
  640000    1.1298615     -6.74561    243.04894  0.031646997  0.032311389            2 
  641000    1.1470544   -6.8182421    241.57236  0.031405663  0.032301401            3 
  642000    1.1647965   -6.8162113    242.77738  0.031513159  0.032291421            2 
  643000    1.1497254   -6.8125212    242.61443  0.031443032  0.032281408            2 
  644000    1.1520772   -6.8251573    243.56989  0.031517843  0.032271495            2 
  645000    1.1435715   -6.8469341    242.57955  0.031341028  0.032261373            2 
  646000    1.1493146   -6.7867504     243.9189  0.031465286  0.032250784            5 
  647000    1.1439778   -6.7699701    244.18603  0.031451059  0.032240024            7 
  648000    1.1559687   -6.7780739    244.55792   0.03145035  0.032229671            6 
  649000    1.1444761     -6.76849    245.41012  0.031511315  0.032219358            4 
  650000    1.1471237   -6.8387396    244.53104  0.031350133  0.032209116            6 
  651000    1.1332305   -6.8487003    244.83593  0.031341004  0.032199258            2 
  652000    1.1471369   -6.8194769    244.96979  0.031310045  0.032189132            2 
  653000    1.1394384   -6.7948731    246.25598  0.031426236  0.032179001            1 
  654000      1.14022   -6.8275993    245.62708  0.031298048  0.032168736            3 
  655000    1.1400927   -6.8181551     245.6896  0.031258219  0.032158282            3 
  656000     1.150925    -6.827758    246.97668   0.03137407  0.032147987            4 
  657000    1.1636502   -6.8446651    246.98211  0.031327005  0.032137744            4 
  658000    1.1394505   -6.8351599    246.83652  0.031260958   0.03212756            3 
  659000    1.1595573   -6.8271556    247.41286  0.031286401   0.03211713            3 
  660000    1.1347129   -6.7731445    248.82406  0.031417179   0.03210672            2 
  661000    1.1543472   -6.8062031    248.27183  0.031300029  0.032096559            3 
  662000    1.1564621   -6.7825992    248.23897  0.031248611  0.032086106            5 
  663000    1.1382892   -6.7663868     248.0912  0.031182906  0.032076025            2 
  664000    1.1352148   -6.8140856    248.65646  0.031206885  0.032065449            3 
  665000    1.1324434   -6.8178832    248.97663  0.031200079  0.032054551            3 
  666000     1.149483   -6.7890982    249.90418  0.031269292  0.032044008            3 
  667000    1.1491473   -6.8046442    249.31506  0.031148808  0.032033351            2 
  668000    1.1536715    -6.828527    249.29664   0.03109988  0.032022553            5 
  669000    1.1641026   -6.7666545    251.41253  0.031316956    0.0320121            2 
  670000    1.1543974   -6.7915491    250.95333  0.031213101  0.032001589            3 
  671000    1.1549189   -6.8361467    250.22172  0.031075722  0.031990702            5 
  672000    1.1284268   -6.8384055    250.76817  0.031097243  0.031979811            3 
  673000     1.139528   -6.7687677    251.85495  0.031185606   0.03196908            3 
  674000    1.1688977   -6.8328419    252.41743  0.031208881  0.031958264            2 
  675000    1.1833643   -6.8293282    251.91532  0.031100656  0.031947811            3 
  676000    1.1372788   -6.8159073    253.26827  0.031221433  0.031937652            2 
  677000    1.1476273   -6.7940003    253.20229  0.031167195  0.031927435            2 
  678000    1.1533396   -6.8158609    253.85254  0.031201148  0.031916858            2 
  679000    1.1456076   -6.7922488     253.8071   0.03114962   0.03190622            4 
  680000    1.1287917   -6.8210714     253.3913  0.031052856  0.031895197            2 
  681000    1.1534663   -6.8194572      253.904  0.031069995  0.031884211            3 
  682000    1.1427058   -6.8184682    254.97265  0.031155016  0.031873722            4 
  683000    1.1553256   -6.8170206    255.93206  0.031226459  0.031863351            4 
  684000    1.1492547   -6.8343031     255.0026  0.031067568  0.031853028            2 
  685000    1.1701884   -6.8587148     255.4245   0.03107354  0.031842646            2 
  686000    1.1529979   -6.8308971     255.6946  0.031061054  0.031832273            2 
  687000    1.1432452   -6.7937708    256.09278  0.031064141  0.031822078            2 
  688000    1.1335714   -6.7836081    257.81958  0.031228147  0.031812061            4 
  689000     1.153291    -6.816352    257.04792  0.031089492  0.031802097            4 
  690000    1.1695368    -6.824259    257.50861  0.031100073  0.031792164            6 
  691000    1.1234181   -6.8541777    256.51272  0.030934964  0.031781483            5 
  692000    1.1526667   -6.8141414    257.42974  0.031000691  0.031770891            2 
  693000    1.1394405   -6.8438232     257.7729  0.030997222  0.031760551            3 
  694000    1.1464533    -6.776215    259.29511   0.03113534  0.031750488            2 
  695000    1.1511262   -6.8382584    257.88246  0.030921158  0.031740308            4 
  696000    1.1257309   -6.8338313    258.07135  0.030899348  0.031729984            3 
  697000    1.1277506   -6.8462933     257.9078  0.030835461   0.03171918            5 
  698000    1.1301599    -6.847705    259.21881  0.030947804   0.03170826            1 
  699000    1.1547587    -6.871147    258.80736  0.030854477  0.031697588            2 
  700000    1.1382605   -6.8487176    259.88921  0.030939191  0.031687239            3 
  701000    1.1548319   -6.8366253    260.36654    0.0309518  0.031677192            2 
  702000    1.1479626   -6.8343601    260.94771  0.030976699   0.03166688            4 
  703000    1.1543503   -6.8490609    261.36081  0.030981604  0.031656636            1 
  704000     1.135149   -6.8649691    260.94735  0.030888654  0.031646528            4 
  705000    1.1321031   -6.8295815    261.23533  0.030878881  0.031636371            4 
  706000    1.1522098   -6.8288305    262.47077  0.030980969  0.031626379            5 
  707000    1.1416001   -6.8643995    262.74605  0.030969595  0.031616987            2 
  708000     1.145265    -6.835548    262.74546  0.030925784  0.031607437            5 
  709000     1.165556   -6.8350463    263.38085  0.030956847  0.031597645            3 
  710000    1.1405262   -6.8113091    263.78897  0.030961147  0.031588017            1 
  711000    1.1356826   -6.8365822    263.17884   0.03084609  0.031578209            3 
  712000    1.1300866    -6.765876    264.40291  0.030946033  0.031568848            3 
  713000    1.1303763   -6.8529998    264.60893  0.030926709  0.031559113            2 
  714000    1.1230148   -6.8082844    264.75847  0.030900849   0.03154929            2 
  715000    1.1267674   -6.8155315    265.81155  0.030980367  0.031539975            2 
  716000    1.1109106   -6.8841852    264.79288  0.030818538  0.031530059            8 
  717000    1.1262223   -6.8509304     265.3315  0.030838157  0.031520003            7 
  718000    1.1386735   -6.8702622    266.37077  0.030915827  0.031510849            5 
  719000    1.1347803   -6.8554849    266.76156  0.030918123  0.031501405            2 
  720000    1.1522552   -6.8307202     267.2973  0.030937188  0.031492146            2 
  721000    1.1182183    -6.815753    267.84138  0.030957164  0.031482925            3 
  722000    1.1000653   -6.8700734    266.24754  0.030730325  0.031473276            2 
  723000    1.1174283   -6.8651766    266.91738  0.030765027  0.031463676            6 
  724000    1.1126332   -6.8082751    267.43126  0.030781683  0.031454149            2 
  725000    1.1456108   -6.8009748    268.88467  0.030906284  0.031444312            4 
  726000    1.1174702   -6.8854887    268.32423  0.030799384  0.031434669            2 
  727000    1.1219606   -6.8241461    268.37911   0.03076331   0.03142492            3 
  728000    1.1024235   -6.8782816    268.02621  0.030680656  0.031415164            3 
  729000    1.1423227    -6.863692    268.45272  0.030687325  0.031404957            7 
  730000    1.1386104   -6.8258011    268.74149  0.030678252  0.031394918            1 
  731000    1.1247597   -6.8432319    270.47151  0.030833506  0.031384819            6 
  732000     1.147464   -6.8171255    269.68848  0.030702241   0.03137455            2 
  733000    1.1453424   -6.8256017    269.98987  0.030694619  0.031364225            2 
  734000    1.1358246   -6.8643887    270.10673  0.030666068  0.031353887            3 
  735000    1.1610395   -6.8372823    270.39582  0.030657122  0.031343436            6 
  736000    1.1258897   -6.8265222    270.28908  0.030603383  0.031333477            7 
  737000    1.1425903   -6.8328656    270.43638  0.030578514  0.031323578            3 
  738000    1.1638684   -6.8503484    270.57534  0.030552771  0.031313105            2 
  739000    1.1381321   -6.8323256    271.01242  0.030560715  0.031302484            8 
  740000     1.116501    -6.830859    271.91036  0.030620536  0.031292155            4 
  741000     1.158325   -6.8583437    272.04554  0.030594416  0.031281877            2 
  742000    1.1203988   -6.8447909     271.7323  0.030518003  0.031271311            2 
  743000    1.1552933   -6.8648034    271.72125   0.03047569  0.031260385            3 
  744000    1.1318628    -6.885456    272.42531  0.030513587  0.031249416            3 
  745000    1.0998393   -6.9224361    270.74979  0.030285211  0.031237993            4 
  746000    1.1509296   -6.8574684    271.83229  0.030365537  0.031226335            2 
  747000    1.1305849   -6.8426268    273.12752  0.030469379  0.031214801            7 
  748000     1.128509   -6.8483431    272.77249  0.030389092  0.031203213            6 
  749000    1.1628903   -6.8355114    273.28674  0.030405734  0.031192151            3 
  750000    1.1190376   -6.8380053     273.3248  0.030369423  0.031180902            4 
  751000    1.1212816   -6.8438553     273.3063   0.03032693  0.031169873            3 
  752000    1.1257829   -6.8235658     274.5399  0.030423304  0.031158822            2 
  753000    1.1424976   -6.8300562    275.05592  0.030440008  0.031147856            4 
  754000    1.1195626    -6.845601    275.19835   0.03041538   0.03113675            4 
  755000    1.1418219   -6.8444933    275.31249  0.030387692  0.031125907            4 
  756000    1.1325525   -6.8491287    275.36634  0.030353432  0.031115354            2 
  757000    1.1239295   -6.8505446    275.94482  0.030377016  0.031104844            2 
  758000     1.123536   -6.8506541    276.33742  0.030380104  0.031093975            4 
  759000    1.1250729   -6.8799748      276.589  0.030367699  0.031083394            4 
  760000    1.1319469   -6.8326384    276.77816  0.030348482  0.031072595            2 
  761000    1.1492573   -6.8229216    276.82183  0.030313385  0.031061863            3 
  762000    1.1387426   -6.8357786     276.6621  0.030256135  0.031051077            4 
  763000    1.1371385   -6.8343366    277.01605  0.030255139  0.031040047            2 
  764000    1.1597087   -6.8566584    277.76121  0.030296816  0.031028582            4 
  765000    1.0878147   -6.9056756    277.18789  0.030194759  0.031017073            2 
  766000    1.1309344   -6.8359758    278.34191  0.030280887  0.031005452            4 
  767000    1.1170979   -6.8896056     277.2184  0.030119339  0.030993754            5 
  768000    1.0939013    -6.834461    278.53874  0.030223387  0.030982277            1 
  769000     1.141735   -6.8202066    279.60692   0.03029984   0.03097114            5 
  770000    1.1425456   -6.8115201    279.14864  0.030210892  0.030960015            2 
  771000    1.1414177   -6.8578252    279.08666  0.030165009  0.030949116           11 
  772000    1.1412913   -6.8330044    279.62528  0.030184076  0.030937911            4 
  773000    1.1112114   -6.8493996    280.58311  0.030248286  0.030926366            2 
  774000    1.1411505   -6.8595449    280.93567  0.030247166  0.030915211            2 
  775000    1.1227503   -6.8190748    281.81741  0.030302947  0.030904495            1 
  776000    1.0993621   -6.8457182    282.17828  0.030302651  0.030893946            3 
  777000    1.1136922   -6.8562943    281.33821  0.030173553  0.030883367            3 
  778000    1.1327327   -6.8286984    282.42724  0.030251419  0.030872941            3 
  779000    1.1535425    -6.854602    282.21645  0.030190036  0.030862337            3 
  780000    1.1600563   -6.8690886    282.81332  0.030215098  0.030851919            4 
  781000    1.1503116   -6.8208847    283.31195  0.030229615  0.030841918            1 
  782000     1.113364   -6.8512151    284.42503  0.030309573  0.030832021            6 
  783000    1.1218284   -6.8270611    285.31126  0.030365183  0.030822396            4 
  784000    1.1283295    -6.851287     285.1181  0.030305921  0.030812632            4 
  785000    1.1314691   -6.9217511    283.46685  0.030092022  0.030802647            3 
  786000    1.1419815   -6.8702224    284.45296  0.030158287  0.030792402            3 
  787000    1.1375583    -6.847418    285.03663   0.03018177  0.030781823            2 
  788000    1.1381585   -6.8362998    285.94112   0.03023912  0.030771574            2 
  789000    1.1527236   -6.8957605    285.13821  0.030115992  0.030761167            3 
  790000    1.1209168   -6.8830714    284.41242   0.03000131  0.030750514            2 
  791000    1.0867139   -6.9199041    283.81929  0.029900895  0.030739696            3 
  792000    1.1563252   -6.8588594    285.31579  0.030020601  0.030729065            3 
  793000    1.1337098   -6.9015811    284.96926  0.029946328  0.030718127            4 
  794000    1.1473525   -6.8967402    284.82984  0.029893979  0.030707149            2 
  795000    1.1191991   -6.8701769    285.84114  0.029962383  0.030696455            3 
  796000    1.1122302   -6.8911752    285.65164  0.029904903  0.030685407            3 
  797000    1.1495913   -6.8264464    287.23623  0.030033065  0.030674326            4 
  798000    1.1388336   -6.9294739    285.55004  0.029819344  0.030663322            4 
  799000    1.0930735   -6.8689884     286.4377  0.029874603  0.030652135            2 
  800000    1.1113276   -6.8666986    288.06903  0.030007191  0.030641145            5 
  801000    1.1219115   -6.8543477    287.91959  0.029954181  0.030630704            4 
  802000    1.1136029   -6.8454111    287.66104  0.029889966  0.030620211            8 
  803000    1.1031162   -6.8952896    289.34435  0.030027433  0.030609784            5 
  804000    1.1281453   -6.8853523    289.67273  0.030024122  0.030599368            2 
  805000    1.1320064   -6.8968471    289.15565  0.029933297  0.030588813            2 
  806000    1.1204036   -6.8923242    289.51512  0.029933325   0.03057832            5 
  807000    1.1431497   -6.8744417    289.67349  0.029912587  0.030567801            2 
  808000    1.1295462   -6.9319687    288.44955  0.029749335  0.030557429            3 
  809000    1.1131681   -6.8705239    290.38322  0.029911745   0.03054671            3 
  810000    1.0952198   -6.9031642    291.31234  0.029970405  0.030536495            4 
  811000     1.132379    -6.865531    291.83151  0.029986797   0.03052648            2 
  812000    1.1151804   -6.9033171    291.17352   0.02988234   0.03051653            3 
  813000    1.1059455   -6.9088669     290.6078  0.029787598  0.030506403            3 
  814000    1.1009438   -6.8573647    293.11942  0.030008131  0.030496104            1 
  815000    1.1125175   -6.8728431    291.95398  0.029852145  0.030486251            2 
  816000     1.124803    -6.912178     291.9164  0.029811724  0.030476124            2 
  817000    1.1344709   -6.8602996    292.85473  0.029870943  0.030465893            1 
  818000    1.1278641   -6.8736143    293.60512  0.029910872   0.03045569            4 
  819000    1.1300912   -6.8400973    293.86538  0.029900833  0.030445515            3 
  820000    1.1253771   -6.8789003    293.43716  0.029820849  0.030435538            6 
  821000    1.1246535   -6.8531118    293.90226  0.029831735  0.030425892            3 
  822000    1.1132213    -6.880246    294.89208  0.029895791  0.030415733            5 
  823000    1.1147723   -6.8882946    295.39444  0.029910332  0.030405774            2 
  824000    1.1318885   -6.8375773    296.12269  0.029947683  0.030396009            3 
  825000    1.1319409   -6.8478672    295.06539  0.029804585   0.03038616            3 
  826000    1.0942113   -6.8803757    296.66817  0.029930203  0.030376451            4 
  827000    1.1146287   -6.8408719    296.12145  0.029838921  0.030366585            2 
  828000    1.1051267   -6.8904214    295.38129  0.029728391  0.030356533            2 
  829000    1.1057826   -6.8432847    296.73967  0.029829078   0.03034637            3 
  830000    1.1231924   -6.8333252    296.88061   0.02980729  0.030336234            2 
  831000    1.1381303   -6.9140752    295.11007   0.02959387  0.030325931            6 
  832000    1.1269206   -6.9076467    296.62958  0.029710495  0.030315328            4 
  833000    1.1233749   -6.8432728    296.97929  0.029709813  0.030304918            3 
  834000    1.1217584   -6.8859143    297.47944  0.029724165  0.030294624            5 
  835000    1.1496839   -6.9029069    297.87138  0.029727683  0.030284244            4 
  836000    1.1451755   -6.9087061    297.21148  0.029626344   0.03027375            2 
  837000    1.1219695   -6.8592619    298.94278  0.029763319  0.030263287            3 
  838000    1.1258659    -6.899303    298.66852  0.029700529  0.030252959            2 
  839000    1.1317601   -6.9375788     297.4231  0.029541428   0.03024258            2 
  840000    1.1113697   -6.8835377    298.08501  0.029571925   0.03023189            3 
  841000    1.1219342   -6.8667533    299.11712  0.029639033  0.030221421            2 
  842000    1.1079254   -6.8584804    299.11605  0.029603726  0.030211042            3 
  843000    1.1049378   -6.9055213    299.43216  0.029599857  0.030200671            4 
  844000    1.1247814   -6.8355141    301.17077   0.02973645  0.030190695            6 
  845000    1.1232025   -6.8784207    300.80915  0.029665596  0.030180732            4 
  846000    1.1132106   -6.8887227    300.63408  0.029613286  0.030170704            3 
  847000    1.1239072   -6.8858424    301.71294  0.029684469  0.030160987            7 
  848000    1.0982919   -6.9176302    300.91771  0.029571316  0.030151173            3 
  849000    1.0944873   -6.9159843    301.57019  0.029600529  0.030141191            3 
  850000    1.1080765   -6.8779431    302.77011  0.029683344  0.030131315            2 
  851000    1.0923395   -6.9510439    301.30652  0.029505143  0.030121359            3 
  852000    1.0978791   -6.9163272    302.55555  0.029592679  0.030111174            6 
  853000     1.088564    -6.926088     301.4667  0.029451612  0.030100923            3 
  854000     1.126685   -6.8696194    302.36003  0.029504296  0.030090997            3 
  855000    1.1383408   -6.9504877    302.74745  0.029507549   0.03008125            2 
  856000    1.1164216   -6.9160684    303.15901  0.029513143  0.030071267            6 
  857000    1.1341515   -6.8842493    304.39036   0.02959844  0.030061687            2 
  858000      1.12617   -6.9239559    303.91728  0.029517995  0.030052112            6 
  859000    1.1043201   -6.8980912    304.55264   0.02954527  0.030042704            4 
  860000    1.0858963   -6.8691729    305.91247  0.029642682  0.030033153            6 
  861000     1.096786   -6.8728118    305.22954  0.029542154   0.03002379            2 
  862000    1.1154962   -6.8904623    305.96779  0.029579253  0.030014567            6 
  863000    1.1195147   -6.8859657    307.29459  0.029673096  0.030005406            1 
  864000    1.0875003   -6.8491147    308.14528  0.029720802  0.029996183            3 
  865000    1.1097129    -6.907786    307.35761   0.02961056  0.029987109            4 
  866000    1.0870981   -6.8783236    308.18842  0.029656314  0.029978289            4 
  867000     1.117274   -6.8736373    308.90702  0.029691179  0.029969206            1 
  868000    1.1072347   -6.9370699    307.02099  0.029475901   0.02995995            4 
  869000    1.1404464   -6.9227445    307.63685   0.02950104  0.029950485            2 
  870000    1.1111434   -6.9000866    308.21718  0.029522718  0.029941316            2 
  871000    1.1005908   -6.9191926    309.10439  0.029573708  0.029932165            2 
  872000    1.1002045   -6.8773713    309.53771  0.029581203  0.029922931            4 
  873000     1.140672   -6.9203771    308.25861   0.02942522  0.029913589            3 
  874000    1.1172848   -6.9223133    308.77362  0.029440657  0.029903909            4 
  875000    1.1050901   -6.8649973    311.07354  0.029626052  0.029894625            5 
  876000    1.0667601   -6.8697289    310.04895  0.029494763  0.029885326            5 
  877000    1.1572252   -6.8965091    309.34435   0.02939418  0.029875941            4 
  878000    1.1123582   -6.9015322    309.58061  0.029383125  0.029866727            3 
  879000     1.097359   -6.8599551    311.18842  0.029502125  0.029857254            2 
  880000     1.116714   -6.9611809    309.92483  0.029348942  0.029847767            3 
  881000    1.1055497   -6.8913606     311.0919  0.029426022  0.029838418            8 
  882000    1.1046875   -6.9161013    311.58699  0.029439436   0.02982953            3 
  883000    1.0988364   -6.8888974    313.23338  0.029561474  0.029820609            3 
  884000    1.1047629   -6.9085096    311.54121  0.029368515  0.029812015            3 
  885000    1.0999035   -6.9331203    312.17385  0.029394901  0.029803071            5 
  886000     1.105354    -6.910752    312.80809  0.029421378  0.029794224            2 
  887000    1.1215538   -6.8786383    313.67704  0.029469846  0.029785204            3 
  888000    1.1241005   -6.9084212    313.69179  0.029438043  0.029776711            4 
  889000    1.1068206   -6.8691105    314.06998  0.029440381  0.029768318            4 
  890000    1.1079798   -6.9066881    315.78432   0.02956782  0.029760024            2 
  891000    1.0826191   -6.9366502    315.29697  0.029489054  0.029751551           13 
  892000    1.0689653     -6.90285    316.18202  0.029538679  0.029743359            4 
  893000     1.110773   -6.9445879    315.31637   0.02942482  0.029735069            2 
  894000    1.1288428   -6.9340301     314.9987  0.029362295  0.029726556            5 
  895000     1.087421   -6.8759072    316.83492  0.029500458  0.029718253            2 
  896000      1.11108   -6.9153726    316.12386  0.029401401  0.029709681            7 
  897000    1.1083323   -6.8722219    316.25942  0.029381217  0.029701416            3 
  898000    1.1153935   -6.9097284    318.08415  0.029517831  0.029693275            1 
  899000    1.0846245   -6.8903774    316.77045  0.029363223  0.029684639            4 
  900000      1.10451   -6.9494971    316.98218  0.029350202  0.029675985            2 
  901000     1.090365   -6.9251383    316.88107  0.029308275  0.029667419            1 
  902000     1.118372   -6.9166577    318.00337  0.029379469  0.029659001            2 
  903000    1.1207502   -6.9195831    318.45938  0.029389016  0.029650596            4 
  904000    1.1015318   -6.9401564    318.39843  0.029350888  0.029642216            5 
  905000    1.1283033     -6.94718    319.19082   0.02939142  0.029633756            4 
  906000    1.1115387    -6.961612    318.60409  0.029305012  0.029625563            3 
  907000    1.0939273     -6.93975    318.54579  0.029267346  0.029617216            2 
  908000    1.0992557   -6.9139957     320.1776  0.029384875  0.029609074            5 
  909000    1.1104171   -6.9183857    319.93842  0.029330622  0.029600808            2 
  910000    1.1158367   -6.8930028    321.83217  0.029471811  0.029592718            6 
  911000    1.1118982   -6.9313701    321.07006  0.029369745  0.029584445            2 
  912000    1.0985224   -6.9054794    321.33779  0.029362006  0.029576313            6 
  913000     1.085372   -6.9400686    320.78941  0.029279793  0.029568265            3 
  914000    1.1110237   -6.9044175    321.89383  0.029348453  0.029559822            6 
  915000    1.1335778   -6.9197633    322.73116  0.029392637  0.029551623            7 
  916000    1.0881592   -6.9269577    322.59058   0.02934776  0.029544061            3 
  917000    1.1269287   -6.9285365    323.51632  0.029399884  0.029536201            2 
  918000    1.0725187   -6.9085242    324.54747  0.029461463  0.029528441            2 
  919000    1.0951069   -6.9146769    323.83364  0.029364675  0.029520792            2 
  920000    1.1130113   -6.9249157    323.67379  0.029318278  0.029513571            4 
  921000    1.1004118   -6.9240659    324.10056   0.02932506  0.029506119            3 
  922000    1.0794266   -6.9519287    325.09571  0.029383199  0.029498691            3 
  923000    1.1274814   -6.9457573    324.75411  0.029320523  0.029491089            3 
  924000    1.0939012   -6.9465013    325.20587  0.029329534  0.029483647            3 
  925000    1.1106862   -6.9621976    324.06889  0.029195396  0.029476032            2 
  926000    1.0964601    -6.956721    324.82053  0.029231509  0.029468561            2 
  927000     1.108053   -6.9608111    325.69268  0.029278378  0.029460842            4 
  928000     1.102842   -6.9174432    326.68465  0.029335906  0.029453406            5 
  929000    1.1092877    -6.900037    326.99023  0.029331739  0.029446013            3 
  930000    1.1287871   -6.8664655    326.66246   0.02927083  0.029438744            4 
  931000     1.093816   -6.9532396    326.65889   0.02923907   0.02943113            4 
  932000    1.1253696   -6.9787962    326.27981  0.029173803  0.029423266            2 
  933000    1.1006524   -6.9261857    326.97129  0.029204295  0.029415485            5 
  934000    1.0969787   -6.9318525    327.46569  0.029217138  0.029407771            4 
  935000    1.0962644   -6.8978059    328.54539  0.029282121  0.029400335            4 
  936000    1.1034527   -6.9447558    327.49357  0.029157191   0.02939261            1 
  937000    1.1010043    -6.914186    328.51496  0.029216912  0.029385021            2 
  938000     1.097262   -6.9068238    329.07175   0.02923523  0.029377341            3 
  939000    1.0993124   -6.9174399    328.87797  0.029186898  0.029369666            8 
  940000    1.1098045   -6.9659131    328.97752  0.029164674  0.029361872            5 
  941000    1.0922731   -6.9446492    330.78016  0.029293319  0.029354207            2 
  942000    1.0815194   -6.8985485    330.82665  0.029266335   0.02934665            4 
  943000    1.0680739   -6.9467932    329.87144  0.029150888  0.029339018            4 
  944000    1.0928111    -6.892894    331.86087  0.029295627  0.029331584            3 
  945000    1.1010923   -6.9119887    331.14764  0.029201731  0.029323991            5 
  946000    1.1109505   -6.8928205    330.62105  0.029124476  0.029316356            1 
  947000    1.1068947   -6.9183081    331.29569  0.029153088  0.029308732            2 
  948000    1.1105588   -6.9474743    331.11189  0.029106179  0.029300829            6 
  949000    1.1078733   -6.9618892    330.33396  0.029007197  0.029292945            5 
  950000    1.0936641   -6.9366741    331.98744  0.029121705  0.029284964            1 
  951000     1.119916   -6.9701191    330.90634   0.02899635  0.029277232            3 
  952000    1.0682362   -6.8997948    332.64692  0.029118253  0.029269033            4 
  953000    1.1155034   -6.9198574    331.29566   0.02896954  0.029260981            4 
  954000    1.0959262   -6.9109839    331.92376  0.028994039  0.029252968            3 
  955000    1.1131193   -6.9747249    331.75125  0.028948625  0.029244743            5 
  956000    1.0954451   -6.9242476    332.89361  0.029017922  0.029236563            4 
  957000    1.0822121   -6.9245595     332.5093  0.028954137  0.029227923            2 
  958000    1.0619333   -6.9726846    331.55278  0.028840708  0.029219281            6 
  959000    1.1387185   -6.9723004    332.43653  0.028887429  0.029210624            3 
  960000    1.0798798   -6.9583054    332.68873   0.02887923  0.029202009            2 
  961000     1.097348   -7.0007563    332.75664  0.028855068  0.029193536            5 
  962000    1.1026365    -6.978498    333.69572   0.02890642  0.029184949            5 
  963000    1.0892926   -6.9480731    334.91598  0.028981999  0.029176484            2 
  964000    1.0818221   -6.9619973    334.31686  0.028900143  0.029168097            3 
  965000    1.1004818   -6.9642775    334.47506  0.028883856  0.029159883            3 
  966000    1.0895636   -6.9168903    335.85541  0.028973034  0.029151906            3 
  967000    1.0704531   -6.9260744    336.19439  0.028972284  0.029143867            4 
  968000    1.0877519   -6.9583295    335.67972  0.028898048  0.029135656            4 
  969000    1.0818103   -6.9440457    336.00012   0.02889578  0.029127628            3 
  970000    1.0932825   -6.9731876    335.17551  0.028795147  0.029119851            3 
  971000    1.1112369    -6.910722    337.72824  0.028984572   0.02911207            3 
  972000    1.0908023   -7.0184304    336.32244  0.028834228  0.029104099            2 
  973000    1.1134989    -6.939858    338.33013  0.028976544  0.029096223            3 
  974000    1.1128507   -6.9418151    338.39231  0.028952114  0.029088464            4 
  975000    1.0812748   -6.9499656    338.07251  0.028895086  0.029080375            2 
  976000    1.0766202   -6.9482204    339.78352  0.029011571  0.029072483            3 
  977000    1.0919004   -6.9759957    338.68774  0.028888412  0.029064603            3 
  978000    1.0789978   -6.9342351    338.74796  0.028864005  0.029056814            2 
  979000    1.1132971   -6.9258938    338.77749  0.028837035  0.029049257            2 
  980000    1.0997598   -6.9245003    339.78411  0.028893207  0.029041923            2 
  981000    1.0905636   -6.9683784    339.45122  0.028835476  0.029034303            2 
  982000    1.0955983   -6.9597531    340.63433  0.028906512  0.029026622            4 
  983000    1.0682335    -6.946232    341.37098  0.028939554  0.029018887            4 
  984000    1.0863326   -6.9760946    340.22805  0.028813351  0.029011036            4 
  985000       1.1081   -6.9727998    340.75108  0.028828349  0.029003105            1 
  986000    1.0705618   -6.9750195    341.40788  0.028854622  0.028995462            7 
  987000    1.0750964   -7.0013432    341.52516  0.028835289  0.028987779            3 
  988000    1.0932052    -6.943832    342.02267  0.028848066  0.028980166            4 
  989000    1.0911233    -6.984399      341.783  0.028798703  0.028972743            6 
  990000    1.1409782   -6.9594397    343.17383  0.028886686  0.028965427            3 
  991000    1.0733289   -6.9516439    343.37306   0.02887429  0.028958173            4 
  992000    1.0749415   -6.9127401    344.17923  0.028912906  0.028950856            4 
  993000    1.0796796   -6.9534847    343.41846  0.028819945  0.028943442            3 
  994000    1.0941234   -6.9322963     343.1962  0.028772317  0.028935937            2 
  995000     1.089037   -6.9541389    344.11749   0.02882056  0.028928371            2 
  996000    1.0942121   -6.9288359    344.71412  0.028841543  0.028921061            2 
  997000    1.1128543   -6.9013027    345.36059  0.028866649  0.028913771            3 
  998000    1.1131854   -6.9506914     346.0678  0.028896777  0.028906486            1 
  999000    1.1122116   -6.9559877    345.40767  0.028812785  0.028899159            2 
 1000000    1.0795809   -6.9472365    345.15847  0.028763206  0.028891972            2 
 1001000    1.0900688   -6.9951275    346.45037  0.028842022  0.028884709            3 
 1002000    1.0889308   -6.9676534    347.52693  0.028902772  0.028877541            3 
 1003000    1.1052553     -6.95745    347.48003  0.028870059  0.028870535            3 
 1004000    1.0905641   -6.9652648    347.49763  0.028842765  0.028863444            3 
 1005000    1.0788748   -6.9904593    347.43479  0.028808855  0.028856282            3 
 1006000    1.1116286   -6.9602581    347.18138  0.028759227  0.028849326            4 
 1007000    1.0832211   -6.9204863    348.54299  0.028843345  0.028842364            2 
 1008000    1.0902427   -6.9671345    347.68972   0.02874419  0.028835429            3 
 1009000    1.0761364   -6.9726786     347.4174  0.028693211  0.028828235            3 
 1010000    1.0765886   -6.9604857    349.01316  0.028796466  0.028821212            2 
 1011000    1.0906562   -6.9476878    349.24597  0.028787172  0.028814061            8 
 1012000    1.0877065   -6.9688904    348.74767  0.028717693   0.02880699            2 
 1013000    1.0817148   -6.9540909    349.03226  0.028712756  0.028799971            6 
 1014000    1.0743272   -6.9523881    349.62664  0.028733287  0.028792938            3 
 1015000    1.1012133   -6.9568432    350.18591  0.028750896  0.028785886           10 
 1016000    1.0795424   -6.9470865    350.63192   0.02875918  0.028778712            2 
 1017000    1.0687073    -7.006496     349.3529  0.028626098  0.028771509            2 
 1018000    1.0841358   -6.9923988    349.68509  0.028625171  0.028763997            3 
 1019000    1.1002446   -6.9748639    350.07672  0.028629107  0.028756561            3 
 1020000    1.0954143   -6.9505023    351.30149  0.028701102  0.028749184            2 
 1021000     1.092092    -6.944222    351.33141  0.028675434  0.028741609            3 
 1022000    1.0623063    -6.950783     350.9495  0.028616235  0.028734057            4 
 1023000    1.0962889   -6.9655307    351.99056  0.028673066  0.028726356            4 
 1024000     1.065934   -6.9295614    352.68384  0.028701484  0.028718875            2 
 1025000    1.0688988   -6.9452455    351.40123  0.028569206  0.028711612            3 
 1026000    1.1109449   -6.9859988     352.7793  0.028653289   0.02870418            2 
 1027000    1.0918524    -6.979317       352.49  0.028601915   0.02869664            3 
 1028000    1.1100381   -6.9513439    352.46785  0.028572296  0.028689245            5 
 1029000    1.0905036   -6.9728426    353.26129  0.028608786   0.02868153            7 
 1030000    1.1071152   -6.9971985    352.78067  0.028542125  0.028673979           12 
 1031000    1.0860357    -7.021989     352.7385  0.028511033  0.028666234            3 
 1032000    1.0939416    -6.988551    353.73493  0.028563867  0.028658484            2 
 1033000    1.1161054   -6.9664444    354.19846  0.028573609  0.028651112            2 
 1034000    1.0811912    -7.007301    352.96843  0.028446843  0.028643607            2 
 1035000    1.0564912   -6.9842254    354.91097  0.028575763  0.028635973            3 
 1036000      1.08519   -6.9360847    355.16505  0.028568617  0.028628259            2 
 1037000    1.0896344   -7.0105084    354.23707  0.028466496  0.028620629            2 
 1038000    1.0816833   -7.0156325    354.50987  0.028460972  0.028613048            7 
 1039000     1.076862   -6.9506253    354.89383  0.028464376   0.02860535            4 
 1040000    1.0897682   -6.9791142    355.98396  0.028524356  0.028597862            2 
 1041000    1.0799117    -6.985693    354.74464  0.028397746  0.028590348            5 
 1042000    1.0676219   -6.9835237    356.80803  0.028535511  0.028582698            5 
 1043000    1.0948791   -6.9777788    357.05433   0.02852783  0.028575126            5 
 1044000    1.0857505   -6.9848121    356.35891  0.028444996  0.028567792            4 
 1045000    1.0979521   -6.9675728    356.33087   0.02841554  0.028560311            1 
 1046000    1.0870589   -6.9669323    356.71352  0.028418859  0.028552869            3 
 1047000    1.1063488   -6.9738229    358.02884  0.028496406  0.028545468            5 
 1048000    1.0827953   -6.9865844    356.82862  0.028373777  0.028538183            4 
 1049000    1.0730856    -6.995833    356.25103  0.028300844  0.028530467            3 
 1050000    1.0654813   -6.9689328    358.40798  0.028445078  0.028522688            1 
 1051000    1.0817284   -6.9749651    358.58693  0.028432202   0.02851505            2 
 1052000    1.0850603   -7.0525103    356.90517  0.028271956  0.028507176            5 
 1053000    1.0930697    -6.970102    358.58665  0.028378178  0.028499231            5 
 1054000     1.110657   -6.9588837    357.34313  0.028252935  0.028491318            6 
 1055000    1.0929858   -6.9690652    359.39878  0.028388529  0.028483587            3 
 1056000    1.0872017   -6.9963985    358.54002  0.028293878  0.028475819            4 
 1057000    1.0733331   -6.9762589    358.99222  0.028302761   0.02846797            4 
 1058000    1.0765598   -7.0157379    359.17701  0.028290565  0.028459976            2 
 1059000    1.0740759    -7.025683    358.87449  0.028240045  0.028451991            8 
 1060000    1.0520619    -7.017138     359.9946  0.028301463  0.028443931            4 
 1061000     1.094273   -6.9642432    360.83684   0.02834094  0.028436322            6 
 1062000    1.0915853   -6.9896479    360.54838  0.028291618    0.0284286            3 
 1063000    1.0753435   -7.0323807    359.51074  0.028183658  0.028420673            3 
 1064000    1.0706949    -6.991448    359.56954  0.028161775  0.028412486            3 
 1065000    1.0673667    -6.978507    360.67984   0.02822221  0.028404245            8 
 1066000    1.0732748   -6.9999121    360.49346  0.028181165  0.028396121            3 
 1067000    1.0715545   -6.9960248    360.82285  0.028180479  0.028387943            4 
 1068000    1.0789692   -6.9859436    361.14284  0.028179061  0.028379374            2 
 1069000     1.075924   -6.9570189     362.3039   0.02824321  0.028371219            7 
 1070000    1.0904815   -6.9931062    360.57678  0.028082304  0.028363175            3 
 1071000    1.1009642   -6.9997773    361.27732  0.028110591  0.028355138            5 
 1072000    1.0765312    -6.964634    362.85236  0.028206807  0.028347222            2 
 1073000    1.0816517   -7.0156048    362.64263   0.02816423  0.028339297            6 
 1074000    1.0813705   -7.0151013    361.09062  0.028017584  0.028331243            6 
 1075000    1.0979914   -7.0202649    362.48552  0.028099653  0.028323245            3 
 1076000    1.0969396   -7.0263016    362.92914  0.028107895  0.028315104            6 
 1077000    1.0913019   -7.0001874    363.01026  0.028088073  0.028307004            7 
 1078000    1.0704239   -7.0131294    362.68164  0.028036614  0.028299122            2 
 1079000    1.0844143   -7.0096367    362.68887  0.028011189   0.02829092            3 
 1080000    1.0736901   -6.9979824    363.73225   0.02806576  0.028282699            3 
 1081000    1.0922407    -6.998376    365.49808  0.028175924   0.02827459            2 
 1082000    1.0737173   -6.9699122    364.92317  0.028105605  0.028266683            2 
 1083000    1.0912073   -6.9905814     366.0535  0.028166628   0.02825889            8 
 1084000    1.0931483   -7.0040114    365.01735  0.028060989  0.028251108            2 
 1085000    1.0703948   -7.0489946    364.94267  0.028029391   0.02824318            2 
 1086000    1.0755373   -6.9821866    366.08313  0.028091094  0.028235174            3 
 1087000    1.0894756   -7.0169645    365.96676  0.028056329  0.028227166            3 
 1088000    1.0663782   -7.0246826    365.99757  0.028032902  0.028218923            7 
 1089000    1.0607614     -6.99909    367.32952  0.028109085   0.02821095            4 
 1090000    1.0730242   -6.9977878    365.94304  0.027977297  0.028203038            1 
 1091000     1.087035   -7.0489135    365.15291  0.027891301  0.028194892            5 
 1092000    1.0854618   -6.9900645    367.08284  0.028013037  0.028186735            7 
 1093000     1.065495   -6.9660735    367.71403  0.028035531  0.028178826            5 
 1094000    1.0735974    -7.001455    367.27619  0.027976553  0.028170972           10 
 1095000    1.0741564   -7.0097675    367.47674  0.027966267  0.028162876            3 
 1096000    1.0693189   -6.9995267    366.90469  0.027897254  0.028154695            3 
 1097000    1.0703555   -7.0115648    367.96207  0.027952148  0.028146299            5 
 1098000    1.0637548   -6.9955727     368.0382  0.027932468  0.028138214            6 
 1099000    1.0983865   -7.0059912    366.93612  0.027823485  0.028130047            4 
 1100000    1.0641106   -7.0760811    367.27856  0.027824133  0.028121718            3 
 1101000    1.0804611   -7.0212153    369.35389  0.027955941   0.02811361            3 
 1102000    1.0776221   -7.0225829    368.85854  0.027893114  0.028105561            1 
 1103000    1.0478874   -6.9738033    369.56657  0.027921318  0.028097688            3 
 1104000    1.0715633   -6.9955817    369.40063  0.027883502  0.028089776            2 
 1105000    1.0735256    -7.047202     369.4931  0.027865242  0.028081848            3 
 1106000       1.0941   -7.0374557    368.87207  0.027793254  0.028073682            2 
 1107000    1.0693309   -7.0060642    370.62294  0.027899951  0.028065601            2 
 1108000    1.0603791   -7.0273239    370.03759  0.027830745  0.028057704            2 
 1109000    1.0865777   -7.0095275     371.5811  0.027921634  0.028049667            2 
 1110000    1.0445448   -6.9874581    371.47701  0.027888664  0.028041629            2 
 1111000    1.0866738   -6.9747694    373.12245  0.027986982  0.028033594            3 
 1112000    1.0668402   -6.9869797    371.89596  0.027869901  0.028025771            8 
 1113000    1.0700265    -7.010428    370.99521  0.027777419  0.028017761            5 
 1114000    1.0643661   -7.0578348    371.33234  0.027777703  0.028009654            4 
 1115000    1.0622199     -6.99973    373.91747  0.027945999  0.028001532            3 
 1116000    1.0500699   -7.0435713     371.2188  0.027719444  0.027993609            3 
 1117000    1.0742287   -7.0142187    371.75012  0.027734268  0.027985643            3 
 1118000      1.08588   -6.9841112    372.80075  0.027787772  0.027977702            6 
 1119000    1.0551272   -7.0224841    372.17821  0.027716578  0.027969647            3 
 1120000    1.0775168   -7.0141245    372.78233  0.027736781  0.027961457            2 
 1121000    1.0482737    -7.017124    373.87119  0.027792982  0.027953457            4 
 1122000    1.0985199   -7.0262428     372.4502  0.027662671  0.027945259            3 
 1123000    1.1042678   -7.0112893    374.74834  0.027808574  0.027937307            2 
 1124000    1.0773626   -7.0516268     374.8234  0.027789398   0.02792921            5 
 1125000    1.0547901    -7.026524    374.40146  0.027733441  0.027921027            2 
 1126000    1.0595262   -7.0376711    374.55364  0.027720074  0.027912699            9 
 1127000    1.0750256   -7.0361071    375.66057  0.027777327  0.027904613            4 
 1128000    1.0588873   -7.0549056    375.70757  0.027756174  0.027896524            2 
 1129000    1.0505318   -7.0661788    376.22227   0.02776958  0.027888685            4 
 1130000    1.0586057   -7.0217775    377.29051  0.027823784  0.027880897            5 
 1131000    1.0905835   -6.9585068    377.56897    0.0278197  0.027873241            6 
 1132000    1.0792516    -7.079483    375.14246  0.027616494  0.027865339            4 
 1133000    1.0588512    -7.047936    375.95431  0.027651832  0.027857355            6 
 1134000    1.0720545   -6.9984923    377.57772  0.027746746  0.027849407            5 
 1135000    1.0517664   -7.0054656    378.88608  0.027818361   0.02784171            2 
 1136000    1.0848329   -6.9657796     378.6202  0.027774369  0.027834052            2 
 1137000    1.0580407   -7.0312683    376.24722   0.02757602  0.027826257            3 
 1138000    1.0673486   -7.0187005    377.52786  0.027645567  0.027818342            7 
 1139000    1.0660239   -7.0283838    377.02479  0.027584489  0.027810468            6 
 1140000    1.0935751   -7.0366634    377.21574   0.02757425  0.027802465            5 
 1141000    1.0575847   -7.0419655    377.91254  0.027600974  0.027794483            5 
 1142000    1.0788048   -7.0286814    378.67122  0.027632167  0.027786317            4 
 1143000    1.0515435   -7.0361154     377.4261  0.027517214  0.027778231            3 
 1144000    1.0587127   -7.0208748    377.57407  0.027503939   0.02776993            5 
 1145000    1.0875622    -7.069813    378.47833   0.02754573  0.027761617            4 
 1146000    1.0652237   -7.0455019    379.15984  0.027571251   0.02775341            5 
 1147000    1.0550596   -7.0184691    380.01604  0.027609419  0.027745247            2 
 1148000    1.0622612   -7.0282374    380.06051  0.027588597  0.027737224            4 
 1149000    1.0556063   -7.0155815    380.94641  0.027628837  0.027729312            4 
 1150000    1.0467011   -7.0040787    380.81303  0.027595147  0.027721617            2 
 1151000    1.0562694   -7.0313631    379.98281  0.027511064  0.027713701            2 
 1152000    1.0735347   -6.9937908    382.01941  0.027634506  0.027706114            3 
 1153000    1.0642495   -7.0523772     380.6686  0.027512908  0.027698628            3 
 1154000    1.0702951   -6.9814227    381.79465  0.027570382  0.027691086            4 
 1155000    1.0592766   -7.0725368    381.40247  0.027518216   0.02768344            6 
 1156000    1.0587645   -7.0291454    381.73464  0.027518356  0.027675594            4 
 1157000    1.0428377   -7.0681979     382.5885  0.027556072   0.02766782            6 
 1158000    1.0835029   -7.0338276    383.28281   0.02758224  0.027660152            4 
 1159000     1.078074   -7.0324019    382.44916  0.027498502  0.027652431            3 
 1160000     1.049469   -7.0440156    382.92269  0.027508814   0.02764465            5 
 1161000    1.0575793   -7.0323884    384.52407  0.027600063  0.027637077            4 
 1162000    1.0535783   -7.0052789    383.16281  0.027478687  0.027629581            6 
 1163000     1.089471   -6.9930445    383.49035  0.027478529  0.027622049            3 
 1164000    1.0564022   -7.0721531     382.5464  0.027387342  0.027614348            3 
 1165000    1.0455699   -7.0243285     385.4911  0.027574471  0.027606887            2 
 1166000    1.0653447    -7.054232    386.03706  0.027589841  0.027599418            2 
 1167000     1.055236   -7.0546322    386.24016  0.027580702   0.02759213            4 
 1168000    1.0699144   -7.0234775     386.1193  0.027548466  0.027584907            3 
 1169000    1.0471762   -7.0215158    386.59487  0.027558801  0.027577713            3 
 1170000    1.0499295   -7.0062772    386.80341    0.0275501  0.027570554            4 
 1171000    1.0643526   -7.0426635    386.70261    0.0275194  0.027563407            4 
 1172000    1.0593317   -7.0383258    388.15765  0.027599378  0.027556132            1 
 1173000    1.0618168    -7.053462    386.27623  0.027442187  0.027548702            6 
 1174000    1.0420618   -7.0227037    387.49378  0.027505237  0.027541414            5 
 1175000     1.080228   -7.0522664    387.44119  0.027478099  0.027534161            2 
 1176000    1.0797723   -7.0712354     386.5812  0.027393792  0.027526917            4 
 1177000    1.0416595   -7.0133804    388.00929  0.027471629  0.027519436            2 
 1178000    1.0652914   -6.9973177    389.65651  0.027564835   0.02751238            6 
 1179000     1.074818   -7.0306832     388.4514  0.027456277  0.027505206            4 
 1180000    1.0715246   -7.0466638    388.29085   0.02742167  0.027497945            4 
 1181000    1.0628103    -7.019886    389.32936   0.02747173  0.027490737            7 
 1182000    1.0563937   -7.0596037    390.40742  0.027524494  0.027483644            3 
 1183000    1.0624722   -7.0376077     389.9072   0.02746599  0.027476541            4 
 1184000    1.0709178   -7.0118288    390.98692  0.027518786  0.027469384            4 
 1185000    1.0523435   -7.0308623    390.50624  0.027461761  0.027462337            3 
 1186000    1.0715071   -7.0444101    390.53613  0.027440706  0.027455284            2 
 1187000    1.0695194   -7.0658457    391.39795  0.027478093  0.027448383            5 
 1188000    1.0834761   -7.0292915    391.12952  0.027436133   0.02744163            9 
 1189000    1.0689581   -7.0801549    391.56958  0.027443901  0.027434554            4 
 1190000    1.0514836   -7.0669156    392.71296  0.027500907  0.027427613           10 
 1191000    1.0431658   -7.0601781    391.87381  0.027419102  0.027420714            3 
 1192000    1.0834326   -7.0905445     391.2043  0.027349294  0.027413632            9 
 1193000     1.056667   -7.0639462    392.33652  0.027405457  0.027406607            4 
 1194000    1.0735463   -7.0070272     393.2505  0.027446294  0.027399442            4 
 1195000    1.0548145    -7.043012    391.89145  0.027328553  0.027392388            3 
 1196000    1.0600105   -7.0278715    392.49786  0.027347956   0.02738531            7 
 1197000    1.0574257   -7.0139805    393.95619  0.027426635  0.027378283            4 
 1198000    1.0404421   -7.0478828    393.96522  0.027404369  0.027371316            3 
 1199000    1.0665345   -7.0405157    393.71799  0.027364331  0.027364285            5 
 1200000    1.0873264   -7.0828542    393.62031  0.027334744  0.027357296            3 
 1201000    1.0317259   -7.0684224    392.15283   0.02721016  0.027350116            5 
 1202000    1.0645933   -7.0134799    394.95903  0.027382074  0.027343101            6 
 1203000    1.0571462   -7.0662752    395.65082  0.027407233  0.027335858            3 
 1204000     1.042433   -7.0830015    395.16284  0.027350695  0.027328641            4 
 1205000    1.0619364   -7.0639725    394.37473  0.027273495  0.027321456            3 
 1206000    1.0887064   -7.0561025    394.78626  0.027279316  0.027314181            1 
 1207000    1.0829258   -7.0457392    394.56458   0.02724141  0.027307068            4 
 1208000    1.0647554   -7.0290382    396.72247   0.02736772  0.027299978            3 
 1209000    1.0760488   -7.0226982    396.91231  0.027358169  0.027293196            2 
 1210000    1.0609045   -7.0445266    396.78659    0.0273269  0.027286248            2 
 1211000    1.0643874   -7.0010014    396.77315   0.02730341  0.027279349            3 
 1212000    1.0449043   -7.0490646    398.29611  0.027385596  0.027272442            6 
 1213000    1.0421116   -7.0662239    397.08497  0.027279814  0.027265375            2 
 1214000    1.0554026   -7.0829602    397.12327  0.027259972  0.027258155            4 
 1215000    1.0522695   -7.0823842     397.1315    0.0272381  0.027250921            3 
 1216000    1.0443699   -7.0573628    397.74275   0.02725759  0.027243662            6 
 1217000    1.0686626   -7.0213113    399.03515  0.027323689  0.027236674            6 
 1218000    1.0637836   -7.0498051    398.28153  0.027249694  0.027229675            6 
 1219000    1.0452449   -7.0090906     399.4661   0.02730832  0.027222601            4 
 1220000    1.0458179   -7.0375982    398.89207  0.027246726  0.027215549            2 
 1221000    1.0412267   -7.0580959    399.30644  0.027252692  0.027208578            6 
 1222000      1.08209   -7.0400057    399.13861  0.027218945  0.027201512            3 
 1223000    1.0551454   -7.1112733    398.18219   0.02713152  0.027194362            6 
 1224000    1.0430031   -7.0700432    398.08052  0.027102432  0.027187209            2 
 1225000    1.0801412   -7.0535263    400.86855   0.02726997  0.027180151            9 
 1226000     1.061588   -7.0568045    400.74779  0.027239518   0.02717294            2 
 1227000    1.0507248   -7.0390027    400.10048  0.027173355  0.027165751            3 
 1228000    1.0561296   -7.0628845    400.37284   0.02716971  0.027158485            3 
 1229000    1.0601449   -7.0694312    400.01807  0.027123547  0.027151055            6 
 1230000    1.0513557   -7.0697658    399.82881  0.027088673  0.027143516            3 
 1231000      1.04913   -7.0769418    400.21515  0.027092821  0.027136059            4 
 1232000    1.0421797    -7.082905    399.25145  0.027005644  0.027128624            3 
 1233000    1.0517773   -7.0615358    399.90736  0.027028073  0.027121075            4 
 1234000     1.075762   -7.0477516    401.52098  0.027115139  0.027113616            4 
 1235000    1.0361001   -7.0380899    401.16824  0.027069382  0.027106304            2 
 1236000    1.0603799   -7.0633769    400.80247   0.02702282  0.027098802            2 
 1237000    1.0546988   -7.1244344    400.39493   0.02697352  0.027091189            3 
 1238000    1.0542757   -7.0826261    401.70731  0.027040072  0.027083755            4 
 1239000    1.0316018   -7.0605915    402.06104  0.027042039  0.027076293            5 
 1240000     1.053613   -7.0919297    401.25236  0.026965884   0.02706895            4 
 1241000    1.0325132   -7.0403268    403.88299  0.027120803  0.027061912            2 
 1242000    1.0174703   -7.0548065    403.54784  0.027076479  0.027054887            3 
 1243000    1.0667218   -7.0875295    402.22892  0.026966273  0.027047908            5 
 1244000    1.0499405   -7.0906284    403.02703  0.026998059  0.027040788            3 
 1245000    1.0648291   -7.0217403    404.66088  0.027085735  0.027033495            1 
 1246000    1.0469428   -7.0180665    404.77677  0.027071747  0.027026263            4 
 1247000    1.0376065   -7.0782497    404.28467  0.027017153   0.02701893            3 
 1248000    1.0528469   -7.0310331    404.18634  0.026988939  0.027011877            5 
 1249000    1.0926711   -7.0762081    403.55974  0.026925523  0.027004567            4 
 1250000    1.0388322   -7.0846296    403.87502  0.026925001  0.026997163            4 
 1251000    1.0386848   -7.0184626    406.60127  0.027085083  0.026989992            4 
 1252000    1.0378402   -7.0864276    405.17092  0.026968246   0.02698291            3 
 1253000    1.0657053   -7.1095055     405.3874   0.02696112  0.026975717            2 
 1254000    1.0839155   -7.0407309    406.73788  0.027029365  0.026968596            5 
 1255000    1.0488919   -7.0867678    406.12859   0.02696737  0.026961452            5 
 1256000    1.0433377   -7.0594942    406.58232  0.026976003   0.02695428            3 
 1257000    1.0558502   -7.0662797    406.80417   0.02696925  0.026947131            5 
 1258000    1.0370596   -7.0981126    406.80068  0.026947581  0.026939892            2 
 1259000    1.0301036   -7.0731713    407.01379  0.026940282   0.02693274            5 
 1260000    1.0634307   -7.0212811    407.50718  0.026951533  0.026925603            3 
 1261000    1.0718763   -7.1079014    407.52632  0.026931425  0.026918563            4 
 1262000    1.0312995   -7.0776257    408.85893   0.02699808  0.026911389            3 
 1263000    1.0484003   -7.0644811    407.51644  0.026888126  0.026904184            1 
 1264000    1.0615272   -7.0851721    408.47151   0.02692982  0.026896923            5 
 1265000    1.0415205   -7.0831331    407.72226  0.026859174  0.026889601            2 
 1266000    1.0537808    -7.074123    408.15857  0.026866678  0.026882217            2 
 1267000    1.0565562   -7.0488694    408.84205  0.026890427  0.026874918            2 
 1268000    1.0609318   -7.1034922    407.66323  0.026791748  0.026867521            4 
 1269000    1.0646279   -7.0725987    408.90969  0.026852488  0.026860145            5 
 1270000    1.0436106   -7.0690717    408.80416   0.02682442  0.026852827            2 
 1271000    1.0762025   -7.1042549    407.74524  0.026733886  0.026845452            5 
 1272000    1.0416047   -7.0223124    410.78774  0.026912195  0.026838131            2 
 1273000    1.0332268   -7.1165101    408.44947  0.026737985  0.026830633            3 
 1274000    1.0276404   -7.0707845    410.00863  0.026818984  0.026823083            6 
 1275000    1.0585569   -7.0169196    410.68349  0.026842058  0.026815576            4 
 1276000    1.0449593    -7.110543    408.60805  0.026685479   0.02680798            5 
 1277000    1.0512351   -7.0833293    408.37491  0.026649367  0.026800232            6 
 1278000    1.0467611   -7.0709406    408.89103  0.026662169  0.026792425            3 
 1279000    1.0069381   -7.0923231    409.25664  0.026665144   0.02678462            2 
 1280000    1.0472913   -7.1001044    409.52434  0.026661741  0.026776817            7 
 1281000    1.0490741   -7.1639859    409.18141  0.026618619  0.026769074            4 
 1282000    1.0491786   -7.0407195    411.46683  0.026746414  0.026761405            3 
 1283000    1.0306569   -7.1071882     409.9822  0.026629137  0.026753773            8 
 1284000    1.0634157   -7.0791775     410.7183  0.026656172  0.026746063            4 
 1285000    1.0631489   -7.1037949    409.86241  0.026579923  0.026738218            8 
 1286000    1.0483107   -7.0894509    408.95196  0.026500256  0.026730452            6 
 1287000    1.0524881   -7.0999774    411.91916  0.026671793  0.026722899            1 
 1288000    1.0481478   -7.0563603    412.73235  0.026703697  0.026715259            4 
 1289000    1.0560184   -7.0986458    410.82512  0.026559679  0.026707572            4 
 1290000    1.0328761   -7.0837162    411.38367  0.026575172  0.026699911            8 
 1291000     1.035678   -7.1248832    411.03663  0.026532186  0.026692147            4 
 1292000    1.0591728   -7.0504544    412.60095  0.026612548  0.026684498            5 
 1293000     1.021515   -7.0792996    412.91508  0.026612212  0.026676919            4 
 1294000    1.0501106    -7.080572      412.904  0.026590933  0.026669321            5 
 1295000    1.0491572   -7.0790637    413.62575  0.026616844  0.026661808            8 
 1296000    1.0593328   -7.0696803     413.6432  0.026597428  0.026654187            2 
 1297000    1.0595071   -7.1264514     411.6107  0.026446331  0.026646536            3 
 1298000    1.0677459   -7.1142741    413.21407  0.026528895  0.026638989            2 
 1299000    1.0638532   -7.0651726     414.3068  0.026578574  0.026631433            4 
 1300000    1.0289906    -7.104869    413.45834   0.02650374  0.026623987            3 
 1301000    1.0424979   -7.1064439    414.68833  0.026562153  0.026616453            8 
 1302000     1.042756    -7.071285    414.46794  0.026527646  0.026608918            3 
 1303000     1.066452   -7.1022508    415.43096  0.026568877  0.026601521            9 
 1304000    1.0405108   -7.1013948     414.2802  0.026474962  0.026594002            3 
 1305000    1.0341938    -7.058921    417.12286  0.026636198  0.026586607            4 
 1306000    1.0486203   -7.0664031    416.33388   0.02656546  0.026579099            3 
 1307000    1.0304391   -7.1374621    414.21686  0.026410154  0.026571601            4 
 1308000    1.0437346   -7.0977789     416.2183  0.026517476  0.026563894            4 
 1309000    1.0504788    -7.144058    415.30854  0.026439301  0.026556276            3 
 1310000    1.0190377   -7.0936733    416.34025  0.026484749  0.026548718            3 
 1311000    1.0581625   -7.1651659    414.07219  0.026320378  0.026541063            3 
 1312000    1.0266857   -7.1071436    415.83823  0.026412489  0.026533303            3 
 1313000    1.0408156   -7.0777933    416.28243  0.026420566  0.026525678            3 
 1314000    1.0442157     -7.09905    417.73769   0.02649275  0.026518125            4 
 1315000    1.0470087   -7.1285699    416.06119  0.026366362  0.026510547            6 
 1316000    1.0365759   -7.0957594    417.28867  0.026424054  0.026503171            4 
 1317000    1.0414086   -7.0885465    417.15898  0.026395785  0.026495718            4 
 1318000    1.0319037   -7.1152017    417.01491  0.026366648  0.026488006            3 
 1319000    1.0582956   -7.1368169    417.20287  0.026358534  0.026480373            4 
 1320000    1.0125108   -7.1379585    416.71932  0.026308038  0.026472661            3 
 1321000    1.0650102   -7.0812667    418.29533  0.026387543  0.026464953            3 
 1322000     1.043681   -7.1220901    419.13254  0.026420357  0.026457262            4 
 1323000    1.0551517   -7.0920041     419.2316  0.026406626  0.026449525            4 
 1324000    1.0310452   -7.1005094    418.77949  0.026358226  0.026442063            6 
 1325000    1.0302287   -7.1383148    418.93484  0.026348103  0.026434341            4 
 1326000    1.0177651   -7.1233689    418.42327  0.026296083  0.026426655            3 
 1327000    1.0556833   -7.0749059    420.34131  0.026396716   0.02641911            2 
 1328000    1.0258044   -7.0647633    421.39194  0.026442767  0.026411745            4 
 1329000    1.0265591   -7.0936299    420.69965  0.026379461  0.026404538            5 
 1330000    1.0269958   -7.0810462     419.9878  0.026315025   0.02639707            1 
 1331000    1.0484778    -7.082626    420.24484  0.026311347   0.02638962            3 
 1332000    1.0397625   -7.0871724    421.45821  0.026367506  0.026382004           12 
 1333000     1.012266   -7.0997541    420.49034  0.026287218  0.026374412            6 
 1334000    1.0345152   -7.0722275    420.79138  0.026286318   0.02636699            3 
 1335000    1.0319517   -7.0798555    421.27136  0.026296589  0.026359595            3 
 1336000    1.0598103   -7.1474637    420.69245  0.026240796  0.026352014            3 
 1337000    1.0403616   -7.1187871      421.391   0.02626471   0.02634453            3 
 1338000      1.03298   -7.1085598    422.78012  0.026331597  0.026336913            2 
 1339000    1.0333885   -7.1142246    421.56057  0.026236033  0.026329302            3 
 1340000     1.055817   -7.1031263    423.47091  0.026335256  0.026321783            3 
 1341000    1.0103614   -7.1428422    421.70449  0.026205847  0.026314225            5 
 1342000    1.0279778   -7.1086907    422.49185  0.026235212  0.026306707            5 
 1343000    1.0525904   -7.0691715    423.70843  0.026291166  0.026299369            2 
 1344000    1.0227256   -7.0766905    424.33112  0.026310213   0.02629201            5 
 1345000     1.021654   -7.1252782    422.12921  0.026154226  0.026284651            4 
 1346000    1.0264187   -7.1228479    423.24379  0.026203801  0.026277228            3 
 1347000     1.043474   -7.1139297    423.83832  0.026221128  0.026269652            3 
 1348000    1.0159078   -7.0943667    423.89473  0.026205164  0.026262297            5 
 1349000    1.0272783   -7.1341135    424.20009  0.026204602  0.026254873            2 
 1350000    1.0259269   -7.1086168    426.03783  0.026298631   0.02624749            5 
 1351000    1.0429473   -7.0935315     426.0819  0.026281884  0.026240306            2 
 1352000    1.0183241   -7.1179806    424.65351  0.026174403  0.026232964            3 
 1353000    1.0399374    -7.109175    425.22098  0.026190009  0.026225558            3 
 1354000   0.99572261   -7.1352562    424.73313  0.026140641  0.026218023            3 
 1355000    1.0324771   -7.0923786    427.50326  0.026291713    0.0262106            4 
 1356000    1.0401086   -7.1253343    425.35795  0.026140484  0.026203197            3 
 1357000    1.0404228   -7.1297211    424.66628  0.026078745  0.026195546            9 
 1358000    1.0505225   -7.1303933    425.77905  0.026127826  0.026188059            2 
 1359000    1.0572592   -7.1105525    424.76885  0.026046655  0.026180336            3 
 1360000    1.0449979   -7.0929852    426.20739  0.026115649  0.026172668            3 
 1361000    1.0220436   -7.1089097    425.83491  0.026073654  0.026165061            2 
 1362000    1.0824431    -7.133458    425.63129  0.026042051  0.026157447            2 
 1363000    1.0318067   -7.1217821    426.11669  0.026052622  0.026149739            5 
 1364000    1.0350919   -7.1050641    427.30911  0.026106373  0.026142118            7 
 1365000   0.98274163   -7.1248136    426.45681  0.026035214  0.026134494            3 
 1366000    1.0261029   -7.1288307    427.53869  0.026082155  0.026126757            3 
 1367000    1.0289256   -7.1266316    426.50588  0.026000114  0.026119077            2 
 1368000    1.0214564   -7.1157817      427.284  0.026028509  0.026111411            4 
 1369000     1.041627    -7.117919     426.3598  0.025953238  0.026103734            4 
 1370000    1.0145917   -7.1049149    428.60236  0.026070703  0.026096197            6 
 1371000    1.0327847    -7.132503    427.03839  0.025956625   0.02608851           13 
 1372000    1.0578678   -7.1473659    427.81029   0.02598459  0.026080795           15 
 1373000    1.0349414   -7.1066242    428.45768  0.026004957  0.026073024            4 
 1374000    1.0489435   -7.1487549    426.66486  0.025877296  0.026065311            5 
 1375000    1.0492905   -7.1438056    427.58178  0.025914047  0.026057444            5 
 1376000    1.0344758   -7.1175108    428.07534  0.025925106  0.026049479            6 
 1377000    1.0450401   -7.1321232    430.37994  0.026045748  0.026041716            4 
 1378000    1.0426299   -7.1802734     427.4941  0.025852328  0.026033889            3 
 1379000    1.0360311   -7.0990456    429.25651  0.025940084  0.026025954            2 
 1380000    1.0423916   -7.1126033    429.61033  0.025942653  0.026018131            3 
 1381000    1.0097703   -7.1434552    427.92115  0.025821938  0.026010378            5 
 1382000    1.0313882   -7.1489627    429.26991  0.025884582  0.026002583            3 
 1383000    1.0576762   -7.1220319    429.09196  0.025855144  0.025994677            4 
 1384000    1.0234569   -7.1176174    430.45832  0.025918733   0.02598694            2 
 1385000     1.036522   -7.1368063    429.45164  0.025839449  0.025979085            4 
 1386000    1.0228447   -7.1431286     429.5665  0.025827712  0.025971202            8 
 1387000    1.0250034   -7.1310611     430.2258  0.025848702   0.02596331            7 
 1388000     1.015067   -7.1284938     428.9536  0.025753698  0.025955362            4 
 1389000    1.0437287   -7.1620648    429.33213  0.025757867  0.025947207            4 
 1390000    1.0157205   -7.1106848    429.98186  0.025778289  0.025939143            3 
 1391000    1.0185023   -7.1394027    429.68295  0.025741849  0.025931169            5 
 1392000    1.0064723   -7.1409016    430.34582   0.02576304  0.025923144            4 
 1393000    1.0356806   -7.1198406    432.40316  0.025867621  0.025915288            4 
 1394000    1.0513884   -7.1480958    431.08311  0.025770152  0.025907339            4 
 1395000    1.0249158   -7.1499567     431.7959  0.025794259  0.025899425            4 
 1396000    1.0248093   -7.1774838    431.13188  0.025736144  0.025891473            3 
 1397000    1.0395681   -7.1586244    430.84797  0.025700786  0.025883464            5 
 1398000    1.0338806   -7.1463872    430.69537  0.025673305  0.025875587            3 
 1399000    1.0180955   -7.1562178    431.59419  0.025708494  0.025867582            4 
 1400000    1.0305108   -7.1732143    431.93573   0.02571046  0.025859617            6 
 1401000    1.0324041   -7.1440718    433.14854  0.025764248  0.025851529            3 
 1402000    1.0282895   -7.1187089     433.5106  0.025767392  0.025843673            9 
 1403000    1.0207617   -7.1134428    432.96229  0.025716458  0.025835882            4 
 1404000    1.0410624   -7.1013415    433.18312  0.025711249  0.025828013            2 
 1405000    1.0443413   -7.1836586    431.99325  0.025622375  0.025820238            7 
 1406000    1.0111613   -7.1225557    433.10707  0.025670168  0.025812039            3 
 1407000    1.0118973   -7.1513309    432.88278  0.025638639  0.025803976            2 
 1408000    1.0479634   -7.1807649    431.58818  0.025543808  0.025795763            5 
 1409000    1.0253198   -7.1789019    431.63327  0.025528346  0.025787546            5 
 1410000    1.0250536   -7.1741557     433.5604  0.025624137  0.025779318            7 
 1411000    1.0253502   -7.1299578     432.3617  0.025535182  0.025771271            4 
 1412000    1.0154989   -7.1326861    433.70147  0.025596168  0.025763163            4 
 1413000    1.0297152   -7.1172651    435.48051  0.025682974  0.025755214            1 
 1414000    1.0145756   -7.1557106    433.74639  0.025562611   0.02574723            5 
 1415000    1.0101975   -7.1706071    434.24074   0.02557366  0.025739144            3 
 1416000    1.0398369   -7.1007924    434.72484  0.025584089  0.025731082            1 
 1417000    1.0354489   -7.1278983    435.13483  0.025590145  0.025723146            4 
 1418000    1.0143263   -7.1418823    434.43628  0.025531046  0.025715153            6 
 1419000    1.0363688   -7.1674783    434.42473  0.025512375   0.02570704            3 
 1420000     1.014584    -7.149598    435.32531   0.02554726  0.025698894            3 
 1421000    1.0277605   -7.1797764    435.00101  0.025510263  0.025690752            4 
 1422000   0.99597291   -7.1282032    435.13292  0.025500054  0.025682754            3 
 1423000    1.0375686   -7.1434201    435.63102  0.025511303  0.025674628            3 
 1424000    1.0449226   -7.1470096     435.2867  0.025473239  0.025666556            6 
 1425000    1.0162827   -7.1365117    435.91526   0.02549212  0.025658481            5 
 1426000    1.0142241   -7.1415798    435.05881  0.025424194  0.025650525            3 
 1427000    1.0219972   -7.1505968    436.19679  0.025472833  0.025642529            7 
 1428000    1.0164209   -7.1376197    435.54163  0.025416762  0.025634476            3 
 1429000    1.0223132   -7.1623875    436.83012  0.025474115  0.025626482            7 
 1430000    1.0454214   -7.1726648    437.52832  0.025496988  0.025618523            5 
 1431000    1.0078197    -7.164018    437.53947   0.02547982  0.025610515            4 
 1432000    1.0514626   -7.1352186    436.90527   0.02542512  0.025602606            5 
 1433000    1.0456408   -7.1132151    438.76614  0.025515593  0.025594643            4 
 1434000    1.0290115   -7.1352182    435.99915  0.025337003  0.025586657            4 
 1435000   0.98256076   -7.1665448    436.66046   0.02535775  0.025578671            2 
 1436000    1.0161868   -7.1219388    439.48598  0.025504061  0.025570679            2 
 1437000    1.0545765     -7.14833    439.09877  0.025463858  0.025562875            3 
 1438000    1.0350537   -7.1757837    437.70941  0.025365636  0.025555042            5 
 1439000    1.0300705   -7.1652285    438.77133  0.025409505  0.025547187            6 
 1440000    1.0037975   -7.1588845    438.93157  0.025401133  0.025539256            6 
 1441000    1.0305954   -7.1932294     437.9954  0.025329366  0.025531298            5 
 1442000    1.0077705   -7.1401023    439.93971  0.025424163  0.025523285            7 
 1443000      1.01703    -7.202917    439.49727  0.025380993   0.02551547            6 
 1444000    1.0195401    -7.149278    439.98366  0.025391486   0.02550752            7 
 1445000    1.0190292   -7.1484288    440.10966   0.02538118  0.025499668            6 
 1446000    1.0437131   -7.1672527     439.4939  0.025328141  0.025491794            5 
 1447000    1.0055472   -7.1240043    441.81999  0.025444597  0.025484027            4 
 1448000    1.0090928   -7.1198089    440.89012  0.025373511  0.025476311            5 
 1449000    1.0228616   -7.1150046    441.62682  0.025398368  0.025468686            5 
 1450000     1.001257   -7.1443944    440.73714  0.025329721  0.025460994           10 
 1451000    1.0230615   -7.1624713     440.3042  0.025287399  0.025453249            6 
 1452000    1.0314993   -7.1509243     442.6073  0.025402164  0.025445386            4 
 1453000   0.99753443   -7.1585012    440.76234  0.025278868  0.025437457           10 
 1454000    1.0174588   -7.1834294     441.6406  0.025311818  0.025429548            4 
 1455000    1.0354021   -7.1901344    442.38263  0.025336921  0.025421638            2 
 1456000    1.0168481   -7.1519281    441.55477  0.025272136  0.025413803            4 
 1457000    1.0245279   -7.1718363    443.10387  0.025343392   0.02540582            2 
 1458000     1.014871   -7.1702367    441.51335  0.025235103  0.025397838            9 
 1459000    1.0095459   -7.1333994    442.87981  0.025295854  0.025389934            4 
 1460000    1.0240337   -7.1263592    442.76735  0.025272109  0.025382133            2 
 1461000     1.012636   -7.1576187    442.54996  0.025242412  0.025374218            3 
 1462000    1.0286189   -7.2101575     441.5371  0.025167413  0.025366298            3 
 1463000    1.0158474   -7.1766684    440.83434  0.025110181  0.025358247            6 
 1464000    1.0274158   -7.1914361     442.3233  0.025177783  0.025350191            4 
 1465000    1.0188431   -7.2105691    442.15961  0.025151286  0.025342105            2 
 1466000   0.99648703   -7.1883735    442.71773  0.025165856  0.025334135            3 
 1467000    0.9967806     -7.20756     443.0869  0.025169672  0.025326317            4 
 1468000    1.0169508   -7.2317442    443.16017  0.025156686  0.025318297            7 
 1469000   0.99717542   -7.1869094    443.94632  0.025184157  0.025310521            3 
 1470000     1.015528   -7.2161081     442.8285  0.025103657  0.025302755            2 
 1471000    1.0149189   -7.1363176    446.15917  0.025275276  0.025294953            2 
 1472000     1.032211    -7.177405    445.93882  0.025245631  0.025287333            5 
 1473000    1.0069144   -7.2021753    444.74333  0.025160858  0.025279649            5 
 1474000    1.0321583   -7.1648855    446.23594  0.025228174  0.025271879            9 
 1475000    1.0068387   -7.1905247    444.69611  0.025124074  0.025264119            4 
 1476000    1.0332439   -7.2135952    444.50821  0.025096444  0.025256351            5 
 1477000   0.99693962   -7.1320476    447.44904  0.025245376  0.025248899            4 
 1478000    1.0328216   -7.1364988    446.98517  0.025202141  0.025241303            8 
 1479000    1.0043274   -7.2054098    446.62753   0.02516495  0.025233701            4 
 1480000    1.0214128   -7.1597498    447.16934  0.025178454  0.025225992            3 
 1481000     1.031409   -7.1234018    447.39311  0.025174044  0.025218389            3 
 1482000    1.0193682   -7.1841215    446.14642  0.025086956  0.025210813            3 
 1483000    1.0341846   -7.1145262    448.77616  0.025217811  0.025203035           11 
 1484000    1.0096374   -7.1700419    447.48325  0.025128215  0.025195282            3 
 1485000   0.99999262   -7.1803031    446.64603  0.025064312   0.02518759            2 
 1486000    1.0161483   -7.2127222    447.38823  0.025089066  0.025179979            6 
 1487000    1.0132867   -7.2116782    448.98046  0.025161425  0.025172258            6 
 1488000   0.99785321   -7.1716067    448.39212  0.025111566  0.025164605            5 
 1489000    1.0198548   -7.1670806    449.90921  0.025179606  0.025157071            2 
 1490000    1.0275056   -7.1526963    449.99423  0.025167463  0.025149567            4 
 1491000    1.0104307   -7.1899754    447.05877  0.024986518  0.025141874            6 
 1492000   0.99546106    -7.193042     449.3994  0.025100503  0.025134243            7 
 1493000   0.99786815   -7.1669088    450.01127  0.025117843  0.025126587            5 
 1494000    1.0226433   -7.2703425     447.4156  0.024956247  0.025118897            6 
 1495000    1.0177509   -7.1910882    450.20598  0.025095094  0.025111245            8 
 1496000    1.0193179   -7.2043578    449.01487  0.025011969   0.02510361            4 
 1497000     1.015642   -7.1824882    447.90712  0.024933596  0.025096093            7 
 1498000    1.0208722   -7.1603614      449.895  0.025027537  0.025088457            7 
 1499000    1.0144199   -7.2015361    450.34322  0.025035758  0.025080854            4 
 1500000    1.0201763   -7.2141102     450.2105  0.025011695  0.025073205            2 
 1501000    1.0210976   -7.2053064    451.04858   0.02504156  0.025065557            5 
 1502000    1.0176872   -7.1769703    451.61312  0.025056209  0.025057989            2 
 1503000   0.99839825   -7.1872494    452.11212  0.025067206  0.025050486            6 
 1504000    1.0089495   -7.1675467    451.69322  0.025027328   0.02504301            2 
 1505000    1.0132841   -7.1908434    451.04907  0.024975032  0.025035586            3 
 1506000    0.9972663   -7.2036152    452.14331  0.025018997  0.025028086            5 
 1507000    1.0049715   -7.1927664    450.69813   0.02492248  0.025020548            5 
 1508000    1.0363587   -7.1812114    453.22939  0.025045833  0.025013167            3 
 1509000     1.015961   -7.2007419    451.58304  0.024938317  0.025005725            4 
 1510000   0.99286001   -7.2066709    451.79094  0.024933275  0.024998147            4 
 1511000    1.0246141   -7.2272694    451.59487   0.02490596  0.024990599            4 
 1512000    1.0172429   -7.1970963    453.56098   0.02499785  0.024983074            3 
 1513000   0.99922006   -7.1560659    453.58188  0.024982478  0.024975625            3 
 1514000    1.0022994   -7.1530363    452.98855   0.02493332  0.024968243            6 
 1515000   0.99914164   -7.1981367    453.47996  0.024943892  0.024960813            4 
 1516000    1.0093071    -7.216269    452.01083  0.024846682  0.024953231            3 
 1517000   0.99735875   -7.1960498    453.78797  0.024927926  0.024945642            6 
 1518000    1.0193055   -7.2084985    454.00684   0.02492352  0.024938041            3 
 1519000    1.0033999   -7.1734837    454.06298  0.024910192  0.024930484            2 
 1520000    1.0388382    -7.207399    453.23947  0.024848655  0.024923005            3 
 1521000    1.0347603   -7.2557087    453.64185  0.024854364  0.024915363            6 
 1522000   0.99592577   -7.1837077    455.26647  0.024926986  0.024907929            3 
 1523000   0.99662171   -7.1871577    453.52761  0.024815474  0.024900439            5 
 1524000   0.97320444   -7.1811272    454.81497  0.024869585  0.024892971            6 
 1525000    1.0110548   -7.2176013    454.57466  0.024840145  0.024885575            4 
 1526000   0.99526674   -7.1759962    454.74264  0.024833041  0.024878173            6 
 1527000    1.0169588   -7.1551571    455.41604  0.024853528  0.024870831            4 
 1528000    1.0001171    -7.184944    456.70619  0.024907624  0.024863501            4 
 1529000    1.0190384   -7.1863461    454.72544  0.024783379  0.024856048            3 
 1530000   0.98955992   -7.2233847    455.59805  0.024814708  0.024848675            7 
 1531000   0.99702008    -7.182954     456.5702  0.024851415  0.024841257            2 
 1532000    1.0157484   -7.1786479    455.67957  0.024786748  0.024833842            3 
 1533000    1.0227469   -7.1703529    457.21176  0.024853868  0.024826585            3 
 1534000    1.0220741    -7.195528    456.83141  0.024817004  0.024819227            6 
 1535000    1.0335717   -7.1890843    457.39574  0.024831473  0.024811839            3 
 1536000    1.0131906   -7.1940053    457.96945  0.024846433  0.024804459           13 
 1537000   0.99692149    -7.190844    459.08426   0.02489071  0.024797104            6 
 1538000   0.99664814   -7.2434164     455.8667  0.024700189  0.024789673            4 
 1539000   0.98302388   -7.1893366    457.03202   0.02474724  0.024782284            5 
 1540000   0.97603036   -7.2030238    458.59341  0.024815661  0.024774988            2 
 1541000    1.0024208   -7.2005405    459.66866  0.024857704  0.024767828            4 
 1542000    1.0061754    -7.211261     458.5052  0.024778707  0.024760667            2 
 1543000   0.99780072   -7.1985874    459.62358  0.024823049  0.024753497           13 
 1544000     1.010194   -7.2230013    458.06803  0.024723015  0.024746451            5 
 1545000     1.005469   -7.2004758     458.8006  0.024746526  0.024739206            4 
 1546000    1.0206359   -7.2132872    460.43067  0.024818385  0.024731982            2 
 1547000     1.016644   -7.1951318    458.98755  0.024724604  0.024724776            3 
 1548000   0.98995876   -7.2117968    459.80671   0.02475273   0.02471755            7 
 1549000   0.99452151   -7.1659408    461.80346  0.024844172  0.024710339            7 
 1550000   0.99703563   -7.1688119    461.85853  0.024831104  0.024703184            4 
 1551000    1.0159557   -7.1765602     460.4979  0.024741989  0.024695886            7 
 1552000    1.0052591   -7.1810798     460.9046  0.024747885   0.02468865            6 
 1553000    1.0208498   -7.1951553     460.1329   0.02469054  0.024681315            7 
 1554000   0.99894288   -7.2414163    460.64835  0.024702293  0.024673849            4 
 1555000   0.96931139   -7.2492699      461.139  0.024712701  0.024666348            5 
 1556000    1.0161579   -7.2266217    459.49795  0.024608931  0.024658816            4 
 1557000      1.00504   -7.2260967    460.22781  0.024632188  0.024651488            6 
 1558000    1.0281223   -7.2004056    462.73905  0.024750698   0.02464419            5 
 1559000   0.99714642    -7.208208    461.47344  0.024667171  0.024637001            6 
 1560000   0.98065639   -7.1795405    462.29682  0.024695343  0.024629705            5 
 1561000    1.0049415   -7.1900065    462.35201  0.024682469  0.024622539            5 
 1562000   0.97951052   -7.1847679     463.5735  0.024731834  0.024615281           14 
 1563000    1.0001775   -7.2055223    463.76751  0.024726355  0.024608144            4 
 1564000    1.0088186    -7.242972     461.7005   0.02460041  0.024600861            5 
 1565000    1.0059171    -7.213303    461.47589  0.024572731  0.024593427            5 
 1566000   0.99055104    -7.208733    461.85321  0.024577118  0.024586072            2 
 1567000    1.0048631   -7.2019019    462.18437  0.024579045   0.02457872            3 
 1568000   0.98836902   -7.2730501    460.92506  0.024496443   0.02457122            5 
 1569000    1.0230492   -7.2166243    462.80579  0.024580719  0.024563762            4 
 1570000    1.0017674   -7.1859852    463.33878  0.024593353  0.024556332            5 
 1571000   0.98910231   -7.1791051    463.21048  0.024570893  0.024548993            2 
 1572000   0.97674221   -7.2210878    463.46097  0.024568541  0.024541682            4 
 1573000   0.98526873    -7.209479    462.13695   0.02448278  0.024534241            5 
 1574000    1.0015246   -7.1823778     464.4713  0.024590814  0.024526875            7 
 1575000    1.0065234    -7.243078    464.23645  0.024562775  0.024519435            4 
 1576000   0.99716786   -7.2080927     463.4443  0.024505304   0.02451206            4 
 1577000    1.0001186   -7.2115411    462.67834  0.024449289  0.024504591            4 
 1578000    1.0041383   -7.2340727    463.37486  0.024470578  0.024497279            3 
 1579000   0.99000154    -7.242418    464.90135  0.024535642  0.024489876            7 
 1580000   0.98963442   -7.2202062     464.9068  0.024520401  0.024482565            7 
 1581000    1.0248541   -7.2074812    465.20799  0.024520767  0.024475302            6 
 1582000   0.99915857   -7.2534002    463.61927   0.02442158  0.024467979            3 
 1583000    1.0129923   -7.2274324    465.56009  0.024508322  0.024460535            5 
 1584000     0.994505   -7.1935309    464.81084  0.024453432  0.024453234            6 
 1585000    1.0143254   -7.2196657    465.31247  0.024464378  0.024445915            3 
 1586000   0.99828921   -7.2246642    466.53564  0.024513222  0.024438614            6 
 1587000   0.99575006   -7.2485336    464.44553  0.024388024  0.024431373            4 
 1588000    1.0123506   -7.2400065    464.73769  0.024387998   0.02442403            9 
 1589000   0.97967692     -7.23077    465.45906  0.024410482   0.02441665            3 
 1590000   0.96635696    -7.282312    465.29805   0.02438669  0.024409247           12 
 1591000   0.99309647   -7.2465834    465.34908  0.024374035  0.024401816           10 
 1592000    1.0341184   -7.2159369     466.9575  0.024442918  0.024394375            3 
 1593000    1.0014608   -7.2435053    466.93458  0.024426375  0.024386994            3 
 1594000   0.99447127    -7.225599    466.79978  0.024404004  0.024379587            4 
 1595000   0.99998628   -7.2521787    465.44173   0.02431775  0.024372162            4 
 1596000    1.0097929    -7.231941    466.18455  0.024341298  0.024364694            4 
 1597000    0.9824854   -7.2184064    467.06674   0.02437209  0.024357296            5 
 1598000   0.99730735   -7.2319215    467.65651  0.024387594  0.024349929            4 
 1599000    1.0062595   -7.2339156    466.75411  0.024325313  0.024342614            4 
 1600000   0.98421363   -7.2448188      466.618  0.024303021  0.024335275            7 
 1601000   0.99126612   -7.2089732    468.10704  0.024365347  0.024327951            8 
 1602000   0.97699549   -7.2329702    467.94441  0.024341678  0.024320691            7 
 1603000    1.0032529   -7.2334134    467.99641  0.024329196  0.024313394            2 
 1604000    0.9828641   -7.2593441    467.13819   0.02426944  0.024305942            8 
 1605000   0.96494188   -7.1997589    468.72314  0.024336611  0.024298458            5 
 1606000    1.0067454    -7.224365    469.59134  0.024366508   0.02429111            3 
 1607000   0.98808415   -7.2500335    465.62364  0.024145594  0.024283645            4 
 1608000    1.0046654   -7.2419682    468.33876  0.024271287  0.024276134            4 
 1609000    1.0126199   -7.2126991    469.00105  0.024290504  0.024268638            6 
 1610000   0.99902997   -7.2526974    468.08734  0.024228123  0.024261046           10 
 1611000   0.98887114   -7.2348426    468.16499  0.024217101  0.024253457            2 
 1612000    1.0304526   -7.2550333    467.40999  0.024163047  0.024245919            3 
 1613000   0.97177266   -7.2587239    467.86851  0.024171756  0.024238324            2 
 1614000   0.98323311   -7.2244145    468.64829  0.024197041  0.024230648            3 
 1615000   0.99266523   -7.2683211    468.59591  0.024179355   0.02422315            4 
 1616000    0.9878607   -7.2857746     467.5603  0.024110989  0.024215588            3 
 1617000   0.99880005   -7.2456281    469.03949  0.024172309  0.024207992            3 
 1618000   0.99146617     -7.27766    468.02079  0.024104902  0.024200347            6 
 1619000     1.000793   -7.2245439    469.88283  0.024185857  0.024192693            4 
 1620000   0.98763263   -7.2617317    469.03303  0.024127213  0.024185072            3 
 1621000   0.97094321    -7.259642    469.78621  0.024151049  0.024177586            3 
 1622000    1.0019292   -7.2158949    469.69758  0.024131606  0.024169981            5 
 1623000    1.0073281   -7.2399099    469.54668  0.024108989  0.024162485            5 
 1624000   0.99922917   -7.2161326    471.82267  0.024210933  0.024154939            6 
 1625000   0.96022744   -7.2313501    470.24796   0.02411528  0.024147447            6 
 1626000    0.9645169   -7.2268321    471.19445  0.024148957  0.024140032            6 
 1627000   0.99876682   -7.2141202    471.09397  0.024128968   0.02413254            3 
 1628000   0.97852263   -7.2617766    470.02954  0.024059661  0.024125001            4 
 1629000   0.97395489   -7.2297511    470.10307  0.024048653  0.024117516            4 
 1630000   0.99362644   -7.2360619    471.08693  0.024084199  0.024110099            2 
 1631000    1.0032177   -7.2891034    471.12973  0.024071619  0.024102641            5 
 1632000   0.98160119   -7.2518653    471.66873  0.024084392  0.024095196            4 
 1633000   0.97943701   -7.2718153    471.23317  0.024047416  0.024087679            3 
 1634000   0.99580365    -7.220472    471.49924  0.024046269  0.024080116            7 
 1635000    1.0068073    -7.263754    472.44879  0.024079959  0.024072631            6 
 1636000   0.97684105   -7.2442825     473.2136  0.024104197  0.024065232            5 
 1637000    1.0016884   -7.2431993    472.02707  0.024029071  0.024057797            2 
 1638000    1.0042506   -7.1994806    473.56082  0.024092431  0.024050389            3 
 1639000    0.9923805   -7.2553693    472.53197   0.02402542  0.024042948            6 
 1640000     0.979933   -7.2466273     471.5805  0.023962424   0.02403543            9 
 1641000   0.98225779    -7.250805    472.68015  0.024003664  0.024027882            4 
 1642000   0.99769775   -7.2302043     473.4739  0.024029329  0.024020338            2 
 1643000   0.98120653   -7.2435778    472.14507  0.023947305  0.024012777            3 
 1644000   0.99530815   -7.2394363    474.19557  0.024036677  0.024005231            5 
 1645000   0.97735141   -7.2482524    472.94524  0.023958726  0.023997735            3 
 1646000   0.95418847   -7.2920658    472.19161  0.023906015  0.023990219            4 
 1647000    0.9565496   -7.2599954    471.59144  0.023861133  0.023982548            4 
 1648000   0.98922356    -7.238812      474.102  0.023973605  0.023974935            2 
 1649000   0.97017671   -7.2343502    473.19927  0.023913446  0.023967391            4 
 1650000   0.98873057   -7.2854911    472.53199  0.023865252  0.023959841            6 
 1651000   0.98580567   -7.2437393    474.15435  0.023932685  0.023952325            3 
 1652000    0.9891692   -7.2464786    473.99723  0.023910272  0.023944826            6 
 1653000   0.98180276   -7.2602368     473.5675  0.023874143  0.023937322            8 
 1654000   0.99308554    -7.270822    472.82047  0.023822071  0.023929747            6 
 1655000   0.97782021   -7.2742673    474.36728  0.023885563  0.023922164            3 
 1656000   0.97770283   -7.2464714    475.06744  0.023906373  0.023914497           10 
 1657000   0.97807001   -7.2925746     474.5304  0.023864937  0.023906913            3 
 1658000    1.0000224   -7.2711943    474.42921  0.023845457  0.023899376           11 
 1659000   0.96824078    -7.248955     475.9449  0.023907218  0.023892036            5 
 1660000   0.98375295   -7.2653303    474.52557  0.023821565  0.023884629            3 
 1661000   0.98544572    -7.269708    476.17242  0.023889847  0.023877106            7 
 1662000   0.98370438   -7.2284631    476.30722  0.023882231  0.023869653            3 
 1663000   0.97765523   -7.2694414    475.46222  0.023825527  0.023862212            6 
 1664000     1.000068   -7.2475861    476.72479  0.023874439  0.023854851            5 
 1665000   0.99198235   -7.1860993    477.79724  0.023913776  0.023847561            3 
 1666000   0.98803887   -7.2588132    476.01196  0.023810122  0.023840267            2 
 1667000   0.98934207   -7.2572734    474.91411  0.023740957  0.023832768            3 
 1668000   0.99951138    -7.244331    476.82273  0.023822079  0.023825387            2 
 1669000   0.98110525   -7.2674632    476.24002  0.023778711  0.023817963            7 
 1670000    1.0061387   -7.2866938    477.68652  0.023836653  0.023810535            6 
 1671000     0.971389   -7.2313724    477.38484  0.023807343  0.023803146            4 
 1672000      1.00356   -7.2132613     478.1706  0.023832267  0.023795805            3 
 1673000   0.98085907   -7.2617662    477.67124  0.023793148  0.023788512            8 
 1674000   0.99440747   -7.2765152    476.90133  0.023740608  0.023781178            2 
 1675000    1.0250983   -7.2599226    477.17281  0.023739941  0.023773674            3 
 1676000   0.98801312   -7.2449696    478.56997  0.023795245  0.023766253            3 
 1677000   0.99940721   -7.2589836    479.30765  0.023817713  0.023758784            3 
 1678000   0.97048867   -7.2201663    479.30982  0.023803626  0.023751443            5 
 1679000   0.97089458   -7.2170565    478.21684  0.023735202  0.023744107           12 
 1680000   0.97524494   -7.2792678     476.6177  0.023641751  0.023736797           11 
 1681000   0.97900262   -7.2526586    478.04576  0.023698481  0.023729438            2 
 1682000   0.99170377   -7.2890462    478.20566  0.023692314  0.023722044            4 
 1683000   0.97238413   -7.3019614    477.59164  0.023647833  0.023714555            4 
 1684000   0.98839916   -7.2718006     480.7074  0.023787975  0.023707119            6 
 1685000   0.99555126   -7.2631868    479.81916  0.023729929  0.023699738            4 
 1686000    0.9682033    -7.282585    478.58684  0.023654944  0.023692292            3 
 1687000   0.95919371    -7.291871     479.9546  0.023708487  0.023684799           14 
 1688000   0.96525682   -7.2874465    478.30228  0.023612869  0.023677286            5 
 1689000   0.98856393   -7.2800799     477.9822  0.023583097  0.023669725            6 
 1690000   0.98380665   -7.2710652    477.47571  0.023544167  0.023661993            6 
 1691000   0.95519877   -7.2232233    479.65566  0.023637673  0.023654288           10 
 1692000   0.96898538   -7.2231349     480.4634  0.023663485  0.023646745            5 
 1693000   0.99609486   -7.2399223     478.2202  0.023539092  0.023639115            3 
 1694000   0.96529239   -7.2781135    478.49426  0.023538678  0.023631553            4 
 1695000   0.97587507   -7.2410447    479.63508  0.023580879  0.023623946            9 
 1696000   0.99224585   -7.2836539    479.22304   0.02354673  0.023616407            4 
 1697000   0.96671814   -7.2638363    479.38231  0.023540675  0.023608767            3 
 1698000   0.98787605   -7.2497326    480.56917  0.023585059  0.023601195           17 
 1699000   0.98105723   -7.2672302    480.32499  0.023559201  0.023593588            4 
 1700000   0.97471655   -7.2756469    479.26957  0.023493607  0.023585954            4 
 1701000   0.99789234   -7.2861907    478.68712   0.02345126  0.023578255            3 
 1702000   0.97861567   -7.2795692    478.87548  0.023446704   0.02357059            3 
 1703000   0.99628885   -7.2702833    480.81115  0.023527655  0.023562954            2 
 1704000   0.99370106   -7.2997976    480.82967  0.023514753  0.023555359            4 
 1705000   0.97695879   -7.2635633    481.09281  0.023513822  0.023547722           11 
 1706000   0.97756588      -7.2847     482.0887  0.023548686  0.023540152            7 
 1707000   0.97753982   -7.2542142    480.99512  0.023481503  0.023532426            6 
 1708000   0.98583994   -7.2963996    480.31786  0.023434712  0.023524833            4 
 1709000   0.99075555   -7.3126728    482.08866  0.023507347  0.023517062            7 
 1710000   0.97864326   -7.2659853    481.17773  0.023449207  0.023509234            5 
 1711000   0.97355316   -7.3203802    479.87255  0.023371934  0.023501445            7 
 1712000   0.95789757   -7.2460816    481.06821  0.023416482  0.023493655            4 
 1713000   0.96699281   -7.2667046    483.59522  0.023525745  0.023486056           12 
 1714000   0.98361956   -7.2874903    480.86026  0.023379048  0.023478398            6 
 1715000   0.96809039   -7.2843524    479.97346  0.023322326  0.023470702            4 
 1716000   0.99310842   -7.2511105    482.13612  0.023413759  0.023462958            5 
 1717000   0.96984434    -7.290702     480.8317  0.023336813  0.023455352            4 
 1718000   0.96186229   -7.2814317    481.46836  0.023354111  0.023447694            7 
 1719000   0.97846415   -7.2810319    483.37034   0.02343273   0.02344008            3 
 1720000   0.96310337   -7.3126867    481.12379  0.023310261  0.023432418            4 
 1721000   0.95944981   -7.2831065     483.1875  0.023396644  0.023424623            5 
 1722000   0.97919643   -7.2940712    482.28427  0.023339347  0.023416902            4 
 1723000   0.97462456   -7.2944389    481.79763  0.023302265  0.023409295            3 
 1724000    1.0078749   -7.2692676    482.94819  0.023344363  0.023401663            4 
 1725000   0.96721419   -7.2681753    482.47969  0.023308198  0.023393991            6 
 1726000   0.98697917   -7.2797039    482.27507  0.023284814  0.023386321            3 
 1727000   0.96778609   -7.3161693    484.10972  0.023359859  0.023378614           11 
 1728000    0.9891107   -7.2765823    482.96097  0.023290942  0.023370786            2 
 1729000   0.97821009   -7.2802974    482.66261  0.023263091  0.023363009            3 
 1730000    0.9624777   -7.2868944    483.21096  0.023276058  0.023355259            3 
 1731000   0.96611292   -7.3221704    482.67257  0.023236692  0.023347384           16 
 1732000   0.97181934   -7.3123712     482.7951  0.023229172  0.023339601            8 
 1733000   0.98167478   -7.2615687    483.62342  0.023255598  0.023331843            3 
 1734000   0.95152609   -7.3384486    482.63863  0.023194859  0.023324016            6 
 1735000   0.95615824   -7.3003619    483.03507  0.023200532  0.023316243            7 
 1736000   0.96653524   -7.2634596    484.63732   0.02326408  0.023308484            4 
 1737000   0.97938726   -7.3065376    484.88194  0.023262423  0.023300756            4 
 1738000   0.98744422   -7.2918047    482.58725  0.023139013  0.023293029            7 
 1739000   0.96051534    -7.227584    485.80158  0.023279739  0.023285336            3 
 1740000   0.97508649   -7.2901265    484.75918  0.023216436  0.023277578           10 
 1741000   0.95032876    -7.277334    483.86915  0.023160499  0.023269721            5 
 1742000   0.97856299   -7.3052471    484.52472  0.023178565  0.023261865            8 
 1743000   0.97273546   -7.3005024    485.22429  0.023198713  0.023254113            3 
 1744000   0.97195516   -7.3301244    483.42294  0.023099338  0.023246229            3 
 1745000   0.94856368   -7.2863382    485.26664  0.023174147  0.023238403            4 
 1746000   0.96925291   -7.2844859    486.12275  0.023201735   0.02323067            4 
 1747000    0.9640902   -7.3102453    484.67713  0.023119497   0.02322292            4 
 1748000    0.9865929   -7.2758062    486.09901  0.023174056  0.023215274            6 
 1749000   0.96809735   -7.3046236    485.31719  0.023123556  0.023207551            7 
 1750000   0.96907753   -7.3190689    484.95813  0.023093244  0.023199734            3 
 1751000   0.96776894   -7.3134465    484.57635  0.023061886  0.023191929            9 
 1752000   0.95739609   -7.3312888    485.88065  0.023110761  0.023184061            8 
 1753000   0.96465027   -7.3175563    485.47518  0.023078303  0.023176188           16 
 1754000   0.97228565   -7.2990808    486.22368  0.023100707  0.023168419            3 
 1755000   0.98253373   -7.2762616    486.03795  0.023078725  0.023160671            4 
 1756000   0.98356339   -7.3151121    487.07326  0.023114714  0.023152943            7 
 1757000   0.96309415   -7.3203987    485.18286  0.023011898  0.023145136            4 
 1758000    0.9789917    -7.292518    485.98678  0.023036916  0.023137391           12 
 1759000   0.96684071    -7.304936    485.94752  0.023021959   0.02312967            8 
 1760000   0.97775214   -7.2779669    487.19225  0.023067815  0.023121909            6 
 1761000   0.98851423   -7.2886597    487.73756  0.023080521   0.02311418            3 
 1762000   0.96689121   -7.3196483    486.97009  0.023031124  0.023106378            3 
 1763000   0.98457197    -7.248657    489.05527  0.023116623  0.023098657            6 
 1764000   0.96120688   -7.3231872    486.95486  0.023004292  0.023090954            8 
 1765000   0.97126885   -7.2749061    487.09886  0.022998057  0.023083182            5 
 1766000    0.9864043   -7.2772034    487.13451  0.022986717  0.023075461            8 
 1767000   0.97170749   -7.2953802    487.81155  0.023005638  0.023067742            5 
 1768000   0.96222113   -7.2817546    488.82712  0.023040494  0.023060102            8 
 1769000   0.96311142   -7.3147676    488.05933  0.022991301  0.023052337            8 
 1770000   0.99732353   -7.3296692    486.78461  0.022918296  0.023044491            8 
 1771000   0.96465317   -7.2930567    489.08344  0.023013525  0.023036611            6 
 1772000   0.96934954   -7.3079935    487.20586  0.022912239  0.023028914            4 
 1773000   0.99074997   -7.2840471    488.43961  0.022957304  0.023021193            6 
 1774000   0.97521778   -7.3209632    488.89997  0.022965989  0.023013437            2 
 1775000   0.96489961   -7.2880918    488.93242  0.022954574  0.023005769            4 
 1776000   0.95620439   -7.2956399    488.52358  0.022922465  0.022998169           11 
 1777000    0.9612569   -7.2693594    491.61511  0.023054545  0.022990691            4 
 1778000   0.98471842   -7.2832902    490.13041  0.022971992    0.0229831            6 
 1779000   0.97301234   -7.3027877    489.01672   0.02290691  0.022975589           13 
 1780000   0.96416891   -7.3217283    488.74731  0.022881428   0.02296792            2 
 1781000   0.97156388   -7.3372039    489.04567  0.022882541  0.022960178            5 
 1782000   0.96821436   -7.3011185    489.20623  0.022877209  0.022952559            6 
 1783000   0.95037982   -7.3343553     490.3726  0.022918891  0.022944908            5 
 1784000   0.96285354   -7.3319489    489.77311  0.022878042  0.022937271            3 
 1785000   0.97945127   -7.3068123    489.89301  0.022870822  0.022929572            5 
 1786000   0.97527761   -7.3268583    489.35615  0.022832967  0.022921837            3 
 1787000   0.96906765   -7.3268641    490.03449  0.022851823  0.022914061           10 
 1788000   0.97428186   -7.3079667    490.40902  0.022856498  0.022906314            2 
 1789000   0.96342922   -7.2895459    490.10073  0.022829361    0.0228987            3 
 1790000   0.95101024   -7.2940472    490.75736  0.022847177  0.022891037            9 
 1791000   0.95626636   -7.3174106    490.03416   0.02280077  0.022883339            4 
 1792000    0.9699896   -7.3062547    490.95284  0.022830768   0.02287571            3 
 1793000   0.97432464   -7.3115046    491.54195  0.022845415  0.022868081            6 
 1794000   0.94769085   -7.3497352     490.5118  0.022784829  0.022860424            5 
 1795000   0.96042107   -7.3268304    491.50488   0.02281824  0.022852762            3 
 1796000    0.9572786   -7.3140759    491.75197  0.022816999  0.022845061            4 
 1797000    0.9652419   -7.2893088    491.86229  0.022809418  0.022837449            5 
 1798000   0.96526098   -7.3219359    491.63846  0.022786358  0.022829879            2 
 1799000   0.97298157   -7.3409297    491.51319  0.022767889  0.022822317            2 
 1800000   0.98627694   -7.3018089    493.22964  0.022834705   0.02281476            5 
 1801000   0.97246173    -7.297514    492.14244  0.022771721  0.022807168            5 
 1802000   0.97359802   -7.3444702    492.56262  0.022778516  0.022799578            5 
 1803000   0.97105772   -7.3426288    492.58448  0.022766892  0.022792013            4 
 1804000   0.95978736   -7.3166112    494.19017  0.022828445  0.022784539            2 
 1805000   0.96729743   -7.3010945    494.14667  0.022813789  0.022776987            6 
 1806000   0.95473615   -7.3151119    494.31384   0.02280887  0.022769601            7 
 1807000   0.96002334   -7.3520331     494.0397  0.022783605  0.022762251            5 
 1808000   0.96729347   -7.3562838    492.94739  0.022720658  0.022754845           13 
 1809000   0.94735446    -7.308164    495.37792  0.022820062  0.022747393            6 
 1810000   0.96812557   -7.3064102    496.01906  0.022836973  0.022740053            5 
 1811000   0.95889677   -7.3118395    496.36795  0.022840418  0.022732624            3 
 1812000   0.94254833   -7.3058999     494.3272  0.022733959  0.022725277            9 
 1813000   0.96058202   -7.3517748    495.35117  0.022768486  0.022717961            6 
 1814000   0.97681408   -7.3380586    496.28048  0.022798626  0.022710642            4 
 1815000    0.9668805   -7.3223646    495.95014  0.022770897  0.022703303            4 
 1816000    0.9454214   -7.3176397    495.42454  0.022734239  0.022696049            4 
 1817000   0.95500212   -7.3253088    494.70566  0.022688757  0.022688678            4 
 1818000   0.96406271    -7.312149    495.28186  0.022702689  0.022681323            5 
 1819000    0.9549715   -7.2641202    496.80558  0.022760014   0.02267405            3 
 1820000   0.95269251   -7.3103518    496.23211   0.02272125  0.022666788            4 
 1821000   0.96436074   -7.3146364    495.77589  0.022687896  0.022659493            4 
 1822000   0.95861125   -7.3257854    495.61109  0.022667906  0.022652176            6 
 1823000   0.97179451   -7.2903695     497.5596  0.022744542  0.022644824            6 
 1824000   0.95277015   -7.3567686    495.90545  0.022656499  0.022637506            4 
 1825000   0.97536106   -7.3010768    497.11415  0.022699276   0.02263013            3 
 1826000   0.96509184   -7.3679268    495.77257  0.022625619  0.022622759            7 
 1827000    0.9622922   -7.3640762    495.82978  0.022615845  0.022615228            7 
 1828000   0.94083168   -7.3186276    498.43403  0.022722193   0.02260785            7 
 1829000   0.96102413    -7.322511    495.75654  0.022587778  0.022600434            7 
 1830000   0.96075419    -7.299553    498.59108  0.022704512  0.022593109            4 
 1831000   0.95832343   -7.3338466    497.23374  0.022630336  0.022585824            6 
 1832000   0.95199537   -7.3670453    496.77688  0.022597202   0.02257855            7 
 1833000   0.95428954   -7.2825537    497.91941  0.022636816  0.022571109            6 
 1834000   0.94299768   -7.3277272    497.40317  0.022601016  0.022563729            7 
 1835000   0.96479034    -7.322552    496.18833   0.02253353    0.0225564            4 
 1836000   0.95452797   -7.3487941    497.40268  0.022576375  0.022549007            3 
 1837000    0.9664693   -7.3257789    497.20107  0.022554939  0.022541611            6 
 1838000   0.94925684   -7.3362542    497.92267  0.022575384  0.022534195           15 
 1839000   0.94649524   -7.3593331    497.58032  0.022547595  0.022526829            7 
 1840000   0.97338901   -7.3111382    498.80472  0.022590793   0.02251945            4 
 1841000   0.95030158   -7.3791478    496.58589  0.022478087  0.022511993            9 
 1842000   0.96588498   -7.3689199    498.70028   0.02256154  0.022504564            4 
 1843000   0.94434777   -7.3885708    498.02092   0.02251858  0.022497184            7 
 1844000   0.94509993   -7.3634699    497.57312  0.022486131  0.022489787            5 
 1845000   0.95119684   -7.3581163    498.06207  0.022496029  0.022482433            2 
 1846000   0.94545905   -7.3274951    498.01342  0.022481646  0.022475088           10 
 1847000   0.95997328   -7.3226778    499.56804  0.022539616  0.022467781            7 
 1848000   0.93246163   -7.3359409    498.35363  0.022472656  0.022460391           10 
 1849000   0.95483457   -7.3570601    499.44889  0.022509865  0.022452903            6 
 1850000   0.95412148   -7.3567718    499.08926  0.022481498  0.022445465            5 
 1851000   0.95883757   -7.3226484     498.3738  0.022437142  0.022438056            8 
 1852000   0.96130172   -7.3381099    499.36155  0.022469472  0.022430669            3 
 1853000   0.95304386   -7.3266481    499.02337  0.022442138  0.022423224            6 
 1854000   0.93792558   -7.3416698     498.2744  0.022396368   0.02241576            7 
 1855000   0.96467377   -7.3639263    497.85132  0.022365289  0.022408252            6 
 1856000   0.94389207   -7.3522475    499.42048  0.022423692  0.022400758            6 
 1857000   0.95616551   -7.3367864    498.12802  0.022353618  0.022393279            5 
 1858000    0.9546867   -7.3049667    500.55888  0.022450613  0.022385898            8 
 1859000   0.92877973   -7.3752441    498.84934  0.022361904  0.022378439            3 
 1860000   0.95897257   -7.3582697    498.36453   0.02232816  0.022370977            5 
 1861000   0.94210064    -7.347412    498.62395  0.022327778  0.022363486            4 
 1862000   0.94998189   -7.3211435    498.31571  0.022301992  0.022355952            4 
 1863000   0.94078183     -7.35999    498.97063  0.022319316  0.022348496            3 
 1864000   0.93089401   -7.3681581    499.12954  0.022314447  0.022340896            5 
 1865000   0.95324434   -7.3680165    499.20671   0.02230593   0.02233335            2 
 1866000   0.96458313   -7.3462749    500.84383  0.022367088  0.022325791            5 
 1867000   0.94149077    -7.383961    500.92596  0.022358774  0.022318302            9 
 1868000   0.97142948   -7.3563529    500.04333  0.022307429  0.022310889            6 
 1869000   0.94864446   -7.3350977    501.83185  0.022375239  0.022303435            3 
 1870000   0.93170606   -7.3431348    501.84047  0.022363658  0.022296025            7 
 1871000    0.9360273   -7.4137171    499.61286  0.022252488  0.022288502            8 
 1872000   0.95744093   -7.3142643    501.78804   0.02233743  0.022281021            6 
 1873000   0.94623219   -7.3794102    500.21509  0.022255521  0.022273589            6 
 1874000   0.94550321   -7.3742304    500.98878  0.022278049  0.022266104            5 
 1875000   0.96696486   -7.3566104     501.1769  0.022274529  0.022258648            9 
 1876000   0.93767938   -7.3482688    500.87681  0.022249325  0.022251157            5 
 1877000   0.95857639   -7.3611102    500.79495  0.022233837  0.022243651           10 
 1878000   0.95076602   -7.3744512    500.58382  0.022212629   0.02223608            5 
 1879000   0.95073303   -7.3426218    503.04378  0.022309907  0.022228518            3 
 1880000   0.92328949   -7.3545979    500.72455  0.022195237  0.022221011            6 
 1881000     0.976615   -7.3630481    501.44445  0.022215331  0.022213427            5 
 1882000   0.94423403   -7.3749163     500.6262  0.022167295  0.022205853           11 
 1883000   0.94889098   -7.3744948    501.93074  0.022213256  0.022198306            4 
 1884000   0.94126069   -7.3750964    503.19114  0.022257216  0.022190753            6 
 1885000   0.94658041   -7.3838132    502.01899  0.022193589   0.02218332            8 
 1886000   0.95887398   -7.3580823    502.32891  0.022195516  0.022175907            4 
 1887000   0.93609426   -7.3755178    501.92879  0.022166083  0.022168469            8 
 1888000   0.95850715   -7.3762744    500.06444  0.022072053  0.022160859            6 
 1889000   0.93923212   -7.3724662    502.69185  0.022176277  0.022153383            4 
 1890000   0.93997898    -7.344739    502.31727  0.022148028  0.022145955            5 
 1891000   0.95677984   -7.3582334    502.29936  0.022135526  0.022138477           10 
 1892000     0.940245   -7.3755952    502.43088  0.022129619  0.022131044            6 
 1893000   0.95276915   -7.3511929    502.59357  0.022125091   0.02212361            2 
 1894000   0.95634904   -7.3530974    504.11675  0.022180427  0.022116178            4 
 1895000   0.96200223   -7.3434868    503.42264  0.022138199  0.022108778            3 
 1896000   0.94554859   -7.4098037    501.91526   0.02206027  0.022101317            3 
 1897000   0.95324859   -7.3941538    503.68819  0.022126524  0.022093851            5 
 1898000   0.93901184   -7.3777684     502.3922  0.022057965  0.022086452            4 
 1899000   0.94276267    -7.351067    504.43702  0.022136081  0.022079067           10 
 1900000   0.95004132   -7.3575839    503.91495  0.022101533  0.022071689            6 
 1901000   0.96269919    -7.378391    504.38988  0.022110726  0.022064238            4 
 1902000   0.95765374   -7.3755361    504.63587  0.022109879  0.022056851            5 
 1903000   0.92648791   -7.4117116    503.37483  0.022043039    0.0220494            4 
 1904000   0.95394831   -7.3655726    504.38419  0.022075638  0.022041972            9 
 1905000   0.96606682   -7.3578432    504.86215  0.022084958  0.022034631            6 
 1906000    0.9503378   -7.3767152    505.07337  0.022082606  0.022027346            5 
 1907000   0.93940914   -7.3527163    504.91792  0.022064233  0.022020079            5 
 1908000   0.93972212   -7.3605471    504.97078  0.022054978  0.022012705            2 
 1909000   0.92981486    -7.346447    506.64679  0.022116588  0.022005413            7 
 1910000   0.93706926   -7.3611603    507.24321   0.02213103  0.021998159            4 
 1911000   0.92570108   -7.3495356    507.07345  0.022112047  0.021990986           10 
 1912000   0.93811822   -7.3305713    507.64126  0.022125229  0.021983829           10 
 1913000   0.95037202   -7.3330512    505.42255  0.022017013  0.021976608            5 
 1914000   0.92086057   -7.4025365    506.80792  0.022065827  0.021969382           10 
 1915000    0.9365386   -7.3882907    505.59262  0.022001419  0.021962154            5 
 1916000   0.93365641   -7.3669212    506.70949  0.022038513  0.021954856           11 
 1917000   0.94986341   -7.3556241    507.48465  0.022060713  0.021947593            9 
 1918000   0.95553403   -7.3669922    508.31403  0.022085246  0.021940371            7 
 1919000    0.9433603   -7.3789465    506.34674  0.021988307  0.021933168            6 
 1920000   0.93686796   -7.3948192    505.82677  0.021954287  0.021925906            6 
 1921000   0.94599589   -7.4121374    505.17592  0.021914624  0.021918616           20 
 1922000   0.95317152   -7.3989165    506.47256  0.021959442  0.021911257           10 
 1923000   0.95073077   -7.3775115    507.86642  0.022008425  0.021903972            8 
 1924000   0.95434445   -7.3653567    507.37337  0.021975631  0.021896718            5 
 1925000   0.95494794   -7.3605093     507.6296  0.021975307  0.021889479            5 
 1926000   0.93694835   -7.3640688    507.73947  0.021968652  0.021882234            7 
 1927000   0.92089134    -7.368751     509.3967  0.022028918  0.021875041            4 
 1928000   0.95008415   -7.3706988    509.17518  0.022007917  0.021867864            2 
 1929000   0.94238317   -7.3656936    509.43695  0.022007817  0.021860642           11 
 1930000   0.93727971   -7.3826597    508.84842  0.021971003  0.021853389           10 
 1931000   0.96131881   -7.4034412    507.72789  0.021911268  0.021846157            8 
 1932000   0.93854697    -7.386484    508.05118  0.021913871  0.021838924            2 
 1933000    0.9432665   -7.4041607    507.53274  0.021880184  0.021831744            4 
 1934000   0.95697905   -7.3684191    509.36701  0.021947907  0.021824588            5 
 1935000   0.94535825   -7.3799539    509.51856  0.021943091  0.021817434            5 
 1936000   0.95147324   -7.3723559    509.95717  0.021950636  0.021810369            3 
 1937000   0.93961104   -7.3718521    509.57565   0.02192289  0.021803328            3 
 1938000   0.93550045    -7.399573    507.57976  0.021825755  0.021796252           13 
 1939000   0.91110262    -7.429134    508.63618  0.021859901  0.021789038            4 
 1940000   0.95390515    -7.413857    508.33127  0.021835536   0.02178184            4 
 1941000   0.94131583   -7.3703298    510.22017  0.021905383   0.02177472            3 
 1942000   0.93715539   -7.3954011    508.60127  0.021824634  0.021767667            7 
 1943000   0.94575875   -7.3983741    510.07383  0.021876558  0.021760543            5 
 1944000   0.93523097   -7.3789541    509.53355  0.021842145  0.021753414            4 
 1945000   0.95573837   -7.4368651    510.25883  0.021861989  0.021746222            2 
 1946000   0.95150578    -7.399706    508.51109  0.021775912  0.021739055            3 
 1947000   0.93368576   -7.4056349     509.4813  0.021806253  0.021731987            4 
 1948000    0.9412619   -7.3921896    510.94066  0.021857489  0.021724862            9 
 1949000    0.9495358    -7.395019    511.65425  0.021876785  0.021717859            6 
 1950000   0.94465878   -7.3347485    511.50241  0.021859077  0.021710842            8 
 1951000   0.94089411   -7.3757825    511.83856  0.021862231  0.021703799            5 
 1952000   0.95220147   -7.3883183    511.95679  0.021856079   0.02169669            4 
 1953000   0.95222337   -7.3697852     512.4988  0.021868015  0.021689601            5 
 1954000   0.92674829   -7.3804586    510.87345  0.021787506   0.02168248            9 
 1955000   0.95166689   -7.4212319    511.88909  0.021819654  0.021675344            5 
 1956000    0.9428172   -7.4356496    509.00692  0.021685707  0.021668148           13 
 1957000    0.9352308   -7.3964884    511.14369  0.021765614  0.021660894            8 
 1958000   0.94039977   -7.4420681    510.35427    0.0217209  0.021653626           13 
 1959000   0.96473204   -7.4748647    510.74001  0.021726221  0.021646379            5 
 1960000   0.93832561    -7.463599    509.82766  0.021676346  0.021639053            8 
 1961000   0.93950111   -7.4131062    509.46239   0.02164977  0.021631732            4 
 1962000   0.92763654   -7.4038896    512.03185   0.02174787  0.021624463            5 
 1963000   0.95878919   -7.3955991    511.22403  0.021702497  0.021617255            2 
 1964000     0.938348   -7.4073951    511.16143  0.021688791   0.02160993            4 
 1965000   0.92085538   -7.4373358    511.99851  0.021713253  0.021602606            6 
 1966000   0.94506519   -7.4301354    511.40486  0.021677046  0.021595293            4 
 1967000   0.95145728   -7.3943077    512.05731  0.021693667   0.02158797            4 
 1968000   0.93303626   -7.4327299    510.73222  0.021626534  0.021580705            6 
 1969000   0.91984775    -7.412101    511.90019  0.021664982  0.021573435            4 
 1970000   0.93296688   -7.4219279    511.01695  0.021616622  0.021566213            7 
 1971000   0.93633549   -7.4055588    512.65456  0.021674893  0.021558931            4 
 1972000   0.94560146   -7.4288335    511.17377  0.021601326  0.021551705            6 
 1973000   0.94170295   -7.4097856    512.30379  0.021638106  0.021544537           10 
 1974000   0.93458688   -7.3701951     514.0598  0.021701275  0.021537402            5 
 1975000   0.93001896   -7.3630287    514.71674  0.021718006  0.021530251            6 
 1976000   0.95050144   -7.3869201    513.73111  0.021665448  0.021523132            3 
 1977000   0.94263061   -7.3875481    513.10481   0.02162809  0.021515969            7 
 1978000   0.93212459     -7.36072    513.81906  0.021647247  0.021508888           11 
 1979000    0.9236234   -7.3905554    513.15103  0.021608179  0.021501721            4 
 1980000   0.93566193   -7.4092819    513.38354  0.021607051  0.021494521            8 
 1981000    0.9435527   -7.3963473    512.91465   0.02157642  0.021487273            8 
 1982000   0.92336183   -7.3851096    513.75253  0.021600762  0.021480086            3 
 1983000   0.93565071   -7.4082125     511.9439  0.021513864  0.021472904            4 
 1984000   0.95631927   -7.4214855    514.04061  0.021591088   0.02146571            3 
 1985000   0.92621813   -7.3924952    513.19828  0.021544848  0.021458457            6 
 1986000   0.94179648   -7.3834183    513.31256  0.021538795  0.021451211            4 
 1987000     0.943959    -7.407344    512.18477  0.021480656  0.021443897            8 
 1988000   0.92798376    -7.421925    514.18299  0.021553613  0.021436658            3 
 1989000   0.91982357   -7.4223829    513.59332  0.021518071  0.021429393           11 
 1990000   0.92650813   -7.4039305    512.79209  0.021473706  0.021422158            5 
 1991000   0.94260151   -7.4233808    512.22715  0.021439275  0.021414849            7 
 1992000   0.91991111   -7.4008421    513.60704  0.021486238  0.021407602            5 
 1993000   0.90867657   -7.4384238    512.20634   0.02141689  0.021400346            5 
 1994000   0.94561982   -7.4422949    513.23753  0.021449245  0.021393024            9 
 1995000   0.96084275   -7.4329297    513.36825  0.021443954  0.021385641            8 
 1996000   0.92924432   -7.4431504    512.78982   0.02140906  0.021378353           12 
 1997000   0.93334165   -7.3918716     514.1524  0.021455199  0.021371071            5 
 1998000   0.92854712   -7.4028617    515.70085  0.021509044  0.021363839            5 
 1999000   0.93984346   -7.4064514    515.63155  0.021495395  0.021356582            4 
 2000000   0.93025218   -7.4141735    513.45952  0.021394147  0.021349266            5 
 2001000   0.92686055   -7.4313976    515.68707  0.021476223  0.021341999            5 
 2002000   0.93100656   -7.4269606    513.85399  0.021389194  0.021334781            3 
 2003000   0.94173134   -7.3730804    516.84166  0.021502815  0.021327554            3 
 2004000   0.93285902   -7.4362563    515.46599   0.02143488  0.021320352            5 
 2005000   0.92903711   -7.4151488    514.22338  0.021372543  0.021313144            5 
 2006000   0.92186208    -7.435517     514.9207  0.021390857  0.021305947            6 
 2007000   0.92270444   -7.4247449    515.61758  0.021409134   0.02129871            4 
 2008000   0.92302291     -7.44639    516.27765  0.021425865  0.021291448            3 
 2009000   0.92522782   -7.4305453    515.27328  0.021373539   0.02128428            8 
 2010000   0.94014009   -7.4595211    515.59683   0.02137632  0.021277081            7 
 2011000   0.94090586   -7.4436286    515.02543  0.021342012  0.021269863           11 
 2012000   0.92378431   -7.4523079    516.02709  0.021372891  0.021262709            4 
 2013000   0.94153231   -7.4418658    516.33584  0.021375056  0.021255664            6 
 2014000   0.91640039   -7.4124591    516.82059    0.0213845  0.021248661            4 
 2015000   0.91437206   -7.4446453    515.67405   0.02132647  0.021241599            7 
 2016000   0.92946198   -7.4579223    517.30178  0.021383176    0.0212345           11 
 2017000   0.93444049   -7.4263871     517.6756  0.021388019  0.021227418            4 
 2018000   0.92933584   -7.4008584     518.0973  0.021394834  0.021220386            4 
 2019000   0.93464634   -7.4333005    517.05768  0.021341327  0.021213398            8 
 2020000   0.93329759   -7.4052167    517.95698  0.021367862  0.021206399            7 
 2021000   0.92269721   -7.4748702    517.00763  0.021318144   0.02119935            4 
 2022000   0.92959382   -7.4085517    518.07165  0.021351453  0.021192284            2 
 2023000   0.91042853   -7.3970317    518.37757    0.0213535  0.021185234            8 
 2024000   0.93873773   -7.4243621    517.62665  0.021312033  0.021178132            6 
 2025000   0.93447432   -7.4131059    518.98696  0.021357488  0.021171078           10 
 2026000   0.89820933   -7.4183519    519.40632  0.021364195  0.021164059            6 
 2027000   0.92013266   -7.4388117    517.70058   0.02128353   0.02115702            6 
 2028000    0.9298716    -7.432102    518.65554  0.021312276  0.021149992            7 
 2029000   0.91864676   -7.4590697    517.66882  0.021261246   0.02114293            4 
 2030000   0.93261974   -7.4541699    518.42662  0.021281881  0.021135863            3 
 2031000   0.94124188   -7.4844801    517.44667  0.021231194  0.021128753            9 
 2032000   0.92892465   -7.4290876    518.08845  0.021247066  0.021121647            6 
 2033000    0.9247715   -7.3954741    519.50489  0.021294675  0.021114618            6 
 2034000   0.93430361   -7.4463542    518.01773  0.021223276  0.021107519           12 
 2035000   0.93298194   -7.4623007    517.20619  0.021179615  0.021100448           14 
 2036000   0.93949827   -7.4090561    517.78387  0.021192857  0.021093372            5 
 2037000   0.91946227   -7.4152516    518.68226  0.021219206  0.021086365            5 
 2038000   0.94490903   -7.4260942    520.08076  0.021265978  0.021079353            9 
 2039000   0.92555465   -7.3879635     521.0745  0.021296162  0.021072365            5 
 2040000   0.94593775   -7.4697572    518.01626  0.021160795  0.021065294            4 
 2041000   0.93753695    -7.471488    516.83769  0.021102306  0.021058131           13 
 2042000   0.92243245   -7.4396533    518.04676  0.021141314  0.021050957            3 
 2043000   0.92107292   -7.4427761    518.64374  0.021155316    0.0210438            5 
 2044000   0.93805757   -7.4460291    517.70843  0.021106834  0.021036595            2 
 2045000   0.91465981    -7.470498    517.83723  0.021101762  0.021029371            5 
 2046000   0.91680689   -7.4649412    517.49051  0.021077326  0.021022171            6 
 2047000   0.93508189   -7.4321711    518.37714  0.021103124  0.021014977            6 
 2048000   0.93104713   -7.4586282    518.29039   0.02108929  0.021007824           13 
 2049000   0.91892279   -7.4552327    516.94346  0.021024218  0.021000607            5 
 2050000   0.92537516    -7.428171    519.55917  0.021120291  0.020993357            3 
 2051000   0.95260498   -7.4496116    518.99189  0.021086945  0.020986162            8 
 2052000    0.9271747   -7.4476542    518.26682  0.021047223  0.020978885            4 
 2053000   0.92538191   -7.4937524    517.91247  0.021022588  0.020971586            8 
 2054000    0.9304818   -7.4636289    518.36242  0.021030608  0.020964336            5 
 2055000   0.92251182    -7.440806    518.06732  0.021008407  0.020957079            5 
 2056000   0.92040965   -7.4383815    520.37273  0.021091631  0.020949843            5 
 2057000    0.9306963   -7.5012186    516.36297  0.020918934  0.020942531           12 
 2058000   0.90818858    -7.427153    520.13871  0.021061658  0.020935217            6 
 2059000    0.9343083   -7.4207391    519.92596  0.021042818  0.020927992            4 
 2060000   0.89309852   -7.4141454    519.04647  0.020997025  0.020920802            9 
 2061000   0.92657256   -7.4374073    519.29119  0.020996733  0.020913606            4 
 2062000   0.90716625    -7.462654    519.46393  0.020993531   0.02090642            4 
 2063000   0.92492213   -7.4585207    518.71729  0.020953195  0.020899224           10 
 2064000    0.9200936   -7.4467766    521.18334  0.021042609  0.020892058            8 
 2065000   0.90088125   -7.4529246    520.06146  0.020987145  0.020884939            6 
 2066000   0.93286031   -7.4551187    520.19291  0.020982289  0.020877813            8 
 2067000   0.91971147   -7.4367036    520.30027  0.020976466  0.020870715            7 
 2068000   0.90769715   -7.4645483    519.65721   0.02094041  0.020863541            4 
 2069000   0.92216849    -7.430884    522.32046  0.021037557  0.020856379            7 
 2070000   0.93016444   -7.4637583    520.55093  0.020956156  0.020849208            5 
 2071000   0.90020593   -7.4780936    521.02566   0.02096514  0.020841982            5 
 2072000   0.92014437   -7.4647645    519.50215  0.020893748  0.020834772           10 
 2073000   0.91346954   -7.4859243    520.67423  0.020930786  0.020827561            5 
 2074000   0.91277675   -7.4797337    519.57706   0.02087661  0.020820351            7 
 2075000   0.91209885   -7.4756744    519.43754  0.020860945   0.02081315            6 
 2076000   0.91973359    -7.471598    521.67071  0.020940539  0.020805986            7 
 2077000   0.90419186   -7.4952354    520.87836  0.020898666  0.020798796            6 
 2078000   0.91496188   -7.4731924    521.07491  0.020896491  0.020791614           10 
 2079000   0.90651872   -7.4927648    520.43193  0.020860667  0.020784462            9 
 2080000   0.93483259   -7.4604392    522.13262  0.020918775  0.020777257            4 
 2081000   0.93108653   -7.4304017    522.64661  0.020929305  0.020770248            7 
 2082000   0.91482889   -7.4761895    521.46053  0.020871779  0.020763274            6 
 2083000   0.91339998   -7.4661965    522.56765  0.020906051   0.02075625           11 
 2084000   0.92619973   -7.5186757    520.42371  0.020810289  0.020749087           10 
 2085000   0.92334078   -7.4593279    522.30048  0.020875319  0.020742003           12 
 2086000   0.92854626   -7.4699836    521.40064  0.020829364  0.020734909            7 
 2087000     0.890166   -7.5103787    521.45625  0.020821604  0.020727777           20 
 2088000   0.92528486   -7.4937842    522.80214  0.020865347   0.02072062            8 
 2089000   0.90615245    -7.492768    521.45312  0.020801545  0.020713419            8 
 2090000   0.90133379   -7.4801006    523.74969  0.020883161  0.020706302            7 
 2091000   0.93729306    -7.449625    522.06579  0.020806065  0.020699271           12 
 2092000   0.90934777   -7.4676648    523.10957  0.020837698  0.020692202            5 
 2093000   0.90703955   -7.4765551    521.42732  0.020760763  0.020685035           12 
 2094000   0.90929806      -7.4969    523.03504   0.02081483  0.020677897            4 
 2095000   0.91795225   -7.4828697    522.17341  0.020770621  0.020670741            5 
 2096000   0.92551945   -7.5001674    522.44992  0.020771705  0.020663604            4 
 2097000   0.91516324   -7.5127501    521.59476  0.020727816  0.020656448            7 
 2098000   0.91588602   -7.4916568    522.03244  0.020735321  0.020649357            6 
 2099000   0.92311755   -7.4527772    522.00424  0.020724323  0.020642247            3 
 2100000   0.90923156   -7.4718158    523.39154  0.020769506  0.020635145            5 
 2101000   0.92284677   -7.4792185    523.01046  0.020744505  0.020628073            5 
 2102000    0.9158999   -7.5112102    522.89998  0.020730256  0.020620945            5 
 2103000   0.91084705   -7.4878231    523.84554  0.020757867  0.020613805            4 
 2104000   0.91021085    -7.472696    524.37833  0.020769104  0.020606745           14 
 2105000   0.90287678   -7.4715125    524.43409  0.020761445  0.020599665            9 
 2106000   0.89594128   -7.4521317    525.22217   0.02078277  0.020592622            5 
 2107000   0.91602894   -7.4831072    523.14729  0.020690844  0.020585531            5 
 2108000   0.91936897   -7.5445147    522.96334  0.020673756  0.020578374            4 
 2109000   0.91226091   -7.4757272    523.70235  0.020693154  0.020571185            9 
 2110000   0.93122843   -7.4976868    523.06472  0.020658164  0.020564072            9 
 2111000   0.89666251   -7.5123196    524.46147  0.020703516  0.020556939            8 
 2112000   0.88825079   -7.4562776    523.52139   0.02065662  0.020549896            9 
 2113000   0.89247263   -7.4564456    524.43136  0.020682732  0.020542886            4 
 2114000   0.92454556   -7.4813058    525.36977   0.02070994  0.020535855           10 
 2115000   0.92046987   -7.5188868    523.25837  0.020616957  0.020528831            5 
 2116000   0.92011325   -7.4903903    525.29746  0.020687518  0.020521845            5 
 2117000   0.91875819   -7.4495659    525.17845  0.020673061   0.02051483            3 
 2118000   0.93147144   -7.5127712     523.4165  0.020593976  0.020507803            7 
 2119000   0.91016898   -7.4839026    525.52947  0.020667354  0.020500794            6 
 2120000   0.92433875   -7.4847087    525.40518  0.020652719  0.020493783            4 
 2121000   0.91410446   -7.4758846    525.46424  0.020645303  0.020486732            9 
 2122000   0.91232904   -7.4976485    524.97144   0.02061622  0.020479681            8 
 2123000   0.91058266   -7.4694975    524.35672   0.02058238  0.020472612           16 
 2124000   0.92597678   -7.5076704    523.20358  0.020527447  0.020465545            7 
 2125000    0.9125926   -7.4689769    525.48453  0.020607236  0.020458515           21 
 2126000   0.90118313   -7.4665524    525.99004  0.020617358  0.020451481            8 
 2127000    0.9135918   -7.4926676    524.71789  0.020557823  0.020444368            8 
 2128000   0.90724008   -7.5114752    523.56501  0.020503016    0.0204372            8 
 2129000   0.90232867   -7.5091212    524.49254  0.020529691  0.020430083            6 
 2130000   0.90076267   -7.5098093      524.988  0.020539437  0.020422962           11 
 2131000   0.89410578   -7.5158848    525.05107  0.020532264  0.020415871            6 
 2132000   0.90883636   -7.4914658    525.16263  0.020526994  0.020408737            6 
 2133000   0.90736381   -7.5313276    524.33363  0.020484983  0.020401622            6 
 2134000   0.93130018    -7.513398    524.69238  0.020489393  0.020394458           29 
 2135000   0.93203891   -7.5198583    524.52972  0.020473447  0.020387266            5 
 2136000   0.91286793   -7.5364243    524.84172  0.020476035  0.020380137            9 
 2137000   0.89958083   -7.4908526    526.48711  0.020530616  0.020373001           10 
 2138000   0.91402243   -7.5057516    524.58982  0.020447062   0.02036585            9 
 2139000   0.90285045   -7.4676626    525.88821  0.020488087   0.02035875            9 
 2140000   0.89855854   -7.4735386    526.49309  0.020502068  0.020351677            3 
 2141000   0.94094482   -7.4613613    525.31794  0.020446752  0.020344604            8 
 2142000    0.9259167   -7.4615224    528.72241  0.020569655  0.020337587            7 
 2143000   0.91783798   -7.4706325    528.00188  0.020532038  0.020330582            7 
 2144000   0.90891134   -7.4923239    527.92987  0.020519662  0.020323535            8 
 2145000   0.90536061   -7.4845167    525.92084  0.020432045  0.020316466            5 
 2146000   0.88278932   -7.4820922    526.51236  0.020445494  0.020309506            6 
 2147000   0.91535491   -7.4447867     527.6266  0.020479219  0.020302498            4 
 2148000   0.90682002   -7.4625852     525.8231  0.020399717  0.020295506            5 
 2149000   0.89609285   -7.4745845    527.93113  0.020471969  0.020288553            7 
 2150000   0.89022228   -7.4612691    526.38013  0.020402331   0.02028156            8 
 2151000   0.88175083    -7.460335    526.17664  0.020384962  0.020274552            7 
 2152000   0.91530238   -7.4752242    527.00735  0.020407658  0.020267538           11 
 2153000   0.91009992   -7.4712255     527.9956   0.02043643  0.020260533            4 
 2154000   0.90905477   -7.4914271    528.17471  0.020433871  0.020253447           16 
 2155000   0.90808655   -7.4423852    528.90875  0.020452775  0.020246447            8 
 2156000   0.90645893   -7.4690799    528.12095  0.020412838  0.020239527            4 
 2157000    0.8909807   -7.4718611    529.40166  0.020452853  0.020232614            7 
 2158000   0.91547458   -7.4797832    527.97215  0.020388174  0.020225653            6 
 2159000   0.91239292   -7.4842383    527.63208  0.020365605  0.020218667            2 
 2160000   0.90076166   -7.4923214    528.01848  0.020371084   0.02021165            4 
 2161000   0.89811432   -7.5145473    528.48961  0.020379824  0.020204633            5 
 2162000    0.9181859   -7.4614192    530.53642  0.020449291  0.020197646           12 
 2163000   0.89750618   -7.4820383    529.98793  0.020418706  0.020190713            4 
 2164000   0.90187165   -7.4803623    528.39162  0.020347798  0.020183804            6 
 2165000   0.89663631   -7.4506579     529.1066   0.02036592  0.020176866           16 
 2166000   0.91394948   -7.4815692    529.74863  0.020381218  0.020169932            9 
 2167000   0.89183194   -7.4756462    530.69427  0.020408178  0.020162965            5 
 2168000   0.92641316   -7.5064204    528.96947  0.020332467  0.020156002           10 
 2169000    0.9064565   -7.4797014    530.22004   0.02037114  0.020149053            6 
 2170000   0.89285639    -7.476863    529.42869  0.020331363  0.020142159            7 
 2171000   0.90831208   -7.4975746      528.591  0.020289843  0.020135288            4 
 2172000   0.89654785   -7.5033548    530.12112  0.020339208  0.020128394            8 
 2173000   0.89403004   -7.5151158    529.22701  0.020295559   0.02012146           11 
 2174000   0.90117745   -7.4886023    529.80757  0.020308478  0.020114515            6 
 2175000    0.8906375   -7.5080684    529.11096  0.020272451   0.02010764            5 
 2176000   0.91023643   -7.4971479    529.66651   0.02028441  0.020100802            7 
 2177000   0.89793384   -7.4750885    530.28257  0.020298674  0.020093982            5 
 2178000   0.88805145   -7.5093434    530.24355  0.020287862  0.020087102            9 
 2179000   0.91659256   -7.5342096    530.38371  0.020283911  0.020080164           10 
 2180000   0.88340453   -7.5531778     528.5718  0.020205344  0.020073198           13 
 2181000   0.89766117   -7.5452173    528.56581  0.020195851  0.020066259            3 
 2182000   0.88959015   -7.5167635    529.44046  0.020219999  0.020059315           14 
 2183000   0.92922462   -7.5440163    530.38149  0.020246659  0.020052392           19 
 2184000   0.90244302   -7.5327073    528.58473  0.020168831  0.020045469            5 
 2185000   0.87508934   -7.5441444    529.10817  0.020179564  0.020038532            6 
 2186000   0.90341468   -7.4965052    530.60392  0.020227353  0.020031618            7 
 2187000   0.91493789   -7.5362591    531.13969  0.020238519  0.020024766            8 
 2188000   0.90274558   -7.4992001    531.29134  0.020235045  0.020017881            8 
 2189000   0.91012153   -7.5097219    531.97698  0.020251903  0.020011028           18 
 2190000   0.90100692   -7.5037576    530.74413  0.020195743  0.020004115            6 
 2191000    0.8871291   -7.4972012    530.57878  0.020180237   0.01999722            3 
 2192000   0.89126072   -7.5039797    532.05734  0.020227241  0.019990308            6 
 2193000   0.91876741   -7.5445803    530.63823  0.020164091   0.01998337            6 
 2194000   0.90115979    -7.495211    532.57745  0.020228557  0.019976483            6 
 2195000    0.9170861   -7.5464664    530.93487  0.020156981  0.019969569            7 
 2196000   0.88801906   -7.5378592    532.16131  0.020194342   0.01996266           10 
 2197000   0.89499227     -7.53762    530.52511  0.020123089   0.01995576           11 
 2198000   0.90275916   -7.5601501    530.23075  0.020102773  0.019948788           11 
 2199000   0.90692217   -7.5108022    531.17292  0.020129336  0.019941833           12 
 2200000   0.88877598   -7.5661979    529.99011  0.020075383  0.019934871            4 
 2201000   0.88352546   -7.5658655    530.38699  0.020081288  0.019927831           12 
 2202000   0.91063432    -7.535872    531.12974  0.020100278  0.019920829            4 
 2203000   0.91705921   -7.5254292     531.1897  0.020093422  0.019913826           19 
 2204000   0.90255973   -7.5141325    531.52984  0.020097166  0.019906901           18 
 2205000   0.90617269   -7.5605487     529.9835  0.020029611  0.019899955           35 
 2206000   0.89404495   -7.5130749    532.48666   0.02011509  0.019893014           15 
 2207000   0.89619432    -7.529555     532.9121   0.02012204  0.019886063           23 
 2208000   0.91682371    -7.528432    531.81915  0.020071677  0.019879129           11 
 2209000   0.89592121   -7.4910203    531.69042  0.020057734  0.019872183            9 
 2210000   0.90565997   -7.5391187    532.35251  0.020073624  0.019865293           12 
 2211000   0.89895615   -7.5468186    531.15031  0.020019234  0.019858358           27 
 2212000   0.89927768   -7.5401469    532.35488  0.020055564  0.019851403            5 
 2213000   0.88528923   -7.5596115    533.32835  0.020083158  0.019844515            6 
 2214000   0.89546014    -7.543256    532.57249  0.020045637  0.019837661            9 
 2215000   0.91850355   -7.5549872     532.2278  0.020023619   0.01983076           18 
 2216000   0.89571761   -7.5261676    533.34029  0.020056419  0.019823908            6 
 2217000   0.89118121   -7.5168784    532.90361  0.020030958  0.019817111            6 
 2218000   0.90481482     -7.51586    533.66014  0.020050351  0.019810228            6 
 2219000   0.90166642   -7.5530193    531.40523  0.019956633  0.019803336            3 
 2220000   0.91645086   -7.5318785    532.26348   0.01997986  0.019796418            6 
 2221000   0.90621942   -7.5420554    532.99984  0.019998493  0.019789525            4 
 2222000   0.88948728   -7.5262538     532.5363  0.019972108  0.019782619           10 
 2223000   0.89877843   -7.5886818     532.0689  0.019945603  0.019775705            6 
 2224000   0.90021771   -7.5653512    533.25267   0.01998099  0.019768778            4 
 2225000   0.88613247   -7.5457495    533.82583  0.019993477  0.019761915            9 
 2226000   0.87327318   -7.5151627    533.91053  0.019987666   0.01975507           21 
 2227000   0.87237339   -7.5635016    534.49268  0.020000475  0.019748233            6 
 2228000    0.8950872   -7.5523288    533.58949  0.019957716  0.019741378            6 
 2229000   0.89668777   -7.5271229    534.80586  0.019994237  0.019734526            4 
 2230000   0.88240234   -7.5568764    534.55711  0.019975976   0.01972767            4 
 2231000   0.88401811    -7.566089    531.85949  0.019866259  0.019720743           17 
 2232000   0.87595556   -7.5912056    532.50576  0.019881488  0.019713772            6 
 2233000    0.9049968   -7.5564144    533.01154  0.019891459  0.019706814           12 
 2234000    0.9082602   -7.5612427    532.60028  0.019867214  0.019699875           16 
 2235000   0.87321961   -7.5778625    532.42873  0.019851929  0.019692959           14 
 2236000   0.87642666   -7.5582955    532.70739  0.019853436  0.019686071           19 
 2237000   0.89935788   -7.5462797    533.39954  0.019870345  0.019679174           14 
 2238000   0.89274912   -7.5825153    531.95258  0.019807588  0.019672243            9 
 2239000   0.86594199   -7.5311239    533.05161  0.019839646  0.019665292            4 
 2240000    0.9014178   -7.5509353    533.86092  0.019860897  0.019658347            9 
 2241000   0.91022151   -7.5628501    533.33749  0.019832571  0.019651399            6 
 2242000   0.89129192   -7.5136684    534.31139  0.019859924  0.019644527           10 
 2243000   0.89627162   -7.5171344    535.35485  0.019889837  0.019637733           10 
 2244000   0.87778587   -7.5579072    534.35484  0.019843837  0.019630893            7 
 2245000   0.92302508   -7.5471574    534.89568  0.019855073  0.019624036            6 
 2246000   0.88849472   -7.5366618    534.14228   0.01981828  0.019617185            4 
 2247000   0.89282281   -7.5062598    535.79159  0.019870627  0.019610314            9 
 2248000   0.88583156   -7.5874367    533.16332  0.019764358   0.01960342            4 
 2249000   0.89675767   -7.5382421    535.52437  0.019843055  0.019596549            7 
 2250000   0.88985049   -7.5720662    532.85119  0.019735229  0.019589733            8 
 2251000    0.8913193   -7.5757143    534.40859  0.019784118  0.019582876           15 
 2252000   0.90374545   -7.5633948     534.5466   0.01978044  0.019575978           22 
 2253000   0.89497416   -7.5753131    533.70828  0.019740652  0.019569047            6 
 2254000   0.88440218   -7.5752185    533.55523  0.019726236   0.01956211           11 
 2255000   0.88214214   -7.5420993    534.32864   0.01974607  0.019555176            9 
 2256000    0.8998051   -7.5587711    535.41352  0.019777391  0.019548332            5 
 2257000    0.8686459   -7.5625652    534.14919  0.019721946  0.019541533           27 
 2258000   0.88033458   -7.5238719    534.71391  0.019734053  0.019534692            4 
 2259000   0.88387429   -7.5294174    535.91621   0.01976967  0.019527881            4 
 2260000   0.88480443   -7.5815666    533.44592  0.019669835  0.019521011           11 
 2261000   0.87941041   -7.5652142    535.42195  0.019733965  0.019514068            5 
 2262000   0.88508968   -7.5516809    535.24257  0.019718633  0.019507182            6 
 2263000   0.86756434   -7.5972706    535.30999  0.019712402  0.019500297            4 
 2264000   0.89028287   -7.5887916    534.34734  0.019668262  0.019493362            5 
 2265000   0.89348392   -7.6185025    533.52502  0.019629324  0.019486417           19 
 2266000   0.89771779   -7.5731764    534.89608  0.019671083  0.019479466            5 
 2267000   0.88872026   -7.5652444    536.21742  0.019710977  0.019472592            8 
 2268000   0.89688877   -7.5347114    535.82431  0.019687842  0.019465687            5 
 2269000   0.88098757   -7.5805943    534.28002  0.019622448   0.01945879            6 
 2270000   0.90493184    -7.589057    535.27226   0.01965023  0.019451857            9 
 2271000   0.88241935   -7.5878271    534.11915  0.019599264  0.019444936           15 
 2272000   0.86042053   -7.5872506    535.15366  0.019628582   0.01943798           12 
 2273000   0.89785816    -7.546951    535.57908  0.019635543  0.019431066           19 
 2274000    0.8934867   -7.5891228    535.01789  0.019606343  0.019424133           12 
 2275000   0.90584706    -7.611381    533.32932  0.019535872  0.019417165           11 
 2276000   0.89638767   -7.5919075    534.21752   0.01955981  0.019410249            7 
 2277000   0.87431141   -7.5791994    535.02158  0.019580646  0.019403354           15 
 2278000   0.88376034   -7.5474837    537.12653  0.019649054  0.019396485            5 
 2279000   0.88434459   -7.5744447    535.99133  0.019598922  0.019389592           12 
 2280000   0.88318964   -7.5411307    535.71806  0.019580338  0.019382764            3 
 2281000   0.88005545   -7.5641977    535.93534  0.019579692  0.019375953            6 
 2282000   0.88003753   -7.5526563    536.59131  0.019595067  0.019369105           12 
 2283000   0.89156455   -7.5819594    536.37266  0.019578503  0.019362218            6 
 2284000    0.8874512   -7.5730028    534.39225  0.019497674  0.019355387            7 
 2285000    0.8574363   -7.5534292    537.92651  0.019618035  0.019348546            4 
 2286000   0.88691114   -7.5395528    536.47921  0.019556693  0.019341665            9 
 2287000   0.88563683   -7.5720747    535.75109  0.019521611  0.019334838           18 
 2288000   0.88728007      -7.5857    536.03402  0.019523384   0.01932797            4 
 2289000   0.89878729   -7.5328393    536.48853  0.019531401  0.019321141            9 
 2290000   0.87531505   -7.5601537    537.38158  0.019555371  0.019314311            6 
 2291000    0.8787378   -7.5649507    537.06007   0.01953514  0.019307455            9 
 2292000   0.89253942   -7.5815626    535.85631   0.01948285  0.019300596            9 
 2293000   0.88135651   -7.5435788    537.89802  0.019548554  0.019293752           16 
 2294000   0.89627483   -7.5701311    537.08778  0.019510599  0.019286934           12 
 2295000   0.87277864   -7.5697113    536.79368  0.019491419  0.019280187            8 
 2296000   0.89790339   -7.5601411    538.00249  0.019526803  0.019273432            6 
 2297000   0.89662092   -7.5701628    537.93461   0.01951584  0.019266623            6 
 2298000   0.86699622    -7.588875    537.40606   0.01948818  0.019259807           16 
 2299000   0.89584251   -7.5720899    536.84694  0.019459437  0.019253019           12 
 2300000   0.89020256   -7.6096723    534.80622  0.019377037  0.019246166           12 
 2301000   0.86566043   -7.6121441     537.6323  0.019470965  0.019239365           21 
 2302000   0.89256049   -7.5731787     536.6605  0.019427328  0.019232571           12 
 2303000   0.88464335   -7.5903942    537.43984  0.019447092   0.01922576            7 
 2304000   0.88493122   -7.5920834    537.34961  0.019435388  0.019218929            9 
 2305000   0.88438297   -7.6151758    536.49247  0.019395968  0.019212145            9 
 2306000   0.88372997   -7.5615593     537.4252  0.019421263  0.019205314            6 
 2307000   0.87581956   -7.6113076    538.28036  0.019443735  0.019198498            7 
 2308000   0.91108665   -7.6105068    536.18121  0.019359518   0.01919166            5 
 2309000   0.88768291   -7.5984746    536.59258   0.01936598  0.019184812           14 
 2310000   0.88014238   -7.5960109    536.33038  0.019348138  0.019177999           12 
 2311000   0.86095574   -7.5805504    537.73556  0.019390436  0.019171219            7 
 2312000   0.88590599   -7.5680338    539.02585  0.019428556  0.019164432            5 
 2313000   0.88371539   -7.6026726    537.48818  0.019364756  0.019157663           17 
 2314000   0.89687107   -7.5995933    537.30113  0.019349652  0.019150866           10 
 2315000   0.88133449   -7.5723819    540.46377  0.019455139  0.019144084            5 
 2316000   0.87846208   -7.5689089    539.97052  0.019428991  0.019137362            8 
 2317000   0.88193686   -7.5769453    539.22347  0.019393737  0.019130637            4 
 2318000   0.87077067   -7.5817145    538.79205  0.019369861  0.019123931            6 
 2319000   0.88849424   -7.5786625    539.39158  0.019383052  0.019117207            4 
 2320000   0.90571604   -7.5621092    538.40613  0.019339301  0.019110482            6 
 2321000   0.87741886   -7.5910529    538.54765  0.019336049  0.019103734            7 
 2322000   0.87005866   -7.5760244    539.28646  0.019354237   0.01909702            6 
 2323000    0.8613318   -7.6012551    539.39115  0.019349661  0.019090308            5 
 2324000   0.86715497   -7.6207601    538.30316  0.019302322  0.019083562            4 
 2325000   0.87054931   -7.6035292    539.06206  0.019321221  0.019076805           25 
 2326000   0.86921484   -7.5668388     540.2249  0.019354575  0.019070076            7 
 2327000   0.84695968   -7.5861281    540.87001   0.01936936   0.01906338           15 
 2328000   0.88082543   -7.6103728    539.48873  0.019311595  0.019056639            5 
 2329000     0.887182     -7.63263    539.84303  0.019315981  0.019049843            7 
 2330000   0.90025517   -7.6219838    538.49996  0.019259655  0.019043039           19 
 2331000   0.88587086   -7.6279229     537.9809  0.019232837    0.0190362            9 
 2332000   0.87705317   -7.6338448    538.82351    0.0192547  0.019029396           33 
 2333000   0.89841421   -7.6141011    539.89052  0.019284559  0.019022564           24 
 2334000   0.88662071   -7.6148195    537.24236  0.019181747  0.019015737           14 
 2335000   0.86184556   -7.5870293    539.12752  0.019240811  0.019008941            5 
 2336000   0.86272254   -7.6191783    538.55393  0.019212112  0.019002182            9 
 2337000   0.87986265   -7.6316149    537.19042  0.019155271   0.01899542           18 
 2338000   0.87284464   -7.6037924    539.14497  0.019216744  0.018988576            4 
 2339000   0.87791193   -7.6051355    538.69213  0.019192395  0.018981692           15 
 2340000   0.89128761   -7.6535899    538.62936  0.019181957  0.018974818           16 
 2341000   0.86792545   -7.6017059    538.10494  0.019155095  0.018967956            9 
 2342000   0.88019777   -7.6237164    539.50693  0.019196802  0.018961117            8 
 2343000   0.89479741   -7.6066445    538.96919  0.019169483  0.018954289            9 
 2344000   0.87358279   -7.6240737    540.35304  0.019210503  0.018947479            7 
 2345000   0.86711606   -7.6119349    539.87912   0.01918547  0.018940731           12 
 2346000   0.86621033    -7.599587    539.71414  0.019171431  0.018934004            9 
 2347000   0.89632296   -7.5927956    539.47226  0.019154675  0.018927257           16 
 2348000   0.86824143   -7.6434069    538.71848  0.019119764   0.01892054            5 
 2349000   0.89615436   -7.6239634    538.33611   0.01909806  0.018913765            8 
 2350000   0.86628278   -7.5738172    540.93753  0.019182182  0.018907035            5 
 2351000   0.88016163   -7.6144303    539.91013  0.019137605  0.018900337            9 
 2352000   0.87452298   -7.5921993    541.74422  0.019194452  0.018893639           13 
 2353000   0.88651928     -7.58808    540.77592  0.019152002  0.018886881            5 
 2354000   0.87372901    -7.570757    540.44729  0.019132232  0.018880146            4 
 2355000   0.87976516   -7.6179752    540.00513  0.019108462  0.018873426            6 
 2356000   0.88637823   -7.6111973     539.7265  0.019090496  0.018866706            4 
 2357000   0.88895493   -7.6134532    538.79668  0.019049522  0.018860004            5 
 2358000   0.86535838   -7.6111583    541.15876  0.019124921  0.018853293            6 
 2359000   0.88322868    -7.582931    540.42095   0.01909075  0.018846579           16 
 2360000   0.87583099   -7.6084078    541.36696  0.019116065  0.018839907           21 
 2361000   0.88376232   -7.6012215     539.8979  0.019056117  0.018833204           21 
 2362000   0.87880256   -7.6021984    539.68604  0.019040574  0.018826444            9 
 2363000   0.87778969   -7.6185015    540.30068  0.019054192  0.018819617           30 
 2364000   0.88690786   -7.5968496    542.37248  0.019119165  0.018812813           21 
 2365000    0.8817679   -7.6120742    538.44737  0.018972776  0.018806061           16 
 2366000   0.87453938   -7.6000239    540.19464  0.019026298  0.018799303            4 
 2367000   0.88656095   -7.6379321    540.28645  0.019021492  0.018792492           10 
 2368000   0.88437179   -7.6136864    539.60979  0.018989646  0.018785671           13 
 2369000   0.87559585   -7.6216519    539.29524  0.018970566  0.018778854           17 
 2370000   0.86950082   -7.6341028    539.09697   0.01895559  0.018772038           11 
 2371000   0.88190028   -7.6143335    540.16342  0.018985077   0.01876527            7 
 2372000   0.86650259   -7.5484775    541.03877  0.019007826  0.018758533            2 
 2373000   0.86173314   -7.5902765    540.14151  0.018968307  0.018751796           12 
 2374000   0.87265379   -7.6013967    540.42123  0.018970136  0.018745108            8 
 2375000   0.87990699   -7.6007185    542.07435  0.019020153  0.018738384            5 
 2376000   0.88062049   -7.6295886    539.72214  0.018929649    0.0187316            9 
 2377000   0.87831234   -7.6068814    540.57453  0.018951568  0.018724832            6 
 2378000   0.87999562   -7.6029647    540.01498   0.01892399  0.018718061            9 
 2379000   0.88543363   -7.6452255    539.92428  0.018912858   0.01871128           13 
 2380000   0.85354503   -7.6311879    540.05699  0.018909558  0.018704452            4 
 2381000   0.90146908   -7.6065077      541.076  0.018937281  0.018697648            7 
 2382000     0.873099   -7.6185661    540.91354  0.018923647  0.018690843            5 
 2383000   0.86245342   -7.6472246    539.45063  0.018864548  0.018684048            5 
 2384000   0.85993341   -7.6444157    539.64207  0.018863328  0.018677225            6 
 2385000   0.88412254   -7.6118036    541.04095  0.018904296  0.018670427            8 
 2386000   0.87366219   -7.6227613    541.44961  0.018910646  0.018663626           12 
 2387000   0.84276261   -7.6272556    540.21148  0.018859499  0.018656799            6 
 2388000   0.88709331   -7.6401102    538.77389  0.018801434  0.018649976            6 
 2389000   0.87254127   -7.6294824    541.16399  0.018876936  0.018643162           10 
 2390000   0.86954287   -7.6197115    540.70029  0.018852869  0.018636344            5 
 2391000   0.85726906   -7.6232881    540.45176  0.018836322   0.01862951            6 
 2392000   0.87538783   -7.6601378    539.96047  0.018811332   0.01862268            5 
 2393000   0.88198382   -7.6462096     540.8975  0.018836102   0.01861583            5 
 2394000   0.87347044   -7.6391289    540.58107  0.018817219  0.018608989            6 
 2395000   0.86865153   -7.6963338    538.35717  0.018731982  0.018602087            6 
 2396000    0.8675904   -7.6433112    540.96005  0.018814693   0.01859522            6 
 2397000    0.8824907   -7.6201478    540.50807   0.01879113  0.018588425           12 
 2398000    0.8715168   -7.6105581    541.17675  0.018806532  0.018581592            8 
 2399000    0.8713611     -7.60166     541.7763  0.018819519  0.018574783            6 
 2400000   0.86849615   -7.6289897     540.4909  0.018767045   0.01856802           15 
 2401000    0.8657481   -7.6394148     539.7327  0.018732913  0.018561211           12 
 2402000   0.86259955   -7.6114173    541.24738  0.018777664  0.018554416            7 
 2403000   0.87825089   -7.6140139    541.57098  0.018781072  0.018547681            6 
 2404000     0.870509   -7.6155403    542.05296  0.018789967  0.018540913           23 
 2405000    0.8586544   -7.6299441    542.97062  0.018813951  0.018534171            7 
 2406000   0.86342054   -7.6337102    540.66742  0.018726359  0.018527462           12 
 2407000   0.85861307   -7.6562929    540.62754  0.018717198  0.018520708            9 
 2408000   0.85539235   -7.6051669     543.3818  0.018804741  0.018513947           12 
 2409000   0.87180223   -7.6162517      541.472  0.018730871  0.018507194            5 
 2410000    0.8865299   -7.6461003    541.14275  0.018711713   0.01850046            7 
 2411000    0.8538371   -7.6622517    542.65788  0.018756321  0.018493733           18 
 2412000   0.86082653   -7.6508775    542.06093   0.01872792  0.018486967            7 
 2413000   0.86797789   -7.6601042    541.21018  0.018690779   0.01848019           13 
 2414000   0.87703957   -7.6197214    542.37205  0.018723145  0.018473413           25 
 2415000   0.86614003   -7.6260861    543.04969  0.018738775   0.01846668           18 
 2416000   0.85955012   -7.6268359    542.81596  0.018722957  0.018459995           13 
 2417000   0.86909827   -7.6035758    543.58043  0.018741568  0.018453308           30 
 2418000   0.87995969   -7.6001921    542.19725  0.018686147  0.018446655            8 
 2419000   0.85983865   -7.6043705    543.04584  0.018707656  0.018439971           11 
 2420000   0.86558905   -7.6233566    543.05048  0.018700085  0.018433277           20 
 2421000   0.86830434   -7.6600931    542.54482  0.018674956  0.018426575           21 
 2422000   0.87578025   -7.6392437    543.33027   0.01869427   0.01841986           21 
 2423000   0.85333959   -7.6419395    541.46038  0.018622244  0.018413123           15 
 2424000   0.85565053    -7.621189    543.25037  0.018676099  0.018406419           18 
 2425000    0.8557461   -7.6474786    543.50694  0.018677214  0.018399739           17 
 2426000   0.88216025   -7.6394769    542.11122  0.018621573  0.018393052            7 
 2427000   0.86930295   -7.6189096    542.93505  0.018642187  0.018386348            9 
 2428000   0.86581103    -7.631809    543.97512  0.018670206  0.018379722            4 
 2429000   0.87795525   -7.6005517    543.14873  0.018634168   0.01837309            9 
 2430000   0.86472447   -7.6041854    543.60732  0.018642226  0.018366447           23 
 2431000   0.86565511   -7.6393733    542.99395  0.018613532   0.01835979           15 
 2432000   0.85090692   -7.6390126       544.75   0.01866605  0.018353182            6 
 2433000   0.86555256   -7.6342204    543.36646   0.01861099  0.018346523            7 
 2434000    0.8666371   -7.6475649    544.51593  0.018642698  0.018339848            6 
 2435000   0.83866952   -7.6434787    544.16557  0.018623052   0.01833324            8 
 2436000   0.85473275   -7.6258481    544.21368  0.018617053  0.018326609            8 
 2437000   0.86231722   -7.6294205    545.29602  0.018646424  0.018319958           12 
 2438000   0.87261676   -7.6360173     544.4261  0.018609041  0.018313299            6 
 2439000   0.84421639   -7.6620199    544.05934   0.01858888  0.018306652           10 
 2440000   0.84926241   -7.6634364    542.74191  0.018536267  0.018300014            8 
 2441000   0.88579058   -7.6062921    544.82301   0.01859972  0.018293413           10 
 2442000   0.86134593   -7.6279137    545.13032  0.018602591  0.018286817            7 
 2443000   0.85352716   -7.6340328    544.11285  0.018560269  0.018280189           12 
 2444000    0.8580356    -7.638754    543.73596  0.018539824  0.018273585           11 
 2445000   0.86313526   -7.6589015    544.71172  0.018565498  0.018267003           11 
 2446000   0.87327132   -7.6429686     544.0337  0.018534809  0.018260369           18 
 2447000   0.87172649   -7.6441175    546.24144  0.018602419  0.018253791            8 
 2448000   0.86199128   -7.6258901    546.16167  0.018592105  0.018247211            7 
 2449000   0.83926791   -7.6502439    543.73368  0.018501895   0.01824061           20 
 2450000   0.85705278   -7.6125603    544.48861  0.018520021  0.018234023           19 
 2451000   0.83930923    -7.635215    545.05613   0.01853176  0.018227482            8 
 2452000   0.86690135   -7.6538035    545.53154   0.01854036  0.018220918           24 
 2453000   0.83857884   -7.6852607    544.28013  0.018490289  0.018214318            7 
 2454000   0.85124929   -7.6565371    545.30369  0.018517512  0.018207691           15 
 2455000   0.85918509   -7.6665179    543.94094  0.018463712  0.018201036            9 
 2456000   0.88177833   -7.6695864    545.17138  0.018497943  0.018194407            9 
 2457000   0.86582548    -7.667075    545.39793  0.018498098  0.018187788           15 
 2458000   0.88534022   -7.6562212    544.16561  0.018448793  0.018181186           18 
 2459000   0.83333135    -7.681832    544.83454   0.01846396  0.018174544           23 
 2460000   0.85227146    -7.650247    544.34018  0.018439708  0.018167876           11 
 2461000   0.85191077   -7.6677855    545.08538  0.018457449  0.018161258           13 
 2462000   0.85636715   -7.6424585    546.05695  0.018482837  0.018154665            8 
 2463000    0.8552329   -7.6460133    545.07618   0.01844215  0.018148064           25 
 2464000   0.84986991   -7.7040772    544.59137  0.018418269  0.018141432            6 
 2465000   0.85525373   -7.6306096    545.31316  0.018435198  0.018134773           11 
 2466000     0.853032   -7.6569265    546.12452  0.018455141  0.018128175            9 
 2467000   0.86649655    -7.695953    544.11095  0.018379643  0.018121571           10 
 2468000   0.87092702   -7.6568276    546.70003  0.018459618  0.018114941           11 
 2469000   0.86597835   -7.6661858    545.36683  0.018407143  0.018108343            7 
 2470000    0.8489381   -7.6570311    546.90132  0.018451461  0.018101764            7 
 2471000   0.85050023   -7.6563815    545.76202  0.018405572  0.018095169           12 
 2472000    0.8652586   -7.6788887    544.69571   0.01836218  0.018088576           17 
 2473000   0.85232747   -7.6798104    544.90333  0.018361751   0.01808198            9 
 2474000   0.85982286   -7.6573462    545.52444  0.018375251  0.018075359            9 
 2475000   0.86521872   -7.7037069    544.69858   0.01834002  0.018068727            6 
 2476000   0.86901724   -7.6967531    544.31958  0.018319857  0.018062087           18 
 2477000   0.84174707   -7.6922112    545.38661  0.018348359  0.018055493            6 
 2478000   0.84847827   -7.6582732    546.82608  0.018389362    0.0180489           36 
 2479000   0.84986094   -7.6607181    545.30635  0.018330857    0.0180423           16 
 2480000   0.85612878   -7.6589039    545.70745  0.018336944  0.018035746            8 
 2481000   0.85491668    -7.670048    546.59622  0.018359405  0.018029233           12 
 2482000   0.86882849    -7.670201    545.75559  0.018323784  0.018022666           11 
 2483000   0.85053158   -7.6599674    547.08135  0.018360899  0.018016146           14 
 2484000   0.84810553   -7.6567801    546.31463  0.018327785  0.018009652            7 
 2485000    0.8571003   -7.6896174    545.03883  0.018277627  0.018003126           12 
 2486000   0.83228523   -7.6679961    545.58487  0.018288578  0.017996572            7 
 2487000   0.85533124   -7.6652678    546.55177  0.018313623  0.017990031           10 
 2488000   0.86670223   -7.6624693     546.5291  0.018305503  0.017983514           10 
 2489000   0.82589795   -7.6549311    546.97269     0.018313  0.017976987           11 
 2490000   0.84201888   -7.6792533    546.24312  0.018281229  0.017970498           14 
 2491000   0.83171575     -7.65257    545.73908  0.018257028  0.017963978           16 
 2492000   0.85444651   -7.6450148    547.40319   0.01830535  0.017957524           24 
 2493000   0.84797307   -7.6749815    547.18606  0.018290749  0.017951048            8 
 2494000   0.85553182   -7.6539718    547.70579  0.018300781  0.017944523           21 
 2495000   0.84022635   -7.6439787    546.50119  0.018253213  0.017938009            9 
 2496000   0.85188245   -7.6989978     546.8515  0.018257595  0.017931435           12 
 2497000   0.86700661   -7.7073415    544.88274  0.018184579  0.017924854            8 
 2498000   0.86750003   -7.6715394    547.38887  0.018260904  0.017918289           18 
 2499000   0.83917117   -7.7122043     545.0083  0.018174213  0.017911698            7 
 2500000    0.8245121   -7.6877329    545.62211  0.018187404  0.017905076            4 
 2501000   0.84545522   -7.7191777    545.20914  0.018166371  0.017898517           21 
 2502000   0.86544657   -7.6529386    547.57071  0.018237767  0.017891973           14 
 2503000   0.83978791    -7.687784    545.74087  0.018169559  0.017885431           28 
 2504000   0.83569656   -7.6933589    546.00186  0.018170988  0.017878878            6 
 2505000   0.85537855   -7.6828235     546.4069  0.018177209  0.017872331           12 
 2506000   0.85517312   -7.7256073    546.57009  0.018175382  0.017865754           17 
 2507000   0.85406646   -7.6898545    545.91593  0.018146388   0.01785919           31 
 2508000   0.85642105    -7.690475    546.56948  0.018160868  0.017852613            9 
 2509000   0.86366193   -7.6917294    546.13767  0.018139288  0.017846068            9 
 2510000   0.85077754    -7.704363    546.05742  0.018129396  0.017839447           16 
 2511000   0.84659928   -7.7098942    546.96286  0.018152225  0.017832865           29 
 2512000   0.85147937   -7.7260553    545.81748  0.018107002  0.017826243           18 
 2513000   0.84372787   -7.7293841    545.84617  0.018100748  0.017819647           11 
 2514000   0.82659394   -7.6999128    545.53227  0.018083144  0.017813013           28 
 2515000   0.84793895   -7.7308038    543.44249   0.01800671  0.017806365           22 
 2516000   0.84286325   -7.6870345    546.47864  0.018100114  0.017799726            9 
 2517000   0.85597715   -7.7116945    545.65306  0.018065589  0.017793156           13 
 2518000   0.83503095   -7.7025978    546.57084  0.018088789  0.017786584           22 
 2519000   0.84875359   -7.6903689     546.5543  0.018081061   0.01778001           16 
 2520000   0.84615664   -7.7099512    545.70605  0.018045835  0.017773425            7 
 2521000   0.83623811   -7.7347902    547.22437  0.018088866  0.017766837           11 
 2522000   0.86588329   -7.6971693    548.10015  0.018110631  0.017760291            5 
 2523000   0.83300492   -7.7275914    545.77826  0.018026762  0.017753706           11 
 2524000   0.85554306   -7.7041456    545.25409  0.018002314  0.017747081            9 
 2525000   0.83727819   -7.7293461    545.54123  0.018004661  0.017740463           14 
 2526000   0.85058232   -7.7503607     545.4666  0.017995071  0.017733827           14 
 2527000   0.85423392   -7.6913648    546.73842  0.018029891  0.017727248            7 
 2528000    0.8350037   -7.7075993    546.82863  0.018025733   0.01772066           15 
 2529000   0.84328717   -7.7002592    547.21423  0.018031311  0.017714074            8 
 2530000   0.84175031   -7.6748356    547.51022  0.018033934  0.017707507           24 
 2531000   0.84297048   -7.6976511    547.12139  0.018014006  0.017700962           12 
 2532000   0.84948951   -7.7148711     547.5058  0.018019543  0.017694421           13 
 2533000   0.84471642   -7.6744616     546.4691  0.017978323   0.01768786            7 
 2534000   0.84698078   -7.7141225    547.89998  0.018018284  0.017681315           18 
 2535000   0.82791629   -7.7058434     546.2095  0.017955605  0.017674779            6 
 2536000   0.85738881   -7.7080022    547.83115  0.018001812  0.017668187           10 
 2537000    0.8487528   -7.6871916    547.43699   0.01798177  0.017661629            8 
 2538000   0.85521549   -7.6846512    547.70413  0.017983456  0.017655102            6 
 2539000   0.83933315   -7.7092623    546.64047  0.017941462  0.017648567           13 
 2540000   0.84052804   -7.7007861    546.29172  0.017922957  0.017642024           17 
 2541000   0.83156904   -7.6890249    547.49851   0.01795548  0.017635526           11 
 2542000   0.84480966   -7.7031931    547.11033  0.017935691  0.017628994            5 
 2543000   0.85392991   -7.6930726    547.95145  0.017956202  0.017622506            4 
 2544000   0.84361429   -7.7015693    547.78587   0.01794372  0.017616013           12 
 2545000   0.83208055   -7.7033265    547.47523  0.017926497  0.017609499            6 
 2546000   0.84587078   -7.7121659    546.48769  0.017887133  0.017602992           15 
 2547000   0.82773148   -7.6837599    546.66979  0.017886068  0.017596445            8 
 2548000   0.84815318   -7.7104472    548.06002  0.017924517  0.017589907           17 
 2549000   0.83426144   -7.7221921    546.17906  0.017855991  0.017583395           17 
 2550000   0.83109628   -7.7538149    546.74289  0.017867415  0.017576901           23 
 2551000   0.83579544    -7.681833    550.70395  0.017989806   0.01757045           10 
 2552000    0.8209178   -7.7166457    547.43388  0.017875976  0.017563991           18 
 2553000     0.844187   -7.6771656    549.42446  0.017933949  0.017557528            5 
 2554000   0.83538528     -7.69744     549.6404  0.017933973  0.017551076           21 
 2555000   0.84403975   -7.7211286    548.40152  0.017886547  0.017544641           12 
 2556000   0.83840896   -7.7256362    548.95429  0.017897571  0.017538204            6 
 2557000   0.83476435   -7.7203576     547.2306  0.017834396  0.017531761           12 
 2558000   0.84647627   -7.7261122    549.37307   0.01789722  0.017525341            8 
 2559000    0.8459094   -7.7289128    548.31773  0.017855859  0.017518911            9 
 2560000   0.83169228   -7.6989516    549.25121  0.017879271  0.017512462           10 
 2561000   0.83802832   -7.7211071    549.48884  0.017880022  0.017506033            9 
 2562000   0.82733918   -7.6967288    548.16771  0.017830071   0.01749963            9 
 2563000   0.85781561   -7.7076944    549.47363  0.017865575  0.017493245            4 
 2564000   0.83544131   -7.6896733    549.92223  0.017873187  0.017486882            8 
 2565000   0.83739644   -7.7047934    549.58706   0.01785533  0.017480509           10 
 2566000    0.8625287   -7.7265484    549.13457  0.017833677  0.017474125            6 
 2567000   0.83362558   -7.7199935    548.65326  0.017811104  0.017467726            7 
 2568000   0.85052582   -7.6551111    550.89205  0.017876819  0.017461324           15 
 2569000   0.85958798   -7.6887951    548.97169  0.017807567  0.017454951            8 
 2570000   0.83704722   -7.7262517    548.91643  0.017798846  0.017448571            9 
 2571000   0.82959357   -7.7075297    549.99947  0.017827028   0.01744218            9 
 2572000   0.82701197   -7.7097949    548.89926   0.01778445  0.017435797           13 
 2573000   0.83131905    -7.730675    549.67543  0.017802676  0.017429395           20 
 2574000   0.81253721   -7.7286101    549.05107  0.017775546  0.017422993           14 
 2575000   0.85502411   -7.7289792    549.33963  0.017777981  0.017416576           34 
 2576000   0.81633431   -7.7286104    549.37788  0.017772317  0.017410164           18 
 2577000   0.83267784   -7.7303845    549.50212  0.017769439  0.017403739           20 
 2578000   0.83887682   -7.7456561    549.27463  0.017755192  0.017397297           13 
 2579000   0.84308993   -7.7320291    548.84789  0.017734519   0.01739086           19 
 2580000   0.81855684   -7.7460866    548.64456  0.017721077  0.017384423           13 
 2581000   0.83445942   -7.7475041    547.42391    0.0176748  0.017377941           33 
 2582000   0.83409981    -7.734758     549.2258   0.01772611  0.017371473           29 
 2583000   0.84750636   -7.7329198     547.5946  0.017666621  0.017365014           11 
 2584000   0.83739248    -7.768803    546.71302  0.017631354   0.01735853           27 
 2585000   0.81736366   -7.7440391    548.33165  0.017676713  0.017352072           36 
 2586000   0.82740888   -7.7853632    548.61981  0.017679164  0.017345601           24 
 2587000   0.81211955   -7.7603709    548.95946  0.017683271  0.017339117           17 
 2588000   0.84221106   -7.7520883    547.71499  0.017636366  0.017332655            6 
 2589000   0.84447603   -7.7339997    549.53466  0.017688125  0.017326204            6 
 2590000    0.8313922   -7.7467607    548.91435  0.017661337  0.017319789           24 
 2591000    0.8409306   -7.7389343    550.02963  0.017690391  0.017313383           14 
 2592000   0.83213043   -7.7915993    547.49168   0.01760197  0.017306957           23 
 2593000   0.83186254   -7.7731186    548.25274  0.017619641  0.017300498           21 
 2594000    0.8350468    -7.774686    549.43936  0.017650969  0.017294059           40 
 2595000   0.85369948   -7.7345623    551.92808  0.017724087  0.017287603           34 
 2596000   0.83232911   -7.7673521    549.92496  0.017652958  0.017281177           72 
 2597000   0.82695241   -7.7224308     550.5934   0.01766761  0.017274779           58 
 2598000   0.83631574   -7.7292029     549.5864  0.017628509  0.017268385           66 
 2599000   0.84299442   -7.7407688    550.05691  0.017636812  0.017261954           34 
 2600000    0.8530239   -7.7293707    549.28992  0.017605446  0.017255558           53 
 2601000   0.84219935   -7.7755024    548.77911  0.017582312  0.017249122           51 
 2602000   0.85322331   -7.7527796    549.74344  0.017606439  0.017242703           43 
 2603000    0.8342142   -7.7541105    549.60698  0.017595306  0.017236268           45 
 2604000   0.84673753   -7.7787051    548.33578  0.017547868  0.017229821           57 
 2605000   0.81697755   -7.7810443    549.17359  0.017567933  0.017223353           73 
 2606000   0.83445358   -7.7632939    549.41141  0.017568797  0.017216862           17 
 2607000   0.83435587   -7.7843548     548.8628  0.017544521   0.01721041           36 
 2608000   0.80916944   -7.7701209     548.7946  0.017535615  0.017203964           56 
 2609000   0.83990482   -7.7404346      550.075  0.017569791  0.017197528           41 
 2610000   0.85416541   -7.7633994    549.73531  0.017552213   0.01719111           62 
 2611000   0.83484781   -7.7392378    549.18002  0.017527768  0.017184708           74 
 2612000   0.85599664   -7.7713802    549.91134  0.017544389  0.017178265           85 
 2613000   0.84885712   -7.7639305    549.35278  0.017519862  0.017171837           66 
 2614000    0.8463628   -7.7536152    549.82267  0.017528139  0.017165418           53 
 2615000   0.82684198   -7.7667309    548.80213  0.017488914   0.01715896           64 
 2616000   0.83132399   -7.7776215    548.71825  0.017479557  0.017152501           56 
 2617000    0.8455775   -7.7697464    550.32946  0.017524184  0.017146058          102 
 2618000   0.82107649   -7.7773499    548.38372  0.017455555  0.017139629           55 
 2619000   0.83670828   -7.7654999     549.7525  0.017492443  0.017133195           85 
 2620000   0.82461138   -7.7459862    550.83243  0.017520115  0.017126747           32 
 2621000   0.81608527    -7.767256     550.4236  0.017500432  0.017120329           36 
 2622000   0.84406577    -7.728261    550.86689  0.017507847  0.017113936           75 
 2623000   0.82744129   -7.7997286    549.39763  0.017454493   0.01710752           81 
 2624000   0.83681173   -7.7713056    549.22681  0.017442417  0.017101083           47 
 2625000   0.82163048   -7.7917921    549.78181  0.017453391   0.01709463           49 
 2626000   0.84346356   -7.7738438    550.56439  0.017471579   0.01708822           57 
 2627000    0.8343619   -7.7994917    549.59969  0.017434326  0.017081812           28 
 2628000    0.8353657   -7.8009474    549.97088  0.017439462  0.017075379           56 
 2629000   0.84445862   -7.7908966    549.67782  0.017423539  0.017068973           72 
 2630000   0.82809823   -7.7679377    550.16171  0.017432247   0.01706256           44 
 2631000   0.81972164   -7.8078873    549.96871  0.017419508  0.017056115          101 
 2632000   0.81982052   -7.8341122    548.73791  0.017373921  0.017049669           80 
 2633000   0.83308233   -7.7383705    549.54327  0.017392811  0.017043251           56 
 2634000   0.83727251   -7.7861487    549.33226  0.017379532  0.017036849           45 
 2635000   0.83120914   -7.8095128    549.07663  0.017364852  0.017030408           72 
 2636000   0.84112463   -7.8051077    549.61984  0.017375437  0.017023987           99 
 2637000   0.80970208   -7.8106779    550.24867   0.01738872  0.017017555           85 
 2638000   0.82961628    -7.817889    549.24722  0.017350493  0.017011161           80 
 2639000   0.83039478   -7.7703746    551.09027  0.017402118  0.017004789           71 
 2640000   0.83427825   -7.8133699    548.73469  0.017321171   0.01699837           98 
 2641000   0.81834096   -7.8074881    549.66193   0.01734387  0.016991951           47 
 2642000   0.82447253   -7.8023525    548.84491  0.017311535  0.016985543           65 
 2643000   0.82199339   -7.8161093    549.13949  0.017314273  0.016979122           53 
 2644000   0.82022205   -7.7874799    549.74033  0.017326662  0.016972742           44 
 2645000   0.81671224   -7.7602975    550.79543  0.017353353  0.016966381           65 
 2646000   0.83563723   -7.7933931    550.27975  0.017330554  0.016960004           42 
 2647000   0.82750148   -7.7900017     550.3278  0.017325519  0.016953624           74 
 2648000   0.82058336   -7.7958025    550.91388  0.017337421  0.016947219           65 
 2649000   0.82440597   -7.7909313    551.34374  0.017344399  0.016940848           55 
 2650000    0.8244906     -7.77507    550.19252  0.017301652  0.016934476           52 
 2651000   0.81760413   -7.7834823    550.24541  0.017296788  0.016928121           45 
 2652000   0.83255976   -7.8089177    550.24493  0.017290251    0.0169218           61 
 2653000   0.82038389   -7.7857997    551.41938  0.017320624  0.016915449           96 
 2654000   0.83401985   -7.7857005    550.77963   0.01729401  0.016909104           65 
 2655000    0.8232993   -7.8159166    550.46532  0.017277631  0.016902754           54 
 2656000   0.81793079   -7.8081446     549.4851  0.017240371    0.0168964           56 
 2657000   0.83060683   -7.7843112    551.43466  0.017295028  0.016890033           80 
 2658000   0.81469195   -7.7963117    551.31276  0.017284699  0.016883716           54 
 2659000   0.82247185   -7.8070251    550.28509  0.017245991  0.016877377           52 
 2660000   0.81216049   -7.7812509    551.59931   0.01728068  0.016871051           53 
 2661000   0.83080986   -7.7603191    552.05141  0.017288344  0.016864744           58 
 2662000   0.81072978   -7.7559972    552.01369  0.017280669  0.016858433           62 
 2663000   0.80540613   -7.8330117    551.04417  0.017243841  0.016852093           80 
 2664000   0.82212029   -7.7876047    552.24048   0.01727479  0.016845767          126 
 2665000   0.80908336   -7.7843698    550.34883  0.017209157  0.016839431           92 
 2666000     0.839987   -7.7923161    550.80167  0.017216856  0.016833086           95 
 2667000   0.81782983   -7.8027044    551.36685  0.017228061  0.016826704          138 
 2668000   0.82427802    -7.799246    551.50532  0.017225928  0.016820362          115 
 2669000   0.82633628   -7.7863094    551.28397  0.017212563  0.016814009          133 
 2670000   0.82285345   -7.8126329    550.72174  0.017188569  0.016807659          132 
 2671000     0.843241   -7.8154999    551.15368   0.01719561  0.016801314          167 
 2672000   0.83416449   -7.8114309    551.14597  0.017188934  0.016795004          120 
 2673000    0.8140124   -7.8025356    550.30839  0.017156391   0.01678867          226 
 2674000   0.82036379    -7.785056    552.75568  0.017226243  0.016782365          137 
 2675000   0.82409507   -7.7793327    550.48164  0.017148961  0.016776042          179 
 2676000   0.82569319      -7.7867    552.03818  0.017191024  0.016769726          128 
 2677000   0.82439989   -7.8121296    551.91214  0.017180679  0.016763419          142 
 2678000   0.81304451   -7.8167333    551.18972  0.017151784   0.01675713          154 
 2679000   0.84077539   -7.7958263    549.88106  0.017104674  0.016750836          193 
 2680000   0.81556873   -7.7576457    552.34586  0.017174933  0.016744574          225 
 2681000   0.80240183   -7.7932676    551.11151   0.01713016  0.016738299          183 
 2682000   0.82041007   -7.8012366    550.94788  0.017118689  0.016731988          212 
 2683000   0.80834325   -7.8030209    551.80036  0.017138786  0.016725671          198 
 2684000   0.80147546   -7.8168288    550.49472  0.017091863  0.016719352          156 
 2685000   0.80136502   -7.7804228    550.77854  0.017094306  0.016713018          172 
 2686000   0.82767255   -7.7753686    551.04967  0.017096354  0.016706697          195 
 2687000   0.83460578   -7.8148288    550.92758  0.017086205  0.016700379          237 
 2688000   0.82475868   -7.8060949    551.85693   0.01710866    0.0166941          198 
 2689000   0.80753931   -7.7926374    552.08053  0.017109227  0.016687802          262 
 2690000   0.83038775   -7.8374405     551.5277   0.01708574  0.016681478          200 
 2691000   0.82915519    -7.799912    551.88062   0.01709032  0.016675167          232 
 2692000   0.81354632   -7.8152636    551.71402  0.017078814  0.016668861          275 
 2693000   0.81443923   -7.8251545    549.78591  0.017012808  0.016662518          279 
 2694000    0.8375425   -7.8572593    549.79298  0.017006712  0.016656165          227 
 2695000   0.82011969   -7.8433785    548.82397  0.016970438  0.016649786          273 
 2696000   0.83645126   -7.8577951    550.02172  0.017001166  0.016643401          279 
 2697000   0.81719312   -7.8389835     549.3928  0.016975429  0.016637046          319 
 2698000   0.82543121   -7.8149031    550.93852   0.01701688  0.016630658          273 
 2699000   0.82876046   -7.8368278    550.54872   0.01699854  0.016624299          286 
 2700000   0.82205137   -7.8403045    549.45034  0.016958344  0.016617927          281 
 2701000   0.82656989   -7.8304384    549.95903   0.01696776  0.016611559          366 
 2702000   0.81962708   -7.8646788     549.7927   0.01695635  0.016605198          373 
 2703000   0.81773532   -7.8097236    551.16623  0.016992423  0.016598822          367 
 2704000   0.83637583   -7.8932938    550.68953  0.016971447  0.016592466          409 
 2705000   0.81248621   -7.8290374    550.65239  0.016964029  0.016586117          409 
 2706000   0.80805387   -7.8723144    550.82903    0.0169632  0.016579757          433 
 2707000   0.81917169   -7.8873705    549.62602    0.0169199  0.016573382          360 
 2708000   0.83398883   -7.8415497     551.9681  0.016985725  0.016567004          392 
 2709000   0.81430188   -7.8613829    549.80138  0.016912802  0.016560617          414 
 2710000   0.81195086   -7.8309082    550.30296  0.016921985  0.016554244          345 
 2711000   0.80681831   -7.8656159     549.9741  0.016905634   0.01654787          472 
 2712000   0.82588803   -7.8524602    550.31544  0.016909889  0.016541488          472 
 2713000   0.81438347   -7.8453917    551.29215  0.016933657  0.016535116          495 
 2714000   0.82248284   -7.8779718    548.69087  0.016847546  0.016528728          549 
 2715000   0.81240721   -7.8927251    550.09863   0.01688455  0.016522337          501 
 2716000   0.81527685     -7.89083    548.58159  0.016831787  0.016515935          486 
 2717000   0.81607791    -7.881182    549.35655  0.016849361  0.016509514          539 
 2718000   0.81193506   -7.9208846    548.18336  0.016807191  0.016503084          549 
 2719000   0.81870059   -7.9150943    549.60971  0.016844726  0.016496646          572 
 2720000   0.81742629   -7.9350305     548.7693  0.016812785   0.01649021          727 
 2721000   0.81114093   -7.9425028    549.04863  0.016815161  0.016483742          658 
 2722000   0.81970089   -7.9428056    547.35622  0.016757171  0.016477275          746 
 2723000   0.81525225   -7.9148884    548.32869  0.016780777  0.016470768          697 
 2724000    0.8187978   -7.9292523    548.05084  0.016766117  0.016464247          704 
 2725000   0.81309122   -7.9296885    548.01061  0.016758734  0.016457712          724 
 2726000   0.81166779   -7.9684019    546.54461  0.016707771  0.016451171          692 
 2727000   0.82008477   -7.9381534    547.35804  0.016726502  0.016444646          782 
 2728000   0.80600284     -7.96742    547.67749  0.016730129  0.016438092          819 
 2729000   0.83378413   -7.9271528    548.13327  0.016737916  0.016431559          862 
 2730000   0.81305612   -7.9510568    546.66057  0.016686831  0.016424995          871 
 2731000   0.81591899   -7.9530514    547.07763  0.016693447  0.016418432          839 
 2732000   0.80861293   -7.9509188    546.07142  0.016656644   0.01641187          792 
 2733000   0.81647306   -7.9455783     546.8175  0.016673299  0.016405307          806 
 2734000   0.79370989    -7.980826    547.09231  0.016675576  0.016398725          919 
 2735000   0.82872792   -7.9766022    546.70775  0.016657762  0.016392135          910 
 2736000   0.81610434   -7.9898293    545.86872  0.016626118  0.016385537          948 
 2737000   0.81244588   -7.9458701    547.55524  0.016671393  0.016378956          963 
 2738000   0.79875095   -7.9896541    546.30998  0.016627404  0.016372368          943 
 2739000   0.81308633   -7.9970713    545.14301  0.016585829  0.016365757         1026 
 2740000   0.81537507   -7.9922046    546.40762  0.016618237   0.01635913         1064 
 2741000    0.8119232   -8.0004879    546.84056  0.016625336  0.016352518         1040 
 2742000   0.81382404   -8.0187916     546.5696  0.016611038  0.016345865         1091 
 2743000   0.81874945    -8.005547    545.42005  0.016570059   0.01633923         1120 
 2744000   0.83298161   -8.0349339      545.805  0.016575711   0.01633256         1232 
 2745000    0.8151042   -8.0380017    544.23586  0.016522036  0.016325875         1209 
 2746000   0.80874931   -8.0268401    544.95784  0.016537929  0.016319201         1216 
 2747000   0.80068404   -8.0619614    544.52478  0.016518771  0.016312508         1305 
 2748000    0.8307055   -8.0322928    544.12596  0.016500666  0.016305821         1263 
 2749000   0.79500995    -8.067249    543.36085   0.01647147  0.016299104         1298 
 2750000   0.81790832   -8.0836645    544.81181  0.016509449  0.016292389         1414 
 2751000   0.82142548   -8.0768905    544.40923  0.016491253  0.016285679         1551 
 2752000   0.82659951   -8.0706088    543.98269  0.016472344  0.016278959         1561 
 2753000   0.81445515   -8.0648799    543.98032  0.016466289  0.016272196         1590 
 2754000   0.81694019   -8.0499167    544.74651  0.016483494   0.01626541         1466 
 2755000   0.81369811   -8.0987839     543.8146  0.016449322  0.016258629         1569 
 2756000   0.81358402   -8.0838339    544.17505  0.016454253  0.016251855         1629 
 2757000   0.81319683   -8.0954076    542.50502  0.016397806  0.016245055         1595 
 2758000   0.81279395   -8.1013924    542.48294  0.016391194  0.016238271         1615 
 2759000   0.81941762   -8.0995514    542.73039  0.016392727  0.016231494         1791 
 2760000   0.81929734   -8.0997947    543.37965   0.01640639  0.016224688         1752 
 2761000   0.79800838   -8.0976447    543.32725  0.016398867  0.016217897         1776 
 2762000   0.82457337   -8.1173336    541.93574  0.016350946  0.016211101         1748 
 2763000   0.79859581   -8.1287347    541.43775  0.016330008   0.01620428         1887 
 2764000    0.8108596   -8.0941307    542.29673  0.016349998  0.016197456         1827 
 2765000   0.82084734   -8.1166193    541.43334  0.016318063  0.016190629         1866 
 2766000   0.79931936   -8.1329034    542.37339  0.016340485  0.016183817         1938 
 2767000   0.80409549   -8.1213208    542.04716  0.016324755  0.016177001         1910 
 2768000   0.81481692   -8.1142399    541.01583  0.016287808  0.016170196         2013 
 2769000   0.81281977   -8.1300153    542.86473  0.016337569   0.01616337         1969 
 2770000   0.80742258   -8.1623196    542.48093  0.016320124  0.016156545         1970 
 2771000   0.81213708   -8.1333031    543.14411  0.016334179  0.016149739         2025 
 2772000   0.82242079   -8.1426597    542.51194  0.016309282  0.016142909         2220 
 2773000   0.82276072   -8.1419045     541.3414  0.016268223  0.016136078         2111 
 2774000    0.7835137    -8.141496    541.94644  0.016280535  0.016129237         2172 
 2775000   0.79664144   -8.1657312    543.03252  0.016307283  0.016122376         2168 
 2776000   0.79754854   -8.1747216    541.77213  0.016263573  0.016115527         2299 
 2777000   0.80708852   -8.1489965    541.98013  0.016263958  0.016108663         2314 
 2778000   0.79023023   -8.1609515    540.98871  0.016228363  0.016101809         2305 
 2779000   0.79740362   -8.1781086    541.41407  0.016235279  0.016094938         2333 
 2780000    0.8047874    -8.206045    539.89725   0.01618397  0.016088047         2519 
 2781000   0.81558839   -8.2099767    540.50574  0.016196385  0.016081111         2504 
 2782000   0.79043075   -8.2134083    539.96518   0.01617437  0.016074174         2671 
 2783000   0.79839542   -8.2297551    538.81855  0.016134224   0.01606721         2705 
 2784000   0.81245126   -8.2191277    540.06277  0.016165672  0.016060249         2766 
 2785000   0.81459662   -8.2444685    539.48044  0.016142443  0.016053253         2902 
 2786000   0.80947355   -8.2376738    537.78107  0.016085818  0.016046251         2803 
 2787000   0.80225928   -8.2630298    540.24039  0.016153582  0.016039237         2964 
 2788000   0.82665656   -8.2765941    538.58087  0.016098185  0.016032205         2978 
 2789000   0.81074549   -8.2636459    538.76641  0.016097957  0.016025173         2916 
 2790000    0.8194714   -8.2981267    538.19375  0.016075082  0.016018145         3008 
 2791000    0.8067771   -8.2835501     538.3791  0.016074857  0.016011091         3081 
 2792000    0.7878975   -8.2797909     537.7938   0.01605163  0.016004033         3147 
 2793000   0.80108752    -8.276146    537.98696  0.016051646  0.015996974         3027 
 2794000   0.80305372   -8.2776086     537.0594  0.016018235  0.015989923         3092 
 2795000   0.80030473    -8.299172    537.57716  0.016027942  0.015982864         3169 
 2796000    0.8018495   -8.3026353    537.04687  0.016006404  0.015975785         3151 
 2797000   0.81097452   -8.3237418    536.25973   0.01597723  0.015968678         3244 
 2798000   0.79300263   -8.3427297    536.64909  0.015983116  0.015961598         3260 
 2799000   0.80231744   -8.3465852    537.35473  0.015998414  0.015954493         3356 
 2800000   0.80220307   -8.3172669    536.85898  0.015977946  0.015947378         3257 
 2801000   0.80886684    -8.367905    535.76195  0.015939603  0.015940259         3307 
 2802000   0.80597014   -8.3285448    536.86636  0.015966761  0.015933139         3321 
 2803000   0.79280908   -8.3537401    535.44351  0.015918763  0.015926016         3329 
 2804000   0.82245301   -8.3302288    536.06565  0.015931575  0.015918878         3378 
 2805000   0.79577113   -8.3392953    535.13192  0.015898156  0.015911745         3368 
 2806000   0.79729158   -8.3555783    536.83861  0.015943176  0.015904618         3374 
 2807000     0.803352   -8.3382084    535.95993   0.01591141  0.015897477         3295 
 2808000   0.79308518   -8.3485058    535.73901  0.015899187   0.01589035         3362 
 2809000   0.79631383   -8.3776961    535.78059  0.015894761  0.015883217         3369 
 2810000   0.80947746   -8.3894797    536.69645  0.015916265  0.015876068         3363 
 2811000   0.80182419   -8.3540082    537.05964   0.01592137  0.015868926         3364 
 2812000   0.79931351    -8.358683    535.86243  0.015880228  0.015861779         3417 
 2813000   0.81169941   -8.3913717    536.02292  0.015879338  0.015854644         3352 
 2814000   0.78951303   -8.3685728    535.91486  0.015870495  0.015847517         3411 
 2815000   0.78737765   -8.3772611    535.18606  0.015843282  0.015840388         3430 
 2816000   0.80863634   -8.3609975    535.67937  0.015852254  0.015833257         3435 
 2817000   0.79775708    -8.403168    535.63045   0.01584518  0.015826132         3399 
 2818000   0.81979435   -8.3963493    535.27736  0.015829115  0.015818999         3432 
 2819000   0.78848436   -8.3723001    535.61984  0.015833624  0.015811877         3427 
 2820000    0.8084197   -8.3595259    535.85144  0.015834853  0.015804761         3398 
 2821000   0.80998557   -8.3789835    535.94476  0.015831997  0.015797656         3480 
 2822000   0.78926755   -8.4015073    535.10931  0.015801716  0.015790534         3361 
 2823000    0.8038695   -8.3378453    536.30342  0.015831368  0.015783424         3400 
 2824000   0.81446205   -8.3743737    535.65338   0.01580658  0.015776313         3365 
 2825000   0.81517769   -8.3805252    535.22845   0.01578845  0.015769195         3385 
 2826000   0.81163855   -8.3606395      534.708  0.015767516  0.015762084         3370 
 2827000    0.7877468   -8.3789187    535.71052   0.01579149  0.015754968         3367 
 2828000   0.79954442   -8.3956411    536.11494  0.015797824  0.015747862         3425 
 2829000   0.81208571   -8.3840284    534.45248  0.015743268   0.01574076         3477 
 2830000   0.80996995   -8.3674342    536.07648  0.015785527  0.015733648         3422 
 2831000   0.80392549   -8.4018224    535.38294  0.015759536  0.015726538         3457 
 2832000   0.79713381    -8.432026    534.56752  0.015729976  0.015719423         3510 
 2833000    0.8235983   -8.3948088    534.82225  0.015731917  0.015712304         3378 
 2834000   0.79466151   -8.4084994    535.65702  0.015750912  0.015705193         3441 
 2835000   0.79625289   -8.3856664    535.03698   0.01572713  0.015698095         3424 
 2836000   0.79798096   -8.4005041    534.21396  0.015697401  0.015690973         3498 
 2837000   0.81859155   -8.3842938    535.28791  0.015723414  0.015683877         3456 
 2838000   0.80331618   -8.3769546    535.78117  0.015732358  0.015676784         3442 
 2839000   0.79551486   -8.4286848    534.41151  0.015686612  0.015669686         3404 
 2840000     0.782958   -8.4211994    533.11693  0.015643103   0.01566257         3495 
 2841000   0.78558246   -8.4181771    534.94059  0.015691089  0.015655473         3479 
 2842000   0.79387206   -8.4410363    534.03127  0.015658904  0.015648361         3547 
 2843000   0.81080025   -8.4308712    533.63696  0.015641839  0.015641249         3520 
 2844000    0.7843514   -8.4168844    535.68819  0.015696442  0.015634143         3501 
 2845000   0.79943279   -8.3844673    535.50889  0.015685673  0.015627053         3462 
 2846000   0.79129285   -8.4087425    534.77225  0.015658593  0.015619957         3533 
 2847000   0.80225403   -8.4161673     534.0906   0.01563314  0.015612859         3466 
 2848000   0.78242351   -8.4084368    534.59887  0.015642523  0.015605767         3410 
 2849000   0.79684796   -8.4156626    534.85948  0.015644655  0.015598671         3515 
 2850000   0.79870209   -8.4274782    534.66414  0.015633454  0.015591572         3505 
 2851000   0.79940099    -8.437559    533.94682  0.015607004  0.015584479         3497 
 2852000   0.80803797   -8.4197674    534.74274  0.015624788   0.01557739         3478 
 2853000   0.80315914   -8.4466752    533.99339  0.015597423  0.015570304         3568 
 2854000   0.79895292    -8.438921    534.05256  0.015593686  0.015563223         3557 
 2855000   0.78828402   -8.4187053    534.11785   0.01559013  0.015556135         3506 
 2856000   0.79846422   -8.4548678    533.81661  0.015575881  0.015549052         3538 
 2857000   0.79467801   -8.4091199     534.9192   0.01560259  0.015541976         3460 
 2858000   0.78411847   -8.4361155    534.11387  0.015573649  0.015534908         3586 
 2859000   0.79010267   -8.4163083    534.59974  0.015582364   0.01552785         3493 
 2860000   0.79854557   -8.4211969     534.5349  0.015575026  0.015520798         3500 
 2861000   0.80191107   -8.4312209    534.59938  0.015571461  0.015513748         3497 
 2862000   0.79604141   -8.4129164    533.99087  0.015548302   0.01550669         3602 
 2863000   0.77920977   -8.4401189     534.3417  0.015553082  0.015499636         3543 
 2864000   0.77670621   -8.4401562    533.17304  0.015513647  0.015492576         3547 
 2865000   0.80361922   -8.4274967    534.15335  0.015536747  0.015485526         3551 
 2866000   0.77136976   -8.4193303     533.7778  0.015520406  0.015478485         3525 
 2867000   0.79391496   -8.4197899    534.83764  0.015545798  0.015471442         3523 
 2868000   0.79192877   -8.4319887      534.002  0.015516097  0.015464412         3468 
 2869000   0.77972439   -8.4471397    535.23608  0.015546534  0.015457371         3475 
 2870000   0.79112687   -8.4417669    533.29121  0.015484646  0.015450331         3552 
 2871000   0.77977892    -8.446961    534.02145  0.015500448  0.015443291         3570 
 2872000   0.79479013   -8.4319498    533.30175  0.015474169  0.015436255         3555 
 2873000   0.81620257   -8.4412582    532.78204  0.015453708  0.015429225         3584 
 2874000   0.77999883   -8.4775048    533.03756   0.01545574  0.015422199         3617 
 2875000   0.79579719   -8.4420596    535.09772  0.015510079  0.015415177         3568 
 2876000    0.7887271   -8.4586551    533.06148  0.015445685  0.015408152         3521 
 2877000   0.77204668   -8.4522008    533.78516  0.015461278  0.015401132         3591 
 2878000   0.79129193   -8.4569042    533.86172  0.015458123  0.015394108         3601 
 2879000   0.77780449    -8.436152    534.20486  0.015462685  0.015387104         3540 
 2880000   0.79728349   -8.4501897    536.03867  0.015510378  0.015380069         3565 
 2881000   0.80601643   -8.4369996    534.33955  0.015455847   0.01537305         3554 
 2882000   0.79162579   -8.4498739    533.40949  0.015423592  0.015366027         3565 
 2883000    0.7728761   -8.4431741     533.8714  0.015431593  0.015359005         3566 
 2884000   0.78526953   -8.4526954     533.8064  0.015424364  0.015351993         3576 
 2885000   0.80721881   -8.4686551    532.10683  0.015369926  0.015344998         3579 
 2886000   0.79495427   -8.4431254    533.22481  0.015396882  0.015337985         3544 
 2887000   0.77525017   -8.4636532    533.22862  0.015391659  0.015330984         3567 
 2888000   0.78050397   -8.4297476    534.55367  0.015424563  0.015323992         3546 
 2889000   0.79238834    -8.454269    534.23299  0.015409974  0.015316992         3513 
 2890000   0.78192744   -8.4564302    533.28741  0.015377376  0.015310008         3614 
 2891000   0.79113767   -8.4441366    534.42637  0.015404888  0.015303019         3574 
 2892000   0.78192166   -8.4919051    533.33709  0.015368174   0.01529603         3611 
 2893000    0.7977201   -8.4462061    534.96402  0.015409725  0.015289042         3573 
 2894000   0.77001537   -8.4445098    533.98705  0.015376268  0.015282059         3528 
 2895000   0.79595401   -8.4222344    533.29408   0.01535101  0.015275078         3512 
 2896000   0.79443115   -8.4704177    533.64928   0.01535593  0.015268094         3531 
 2897000   0.77857572   -8.4506735    533.86282  0.015356772  0.015261125         3553 
 2898000   0.77103713   -8.4614862     533.0982  0.015329486  0.015254148         3591 
 2899000   0.79103284    -8.448709    533.88128  0.015346708  0.015247168         3537 
 2900000   0.75720026   -8.4566462    533.26262  0.015323639  0.015240201         3517 
 2901000   0.78853159   -8.4410035    533.46227  0.015324091  0.015233219         3562 
 2902000   0.78128708   -8.4624251    534.65284  0.015352999  0.015226254         3551 
 2903000   0.78971153   -8.4849305    533.74351  0.015321607  0.015219289         3595 
 2904000   0.78984999   -8.4590759     533.8544  0.015319513  0.015212331         3552 
 2905000   0.77114288   -8.4615295    533.78367  0.015312211  0.015205366         3535 
 2906000   0.79164547   -8.4401707    533.96727  0.015312207   0.01519841         3508 
 2907000   0.76759771   -8.4604313    534.36126  0.015318233  0.015191459         3576 
 2908000   0.78988766      -8.4401    534.11404  0.015305882    0.0151845         3506 
 2909000   0.78306612   -8.4822484    532.64296  0.015258478  0.015177548         3551 
 2910000   0.80232585   -8.4324684    533.69103  0.015283248  0.015170604         3518 
 2911000   0.78467626   -8.4356182     533.6376  0.015276468  0.015163673         3523 
 2912000   0.77494642   -8.4472331    533.68833  0.015272674  0.015156717         3502 
 2913000   0.78777458   -8.4653958    532.72978   0.01524001  0.015149784         3587 
 2914000   0.79208788   -8.4749741    533.51332  0.015257187  0.015142858         3611 
 2915000   0.77952591   -8.4584898    533.60941    0.0152547  0.015135932         3629 
 2916000   0.76869429   -8.4620653    533.66381  0.015251023  0.015129004         3577 
 2917000   0.77765567   -8.4779173    534.81074  0.015278561  0.015122068         3573 
 2918000   0.79301152   -8.4836461    532.77192  0.015215099  0.015115138         3569 
 2919000    0.7922956   -8.4797333    532.67663  0.015207166  0.015108199         3616 
 2920000   0.78107954   -8.4649235    533.60673  0.015228503  0.015101275         3552 
 2921000   0.79170981   -8.4670742    533.65304   0.01522461  0.015094349         3561 
 2922000   0.77294451    -8.479891    533.52422  0.015215726   0.01508743         3599 
 2923000   0.78565081   -8.4680784    533.04138  0.015196755  0.015080511         3551 
 2924000   0.79283137   -8.5129267    532.29548    0.0151703  0.015073594         3547 
 2925000   0.76426225   -8.4636757    533.25555  0.015192466  0.015066679         3591 
 2926000   0.78872543   -8.4576035    533.93054  0.015206497  0.015059772         3612 
 2927000   0.79049092   -8.4196336    533.84386  0.015198834   0.01505287         3566 
 2928000   0.78589441   -8.4751365    533.85525  0.015193968  0.015045974         3606 
 2929000   0.78039229   -8.4770032    532.67614  0.015155233  0.015039067         3604 
 2930000   0.77683386   -8.4468527    534.24516  0.015194686   0.01503217         3563 
 2931000   0.79045225   -8.4800504    532.57232   0.01514194  0.015025292         3593 
 2932000   0.80275414   -8.4586936    533.80547  0.015171824  0.015018408         3574 
 2933000   0.79106781   -8.4883332    532.19855  0.015120995  0.015011522         3629 
 2934000   0.77729336   -8.4789242    532.84084  0.015134084   0.01500465         3547 
 2935000   0.78310406   -8.4675787    532.87005  0.015129757  0.014997772         3573 
 2936000   0.78214549   -8.4802207     532.1438  0.015103991  0.014990893         3593 
 2937000   0.78666466   -8.4816124    532.24862  0.015101822  0.014984011         3575 
 2938000   0.78756518   -8.4884905    532.60742  0.015106859  0.014977131         3635 
 2939000   0.77411033   -8.4585205    533.53368  0.015127982  0.014970252         3548 
 2940000    0.7771162   -8.4747742    532.78804  0.015101702  0.014963378         3606 
 2941000   0.76738487   -8.4799716    533.42132  0.015114511  0.014956519         3562 
 2942000   0.78977989    -8.503813    532.07483  0.015071234  0.014949653         3557 
 2943000   0.77621367   -8.4578337    533.65497  0.015110855  0.014942796         3539 
 2944000   0.77836579   -8.4955804    532.86665  0.015083408  0.014935927         3511 
 2945000   0.78110519   -8.4796054    532.79537   0.01507627  0.014929072         3563 
 2946000   0.76041903   -8.5043015    531.68556  0.015039759  0.014922207         3583 
 2947000   0.77820561   -8.4675882    533.40109  0.015083166   0.01491536         3578 
 2948000   0.78073336   -8.4782142    533.43785  0.015079089  0.014908508         3518 
 2949000   0.78844266   -8.4876597    532.71802  0.015053635  0.014901658         3542 
 2950000   0.77333988   -8.4483554    533.28381  0.015064515  0.014894818         3543 
 2951000    0.7816435   -8.4609857    533.22196  0.015057663  0.014887988         3587 
 2952000   0.77075009   -8.4875123    530.93464  0.014987992  0.014881151         3557 
 2953000   0.78667856   -8.5003287    532.72989  0.015033579  0.014874315         3557 
 2954000    0.7786644   -8.4731809    533.89183  0.015061268  0.014867501         3549 
 2955000   0.78856107   -8.4838823    533.28191  0.015038971  0.014860671         3576 
 2956000   0.77460777   -8.4998643    531.80449  0.014992233  0.014853843         3585 
 2957000   0.76979931   -8.4937291    533.06929  0.015022807  0.014847016         3602 
 2958000   0.78605569   -8.5164999    532.45019  0.015000287   0.01484019         3639 
 2959000   0.78280425   -8.4988128    532.46446   0.01499562  0.014833388         3556 
 2960000   0.78060984   -8.4869555    533.13831  0.015009524  0.014826567         3602 
 2961000   0.77267432   -8.4724469    533.54315  0.015015849  0.014819748         3579 
 2962000   0.79650531   -8.5125974    531.85731   0.01496335  0.014812937         3613 
 2963000   0.78096475   -8.5256292    531.59932  0.014951044  0.014806128         3620 
 2964000   0.77202792    -8.483987    532.54157  0.014972491  0.014799323         3593 
 2965000   0.78181114   -8.5232442    532.42583  0.014964189   0.01479252         3608 
 2966000   0.78249071   -8.4936784    532.29872  0.014955572  0.014785721         3623 
 2967000    0.7800486   -8.4831299    532.78991  0.014964327  0.014778923         3585 
 2968000     0.770387   -8.4839907    532.63157   0.01495484  0.014772131         3601 
 2969000   0.75279429   -8.4898746    532.03619  0.014933092   0.01476535         3560 
 2970000   0.75812149    -8.477408    531.39704   0.01491013  0.014758574         3640 
 2971000   0.77112877   -8.5140536    531.69479  0.014913463  0.014751793         3591 
 2972000   0.77270369   -8.4755964     531.1316  0.014892654  0.014745026         3598 
 2973000   0.76793047   -8.4899843    532.65502  0.014930346  0.014738257         3632 
 2974000   0.78240164   -8.4893858    532.90151  0.014932232  0.014731498         3612 
 2975000   0.75857804   -8.4874375    533.30305  0.014938461  0.014724734         3609 
 2976000   0.76025229   -8.4802585    532.92928  0.014922975  0.014717969         3575 
 2977000    0.7713429    -8.514352    532.45955  0.014904813  0.014711223         3601 
 2978000   0.77211368   -8.5051989    532.92077  0.014912715  0.014704471         3631 
 2979000   0.78034861   -8.4660498    531.52986    0.0148688  0.014697734         3662 
 2980000   0.77768098   -8.4951547    531.69072  0.014868309  0.014690986         3612 
 2981000   0.76265095   -8.5127207    531.94695  0.014870484  0.014684234         3600 
 2982000   0.78099496   -8.5043822    532.48318  0.014880482  0.014677491         3623 
 2983000   0.77265641   -8.5358889    530.98963   0.01483377  0.014670738         3718 
 2984000   0.77198429   -8.5126743    533.00028   0.01488495  0.014664007         3664 
 2985000   0.76357606   -8.5010696    532.03653  0.014853058  0.014657267         3663 
 2986000   0.77929444   -8.5210749    531.79831  0.014841435  0.014650538         3644 
 2987000   0.79031037   -8.5199489    531.70996  0.014834002  0.014643793         3643 
 2988000   0.78431785   -8.5182449    531.99959  0.014837115  0.014637061         3613 
 2989000   0.78662272   -8.5350114    531.85284   0.01482806  0.014630327         3591 
 2990000   0.77024259    -8.501775    532.48465  0.014840709  0.014623599         3592 
 2991000   0.79000055   -8.5273563    532.10645   0.01482521  0.014616875         3663 
 2992000   0.74881984   -8.5185704    532.77559  0.014838892  0.014610157         3629 
 2993000   0.76037526   -8.5097598    532.43894  0.014824561  0.014603435         3671 
 2994000   0.77010741   -8.5200532    531.67064  0.014798225  0.014596716         3675 
 2995000   0.75126818   -8.5130674    531.82953  0.014797705  0.014589999         3644 
 2996000   0.78201315   -8.5075091    531.82972  0.014792772  0.014583273         3670 
 2997000   0.77322627   -8.5391329     532.0259  0.014793291  0.014576567         3653 
 2998000    0.7934767   -8.5271141    531.74799  0.014780631  0.014569856         3642 
 2999000   0.76225454   -8.5322481    531.16127  0.014759399  0.014563142         3622 
 3000000   0.76762537   -8.5128865    532.33167  0.014786991  0.014556448         3596 
 3001000    0.7591848   -8.5114491     532.5909  0.014789262  0.014549754         3616 
 3002000   0.76138038   -8.4990366    533.45617  0.014808355  0.014543069         3643 
 3003000   0.76607644   -8.5083597      532.154  0.014767288  0.014536378         3617 
 3004000   0.76635036    -8.547379    531.81963  0.014753097  0.014529697         3651 
 3005000   0.76387005   -8.5460056    531.75742  0.014746462  0.014523019         3668 
 3006000   0.77369938   -8.5158773    532.90833  0.014773462  0.014516333         3621 
 3007000   0.77594888   -8.5250696    532.31095  0.014751994  0.014509655         3662 
 3008000   0.77513445   -8.5194594    530.47516  0.014696231  0.014502967         3642 
 3009000   0.77429584    -8.513921    531.63868  0.014723571  0.014496304         3659 
 3010000   0.75294383   -8.5338589    531.42249  0.014712693  0.014489638         3666 
 3011000   0.76243917   -8.5002346    532.76132  0.014744861  0.014482953         3610 
 3012000   0.77032343   -8.5437391     531.5632  0.014706817  0.014476285         3671 
 3013000   0.76729007   -8.5086937    532.57504  0.014729921  0.014469611         3594 
 3014000   0.75395673   -8.5029913    532.97804  0.014736177   0.01446295         3664 
 3015000   0.79364242   -8.5239686    532.01584  0.014704694  0.014456292         3652 
 3016000   0.76163424   -8.5300845    530.80297  0.014666307  0.014449632         3636 
 3017000     0.770902   -8.4957995    532.42597  0.014706275  0.014442981         3664 
 3018000   0.78889255   -8.5343966    532.00217    0.0146897  0.014436331         3635 
 3019000   0.75851684   -8.5395077    531.12638   0.01466066  0.014429679         3701 
 3020000    0.7741428   -8.5438557    530.71671  0.014644501  0.014423033         3663 
 3021000   0.76897383   -8.5256255    531.57017  0.014663196  0.014416391         3688 
 3022000   0.76275558   -8.5170117    531.78583   0.01466429  0.014409763         3686 
 3023000   0.77408889   -8.5337792    531.48398  0.014651119  0.014403128         3692 
 3024000   0.77144132   -8.5311185    531.85223  0.014656422  0.014396503         3645 
 3025000   0.77867614   -8.5248607    532.61094  0.014672478  0.014389869         3618 
 3026000    0.7628512   -8.5234537    532.23346  0.014657233   0.01438324         3680 
 3027000   0.77572788   -8.5134529    531.44047   0.01463056  0.014376627         3658 
 3028000   0.77925821   -8.5249755    531.69133  0.014632632  0.014370015         3577 
 3029000   0.77784751   -8.5099045    532.06628  0.014638117   0.01436342         3617 
 3030000   0.77267429   -8.5194183    530.47684  0.014589572  0.014356811         3657 
 3031000   0.77831225   -8.4996026    531.45489  0.014611649  0.014350211         3638 
 3032000   0.76893433   -8.5317662    532.54413  0.014636767  0.014343616         3641 
 3033000   0.76190531   -8.5351862    532.01283  0.014617343  0.014337019         3678 
 3034000   0.76119383    -8.527929    532.27711  0.014619784  0.014330427         3629 
 3035000   0.77678311   -8.5196945    532.71679   0.01462704  0.014323836         3658 
 3036000   0.78235968    -8.555349    531.52703  0.014589565  0.014317253         3649 
 3037000   0.76693818   -8.5530063    530.98372  0.014569853  0.014310671         3655 
 3038000   0.77460709    -8.504769    532.11898  0.014596198   0.01430409         3556 
 3039000   0.78260246   -8.5365222     530.3542  0.014543002   0.01429752         3658 
 3040000   0.76514568    -8.525185    532.44571  0.014595551  0.014290948         3620 
 3041000   0.75629645   -8.5287768    530.77995  0.014545104  0.014284374         3645 
 3042000   0.76271907   -8.5446804    532.57696  0.014589551  0.014277804         3699 
 3043000   0.76714743   -8.5318986    531.58014  0.014557458   0.01427124         3637 
 3044000   0.79552798   -8.5378231    531.18561  0.014541875  0.014264675         3677 
 3045000   0.75232857   -8.5515723    530.26043   0.01451178  0.014258116         3718 
 3046000   0.77699829   -8.5508187    531.25022  0.014534095  0.014251554         3646 
 3047000   0.75753596   -8.5181663    531.31783  0.014531174  0.014245009         3622 
 3048000   0.77139524   -8.5448546     531.8566  0.014541136  0.014238463         3681 
 3049000   0.76093854   -8.5372975    532.37318  0.014550486  0.014231924         3652 
 3050000   0.78109133   -8.5289302    531.36299  0.014518115  0.014225381         3654 
 3051000   0.75049051   -8.5345319     532.2088  0.014536458  0.014218852         3619 
 3052000   0.77074408    -8.540978    531.20639  0.014504325  0.014212304         3682 
 3053000   0.77103422   -8.5322623    531.41205  0.014505187  0.014205768         3632 
 3054000   0.76597708   -8.5417175    530.82111  0.014484313  0.014199247         3667 
 3055000   0.76844524   -8.5548306    532.39652  0.014522546  0.014192735         3692 
 3056000   0.78506962   -8.5245707    531.23047  0.014485997  0.014186218         3648 
 3057000   0.75715325   -8.5392773    532.09177  0.014504737  0.014179709         3629 
 3058000   0.77632617   -8.5514589     530.8717  0.014466746  0.014173197         3642 
 3059000   0.74934242   -8.5184807     531.9836  0.014492307  0.014166686         3638 
 3060000   0.76748192   -8.5226585     530.2137  0.014439371  0.014160192         3628 
 3061000   0.75826221   -8.5642712    531.38789   0.01446662  0.014153689         3691 
 3062000   0.77112588   -8.5320785    531.22097  0.014457353  0.014147185         3677 
 3063000    0.7476145   -8.5484999    531.51822   0.01446072   0.01414069         3695 
 3064000   0.74989675   -8.5421291    531.18121  0.014446835  0.014134199         3666 
 3065000    0.7535403   -8.5365359    531.97189  0.014463619  0.014127703         3674 
 3066000   0.74276934   -8.5340265    531.57562   0.01444813  0.014121209         3656 
 3067000   0.76149566   -8.5516599    531.37632  0.014438004  0.014114727         3652 
 3068000   0.78102057   -8.5409347    530.18307  0.014400888  0.014108232         3683 
 3069000    0.7781592   -8.5524271    531.48417  0.014431524  0.014101746         3636 
 3070000    0.7539304    -8.540939    531.90915  0.014438359  0.014095258         3645 
 3071000   0.77848029   -8.5411646    531.88155  0.014432909  0.014088782         3637 
 3072000   0.76306899   -8.5589381    530.68222  0.014395676  0.014082313         3672 
 3073000   0.74295439   -8.5244942    530.65573  0.014390274  0.014075851         3674 
 3074000   0.76873186   -8.5517102    530.63779  0.014385106   0.01406938         3670 
 3075000   0.77131695    -8.534023    531.85347  0.014413373  0.014062916         3663 
 3076000   0.76208436   -8.5707703    532.72586  0.014432322  0.014056459         3681 
 3077000   0.76576105    -8.538172    532.29032  0.014415836  0.014050001         3683 
 3078000   0.73699423    -8.539293    532.55803    0.0144184  0.014043541         3672 
 3079000   0.76458341   -8.5570484    531.28128  0.014379162  0.014037087         3673 
 3080000   0.75462875   -8.5704507    531.86301  0.014390233  0.014030627         3673 
 3081000     0.756247   -8.5610945    531.71255  0.014381493  0.014024175         3687 
 3082000   0.74763028    -8.554512    530.68508  0.014349045  0.014017725         3709 
 3083000   0.74348532   -8.5418001    530.56073  0.014341029  0.014011284         3703 
 3084000   0.77451208   -8.5521367    531.00353  0.014348344  0.014004844         3628 
 3085000   0.75525609   -8.5229773    532.33512  0.014379663  0.013998401         3685 
 3086000   0.75279307   -8.5480612    531.50238  0.014352516  0.013991963         3698 
 3087000     0.772553   -8.5661909    530.42098  0.014318675   0.01398553         3620 
 3088000   0.74716396   -8.5204052    531.99649  0.014356555  0.013979103         3676 
 3089000   0.75797687   -8.5570643    531.14294   0.01432888  0.013972677         3652 
 3090000   0.76714855   -8.5792622    530.97813  0.014319799  0.013966249         3670 
 3091000    0.7640644   -8.5671377    530.73993  0.014308744  0.013959835         3664 
 3092000   0.76246662   -8.5517812    531.48543  0.014324208  0.013953418         3687 
 3093000   0.77088408   -8.5502519    532.20387  0.014338934  0.013947017         3647 
 3094000   0.74683135   -8.5609892    529.94747  0.014273526  0.013940615         3699 
 3095000    0.7492625   -8.5666413    532.15705  0.014328407  0.013934224         3667 
 3096000   0.76284607   -8.5453665    531.01772  0.014293113  0.013927836         3684 
 3097000    0.7515275   -8.5601665    530.40536   0.01427202  0.013921451         3668 
 3098000   0.75158547   -8.5363518    531.60431  0.014299664  0.013915065         3605 
 3099000   0.78036549   -8.5576572    531.16841  0.014283328  0.013908684         3658 
 3100000   0.76946842   -8.5205468    531.46571  0.014286713   0.01390231         3657 
 3101000   0.75179652   -8.5561793    531.21549  0.014275381  0.013895944         3675 
 3102000   0.75103088   -8.5713115    530.71141  0.014257237  0.013889576         3685 
 3103000   0.75751845   -8.5694687    530.25047  0.014240264  0.013883206         3671 
 3104000    0.7606429   -8.5367196    531.26681  0.014262962  0.013876833         3651 
 3105000   0.74949556   -8.5407026    530.89453  0.014248377  0.013870468         3673 
 3106000   0.74868194   -8.5525737    531.17614  0.014251345   0.01386411         3674 
 3107000   0.76131251   -8.5536263    530.68815   0.01423367  0.013857757         3696 
 3108000   0.74533513   -8.5377231    531.93627  0.014262556  0.013851409         3677 
 3109000   0.75711922   -8.5548977    531.36808  0.014242738  0.013845065         3699 
 3110000   0.73157234   -8.5439612     532.0813   0.01425727   0.01383871         3659 
 3111000   0.75359761   -8.5407988    532.14815  0.014254477  0.013832368         3682 
 3112000   0.74317766   -8.5296669    530.88934  0.014216188  0.013826028         3643 
 3113000   0.76740495   -8.5364187      530.614  0.014204251  0.013819694         3671 
 3114000   0.75797535   -8.5649283    530.56633  0.014198414   0.01381337         3682 
 3115000   0.75973825   -8.5392937    531.07245  0.014207396  0.013807035         3657 
 3116000   0.72995191   -8.5525084    531.54506  0.014215476  0.013800707         3625 
 3117000   0.75629827   -8.5431464    531.20907  0.014201932  0.013794381         3666 
 3118000   0.75803715   -8.5904386    530.50849  0.014178653   0.01378806         3723 
 3119000   0.74534385   -8.5935329    530.35161  0.014169916  0.013781745         3716 
 3120000    0.7679931   -8.5330247    531.35865  0.014192272  0.013775434         3680 
 3121000   0.75051404   -8.5629086    530.91274  0.014175818  0.013769123         3652 
 3122000   0.75971787   -8.5704521    531.27649  0.014180987   0.01376281         3714 
 3123000   0.74219756   -8.5652793    530.41481  0.014153453  0.013756504         3691 
 3124000   0.74603086   -8.5653425     529.9909  0.014137615  0.013750201         3683 
 3125000    0.7374949   -8.5587982    530.86961  0.014156523  0.013743904         3640 
 3126000   0.74728858    -8.566246     530.8662  0.014151903  0.013737606         3702 
 3127000   0.74612647   -8.5470851    530.45664  0.014136463  0.013731308         3711 
 3128000   0.74870082   -8.5642614    530.55273  0.014134504   0.01372501         3734 
 3129000    0.7478658   -8.5676237    531.37004  0.014151754  0.013718719         3691 
 3130000   0.73644812   -8.5460996    531.18169  0.014142217  0.013712433         3648 
 3131000   0.75181044   -8.5604793    530.18274  0.014111113   0.01370615         3677 
 3132000   0.75515686    -8.539731    531.67321  0.014146265  0.013699857         3659 
 3133000   0.74802174   -8.5753725     531.0963  0.014126405  0.013693568         3648 
 3134000   0.73454377   -8.5512817    531.20614  0.014124818  0.013687286         3705 
 3135000   0.75908921   -8.5738428    529.51342  0.014075317  0.013681002         3685 
 3136000   0.75303354   -8.5907954    530.20207  0.014089128  0.013674735         3690 
 3137000   0.75522925   -8.5624154    530.17317  0.014083869  0.013668458         3721 
 3138000   0.75000522   -8.5910675    530.86019  0.014097626   0.01366218         3688 
 3139000   0.73617441   -8.5588215     531.4942  0.014109966  0.013655918         3728 
 3140000   0.75936774   -8.5647445    531.33955  0.014101368  0.013649652         3712 
 3141000   0.74554251   -8.5779816    530.72723  0.014080633  0.013643394         3662 
 3142000   0.74520618    -8.615771    529.03801   0.01403135  0.013637129         3710 
 3143000    0.7339125   -8.5687123    530.34894  0.014061643  0.013630875         3678 
 3144000   0.75761938   -8.5532248    531.96957  0.014100126  0.013624636         3684 
 3145000   0.75564261   -8.5761591     530.8213  0.014065217  0.013618385         3690 
 3146000   0.75812619   -8.5619287    530.88245  0.014062366  0.013612139         3669 
 3147000   0.74515545   -8.5688406    530.05577  0.014036007   0.01360589         3683 
 3148000   0.73222016   -8.5555034    531.37453  0.014066458   0.01359965         3698 
 3149000   0.76427825   -8.5930229    530.29252  0.014033358  0.013593412         3717 
 3150000   0.74448127   -8.5651948        532.3  0.014082011  0.013587177         3660 
 3151000   0.75232274   -8.5589288    530.51975   0.01403046  0.013580957         3681 
 3152000   0.74655434   -8.5985822    529.23695  0.013992094  0.013574729         3717 
 3153000   0.73083512   -8.5757655    531.47322   0.01404676  0.013568516         3686 
 3154000   0.75185498   -8.5780059    529.84023  0.013999161    0.0135623         3671 
 3155000   0.75658924   -8.5839776    530.01425   0.01399932  0.013556096         3707 
 3156000   0.74541853    -8.569363     529.9927  0.013994315  0.013549883         3654 
 3157000   0.74386907   -8.5789884    529.99614  0.013989973  0.013543681         3692 
 3158000   0.76309117   -8.5861921    530.74483    0.0140053  0.013537469         3681 
 3159000   0.74109053   -8.5680706    530.66672  0.013998806  0.013531269         3674 
 3160000   0.73727553   -8.5977329    529.48953  0.013963332  0.013525069         3690 
 3161000    0.7447365   -8.5905959    530.22274  0.013978244  0.013518873         3682 
 3162000   0.74998783   -8.5915806    530.10175  0.013970634  0.013512678         3681 
 3163000   0.74409898   -8.5931998    531.05656  0.013991373  0.013506498         3693 
 3164000   0.75763035   -8.6158615     529.5273  0.013946673  0.013500309         3712 
 3165000   0.75761316   -8.5669713    530.36884  0.013964424  0.013494126         3668 
 3166000   0.74227088   -8.6080905    530.38009   0.01396031  0.013487942         3715 
 3167000   0.75843065    -8.573784    530.87738  0.013968987  0.013481767         3710 
 3168000   0.75845144   -8.5868446    529.59711    0.0139309  0.013475604         3666 
 3169000   0.74256023   -8.5937511    529.23656  0.013917023  0.013469443         3689 
 3170000   0.75634541   -8.5786937     530.6691  0.013950292  0.013463278         3668 
 3171000   0.74862953   -8.5801882    531.32652  0.013963169  0.013457121         3701 
 3172000   0.74205259   -8.5653602    530.91544  0.013947968  0.013450968         3728 
 3173000   0.75130053   -8.5988768    530.15803   0.01392368  0.013444815         3715 
 3174000   0.73994747   -8.5918829    530.57701  0.013930293  0.013438663         3637 
 3175000   0.73964337   -8.5851928    530.58311  0.013926066  0.013432511         3698 
 3176000   0.74774117   -8.5888797     529.6356   0.01389682  0.013426361         3682 
 3177000   0.74863169   -8.5963646    529.53563  0.013889823  0.013420212         3680 
 3178000   0.73216292   -8.5573731    530.69741  0.013915917  0.013414067         3658 
 3179000   0.74112991    -8.586734    530.11852  0.013896365  0.013407933         3650 
 3180000   0.74535294   -8.5797876    530.88943  0.013912197  0.013401797         3678 
 3181000   0.74752106   -8.5977217     530.5027  0.013897692  0.013395665         3703 
 3182000   0.73821167   -8.5987019    530.64015  0.013896924   0.01338954         3730 
 3183000   0.74305427   -8.5847852    531.05091  0.013903312  0.013383409         3685 
 3184000   0.73327286   -8.5713558    530.55295  0.013885913  0.013377287         3725 
 3185000   0.73097177   -8.5897052    529.88908  0.013864183  0.013371161         3686 
 3186000   0.74971636   -8.5846334    530.21481  0.013868351  0.013365047         3741 
 3187000   0.74998425   -8.6024427    529.46036  0.013844273  0.013358933         3665 
 3188000    0.7541606   -8.5738894    530.57466  0.013869057  0.013352822         3674 
 3189000   0.75007316   -8.5801972    530.88447  0.013872804  0.013346723         3715 
 3190000   0.73861776   -8.5893915    529.72677  0.013838212  0.013340623         3685 
 3191000   0.74742892   -8.6091204      529.484  0.013827536  0.013334528         3714 
 3192000   0.73927121   -8.5759588    530.00722  0.013836863  0.013328432         3688 
 3193000   0.74428555   -8.5954061    530.16063  0.013836534  0.013322349         3708 
 3194000    0.7651653   -8.6205893     528.6857   0.01379372  0.013316257         3760 
 3195000    0.7418245   -8.5883755     529.5931   0.01381307   0.01331017         3707 
 3196000   0.75690378   -8.6002448    530.38799  0.013829474  0.013304082         3682 
 3197000    0.7332983   -8.5922782    529.46531  0.013801098  0.013298001         3703 
 3198000    0.7458326   -8.5916341    529.73534  0.013803819  0.013291924         3743 
 3199000   0.72076939   -8.5529982    530.89762  0.013829781   0.01328585         3703 
 3200000   0.73110647   -8.5876351    529.58282  0.013791219  0.013279773         3713 
 3201000    0.7394703   -8.5949936    531.29803  0.013831564  0.013273701         3678 
 3202000   0.75359249   -8.5846568    529.62805  0.013783782  0.013267632         3724 
 3203000   0.74330645   -8.6176009    529.21495  0.013768731  0.013261576         3701 
 3204000   0.73786787    -8.592088    530.69077  0.013802819  0.013255508         3682 
 3205000   0.74279423   -8.5687829    530.68897  0.013798465  0.013249457         3739 
 3206000   0.73072675   -8.5867298    531.03083  0.013803047  0.013243411         3716 
 3207000   0.73464157    -8.577341    530.25117  0.013778484  0.013237364         3712 
 3208000   0.73046336   -8.5844728    529.63381  0.013758152  0.013231319         3724 
 3209000   0.71606335   -8.5988128    530.71345  0.013781901  0.013225277         3708 
 3210000   0.74340956   -8.5848746    530.82816  0.013780586  0.013219231         3673 
 3211000   0.72848027    -8.590193    531.66845  0.013798102  0.013213206         3725 
 3212000   0.74765293   -8.6014811    530.07132  0.013752369  0.013207169         3682 
 3213000   0.74249825   -8.6139313    529.79224  0.013740851   0.01320114         3733 
 3214000   0.72131415   -8.5684673    530.31043  0.013750011  0.013195115         3680 
 3215000   0.72270129   -8.5686737    530.18454  0.013742471  0.013189098         3693 
 3216000   0.72651494   -8.5918529    530.19756  0.013738535  0.013183074         3703 
 3217000   0.74464999   -8.5734142    531.17907   0.01375969  0.013177059         3677 
 3218000   0.74028597   -8.5881296     530.0113  0.013725173  0.013171049         3709 
 3219000   0.74954679   -8.6161564    530.27768  0.013727806  0.013165035         3699 
 3220000   0.72686345   -8.5921151      529.901  0.013713794  0.013159028         3694 
 3221000   0.73628861   -8.5998176    529.18398  0.013690986  0.013153022         3685 
 3222000   0.74241204   -8.5972038    529.94774   0.01370649  0.013147021         3646 
 3223000   0.74203443   -8.5883838    529.81535  0.013698815  0.013141026         3663 
 3224000   0.75253398   -8.6047938    529.91045  0.013697024  0.013135036         3715 
 3225000   0.75369949     -8.60144    528.45901  0.013655272  0.013129046         3641 
 3226000   0.73088261    -8.590725    530.05845  0.013692355  0.013123064         3663 
 3227000   0.74174057   -8.6022989    530.19552  0.013691652  0.013117078         3698 
 3228000    0.7299445    -8.590913    529.56484  0.013671129  0.013111098         3701 
 3229000   0.74881408   -8.5754334    530.68475  0.013695797  0.013105134         3680 
 3230000   0.74489831   -8.6012897    530.22902  0.013679799  0.013099161         3718 
 3231000   0.73221554   -8.6011662    529.91796  0.013667543  0.013093194         3716 
 3232000   0.72744368   -8.6023404    528.94533  0.013638236  0.013087228         3666 
 3233000   0.72692898   -8.5932503    529.94541  0.013659795  0.013081254         3677 
 3234000   0.72340221   -8.5917695     529.3938  0.013641357  0.013075292         3746 
 3235000   0.73320887   -8.6004892    530.77909  0.013672826  0.013069331         3719 
 3236000    0.7297121   -8.5844602    530.40856  0.013659059  0.013063377         3681 
 3237000   0.73447743   -8.6172083    530.12039   0.01364742  0.013057428         3724 
 3238000   0.72714788     -8.63015    529.97014  0.013639339  0.013051479         3690 
 3239000   0.72857479    -8.586948    530.76515  0.013655582  0.013045532         3665 
 3240000   0.73874869   -8.5975501     529.7798  0.013626024  0.013039591         3695 
 3241000   0.72426132   -8.5938944    529.40366  0.013612148  0.013033654         3667 
 3242000   0.73417691   -8.6056741    530.38485   0.01363317   0.01302772         3712 
 3243000   0.73629755   -8.5892119    530.64455  0.013635639  0.013021791         3665 
 3244000   0.73510514   -8.5846947    530.30752  0.013622779  0.013015862         3676 
 3245000   0.71856922   -8.6198189    529.07388    0.0135869  0.013009937         3685 
 3246000   0.71629942    -8.608817    529.19181  0.013585742  0.013004006         3677 
 3247000   0.74121674   -8.5839229    529.80537  0.013597304  0.012998079         3682 
 3248000   0.73528562   -8.6228953     529.9382  0.013596526  0.012992158         3718 
 3249000   0.73329555   -8.5880509    530.04531  0.013595088  0.012986245         3707 
 3250000   0.73210466    -8.615353    528.84615  0.013560158   0.01298033         3739 
 3251000   0.74389669   -8.5880209    530.01858   0.01358604  0.012974424         3720 
 3252000   0.73519973   -8.6098351    530.56749  0.013595928  0.012968522         3708 
 3253000   0.74000035   -8.6156195    530.38717  0.013587129  0.012962613         3680 
 3254000   0.74442197   -8.5956434    529.77379  0.013567245  0.012956708         3697 
 3255000   0.73201339   -8.5998117    529.40194  0.013553557  0.012950808         3688 
 3256000   0.72686377   -8.6171174    529.98203  0.013564241  0.012944901         3721 
 3257000   0.73319191   -8.6175099    529.87261  0.013557277  0.012938999         3709 
 3258000   0.72429276   -8.6142299    528.91366  0.013528588  0.012933118         3720 
 3259000   0.73923399   -8.6390132     528.9493  0.013525348  0.012927223         3698 
 3260000   0.73704649   -8.6041698    529.95338  0.013546866  0.012921339         3729 
 3261000   0.72845802   -8.6062777    529.89513  0.013541223  0.012915464         3727 
 3262000    0.7178839    -8.624922    529.70766  0.013532282   0.01290958         3665 
 3263000   0.72351484   -8.6028467    529.25665  0.013516617  0.012903699         3704 
 3264000   0.73394498   -8.6326718    529.31379  0.013513935  0.012897827         3720 
 3265000   0.73415729   -8.6225315    529.83658  0.013523139  0.012891957         3723 
 3266000   0.72458516   -8.6289625    529.25536  0.013504168  0.012886094         3718 
 3267000   0.72292421   -8.6016232    529.08113  0.013495591  0.012880232         3716 
 3268000    0.7261074   -8.6421433    529.21115  0.013494776  0.012874373         3688 
 3269000    0.7375075   -8.6238296    529.42923  0.013496208  0.012868517         3670 
 3270000   0.73215609    -8.622137    528.72844  0.013474221  0.012862661         3720 
 3271000   0.71706117   -8.6301905    530.26428   0.01350923  0.012856815         3717 
 3272000   0.72555309   -8.6325129    528.80647  0.013467972   0.01285096         3719 
 3273000   0.72633137   -8.6100125    530.18398   0.01349893  0.012845116         3761 
 3274000   0.73358059   -8.6190896    529.29357  0.013472143  0.012839274         3706 
 3275000   0.72146582   -8.6051137    529.70343  0.013478459  0.012833438         3758 
 3276000   0.73894546   -8.6239687    529.26845   0.01346328  0.012827609         3751 
 3277000   0.71790724   -8.6171973    529.36918  0.013461733  0.012821781         3719 
 3278000   0.71512282   -8.6323643     529.0931  0.013450608  0.012815956         3719 
 3279000   0.74237082   -8.6218084    528.93956  0.013442603   0.01281013         3725 
 3280000   0.72854242    -8.645321    528.66183  0.013431449  0.012804302         3719 
 3281000   0.73439135   -8.6299897     529.2875  0.013443246  0.012798482         3699 
 3282000   0.71542825   -8.6284647    529.35932  0.013440974  0.012792665         3719 
 3283000    0.7317534   -8.6044396    529.82807  0.013448778  0.012786849         3733 
 3284000   0.72268882   -8.6185625     529.0586  0.013425157  0.012781034         3729 
 3285000   0.73870219   -8.6007464     530.8692  0.013467001  0.012775225         3697 
 3286000   0.73269719   -8.6050183    529.52195  0.013428737  0.012769425         3702 
 3287000   0.73740335   -8.6186908    529.14791  0.013415168  0.012763621         3684 
 3288000   0.71239895    -8.600345    530.11815  0.013435679  0.012757825         3682 
 3289000   0.71892001   -8.6118869    529.67858  0.013420457  0.012752029         3726 
 3290000    0.7206292   -8.6151576    529.68662  0.013416581   0.01274624         3693 
 3291000   0.73406969   -8.6296665    528.89461  0.013392449  0.012740448         3772 
 3292000   0.73164302    -8.626814    529.34393  0.013399755  0.012734666         3679 
 3293000    0.7240446   -8.6340757    529.63881  0.013403148  0.012728888         3717 
 3294000   0.72516651   -8.6175854    529.29395  0.013390355  0.012723109         3710 
 3295000   0.72074381   -8.6060122    528.89345  0.013376162  0.012717327         3716 
 3296000   0.72482338   -8.6210508    529.48477  0.013387054  0.012711554         3682 
 3297000   0.73183479   -8.6414136    528.88056  0.013367722  0.012705785         3725 
 3298000   0.72277553   -8.6102169    529.39739  0.013376728  0.012700024         3732 
 3299000   0.72531745   -8.6069846    530.02479  0.013388522   0.01269426         3749 
 3300000   0.73082243    -8.651181    528.63004  0.013349243  0.012688505         3756 
 3301000   0.74001226   -8.5966079    529.51524  0.013367546  0.012682753         3700 
 3302000   0.73107517   -8.6125698    529.32377  0.013358666  0.012677007         3704 
 3303000   0.73453876   -8.6308353    529.27618  0.013353421  0.012671257         3731 
 3304000   0.72876461   -8.6134304     528.3099  0.013325008  0.012665513         3728 
 3305000   0.70957006   -8.6130956    530.03214  0.013364401  0.012659777         3722 
 3306000   0.72205333   -8.6277039    528.85193  0.013330609  0.012654036         3749 
 3307000   0.71429491   -8.6322867    528.90449  0.013327903  0.012648302         3705 
 3308000   0.73685051   -8.6241374    529.35802  0.013335299  0.012642567         3745 
 3309000   0.72325378   -8.6052015    529.07051  0.013324028  0.012636841         3711 
 3310000   0.70991677    -8.624803     528.7529  0.013312007  0.012631111         3769 
 3311000    0.7249213   -8.6207195    529.02523   0.01331484  0.012625385         3741 
 3312000   0.70993864   -8.6252889    528.31648  0.013292987  0.012619667         3714 
 3313000   0.72019437   -8.6023272    530.22264  0.013336921  0.012613946         3717 
 3314000   0.71344754   -8.6031517    529.20719  0.013307362  0.012608234         3704 
 3315000   0.72442816   -8.6108103    528.18073  0.013277545  0.012602517         3714 
 3316000   0.71525714   -8.6414786     529.1721  0.013298454  0.012596808         3749 
 3317000   0.71736471   -8.6210221    529.35102   0.01329894  0.012591105         3721 
 3318000   0.72169042   -8.6168838    528.32835  0.013269247  0.012585397         3705 
 3319000   0.71085352   -8.6446962    528.13529  0.013260402   0.01257969         3734 
 3320000   0.72785117   -8.6462741    529.43665  0.013289073  0.012573991         3742 
 3321000   0.74060616   -8.6174028    529.90458  0.013296813  0.012568298         3685 
 3322000   0.71483523    -8.640276    528.08591  0.013247188  0.012562602         3722 
 3323000   0.72893725   -8.6142334    529.85628  0.013287599  0.012556914         3724 
 3324000   0.73717532   -8.6195703    528.09631  0.013239478  0.012551226         3644 
 3325000   0.72190815   -8.6328632    527.96919  0.013232311  0.012545538         3695 
 3326000   0.71251242   -8.6106409    528.74376  0.013247739  0.012539851         3719 
 3327000   0.73830908   -8.6231494    528.77232  0.013244472   0.01253417         3711 
 3328000   0.70377913   -8.6348037    528.66532  0.013237814  0.012528493         3658 
 3329000   0.71573529   -8.6372897    529.96368  0.013266338   0.01252282         3713 
 3330000   0.72679329   -8.6333319    528.82179  0.013233778  0.012517145         3735 
 3331000   0.72508517   -8.6146049    529.70247  0.013251838  0.012511477         3683 
 3332000   0.72346903   -8.6377061    528.13841  0.013208744   0.01250581         3682 
 3333000   0.71496723   -8.6367008     529.4105  0.013236586  0.012500142         3735 
 3334000   0.70957519   -8.6224598    528.44639  0.013208518  0.012494484         3732 
 3335000   0.71710814   -8.6223603    528.20417  0.013198505  0.012488827         3733 
 3336000   0.70526657   -8.6459737    528.01301  0.013189773  0.012483176         3720 
 3337000   0.73107724   -8.6359095    528.53028  0.013198738  0.012477521         3737 
 3338000   0.72581783   -8.6255271    528.60545  0.013196661  0.012471875         3721 
 3339000   0.71200562   -8.6174971    529.08793   0.01320475  0.012466232         3700 
 3340000   0.72777141   -8.6213028    529.59219  0.013213378  0.012460589         3730 
 3341000   0.71324865   -8.6507246    528.21342  0.013175033  0.012454953         3714 
 3342000   0.71949998   -8.6747466    528.66419  0.013182331  0.012449317         3705 
 3343000   0.72477414   -8.6525996    528.01261  0.013162145  0.012443682         3726 
 3344000   0.70201145   -8.6288275    528.93526  0.013181202  0.012438049         3712 
 3345000   0.70806126   -8.6479263    528.76595  0.013173043  0.012432421         3723 
 3346000    0.7263967   -8.6318398    528.54016  0.013163483    0.0124268         3673 
 3347000   0.71790661   -8.6363233    528.73284  0.013164347  0.012421179         3657 
 3348000   0.70914531     -8.64214      528.854  0.013163431  0.012415558         3720 
 3349000   0.70300699    -8.622221     529.3789  0.013172561  0.012409944         3723 
 3350000   0.71941496    -8.641021    528.36651  0.013143445   0.01240433         3735 
 3351000   0.70510245   -8.6294181     528.8489  0.013151519  0.012398724         3744 
 3352000   0.71207256   -8.6601395    529.83885  0.013172207  0.012393115         3751 
 3353000   0.69991988   -8.6453908    529.06582  0.013149066  0.012387514         3729 
 3354000   0.71827828   -8.6477771    527.41311  0.013104082  0.012381911         3754 
 3355000   0.70445252   -8.6082534    529.03889  0.013140559  0.012376317         3740 
 3356000   0.71571856   -8.6501291     527.7547  0.013104755  0.012370729         3697 
 3357000   0.71250167   -8.6375111    529.66774   0.01314834  0.012365136         3676 
 3358000   0.71448589    -8.668638    528.68035  0.013119921  0.012359549         3735 
 3359000   0.71054882   -8.6305887    527.71134  0.013091975  0.012353964         3689 
 3360000   0.70803989   -8.6245979     529.5411   0.01313346   0.01234838         3749 
 3361000   0.71087687   -8.6244419    527.93138   0.01308964  0.012342804         3700 
 3362000   0.72281936   -8.6457463    528.16586  0.013091559  0.012337227         3675 
 3363000   0.71879779   -8.6277883    528.64604  0.013099565  0.012331661         3689 
 3364000   0.70318173   -8.6453439    527.19546  0.013059737  0.012326092         3737 
 3365000   0.71985164   -8.6572656    529.48983  0.013112675  0.012320526         3691 
 3366000   0.72461982   -8.6443432    528.67583  0.013088627  0.012314971         3711 
 3367000   0.71131767   -8.6406787    528.69463  0.013085205   0.01230941         3661 
 3368000   0.69589517     -8.66925     528.0299  0.013064873  0.012303856         3739 
 3369000   0.72153118   -8.6430903    528.73711  0.013078488  0.012298303         3730 
 3370000   0.71552402   -8.6493108    528.54338  0.013069816  0.012292749         3740 
 3371000   0.71008249    -8.645645    528.44786  0.013063578  0.012287203         3738 
 3372000   0.70902252    -8.633329    529.72821  0.013091346  0.012281655         3696 
 3373000   0.70602453   -8.6307966    528.75707  0.013063471  0.012276113         3695 
 3374000   0.72224323   -8.6491459    528.09211  0.013043176  0.012270567         3708 
 3375000   0.71076753   -8.6436749    528.77257  0.013056113  0.012265026         3713 
 3376000   0.71641116   -8.6402108    527.93909  0.013031672  0.012259488         3719 
 3377000   0.71843957   -8.6314675    528.02791  0.013030005  0.012253951         3689 
 3378000   0.71358615   -8.6471295    528.83923  0.013046162  0.012248424         3769 
 3379000   0.69769682   -8.6340492     528.3706  0.013030744  0.012242899         3678 
 3380000   0.71883887   -8.6370669    529.20778  0.013047529  0.012237381         3741 
 3381000    0.7115655    -8.645423     527.8112  0.013009248  0.012231867         3686 
 3382000    0.7052591   -8.6522625    528.74879  0.013028504  0.012226352         3685 
 3383000   0.69747355   -8.6579476    528.36001  0.013015076  0.012220839         3687 
 3384000   0.69025511   -8.6300935    528.01883  0.013002828  0.012215331         3714 
 3385000    0.7048001   -8.6479213    528.86268  0.013019761  0.012209827         3748 
 3386000   0.70902517   -8.6545147    527.96545  0.012993834  0.012204323         3727 
 3387000   0.70544508   -8.6275882    529.09079  0.013017685  0.012198824         3705 
 3388000    0.7304602   -8.6314218     528.7195   0.01300471  0.012193329         3686 
 3389000   0.70649352   -8.6638718    527.41873  0.012968888  0.012187836         3699 
 3390000   0.69636853   -8.6530138    529.40774  0.013013956   0.01218234         3722 
 3391000   0.72229893   -8.6485963    528.17153  0.012979739  0.012176851         3701 
 3392000   0.71434342   -8.6436636    529.32237  0.013004186  0.012171364         3737 
 3393000   0.69532951   -8.6595867    527.67167  0.012959811  0.012165876         3717 
 3394000   0.70475132   -8.6404272    527.82994  0.012959879  0.012160396         3758 
 3395000   0.71431893   -8.6490742    529.40586  0.012994744  0.012154921         3730 
 3396000   0.70145185   -8.6545789    528.47644  0.012968111  0.012149442         3716 
 3397000   0.70859804   -8.6460728    527.73604   0.01294613  0.012143972         3746 
 3398000   0.70385767   -8.6471403    528.76427  0.012967537  0.012138504         3710 
 3399000   0.69181597   -8.6637503    528.77759  0.012964048  0.012133037         3741 
 3400000   0.69917072   -8.6600249    527.78304  0.012935859  0.012127576         3673 
 3401000   0.72587901   -8.6551975    529.11657   0.01296473  0.012122124         3725 
 3402000   0.70094537   -8.6444077    528.32777  0.012941597  0.012116666         3711 
 3403000   0.72588094   -8.6600463    528.40585  0.012939706  0.012111212         3714 
 3404000   0.72263114    -8.657398     528.3534  0.012934621  0.012105761         3705 
 3405000   0.69656039   -8.6500213    528.83436  0.012942593  0.012100317         3735 
 3406000   0.69833524   -8.6578547    528.35884  0.012927159  0.012094875         3695 
 3407000   0.68926887   -8.6527011    528.32227   0.01292247  0.012089432         3699 
 3408000   0.71338511   -8.6470044     528.3744  0.012919953  0.012083998         3696 
 3409000   0.70526464   -8.6568009    528.25708  0.012913295  0.012078564         3727 
 3410000   0.69829043   -8.6337224    527.66994   0.01289516  0.012073135         3731 
 3411000   0.69730558   -8.6279577    529.44905  0.012934844  0.012067709         3694 
 3412000   0.70225156   -8.6544083    528.29919   0.01290297  0.012062286         3729 
 3413000   0.70109993    -8.658174    528.31017  0.012899457  0.012056869         3731 
 3414000   0.70858037   -8.6625642    528.54813  0.012901487  0.012051458         3672 
 3415000   0.70321036   -8.6548649    528.05393   0.01288565  0.012046041         3730 
 3416000   0.71038882   -8.6545986     528.2928  0.012887705  0.012040628         3780 
 3417000   0.70412527   -8.6570307     528.2132  0.012881992  0.012035222         3720 
 3418000   0.70455251    -8.644395    527.82889  0.012868853  0.012029813         3724 
 3419000    0.6967311   -8.6494933     528.7631   0.01288786  0.012024411         3728 
 3420000   0.70607592   -8.6374865     528.2434  0.012871428  0.012019009         3736 
 3421000   0.71465481   -8.6591981    528.19893  0.012866582  0.012013617         3713 
 3422000   0.70448265   -8.6510574    528.91218  0.012880191  0.012008225         3733 
 3423000   0.69579459   -8.6608363    528.02608  0.012854856  0.012002829         3743 
 3424000   0.70499433   -8.6503412    527.24762  0.012832156  0.011997443         3707 
 3425000   0.70397596   -8.6557311    527.62255  0.012837532  0.011992056         3733 
 3426000   0.70032654   -8.6457319    528.45575  0.012854051  0.011986678         3719 
 3427000   0.70891997   -8.6646241    528.83098  0.012859425    0.0119813         3732 
 3428000   0.69943212   -8.6250468     528.5219   0.01284816  0.011975922         3709 
 3429000    0.7065759   -8.6346032    528.96717  0.012855234  0.011970553         3723 
 3430000   0.70812962    -8.658725    528.35347  0.012836576  0.011965182         3710 
 3431000   0.70859349   -8.6919493    528.45843  0.012835384  0.011959814         3724 
 3432000   0.70961237   -8.6500997    527.47409  0.012807743  0.011954447         3746 
 3433000   0.69442559    -8.678671    527.81556  0.012812301  0.011949083         3735 
 3434000   0.70771644   -8.6409159    528.10106  0.012815498  0.011943723         3696 
 3435000    0.7138173   -8.6476946    527.78176  0.012804021  0.011938368         3730 
 3436000    0.6919222   -8.6722552     528.0944  0.012807877  0.011933013         3749 
 3437000   0.69647163   -8.6665668    528.61217  0.012816705  0.011927657         3735 
 3438000   0.70370089   -8.6657838    526.84322  0.012770099  0.011922303         3731 
 3439000   0.69766163   -8.6758098    527.51083  0.012782563  0.011916957         3716 
 3440000   0.70846549   -8.6379426    528.46906  0.012802061  0.011911611         3788 
 3441000    0.7140281   -8.6389646    527.48527  0.012774515  0.011906268         3756 
 3442000   0.68975345   -8.6593114     527.5226  0.012771707  0.011900927         3720 
 3443000   0.70420447   -8.6691806     528.1989  0.012784367  0.011895588         3719 
 3444000   0.71351268   -8.6883878    527.28897  0.012758638  0.011890251         3731 
 3445000   0.70542377   -8.6701502    527.51122   0.01276031  0.011884926         3731 
 3446000   0.69673052   -8.6689304    527.96366  0.012767548  0.011879601         3701 
 3447000   0.71285315   -8.6692349    527.23424   0.01274621  0.011874276         3703 
 3448000   0.68181718   -8.6583636    527.20487  0.012741804  0.011868959         3713 
 3449000   0.70196186    -8.658285    527.78006  0.012752007  0.011863636         3731 
 3450000   0.68640111   -8.6682278    527.39253   0.01273895  0.011858324         3719 
 3451000   0.70880134    -8.671946    528.15302  0.012753623  0.011853013         3699 
 3452000   0.70226056   -8.6422868    529.38299   0.01277962  0.011847714         3718 
 3453000   0.70526694   -8.6408166    527.25512  0.012724566  0.011842409         3666 
 3454000   0.68636433   -8.6649618    527.40885  0.012724591  0.011837108         3701 
 3455000   0.70434943    -8.676458    527.38301  0.012720285  0.011831802         3731 
 3456000   0.71437818    -8.655589    527.56309  0.012720946  0.011826508         3739 
 3457000   0.70442697   -8.6695711    527.54494  0.012716829  0.011821213         3692 
 3458000   0.71093778   -8.6911949     527.8571  0.012720674  0.011815919         3731 
 3459000   0.69273415   -8.6870226    527.84879  0.012716797  0.011810627         3752 
 3460000   0.70307291   -8.6761093    527.10945  0.012695314  0.011805328         3742 
 3461000   0.70751038    -8.679801    527.29361   0.01269608   0.01180004         3710 
 3462000   0.70046431   -8.6803623    527.96277   0.01270852  0.011794761         3741 
 3463000   0.71916884   -8.6706533    527.77668  0.012700372  0.011789479         3736 
 3464000   0.70018457   -8.6788306    527.32768  0.012685905  0.011784204         3738 
 3465000   0.70297562   -8.6710032    526.63978  0.012665699  0.011778931         3716 
 3466000   0.71877205   -8.6702259    528.60826  0.012709373  0.011773661         3736 
 3467000   0.70283213   -8.6647678    528.09525  0.012693377  0.011768396         3737 
 3468000   0.69618967   -8.6926825    527.10722  0.012665975  0.011763127         3770 
 3469000   0.68877433   -8.6733514    527.14552  0.012663244  0.011757871         3728 
 3470000   0.69336431    -8.680569    528.35861  0.012688727  0.011752617         3778 
 3471000   0.70671606   -8.6682093    528.63324  0.012691665  0.011747367         3785 
 3472000   0.69981834   -8.6852649    527.68268  0.012665195  0.011742112         3743 
 3473000   0.71054746   -8.6822761    527.95316  0.012668038  0.011736867         3736 
 3474000   0.69638808   -8.6876567    527.11432   0.01264427  0.011731625         3770 
 3475000   0.68648709   -8.6482134    527.63354  0.012653082  0.011726374         3742 
 3476000   0.67744178   -8.6814126    528.44237  0.012668833  0.011721138         3775 
 3477000   0.68906608   -8.6561766    528.45912  0.012665591    0.0117159         3735 
 3478000   0.68371709   -8.6842499    527.64266  0.012642387  0.011710666         3788 
 3479000   0.69051669   -8.7016734    527.26135  0.012629619  0.011705435         3772 
 3480000   0.69719788    -8.684622    527.05469  0.012621041  0.011700203         3782 
 3481000    0.6877514   -8.6911864    526.83172  0.012612078  0.011694964         3769 
 3482000   0.69807405   -8.6699508    528.29844  0.012643558  0.011689742         3769 
 3483000   0.69904794   -8.6886895    527.58905  0.012622956  0.011684515         3742 
 3484000   0.70492447    -8.680147    527.85868  0.012625782    0.0116793         3722 
 3485000   0.69420968   -8.6888645    526.92979  0.012599947  0.011674078         3778 
 3486000   0.69593812   -8.6875772    527.31892  0.012605635  0.011668866         3709 
 3487000   0.68434907   -8.6796143      527.359  0.012602978  0.011663653         3770 
 3488000   0.69454986   -8.6841892    527.73903  0.012608444  0.011658444         3768 
 3489000   0.68381947   -8.6693444    527.74864   0.01260506   0.01165324         3787 
 3490000   0.68588621   -8.6823633    526.77612  0.012578226  0.011648035         3751 
 3491000   0.69195344   -8.6555172     528.1416  0.012607219  0.011642828         3749 
 3492000   0.70402914   -8.6694542    527.21857  0.012581581  0.011637632         3756 
 3493000    0.6906567   -8.6764854    527.70155  0.012589502  0.011632444         3761 
 3494000   0.69343743   -8.6692472    527.19027  0.012573704  0.011627253         3758 
 3495000   0.68085512   -8.6850393    527.94776  0.012588168  0.011622066         3785 
 3496000   0.68019831   -8.6887056    527.05977    0.0125634  0.011616883         3746 
 3497000   0.70829744   -8.6790961    527.30594  0.012565674  0.011611698         3750 
 3498000   0.70984941    -8.702696    527.12443  0.012557757  0.011606515         3782 
 3499000   0.67723358   -8.6882248    527.22851  0.012556647  0.011601338         3761 
 3500000   0.70222084   -8.6844005    527.07588  0.012549426  0.011596165         3773 
 3501000   0.69987834   -8.6944658    527.48714   0.01255563  0.011590988         3781 
 3502000   0.69065262   -8.6885963    527.51273  0.012552654  0.011585815         3788 
 3503000   0.68807792   -8.6750773    527.64774  0.012552282  0.011580643         3771 
 3504000   0.67687881   -8.6858656    526.43353  0.012519823  0.011575477         3759 
 3505000   0.68946406   -8.6746932    527.35278  0.012538107  0.011570316         3766 
 3506000   0.68467398   -8.6611004    527.80027  0.012545167  0.011565151         3777 
 3507000   0.70501697   -8.6891608     526.4757  0.012510115  0.011559993         3780 
 3508000   0.68815241   -8.6862114    527.89777  0.012540331   0.01155484         3733 
 3509000   0.67470682   -8.7008047    527.11007   0.01251805  0.011549692         3794 
 3510000    0.6767804   -8.6705374    527.81354  0.012531186  0.011544545         3765 
 3511000   0.67572871   -8.6624143    526.91095  0.012506194  0.011539397         3746 
 3512000   0.68263684   -8.6912119    528.00504  0.012528593  0.011534251         3774 
 3513000   0.69866254   -8.6981338    526.83816  0.012497347  0.011529104         3792 
 3514000   0.67401091   -8.6677703    527.73667  0.012515098   0.01152397         3715 
 3515000    0.6885558   -8.6717149    527.60943  0.012508521  0.011518837         3727 
 3516000   0.68580466   -8.6912785    526.81818   0.01248621  0.011513709         3766 
 3517000   0.68848532   -8.6882485    526.49747  0.012475061  0.011508589         3743 
 3518000   0.69292141   -8.6670597    526.67043  0.012475612  0.011503461         3785 
 3519000   0.68078248   -8.7021366    526.64758  0.012471525  0.011498343         3750 
 3520000   0.68647049   -8.6842941    527.27724  0.012482889  0.011493218         3718 
 3521000   0.68588636     -8.69294    527.37509   0.01248166  0.011488105         3785 
 3522000   0.68370457   -8.6737812     527.8229  0.012488711  0.011482989         3784 
 3523000   0.68941312   -8.6751709    528.06397  0.012490869  0.011477881         3721 
 3524000   0.68424431     -8.69874     527.1771  0.012466352  0.011472778         3735 
 3525000   0.68586179   -8.6790923    526.94911  0.012457426   0.01146768         3706 
 3526000   0.67553618   -8.6847325    527.52962  0.012467613  0.011462577         3791 
 3527000   0.69851227   -8.6879656    526.42488  0.012437976  0.011457479         3756 
 3528000   0.69192162   -8.6864626    527.00981  0.012448267  0.011452383         3772 
 3529000   0.68937407   -8.6915747    527.31653  0.012451982   0.01144729         3778 
 3530000   0.68533465   -8.6919783    526.57224  0.012430884  0.011442199         3767 
 3531000   0.69061379    -8.703206    527.34792   0.01244567  0.011437118         3750 
 3532000   0.67775299   -8.6752278    527.82732  0.012453457  0.011432039         3811 
 3533000     0.687667   -8.6849045    527.86667   0.01245086  0.011426955         3751 
 3534000    0.6726064   -8.6761482    527.51976  0.012439157  0.011421875         3769 
 3535000   0.68985051   -8.7004179    526.54801   0.01241273  0.011416802         3779 
 3536000   0.68742469   -8.6710256    526.64057  0.012411401  0.011411734         3759 
 3537000   0.68258604   -8.6845403    526.93508  0.012414831  0.011406671         3776 
 3538000   0.68078553    -8.677416    526.80014  0.012408143  0.011401609         3773 
 3539000   0.67878639   -8.6769283    527.37332  0.012418134  0.011396544         3790 
 3540000   0.67551649   -8.6864188      527.305  0.012413018  0.011391483         3778 
 3541000    0.6949875   -8.6727753    526.60312  0.012392994  0.011386428         3785 
 3542000   0.67905224   -8.6797398    526.82213  0.012394648  0.011381371         3796 
 3543000   0.69583349   -8.6887618    525.92597  0.012370072  0.011376317         3789 
 3544000   0.68663099   -8.6927733    526.00375   0.01236841  0.011371269         3778 
 3545000   0.69369737   -8.6912775    526.18583  0.012369201  0.011366224         3809 
 3546000   0.67495007   -8.6922492    526.48734  0.012372799   0.01136118         3784 
 3547000   0.67864212   -8.7009941    527.11732  0.012384112  0.011356141         3762 
 3548000   0.66506574   -8.6856114    527.55948  0.012391006  0.011351101         3780 
 3549000   0.69020287   -8.6957632    527.41631  0.012384153  0.011346062         3737 
 3550000   0.67420159   -8.6736027    527.76083  0.012388752  0.011341028         3785 
 3551000   0.66567869   -8.6787411    526.08617  0.012345963  0.011335991         3800 
 3552000   0.68220862   -8.6882199    526.36634   0.01234906  0.011330958         3782 
 3553000   0.68756558   -8.6969598    526.95117  0.012359301  0.011325928         3782 
 3554000   0.69647424   -8.7036252    526.76912  0.012351555  0.011320897         3796 
 3555000   0.67819831   -8.6810343     527.1958  0.012358083  0.011315868         3780 
 3556000   0.68156143   -8.7239676    527.39998  0.012359392   0.01131084         3797 
 3557000   0.69750648   -8.6862428     527.2183  0.012351661  0.011305817         3777 
 3558000    0.6887321   -8.7098133    526.91521  0.012341091  0.011300804         3778 
 3559000   0.67783629   -8.7184267    527.23023  0.012344999  0.011295796         3784 
 3560000   0.67086051   -8.6968961    526.76867  0.012330727  0.011290783         3777 
 3561000    0.6710735   -8.6905705    525.79336  0.012304441  0.011285775         3768 
 3562000   0.68460222   -8.6857971    527.41512  0.012338928  0.011280771         3758 
 3563000   0.67395797   -8.7247128    526.69877   0.01231871   0.01127576         3797 
 3564000   0.68194986   -8.7068511    526.29397  0.012305789  0.011270752         3792 
 3565000   0.67637036   -8.7059626    526.30765  0.012302657  0.011265756         3801 
 3566000   0.68793967    -8.700567     526.8927  0.012312879  0.011260757         3798 
 3567000   0.67869356   -8.7006681    527.11989  0.012314734  0.011255769         3784 
 3568000   0.68432286   -8.7186954    527.48417  0.012319791  0.011250777         3782 
 3569000   0.67901462   -8.7064256    526.27357  0.012288073  0.011245791         3805 
 3570000   0.67401298   -8.6959773    526.98497  0.012301237  0.011240814         3762 
 3571000   0.69221665   -8.7086303    526.43025  0.012284847   0.01123584         3773 
 3572000   0.67476161   -8.7136046    526.77992  0.012289565  0.011230858         3773 
 3573000   0.69325996   -8.7313248    527.13504  0.012294408  0.011225884         3812 
 3574000   0.68006129   -8.7125553      526.351  0.012272687  0.011220913         3777 
 3575000   0.67700612   -8.6869429    526.72885  0.012278062  0.011215947         3803 
 3576000   0.68673775   -8.7056481    526.52004  0.012269762  0.011210973         3785 
 3577000   0.68120382   -8.6980338    526.41537  0.012263894  0.011206005         3776 
 3578000   0.66809799   -8.7116416    527.00478  0.012274194  0.011201045         3785 
 3579000   0.67567426   -8.6853919    526.71495  0.012264016  0.011196089         3776 
 3580000   0.66348749   -8.7110162    526.00772  0.012244128  0.011191132         3807 
 3581000   0.67797185   -8.6962207    527.40949  0.012273329  0.011186177         3791 
 3582000   0.68188173   -8.7207193    525.41881   0.01222359  0.011181228         3779 
 3583000   0.66539183   -8.6845653    525.62065  0.012224873   0.01117628         3734 
 3584000   0.66845807   -8.6856585    526.65158  0.012245433  0.011171338         3742 
 3585000   0.67655847   -8.7063111    526.49332  0.012238339  0.011166401         3812 
 3586000    0.6714815    -8.718852    526.65265  0.012238628  0.011161467         3788 
 3587000   0.67190195   -8.7061647    527.42828  0.012253236  0.011156536         3823 
 3588000   0.67169062   -8.7171851    527.19519  0.012244407  0.011151611         3807 
 3589000   0.66965119   -8.7300215    527.32017  0.012243897   0.01114668         3758 
 3590000   0.68982466   -8.7177399    526.50404  0.012221542  0.011141751         3788 
 3591000   0.68562051    -8.712013    526.34498  0.012214448  0.011136828         3778 
 3592000   0.67188026    -8.725652     526.3617  0.012211435  0.011131906         3835 
 3593000    0.6670976   -8.7175368    526.69891  0.012215857  0.011126988         3784 
 3594000   0.66943253   -8.7326814    526.09663  0.012198494   0.01112207         3825 
 3595000   0.68588532   -8.7043307    527.24415    0.0122217  0.011117155         3757 
 3596000   0.67447861   -8.7195204    525.44861  0.012176692  0.011112245         3774 
 3597000   0.68323653   -8.7049339    526.91355  0.012207246  0.011107338         3750 
 3598000   0.67195849   -8.7265836    526.44347  0.012192965  0.011102427         3770 
 3599000    0.6777795   -8.6911769    526.91447  0.012200483  0.011097524         3768 
 3600000   0.66661579   -8.7083571    526.74083  0.012193075  0.011092627         3787 
 3601000   0.67366272   -8.6998022    526.96017  0.012194765  0.011087727         3795 
 3602000   0.66381852   -8.6981676    526.89578  0.012189889  0.011082831         3775 
 3603000   0.65643824   -8.7153362    525.93507  0.012164286  0.011077934         3772 
 3604000   0.65148635   -8.7205513     526.6264  0.012176896  0.011073046         3754 
 3605000   0.68070025   -8.7036767    527.06753  0.012183715  0.011068162         3771 
 3606000   0.67936377   -8.6953849    526.88791  0.012176186  0.011063282         3800 
 3607000   0.66885363   -8.6954118    527.03012  0.012176096  0.011058405         3784 
 3608000    0.6821831   -8.7285163    527.11038  0.012174574  0.011053526         3771 
 3609000   0.68661165   -8.7149129    525.23149  0.012127817  0.011048652         3810 
 3610000    0.6785101     -8.73301    527.25304  0.012171123  0.011043777         3784 
 3611000   0.67342858   -8.7259996    526.61726   0.01215308  0.011038906         3761 
 3612000   0.66462119   -8.7289376    527.13132  0.012161575  0.011034044         3788 
 3613000   0.68537506   -8.7256906    525.78587  0.012127177  0.011029184         3810 
 3614000   0.68498409    -8.730425    526.13224  0.012131808   0.01102433         3795 
 3615000   0.68052563   -8.6881738      526.013  0.012125703  0.011019468         3766 
 3616000   0.67197338   -8.7179589     526.1529  0.012125574   0.01101462         3789 
 3617000   0.67710023   -8.7314174    525.85328  0.012115318  0.011009769         3794 
 3618000   0.67683298   -8.7188011      526.064  0.012116823  0.011004923         3812 
 3619000   0.66054186   -8.6969522    525.89406  0.012109562  0.011000074         3764 
 3620000   0.67351177   -8.7224969    526.13226    0.0121117  0.010995233         3810 
 3621000   0.68184076   -8.7119609     526.5449  0.012117852  0.010990395         3769 
 3622000   0.65355129   -8.7013724    526.63807   0.01211665  0.010985556         3788 
 3623000    0.6748448   -8.7483448     525.3562  0.012083821  0.010980718         3761 
 3624000   0.67420986   -8.7060392    526.12928  0.012098263  0.010975883         3773 
 3625000   0.66509206   -8.7202784    526.12425   0.01209481  0.010971055         3776 
 3626000    0.6708798   -8.7106725    526.05697  0.012089929  0.010966224         3764 
 3627000   0.66929665    -8.705953    526.23093  0.012090592  0.010961397         3773 
 3628000   0.67246184   -8.7191483    527.03475  0.012105723  0.010956569         3769 
 3629000   0.66509635   -8.7030834    527.81211  0.012120238   0.01095175         3781 
 3630000   0.65493802    -8.725479    525.56228   0.01206525  0.010946928         3799 
 3631000   0.67314019   -8.6999317    526.41708  0.012081545  0.010942109         3775 
 3632000   0.67427475   -8.7331488    526.50589  0.012080256  0.010937295         3791 
 3633000   0.66701115   -8.6978558       526.78  0.012083219  0.010932487         3784 
 3634000   0.66945079   -8.7186478    526.15516  0.012065565  0.010927683         3754 
 3635000    0.6785158   -8.7259304     526.0368  0.012059532  0.010922872         3799 
 3636000   0.67026581   -8.7307164    525.81459  0.012051123  0.010918071         3776 
 3637000    0.6702482   -8.7065674    526.17769  0.012056129  0.010913268         3760 
 3638000   0.66769846   -8.7302781    527.31611  0.012078892  0.010908472         3779 
 3639000    0.6605987   -8.7249532    526.20766  0.012050189  0.010903676         3790 
 3640000   0.67675829   -8.7079213    526.14826  0.012045519  0.010898884         3799 
 3641000   0.65650569   -8.7255804     526.5459  0.012051311  0.010894093         3759 
 3642000   0.67229469   -8.7181468    526.37248  0.012044034  0.010889309         3777 
 3643000   0.67639708    -8.733586    526.90765   0.01205297  0.010884523         3806 
 3644000   0.67515072   -8.7272765    525.97107  0.012028244  0.010879743         3775 
 3645000   0.66042777   -8.7227339    526.48345  0.012036659  0.010874965         3805 
 3646000   0.67502107   -8.7136204     526.7637  0.012039763   0.01087019         3781 
 3647000    0.6760961   -8.6962672    525.19527  0.012000623  0.010865422         3774 
 3648000   0.67567044   -8.7462366    526.38841  0.012024589   0.01086065         3783 
 3649000   0.67794969   -8.7216819    526.12071   0.01201518  0.010855881         3788 
 3650000    0.6820819   -8.7231404    527.20615   0.01203667  0.010851117         3815 
 3651000    0.6765485   -8.7350309    526.20587  0.012010542  0.010846357         3811 
 3652000   0.66161543   -8.7305739    525.10879   0.01198222  0.010841602         3803 
 3653000   0.66730428   -8.7205744    526.79116  0.012017318  0.010836847         3793 
 3654000   0.65943985   -8.7436481    526.27239  0.012002198  0.010832099         3814 
 3655000   0.66309713   -8.7176225    526.18636  0.011996953  0.010827342         3771 
 3656000   0.67254478   -8.7204659    526.49687  0.012000749  0.010822593         3781 
 3657000   0.66858451   -8.7189883    525.71563  0.011979665  0.010817848         3770 
 3658000   0.66279381   -8.7304881    526.62466  0.011997099  0.010813108         3780 
 3659000   0.67090875   -8.7445922    525.62932  0.011971152  0.010808367         3819 
 3660000   0.66725493    -8.731512    526.63116  0.011990691  0.010803633         3763 
 3661000   0.65906713   -8.7282178    525.62046   0.01196441  0.010798898         3796 
 3662000   0.67666305   -8.7215494    526.59907  0.011983412  0.010794165         3826 
 3663000   0.66894301   -8.7017678    526.42775  0.011976243  0.010789436         3780 
 3664000   0.65882236    -8.736789    526.46567  0.011973837  0.010784713         3791 
 3665000   0.65949386   -8.7308741    525.91313  0.011958007   0.01077999         3812 
 3666000   0.65234076   -8.7172361    526.95972  0.011978535  0.010775265         3789 
 3667000   0.66508369   -8.7285764    526.16381  0.011957181  0.010770548         3816 
 3668000   0.67700029   -8.7258714     525.5428  0.011939813  0.010765831         3833 
 3669000   0.66067915   -8.7164315    525.60487  0.011937968  0.010761117         3740 
 3670000    0.6835499   -8.7480599    525.99409  0.011943553  0.010756406         3797 
 3671000   0.65712094    -8.734526    525.71028  0.011933857    0.0107517         3780 
 3672000   0.66059939   -8.7502544    525.48035  0.011925389  0.010746992         3764 
 3673000   0.65826648    -8.737167    526.19627  0.011938385   0.01074229         3796 
 3674000   0.67670334   -8.7286952    526.50961  0.011942243  0.010737585         3799 
 3675000   0.68333492   -8.7337138    526.51025  0.011939008   0.01073289         3794 
 3676000   0.66361772   -8.7277961    526.17725  0.011928211  0.010728194         3783 
 3677000   0.68217316   -8.7413331    525.68402  0.011913789  0.010723498         3823 
 3678000   0.64988732   -8.7361464    524.45912  0.011882797  0.010718807         3790 
 3679000   0.65149826   -8.7240797    526.05317  0.011915674  0.010714119         3801 
 3680000   0.67093863   -8.7246404    525.84328  0.011907683   0.01070943         3816 
 3681000   0.66266268   -8.7420864    525.98916  0.011907751  0.010704749         3790 
 3682000   0.67000715   -8.7391276    525.43949  0.011892076  0.010700067         3801 
 3683000   0.66147776   -8.7249539    526.20781  0.011906232  0.010695384         3809 
 3684000   0.65745703     -8.74058    525.39967  0.011884719  0.010690709         3770 
 3685000   0.67884828   -8.7176786    525.20078  0.011876996  0.010686034         3829 
 3686000   0.65472014   -8.7312111    525.49798  0.011880493  0.010681364         3799 
 3687000   0.66143291   -8.7304568    525.27218  0.011872167  0.010676697         3837 
 3688000   0.66489503    -8.736207    525.29691  0.011869507  0.010672034         3817 
 3689000   0.68057092   -8.7370078     525.1972  0.011864037  0.010667375         3761 
 3690000   0.66811491   -8.7349627    525.90908  0.011876899  0.010662713         3830 
 3691000   0.65801287   -8.7411958    525.99866  0.011875704  0.010658057         3839 
 3692000   0.67384198   -8.7271568    526.49553  0.011883702  0.010653403         3801 
 3693000   0.65418688   -8.7486352    526.10148  0.011871592  0.010648753         3784 
 3694000    0.6603311   -8.7296525    527.07054   0.01189024  0.010644102         3774 
 3695000   0.65835727   -8.7457967    525.64919  0.011854966   0.01063945         3779 
 3696000   0.65358221   -8.7491678    525.21517  0.011841973  0.010634805         3808 
 3697000   0.64455294   -8.7329554    525.44665  0.011843987  0.010630163         3821 
 3698000   0.65195702   -8.7483417    526.16459  0.011856963  0.010625524         3831 
 3699000   0.65956685    -8.725394    526.89633  0.011870243  0.010620889         3809 
 3700000   0.66489039    -8.725086    526.65433  0.011861584  0.010616259         3814 
 3701000   0.65834968   -8.7453877    525.68014  0.011836444  0.010611629         3786 
 3702000   0.65135369   -8.7336331    525.45884  0.011828265  0.010607006         3791 
 3703000   0.65565319   -8.7315258    526.48688  0.011848206  0.010602387         3774 
 3704000   0.65322597    -8.758155    526.25519  0.011839795  0.010597764         3827 
 3705000   0.65621356   -8.7491175    525.61585  0.011822219  0.010593143         3777 
 3706000    0.6592344   -8.7363334    525.61411   0.01181899  0.010588522         3775 
 3707000   0.66166235   -8.7686545    524.78425  0.011797146  0.010583908         3825 
 3708000   0.65770875   -8.7333446     526.2813  0.011827609  0.010579294         3848 
 3709000   0.65300599   -8.7446243    525.69626  0.011811276  0.010574679         3805 
 3710000   0.64510626   -8.7432169    526.09279  0.011816999  0.010570071         3829 
 3711000   0.65269601   -8.7405802    525.49376  0.011800363  0.010565461         3813 
 3712000   0.65233063   -8.7398062    525.75579  0.011803067  0.010560858         3792 
 3713000    0.6547358    -8.746479    524.31032  0.011767446  0.010556253         3824 
 3714000   0.66739243     -8.74668    524.86588  0.011776743  0.010551652         3832 
 3715000   0.65114372   -8.7592469    524.99593   0.01177649  0.010547049         3823 
 3716000   0.64903543     -8.73313    525.94349   0.01179457  0.010542454         3779 
 3717000   0.66133908    -8.743809    526.71222  0.011808632  0.010537862         3812 
 3718000   0.63200618   -8.7444615    525.32843   0.01177444  0.010533275         3796 
 3719000   0.65488898   -8.7384728    525.63342  0.011778108   0.01052869         3781 
 3720000   0.64690309    -8.727298    524.90635  0.011758655  0.010524108         3814 
 3721000    0.6616849   -8.7424085    525.74883  0.011774362  0.010519531         3784 
 3722000   0.66372228   -8.7327387    524.95081  0.011753332  0.010514956         3804 
 3723000   0.65073707   -8.7552136    525.03407  0.011752038  0.010510379         3841 
 3724000   0.65588176   -8.7512995    525.38016  0.011756627  0.010505804         3810 
 3725000   0.65961547   -8.7281594    526.93446  0.011788243  0.010501234         3815 
 3726000    0.6662148   -8.7473304    526.01643  0.011764547  0.010496667         3806 
 3727000   0.65798207   -8.7577212    526.15549    0.0117645  0.010492096         3780 
 3728000   0.66046194   -8.7502738    524.88773  0.011733005  0.010487531         3781 
 3729000     0.677324   -8.7382323    525.63846  0.011746636  0.010482968         3774 
 3730000   0.65228838   -8.7410613    525.81648  0.011747464  0.010478405         3799 
 3731000   0.66679482   -8.7568428    524.71243  0.011719656  0.010473851         3776 
 3732000   0.66066553   -8.7553028     524.9819  0.011722533  0.010469298         3770 
 3733000   0.65977627   -8.7363966    526.26371  0.011748007  0.010464749         3774 
 3734000   0.65528645   -8.7472601    525.58369  0.011729684  0.010460199         3808 
 3735000   0.66098954   -8.7537735    525.52953  0.011725335  0.010455652         3819 
 3736000   0.63711783   -8.7539285    525.08859  0.011712361  0.010451109         3799 
 3737000   0.67060035      -8.7611    524.43832  0.011694727  0.010446565         3837 
 3738000   0.65185356   -8.7574876    525.48816  0.011715003  0.010442028         3816 
 3739000   0.65966125   -8.7697262    525.46612  0.011711378  0.010437496         3799 
 3740000   0.63644475   -8.7551349    525.62552  0.011711799   0.01043296         3796 
 3741000   0.65717569   -8.7359377    526.05198  0.011718168   0.01042843         3829 
 3742000   0.66106042   -8.7713336    525.83018  0.011710097  0.010423899         3837 
 3743000   0.64602694   -8.7483508    525.91048  0.011708756  0.010419376         3821 
 3744000   0.64170742   -8.7519906    525.16091  0.011688945  0.010414851         3816 
 3745000    0.6510019   -8.7506946    525.80421  0.011700138  0.010410328         3843 
 3746000   0.65994081     -8.74856    525.49131  0.011690054   0.01040581         3782 
 3747000   0.65082344   -8.7543774    525.49807  0.011687085  0.010401295         3805 
 3748000   0.64835136   -8.7388741    525.14546  0.011676126  0.010396784         3822 
 3749000   0.64725302   -8.7521096    525.03113  0.011670471  0.010392272         3789 
 3750000   0.64338935   -8.7717231    525.43086  0.011676241  0.010387767         3802 
 3751000   0.64749226   -8.7637426    525.55637  0.011675917  0.010383263         3827 
 3752000   0.65037723   -8.7482554    525.02712   0.01166105  0.010378761         3794 
 3753000   0.63937947   -8.7481698    524.94699  0.011656164  0.010374259         3807 
 3754000   0.64384665   -8.7690574    526.10882   0.01167885  0.010369762         3829 
 3755000   0.65281803   -8.7720563    525.47351   0.01166164  0.010365269         3815 
 3756000   0.64824226   -8.7629325    525.59213  0.011661167  0.010360776         3830 
 3757000   0.65367441   -8.7415459    526.10039  0.011669337  0.010356287         3824 
 3758000   0.63754966   -8.7367927    526.01995  0.011664448  0.010351798         3816 
 3759000   0.64503566   -8.8039541    524.97847  0.011638256  0.010347312         3834 
 3760000   0.65751587   -8.7347181    525.27508  0.011641735  0.010342828         3825 
 3761000   0.64078445   -8.7441502    524.57888  0.011623214  0.010338347         3809 
 3762000   0.63598282   -8.7578889    524.64833  0.011621662  0.010333868         3827 
 3763000   0.65503777   -8.7668207    525.37959  0.011634768  0.010329399         3833 
 3764000   0.65413767   -8.7557838    524.30124  0.011607803  0.010324927         3824 
 3765000   0.65375165   -8.7638532    525.78387  0.011637536  0.010320455         3789 
 3766000    0.6493735   -8.7650405    523.90351  0.011592838  0.010315987         3839 
 3767000    0.6530272   -8.7426835    525.24655  0.011619471  0.010311521         3805 
 3768000   0.65447623    -8.746135    525.53639  0.011622797  0.010307058         3876 
 3769000   0.65298533   -8.7461776    526.22089  0.011634848    0.0103026         3813 
 3770000   0.64714711   -8.7642733     525.1251   0.01160754  0.010298144         3815 
 3771000   0.65064078   -8.7497504    525.04101  0.011602603   0.01029369         3811 
 3772000   0.65843353   -8.7561068    525.10694  0.011600984  0.010289235         3857 
 3773000   0.65276545   -8.7597867    524.71514  0.011589256  0.010284786         3828 
 3774000   0.64730773   -8.7478976    525.45842  0.011602597   0.01028034         3797 
 3775000   0.66064435   -8.7717911    525.25719  0.011595081  0.010275896         3802 
 3776000   0.63574035   -8.7608557     524.3119  0.011571149  0.010271453         3789 
 3777000   0.64642634   -8.7609495    525.37511  0.011591543  0.010267013         3807 
 3778000   0.64688903   -8.7299209    525.76838   0.01159715  0.010262576         3840 
 3779000   0.64821333   -8.7555564     525.1691  0.011580866  0.010258145         3838 
 3780000   0.64728279   -8.7777414    525.11839  0.011576684  0.010253714         3827 
 3781000   0.64527084   -8.7732774    523.88928  0.011546533  0.010249282         3782 
 3782000   0.64466541   -8.7831493    523.62952  0.011537756  0.010244852         3835 
 3783000   0.65672155   -8.7466663    525.27842  0.011571029  0.010240427         3837 
 3784000   0.64007988   -8.7573988    526.06238  0.011585236  0.010236002         3807 
 3785000   0.66344371    -8.753329    524.89173  0.011556401   0.01023158         3841 
 3786000    0.6384317   -8.7527762    524.63975  0.011547802  0.010227157         3813 
 3787000   0.65122943    -8.762678    524.49847  0.011541644  0.010222737         3803 
 3788000   0.64891252   -8.7312631    524.97547  0.011549091  0.010218323         3814 
 3789000   0.63563757   -8.7568026    524.50246  0.011535639  0.010213909         3806 
 3790000   0.65316479   -8.7780861    525.45348  0.011553507  0.010209501         3834 
 3791000   0.66016464   -8.7550526    526.51701  0.011573837  0.010205093         3817 
 3792000   0.64736871   -8.7725236    525.61883  0.011551047  0.010200685         3823 
 3793000   0.64154407   -8.7659818    525.94197  0.011555101  0.010196288         3829 
 3794000   0.65730568   -8.7655976    525.14496  0.011534549  0.010191888         3803 
 3795000   0.64289089   -8.7792975    525.94389  0.011549053  0.010187491         3835 
 3796000    0.6511541   -8.7566428    524.87213  0.011522483  0.010183097         3819 
 3797000   0.64859109   -8.7782799    524.09021  0.011502287  0.010178702         3808 
 3798000   0.64776212   -8.7523666    524.72822  0.011513258  0.010174312         3876 
 3799000     0.640088    -8.764813    524.49187  0.011505042  0.010169926         3823 
 3800000   0.64301481   -8.7737522    524.75461  0.011507776  0.010165543         3813 
 3801000   0.65329921   -8.7715875    525.03278  0.011510848  0.010161156         3819 
 3802000   0.65273362   -8.7869762    524.45283  0.011495108  0.010156774         3856 
 3803000   0.63458055   -8.7701099    524.88371  0.011501527  0.010152392         3847 
 3804000   0.64707555   -8.7678987    524.83962  0.011497538  0.010148013         3835 
 3805000   0.63971709   -8.7704677    524.25501  0.011481713   0.01014364         3835 
 3806000   0.65275691   -8.7724798    525.17155  0.011498764  0.010139267         3814 
 3807000   0.64124317    -8.764943    525.27772  0.011498068  0.010134894         3831 
 3808000   0.63609046    -8.778555    524.31932  0.011474075  0.010130525         3867 
 3809000   0.63653059   -8.7944717    524.80022  0.011481583  0.010126158         3807 
 3810000   0.66779788   -8.7677105    525.26859  0.011488814  0.010121796         3826 
 3811000   0.65145715   -8.7766818    525.13823  0.011482949  0.010117435         3857 
 3812000   0.63202558   -8.7626904    525.00642  0.011477055  0.010113073         3818 
 3813000   0.64772172   -8.7834381    525.40353  0.011482724  0.010108712         3821 
 3814000   0.64141082   -8.7757062    524.93299  0.011469433  0.010104352         3849 
 3815000   0.63051252   -8.7600055    525.91403  0.011487856  0.010099999         3813 
 3816000   0.63879789   -8.7753981     524.8859  0.011462393   0.01009565         3827 
 3817000   0.63635227   -8.7854127    524.66789   0.01145463  0.010091304         3868 
 3818000   0.63535488   -8.7748774    524.76021  0.011453645  0.010086958         3843 
 3819000    0.6520772   -8.7903793    524.28018  0.011440172  0.010082615         3830 
 3820000   0.63614207   -8.7840745     524.5065  0.011442114  0.010078275         3835 
 3821000   0.63627104   -8.7571489    525.70444  0.011465246  0.010073936         3831 
 3822000   0.63497423   -8.8097824    525.00454  0.011446985  0.010069599         3854 
 3823000   0.64860888   -8.7638746    525.15554  0.011447283  0.010065267         3830 
 3824000   0.63851076   -8.7764684    523.77671  0.011414241  0.010060938         3847 
 3825000   0.63260502   -8.7784901    524.10388  0.011418385  0.010056612         3827 
 3826000   0.64405897   -8.7623794    525.13359  0.011437829  0.010052283         3822 
 3827000   0.63927834   -8.7728798    525.31688  0.011438831   0.01004796         3818 
 3828000   0.63605603   -8.7706428    525.52904  0.011440461  0.010043635         3812 
 3829000   0.63332305   -8.7741551    524.52554  0.011415634  0.010039316         3833 
 3830000   0.63772618   -8.7781285    525.26657  0.011428777  0.010034998         3830 
 3831000   0.62675239   -8.7878013    524.33327  0.011405492  0.010030686         3834 
 3832000    0.6326229   -8.7703939    523.25335  0.011379031  0.010026375         3801 
 3833000    0.6366488   -8.7813667    524.71526  0.011407845  0.010022066         3818 
 3834000   0.63726945   -8.7790634      524.262  0.011395018  0.010017761         3809 
 3835000   0.63207084   -8.7847035    525.61709  0.011421493  0.010013454         3825 
 3836000   0.64330844   -8.7722084      524.092  0.011385384  0.010009154         3838 
 3837000   0.63929172   -8.7868891    525.47506  0.011412455  0.010004853         3828 
 3838000   0.63435509   -8.7510685    525.52684  0.011410605  0.010000554         3808 
 3839000   0.64092055   -8.7761152    524.58223  0.011387128 0.0099962619         3828 
 3840000   0.63201336   -8.7743217    524.82406  0.011389411 0.0099919694         3850 
 3841000   0.63640588   -8.7706894    524.55244  0.011380553 0.0099876775         3810 
 3842000   0.64251229   -8.7736003    524.61989  0.011379054 0.0099833884         3838 
 3843000   0.63181527   -8.7888117    525.12398  0.011387024  0.009979097         3827 
 3844000   0.63243946   -8.7879711    524.72578  0.011375429 0.0099748149         3833 
 3845000   0.64772084   -8.7881091    524.59883  0.011369719 0.0099705313         3855 
 3846000   0.63331577   -8.7964447    524.64287  0.011367717 0.0099662502         3830 
 3847000   0.65021933   -8.7625032    523.87904  0.011348216 0.0099619751         3809 
 3848000   0.63923583   -8.7572121    524.18733  0.011351943 0.0099577023         3812 
 3849000    0.6408613   -8.7763799    524.02083  0.011345389 0.0099534329         3820 
 3850000   0.64515235   -8.7763676    524.71417  0.011357449 0.0099491635         3806 
 3851000   0.62441049   -8.7779632    524.54381  0.011350814 0.0099448952         3854 
 3852000   0.63262574   -8.7829034    524.49267  0.011346761 0.0099406268         3853 
 3853000    0.6281308   -8.7927533    523.89222  0.011330829 0.0099363615         3836 
 3854000   0.63880984   -8.7978518    524.45258  0.011340006 0.0099321008         3810 
 3855000   0.62031069   -8.7712268    524.30986  0.011333979 0.0099278455         3837 
 3856000   0.65218171   -8.7927519     524.5843  0.011336971 0.0099235926         3829 
 3857000   0.63661372   -8.7871789    524.72234  0.011337014 0.0099193411         3847 
 3858000   0.65220279   -8.7739925    525.16232  0.011343579 0.0099150904         3850 
 3859000   0.63609329    -8.794566    524.61007  0.011328714 0.0099108438         3850 
 3860000   0.62595923   -8.7746132    524.60985  0.011325774 0.0099065976         3863 
 3861000   0.63919955   -8.7863788    524.47213  0.011319868 0.0099023526         3878 
 3862000   0.63637827   -8.7796676    524.17455  0.011310516 0.0098981178         3820 
 3863000    0.6389852   -8.7736563    524.18219  0.011307753 0.0098938779         3846 
 3864000   0.63314953    -8.785639    524.05624   0.01130211 0.0098896433         3859 
 3865000   0.63402924   -8.7919961    524.80509  0.011315332 0.0098854117         3780 
 3866000   0.62629432   -8.7808329    524.75076  0.011311234 0.0098811835         3848 
 3867000   0.63477766   -8.7874679    525.05976  0.011314968 0.0098769525         3842 
 3868000   0.62979879   -8.8000778    523.86955    0.0112864  0.009872723         3874 
 3869000    0.6327621   -8.7905322    523.78382  0.011281636 0.0098684996         3823 
 3870000   0.64486872   -8.7776757    525.09214  0.011306894 0.0098642731         3837 
 3871000   0.62773335   -8.7734131    525.57113  0.011314284 0.0098600531         3810 
 3872000   0.61997874   -8.7746404    524.29955  0.011283995 0.0098558386         3810 
 3873000   0.64692967   -8.7949405    524.82789   0.01129245 0.0098516223         3845 
 3874000   0.62121273   -8.7832597    523.93175  0.011270258 0.0098474075         3828 
 3875000   0.60732892   -8.7810069    524.25288  0.011274256 0.0098431993         3833 
 3876000   0.64302376   -8.7905751    523.72012  0.011259893 0.0098389889         3834 
 3877000   0.63734123   -8.7889275     525.1274  0.011287237 0.0098347818         3840 
 3878000   0.62950751    -8.791246    524.02679  0.011260675 0.0098305739         3829 
 3879000   0.64228514   -8.7894379    524.72161  0.011272699 0.0098263719         3827 
 3880000   0.63362913   -8.7843628     523.5153  0.011243885 0.0098221728         3872 
 3881000   0.62637619   -8.7811837    524.70673  0.011266571 0.0098179774         3824 
 3882000    0.6255678   -8.8038712    524.48895  0.011258994 0.0098137825         3776 
 3883000   0.63233157    -8.788914     524.0084  0.011245781 0.0098095961         3831 
 3884000   0.62734809   -8.7981994    524.47494  0.011252895 0.0098054055         3862 
 3885000   0.63154969   -8.7920039    524.42298  0.011248884 0.0098012145         3781 
 3886000   0.62113399    -8.807149     523.6839   0.01123014 0.0097970285         3840 
 3887000   0.62893263   -8.8043571     524.7115  0.011249282 0.0097928482         3780 
 3888000   0.62850482    -8.796001    523.69066  0.011224508 0.0097886676         3865 
 3889000   0.63446432   -8.8027884    523.77402  0.011223408 0.0097844889         3824 
 3890000   0.62683268   -8.8070652    523.32381  0.011210878 0.0097803152         3854 
 3891000   0.63767619   -8.7976231    524.55784  0.011234426 0.0097761424         3880 
 3892000   0.64373492    -8.783964    523.31727  0.011204977 0.0097719682         3812 
 3893000   0.62435677   -8.7875645    523.94084  0.011215447 0.0097678023         3858 
 3894000    0.6338797   -8.7822244    524.82892  0.011231572 0.0097636381         3815 
 3895000   0.62554169   -8.8190037    524.86734  0.011229511 0.0097594795         3851 
 3896000   0.62667611   -8.7937062    523.63773  0.011200328 0.0097553194         3835 
 3897000   0.62760971   -8.7984778    523.89524   0.01120296 0.0097511613         3854 
 3898000   0.63343423    -8.791619      523.496  0.011191551 0.0097470023         3852 
 3899000   0.62760079   -8.7958862    524.15166  0.011202694 0.0097428502         3847 
 3900000   0.61795516   -8.8085822    524.07548  0.011198194 0.0097387019         3849 
 3901000   0.62616297   -8.8048101    524.21406  0.011198284 0.0097345512         3871 
 3902000   0.62812343    -8.791187    524.53915  0.011202357 0.0097304055         3852 
 3903000   0.62896188   -8.7719402    524.46954     0.011198   0.00972626         3839 
 3904000   0.62867138   -8.7976245     524.1078   0.01118741 0.0097221202         3839 
 3905000   0.62055003   -8.7796915      523.649  0.011174755 0.0097179796         3862 
 3906000    0.6276309   -8.7857457    524.46165  0.011189231 0.0097138453         3836 
 3907000   0.63659223   -8.7998891    524.37825  0.011184589 0.0097097114         3840 
 3908000   0.62797945     -8.80636    524.00057  0.011173673  0.009705577         3833 
 3909000   0.62645785   -8.8030927    524.77727  0.011187372 0.0097014461         3856 
 3910000   0.61910076   -8.7852565    524.88819  0.011186875 0.0096973178         3810 
 3911000     0.636605   -8.8048844    524.20536  0.011169466 0.0096931898         3850 
 3912000   0.61352637   -8.7991552     524.2092  0.011166692 0.0096890643         3865 
 3913000   0.62073331   -8.8185627    523.74764  0.011154009 0.0096849382         3850 
 3914000   0.62874494   -8.7878105    523.95008  0.011155469 0.0096808169         3873 
 3915000   0.62617546    -8.796203    524.76803   0.01117003 0.0096767021         3822 
 3916000   0.61170649   -8.8126063    523.16255  0.011133013 0.0096725858         3866 
 3917000   0.61147575   -8.8108733    524.21021   0.01115246 0.0096684682         3833 
 3918000   0.62526883   -8.8098155     523.1285  0.011126606 0.0096643575         3871 
 3919000   0.62581577   -8.7993406    523.75493  0.011137087 0.0096602503         3880 
 3920000   0.63971712   -8.8041036    523.45656  0.011127903 0.0096561437         3878 
 3921000    0.6181071   -8.7867397    524.37362  0.011144555 0.0096520366         3876 
 3922000   0.62822846   -8.8028797    523.68817   0.01112715 0.0096479311         3869 
 3923000   0.62708221   -8.8013307     523.4033  0.011118262 0.0096438297         3873 
 3924000   0.60749588   -8.7864701    524.60013  0.011140845 0.0096397307         3855 
 3925000   0.62482045   -8.8023916    524.45323  0.011134888 0.0096356357         3860 
 3926000   0.62537173   -8.7959223    524.53497  0.011133787  0.009631542         3862 
 3927000   0.62384001   -8.8098646    523.23772  0.011103423 0.0096274477         3860 
 3928000   0.62791638   -8.8227384     523.0192  0.011095961 0.0096233599         3873 
 3929000   0.63094186   -8.8142214    523.81279  0.011109968 0.0096192737         3871 
 3930000   0.62126599   -8.8020715    524.97704  0.011131829 0.0096151888         3837 
 3931000   0.61941255   -8.8057878    523.51319  0.011097965 0.0096111053         3857 
 3932000   0.62700293   -8.8167867     523.3923   0.01109258 0.0096070216         3843 
 3933000   0.62979718   -8.7848129    523.92337  0.011101012  0.009602944         3856 
 3934000   0.61937285   -8.7860086    523.97508  0.011099286  0.009598869         3843 
 3935000   0.61540345   -8.8091416    522.93238  0.011074383 0.0095947951         3873 
 3936000   0.61843328   -8.8066439    523.83823  0.011090748 0.0095907276         3886 
 3937000   0.61976035   -8.8135868    523.74259  0.011085907 0.0095866574         3824 
 3938000   0.60087636   -8.8227676    524.55247   0.01110023 0.0095825892         3868 
 3939000   0.60785185   -8.7758897    523.56088  0.011076434 0.0095785232         3853 
 3940000   0.61203138   -8.7945081    522.61547  0.011053627 0.0095744621         3839 
 3941000   0.62755863   -8.7933951    523.85854  0.011077107 0.0095703993         3861 
 3942000   0.61310402   -8.8378498    523.04732  0.011057148 0.0095663411         3881 
 3943000   0.63303665   -8.8050693    524.29716  0.011080758 0.0095622836         3887 
 3944000   0.59943355   -8.8058252    525.33169  0.011099808 0.0095582287         3851 
 3945000   0.62767727   -8.8108348    523.27637  0.011053578 0.0095541788         3869 
 3946000   0.61363629   -8.8084367    523.74852  0.011060748 0.0095501285         3890 
 3947000   0.61680436   -8.8071433    524.22192   0.01106794 0.0095460799         3830 
 3948000   0.62539821   -8.8111946    523.91959  0.011058755 0.0095420382         3856 
 3949000   0.62233562   -8.8091724    523.70995  0.011051531 0.0095379942         3861 
 3950000   0.62302756   -8.8086942     523.6764  0.011048025 0.0095339535         3869 
 3951000   0.62064942    -8.805139    524.18278  0.011055909 0.0095299178         3868 
 3952000   0.61320875   -8.8308756    523.08568  0.011029978 0.0095258805         3876 
 3953000   0.61919608   -8.8299509    523.37121  0.011033207 0.0095218433         3886 
 3954000   0.62268788   -8.8234289    522.32696  0.011008408 0.0095178088         3870 
 3955000    0.6290596   -8.8092223    523.65369   0.01103358 0.0095137772         3889 
 3956000    0.6078644   -8.7950485    524.64854  0.011051747 0.0095097485         3889 
 3957000   0.60983039   -8.8147188    523.46778  0.011024088 0.0095057209         3852 
 3958000   0.61693092   -8.8109558    523.72339  0.011026684 0.0095016982         3836 
 3959000   0.61639932   -8.8129828    524.55014  0.011041301 0.0094976755         3851 
 3960000    0.6103293   -8.8069523    523.08024  0.011007581 0.0094936573         3882 
 3961000   0.61721777   -8.8132249    522.84342  0.010999819 0.0094896401         3882 
 3962000   0.61894182   -8.8155052    523.63275  0.011013645 0.0094856278         3862 
 3963000   0.63415568   -8.8506063    522.37667  0.010984453 0.0094816215         3886 
 3964000   0.62294359    -8.799054    523.13751  0.010997677 0.0094776122         3875 
 3965000   0.62354765   -8.8038782    524.24389  0.011018156 0.0094736041         3849 
 3966000   0.61854737   -8.8133321    523.70673  0.011004092 0.0094695961         3902 
 3967000   0.61843379   -8.8114447    523.29544  0.010992678 0.0094655921         3881 
 3968000   0.61183968   -8.8010618    524.44826  0.011014118 0.0094615903         3863 
 3969000   0.61321768   -8.8159586    524.50888  0.011012616 0.0094575958         3845 
 3970000   0.62238223   -8.8051386     524.4995  0.011009645 0.0094535994         3885 
 3971000   0.60928974   -8.7972226    523.31175  0.010981947  0.009449605         3859 
 3972000   0.63054332    -8.820769    523.12675  0.010975301 0.0094456162         3874 
 3973000   0.62069014   -8.8251532    523.18811  0.010973826 0.0094416279         3877 
 3974000   0.62644805   -8.8207172    524.26855  0.010993721   0.00943764         3894 
 3975000   0.61728628   -8.8232573     523.6169  0.010977293 0.0094336565         3869 
 3976000   0.62186976   -8.8189927    523.27487  0.010967364 0.0094296744         3853 
 3977000   0.62144691   -8.8227951     521.9714  0.010937294  0.009425694         3840 
 3978000    0.6182952   -8.8118034    523.87544  0.010974431 0.0094217144         3887 
 3979000   0.61022972   -8.8141503    523.09844    0.0109554 0.0094177376         3869 
 3980000   0.60557391   -8.8186928    523.55387  0.010962183 0.0094137614         3861 
 3981000   0.62122949   -8.8267102    523.65067  0.010961456 0.0094097899         3869 
 3982000   0.62217774   -8.8131516    522.93274  0.010943679 0.0094058175         3879 
 3983000   0.63518345   -8.8118484    522.88233  0.010939876 0.0094018481         3885 
 3984000   0.61439678   -8.8318334    522.78535  0.010935102 0.0093978828         3889 
 3985000   0.61285537    -8.841066    523.55254  0.010948401 0.0093939192         3881 
 3986000   0.61155122   -8.8078211    523.64591  0.010947606 0.0093899519         3860 
 3987000   0.62207299   -8.8161679    524.51895  0.010963108 0.0093859958         3888 
 3988000   0.62638691   -8.7941028    523.77035  0.010944716 0.0093820398         3874 
 3989000   0.63153457   -8.8130645    523.67011  0.010939879 0.0093780837         3888 
 3990000   0.61215129   -8.8057601    522.34517  0.010909465 0.0093741308         3862 
 3991000   0.61602947   -8.7994081    523.43004  0.010929384 0.0093701779         3866 
 3992000   0.60716777   -8.8316311    524.25237  0.010943812 0.0093662321         3855 
 3993000    0.6007961    -8.825663    523.03697  0.010915706 0.0093622844         3873 
 3994000   0.60630404   -8.8391949    523.05723  0.010913396 0.0093583372         3851 
 3995000   0.62367928    -8.812437    524.49646  0.010940685 0.0093543933         3873 
 3996000   0.62463174   -8.8196507    522.92071  0.010905087 0.0093504526         3880 
 3997000   0.60936632   -8.8195548     523.4954   0.01091434 0.0093465153         3867 
 3998000   0.60310426   -8.8299899    524.05094  0.010923189 0.0093425779         3893 
 3999000   0.60897951   -8.8057987    523.32443  0.010905319 0.0093386433         3854 
 4000000   0.61645378   -8.8220384    523.27075  0.010901474 0.0093347122         3863 
 4001000   0.61369352   -8.8419076    523.02776  0.010893688 0.0093307819         3855 
 4002000   0.62362095   -8.8295914    522.66493  0.010883411 0.0093268548         3888 
 4003000    0.6083586   -8.8146165     523.4497  0.010897029 0.0093229277         3865 
 4004000   0.61088963   -8.8170187    523.20839  0.010889286  0.009319002         3878 
 4005000   0.60709523   -8.8271117    523.45908  0.010891783 0.0093150806         3898 
 4006000   0.60515906   -8.8013073    523.77855   0.01089571 0.0093111624         3843 
 4007000   0.60067144   -8.8266509    523.42719  0.010885683 0.0093072437         3862 
 4008000   0.61530093   -8.8206189    523.56103   0.01088575 0.0093033301         3872 
 4009000   0.61196461   -8.8178324    523.14269  0.010874339 0.0092994174         3863 
 4010000   0.61548397   -8.8234159    522.69879  0.010862402 0.0092955056         3868 
 4011000   0.61958573   -8.8214636    523.74944  0.010881522 0.0092915966         3876 
 4012000   0.61998501   -8.8242207    523.12478  0.010865835 0.0092876897         3848 
 4013000   0.60229306   -8.8350031    522.90707  0.010858607 0.0092837837         3867 
 4014000   0.61137658    -8.819787    523.01349  0.010858111 0.0092798785         3864 
 4015000   0.60557998   -8.8307823    522.41466  0.010842978 0.0092759827         3858 
 4016000   0.61436474   -8.8225309    523.31613  0.010858984 0.0092720873         3867 
 4017000   0.60288778   -8.8141966    523.34798  0.010856941 0.0092681908         3874 
 4018000   0.59486185   -8.8304991    523.21273  0.010851434 0.0092642974         3862 
 4019000   0.61229716   -8.8304768     523.3248  0.010851058  0.009260408         3874 
 4020000   0.60090124   -8.8213951     522.9713   0.01084103 0.0092565181         3887 
 4021000   0.60373914   -8.8242302     523.5434  0.010850191 0.0092526308         3892 
 4022000   0.60876877   -8.8024216    523.80475  0.010852908 0.0092487467         3886 
 4023000    0.6040418   -8.8380453    523.34026  0.010840589 0.0092448631         3840 
 4024000   0.62307161   -8.8346091    523.29983  0.010837058 0.0092409819         3891 
 4025000    0.6049487   -8.8446854    522.53385  0.010818506 0.0092371066         3859 
 4026000   0.59392039   -8.8229005    523.28379  0.010831342 0.0092332256         3844 
 4027000   0.59225305   -8.8487563    523.16723   0.01082624 0.0092293526         3869 
 4028000   0.59811538    -8.847602    523.13064  0.010822795 0.0092254792         3885 
 4029000   0.60634739   -8.8255496    523.61954  0.010830221 0.0092216075         3871 
 4030000   0.61281278   -8.8261623     523.4145  0.010823294 0.0092177417         3853 
 4031000   0.60376404   -8.8212056    522.81059  0.010808124 0.0092138802         3837 
 4032000   0.60965743   -8.8338818    522.94201   0.01080816 0.0092100135         3888 
 4033000   0.60055075   -8.8330963    522.74407   0.01080139 0.0092061526         3858 
 4034000   0.59874022   -8.8551064    523.98804   0.01082441 0.0092022934         3867 
 4035000   0.58878799   -8.8294904    523.93286  0.010820588 0.0091984353         3858 
 4036000   0.60433232   -8.8200872    523.30725   0.01080499 0.0091945822         3853 
 4037000   0.60429922   -8.8431775    524.01316  0.010816885 0.0091907262         3873 
 4038000   0.61582247   -8.8299898    522.71025  0.010787317 0.0091868751         3852 
 4039000   0.61471999   -8.8278965    522.42694  0.010778801 0.0091830269         3898 
 4040000   0.60278232   -8.8372073     521.9205  0.010765687 0.0091791797         3876 
 4041000   0.60393775   -8.8191045    523.34141  0.010792325 0.0091753355         3852 
 4042000   0.59221473   -8.8271948    523.80828   0.01079928 0.0091714935         3854 
 4043000   0.61128639   -8.8202935    523.75513  0.010795513 0.0091676522         3876 
 4044000   0.60261292   -8.8682705    523.67108  0.010791112 0.0091638169         3889 
 4045000   0.61167907   -8.8407286    523.00853  0.010774795 0.0091599788         3889 
 4046000   0.59972436   -8.8429598    522.46868  0.010761013 0.0091561487         3883 
 4047000   0.58744848   -8.8236531     522.3975  0.010756888 0.0091523176         3867 
 4048000   0.60476549   -8.8190972    523.59037  0.010778787 0.0091484897         3863 
 4049000   0.61246084   -8.8327226     523.2142  0.010768383 0.0091446627         3875 
 4050000   0.59135707   -8.8456704    522.87827  0.010758812 0.0091408368         3860 
 4051000   0.61065436   -8.8251457    522.75705  0.010753663 0.0091370111         3849 
 4052000   0.59519651   -8.8120292    521.86898  0.010732745 0.0091331883         3839 
 4053000   0.60955119   -8.8632444    521.86094  0.010729931 0.0091293698         3861 
 4054000   0.60012444   -8.8259898    523.28498  0.010756557 0.0091255551         3869 
 4055000   0.59074517   -8.8343837    524.10015  0.010770657 0.0091217402         3844 
 4056000   0.59518594   -8.8307802    523.38284  0.010753264 0.0091179239         3843 
 4057000    0.6009532   -8.8462045     522.8512  0.010739693 0.0091141152         3860 
 4058000   0.60377412   -8.8366962     523.4999  0.010750368 0.0091103103         3882 
 4059000   0.60954291    -8.849815    523.55507  0.010748852 0.0091065019         3858 
 4060000   0.59735708   -8.8208739    524.29962  0.010761486    0.0091027         3876 
 4061000   0.59942853   -8.8302181    523.51035   0.01074264 0.0090988992         3888 
 4062000   0.62127759   -8.8457367    523.11881  0.010731963 0.0090951011         3910 
 4063000   0.59526345   -8.8534142    522.41231  0.010714831 0.0090913019         3871 
 4064000   0.62014022   -8.8548402    523.68361  0.010738263 0.0090875054         3885 
 4065000   0.60527372   -8.8124133    523.03698  0.010722365 0.0090837101         3879 
 4066000   0.59520128   -8.8332021    522.62001  0.010711182 0.0090799195         3855 
 4067000   0.61113309   -8.8481074    522.60515  0.010708244 0.0090761316         3830 
 4068000   0.59343503   -8.8442703    523.12083  0.010716176 0.0090723447         3884 
 4069000   0.59242512   -8.8461593    522.25291  0.010695767 0.0090685597         3881 
 4070000   0.58512261   -8.8331549    522.90294  0.010706448 0.0090647744         3860 
 4071000   0.60327563   -8.8517363    522.44702  0.010694486 0.0090609932         3880 
 4072000   0.60145996   -8.8440858    522.36629  0.010690207 0.0090572152         3870 
 4073000   0.59552728   -8.8187351    523.35936  0.010707901 0.0090534358         3870 
 4074000   0.59652719   -8.8322195    523.21698   0.01070236 0.0090496596         3851 
 4075000   0.59955808   -8.8396069    523.35775  0.010702612 0.0090458843         3900 
 4076000   0.59492923   -8.8535149    523.19073  0.010696572 0.0090421179         3835 
 4077000   0.60014783   -8.8500575    523.46419  0.010699538 0.0090383501         3879 
 4078000   0.61538435   -8.8546315    523.03171  0.010688076 0.0090345849         3874 
 4079000   0.59669631    -8.850698    522.37935  0.010672128 0.0090308207         3876 
 4080000   0.59758151   -8.8544349    522.38164   0.01066956 0.0090270565         3896 
 4081000   0.59462885   -8.8455462    522.26348  0.010664532 0.0090232965         3856 
 4082000   0.60648139   -8.8420062    522.61043  0.010669003 0.0090195384         3858 
 4083000   0.59409745   -8.8357487    523.69872  0.010688602 0.0090157815         3854 
 4084000   0.60267548   -8.8181288    523.49011  0.010681728 0.0090120306         3859 
 4085000   0.60233477   -8.8357939    521.91854  0.010647053 0.0090082766         3862 
 4086000    0.5996077   -8.8434417      522.873  0.010663913 0.0090045235         3895 
 4087000   0.59993879   -8.8483179    522.39863  0.010651632 0.0090007745         3868 
 4088000    0.6048363   -8.8461914    522.34089  0.010647849 0.0089970334         3877 
 4089000   0.60187735   -8.8380227    522.05856  0.010639491 0.0089932903         3862 
 4090000   0.59082945   -8.8720352    521.32813  0.010622008 0.0089895476         3874 
 4091000   0.59881972   -8.8458868    522.13724  0.010635893 0.0089858073         3866 
 4092000    0.5930424   -8.8411754    522.53595  0.010641413 0.0089820709         3858 
 4093000   0.60224047   -8.8446681    522.47438   0.01063756 0.0089783349         3887 
 4094000    0.6026715    -8.840106    523.04479  0.010646572 0.0089746029         3890 
 4095000   0.58637316   -8.8498751    523.01334  0.010643332 0.0089708702         3899 
 4096000     0.597286   -8.8516974    523.18683  0.010644263 0.0089671441         3875 
 4097000   0.60748403   -8.8171309    523.20169  0.010641967 0.0089634182         3865 
 4098000   0.58919813   -8.8606447    522.23897  0.010619794 0.0089596964         3866 
 4099000   0.58852891   -8.8485393    522.42451  0.010620975 0.0089559752         3871 
 4100000   0.60301996   -8.8336319    522.15876  0.010612983 0.0089522529         3855 
 4101000   0.59037726    -8.860343    522.91102  0.010625681 0.0089485336         3869 
 4102000   0.60409646    -8.876596    521.92732  0.010603107 0.0089448161         3899 
 4103000   0.60490516   -8.8615224    522.41818  0.010610492 0.0089411035         3872 
 4104000    0.5917259   -8.8458019    523.07451  0.010621233 0.0089373911         3866 
 4105000    0.5989451   -8.8618216    522.66873  0.010610409  0.008933681         3876 
 4106000   0.59474374    -8.843955     522.7359  0.010609188 0.0089299714         3870 
 4107000   0.58740724   -8.8608806    523.31706  0.010618397 0.0089262684         3880 
 4108000   0.58105379     -8.85494    522.86673  0.010606677 0.0089225622         3841 
 4109000   0.58816308   -8.8527989    523.03268  0.010607461 0.0089188579         3871 
 4110000   0.60068576   -8.8508226     522.3409  0.010590854 0.0089151578         3877 
 4111000   0.60093006   -8.8660337    522.12756  0.010583953 0.0089114564         3889 
 4112000   0.59158711   -8.8533824    522.07643  0.010580343 0.0089077635         3860 
 4113000   0.60149363   -8.8358099    522.48878  0.010586125 0.0089040711         3859 
 4114000   0.59850237    -8.850733    522.39186  0.010581588 0.0089003744         3862 
 4115000     0.598448   -8.8573645      522.582  0.010582868 0.0088966842         3869 
 4116000   0.59973248   -8.8499757    521.08664  0.010550021 0.0088929987         3866 
 4117000   0.59080947   -8.8509755    522.73857  0.010580896 0.0088893167         3856 
 4118000   0.60858752   -8.8419656    522.75468  0.010578652 0.0088856309         3860 
 4119000   0.59432507   -8.8669506    522.51116  0.010571157 0.0088819509         3884 
 4120000   0.59417204   -8.8603219    521.23073  0.010542693 0.0088782697         3888 
 4121000   0.59172651   -8.8498637    522.54061  0.010566622  0.008874591         3861 
 4122000   0.59821133   -8.8575716    522.74358  0.010568162 0.0088709138         3903 
 4123000   0.59870247   -8.8511461    522.57222  0.010562136 0.0088672354         3858 
 4124000   0.60366457   -8.8426376    522.67462  0.010561644 0.0088635659         3881 
 4125000   0.60353236   -8.8566544    522.96099  0.010564868 0.0088598974         3870 
 4126000   0.58670735    -8.828605    522.81982  0.010559457 0.0088562345         3865 
 4127000   0.59039969   -8.8623979     522.9881  0.010560296 0.0088525682         3891 
 4128000   0.58588963   -8.8821047     522.5005  0.010547894 0.0088489037         3898 
 4129000   0.58740257   -8.8493032    522.42527  0.010543821 0.0088452404         3853 
 4130000   0.57411473   -8.8563336    522.00701  0.010532829 0.0088415777         3863 
 4131000   0.59104021    -8.880021    522.72428  0.010544749 0.0088379202         3886 
 4132000   0.59132286   -8.8372111    522.92342  0.010546213 0.0088342623         3883 
 4133000   0.59980714   -8.8396514    522.05388  0.010526129 0.0088306123         3869 
 4134000   0.59243199   -8.8630578    521.95536  0.010521596 0.0088269633         3891 
 4135000   0.59605065   -8.8369925    523.30516  0.010546255 0.0088233168         3868 
 4136000   0.60623609   -8.8586253    522.54151  0.010528319 0.0088196675         3884 
 4137000   0.58665781   -8.8509352    522.08901  0.010516659 0.0088160199         3888 
 4138000   0.59803666   -8.8508071    522.26458  0.010517653 0.0088123752         3881 
 4139000   0.58671372   -8.8687924    522.36284   0.01051709 0.0088087344         3872 
 4140000   0.58962402   -8.8582152    522.47052  0.010516717  0.008805096         3846 
 4141000   0.57725026   -8.8510297    522.01456  0.010505002 0.0088014607         3871 
 4142000   0.59945606   -8.8431764    522.59916  0.010514227 0.0087978272         3873 
 4143000   0.59084113   -8.8696971    521.16899  0.010482923 0.0087941952         3870 
 4144000   0.59983647    -8.867942    522.28642  0.010502864 0.0087905636         3904 
 4145000    0.5877367   -8.8532082    522.78712  0.010510396 0.0087869364         3876 
 4146000     0.582967   -8.8622259    522.31054  0.010498282 0.0087833075         3862 
 4147000   0.59568144   -8.8691207    521.23934  0.010474225 0.0087796802         3882 
 4148000   0.58639765   -8.8755524    521.62575  0.010479463 0.0087760538         3854 
 4149000   0.60018382   -8.8644319    522.24999  0.010489475 0.0087724337         3870 
 4150000   0.58807982   -8.8652749    522.87865  0.010499571 0.0087688125         3896 
 4151000   0.59323236   -8.8595817    520.97458  0.010458817 0.0087651945         3860 
 4152000   0.59744143   -8.8707437    521.70993  0.010471057 0.0087615795         3876 
 4153000   0.58561984   -8.8602328    522.69505  0.010488303 0.0087579651         3879 
 4154000   0.58315323   -8.8661192    522.14998  0.010474843   0.00875435         3878 
 4155000    0.5915767     -8.88325    522.43873  0.010478113 0.0087507366         3868 
 4156000   0.59391516   -8.8665114    522.59121   0.01047865 0.0087471277         3831 
 4157000   0.58687257   -8.8643095    522.44163   0.01047313 0.0087435213         3889 
 4158000   0.58344072   -8.8649034    522.07021  0.010463168 0.0087399182         3843 
 4159000   0.57348502   -8.8622094    522.57136  0.010470693 0.0087363167         3859 
 4160000   0.57226654   -8.8379774     522.8441   0.01047364 0.0087327162         3859 
 4161000   0.59767345   -8.8519014     522.7111  0.010468459 0.0087291187         3878 
 4162000    0.5744849   -8.8616717    521.28833  0.010437457 0.0087255244         3873 
 4163000   0.57639603   -8.8501819    522.46472  0.010458498 0.0087219284         3870 
 4164000   0.58581142   -8.8682702    522.36619  0.010454014 0.0087183335         3881 
 4165000   0.58298866   -8.8775827    522.58517  0.010455886 0.0087147405         3889 
 4166000   0.58775924   -8.8624091    521.69251   0.01043552 0.0087111524         3850 
 4167000    0.5864349   -8.8539003    522.68928  0.010452949 0.0087075634         3872 
 4168000    0.5882588   -8.8874745    521.55404  0.010427744 0.0087039779         3896 
 4169000   0.57430849   -8.8494003    522.32743  0.010440702 0.0087003936         3884 
 4170000   0.58806041   -8.8611712    522.05094  0.010432673 0.0086968129         3876 
 4171000   0.59038473   -8.8682838    521.21586  0.010413487 0.0086932339         3889 
 4172000   0.57669145   -8.8724502    521.75985  0.010421857 0.0086896545         3889 
 4173000    0.5833062   -8.8775779    522.70934  0.010438321 0.0086860817         3910 
 4174000   0.58578301   -8.8529941    522.35841  0.010428813 0.0086825107         3873 
 4175000   0.58170434   -8.8631373    521.74724  0.010414117 0.0086789413         3899 
 4176000   0.58427071   -8.8721415    521.68532  0.010410387 0.0086753741         3868 
 4177000   0.58691524   -8.8403814    521.36381  0.010401481 0.0086718077         3847 
 4178000   0.57722165   -8.8515073    523.27703  0.010437151 0.0086682425         3875 
 4179000   0.57856492   -8.8635691    521.65514  0.010402312 0.0086646816         3890 
 4180000   0.58181382   -8.8516732    522.10148  0.010408722   0.00866112         3877 
 4181000   0.57971762   -8.8646457    521.73854  0.010398998 0.0086575593         3886 
 4182000   0.58413883    -8.856675    521.31098  0.010387992 0.0086540044         3854 
 4183000   0.57843304   -8.8671345    522.86229  0.010416413 0.0086504469         3883 
 4184000   0.58212228   -8.8937929    521.51599  0.010387109 0.0086468898         3894 
 4185000   0.59046922   -8.8594297    522.67452  0.010407697 0.0086433369         3863 
 4186000     0.578698   -8.8709268    521.91436  0.010390077 0.0086397885         3891 
 4187000   0.58729978   -8.8739059    521.97408  0.010388784 0.0086362404         3873 
 4188000   0.58339273   -8.8626646    522.73127   0.01040137 0.0086326948         3875 
 4189000   0.59256984   -8.8883166    521.82092  0.010380777 0.0086291528         3885 
 4190000     0.581495    -8.881677    522.11449  0.010384139 0.0086256107         3877 
 4191000   0.58451263   -8.8649145     522.1615  0.010382596 0.0086220688         3890 
 4192000   0.58338124   -8.8797707    522.29144  0.010382702 0.0086185275         3878 
 4193000   0.57955146   -8.8973234    521.34605  0.010361437 0.0086149909         3869 
 4194000   0.58781054   -8.8757369    522.17815    0.0103755 0.0086114563         3882 
 4195000   0.57938045   -8.8789201    522.62418  0.010381887 0.0086079224         3881 
 4196000   0.58118479   -8.8591049    522.50514  0.010377048 0.0086043932         3892 
 4197000   0.58378753   -8.8738723    521.56218  0.010355853 0.0086008636         3866 
 4198000   0.57869132   -8.8532193    521.88726  0.010359839  0.008597339         3886 
 4199000   0.58517869   -8.8721037    521.76807  0.010355006 0.0085938139         3868 
 4200000   0.58924284   -8.8587011    522.31653  0.010363423  0.008590294         3891 
 4201000   0.57845338   -8.8857534    522.66004   0.01036777 0.0085867741         3876 
 4202000   0.57850091   -8.8692773    522.49456  0.010362021 0.0085832518         3861 
 4203000   0.57479066     -8.87049    521.72057   0.01034421 0.0085797345         3899 
 4204000   0.58404191   -8.8789838    521.78683  0.010343063 0.0085762221         3887 
 4205000    0.5863846   -8.8690406    522.24189  0.010349621 0.0085727118         3882 
 4206000   0.58281607   -8.8745668    522.23781   0.01034708 0.0085692002         3885 
 4207000   0.58424681   -8.8727697    521.24461  0.010324947 0.0085656913         3872 
 4208000   0.58606127   -8.8726753    521.69776  0.010331467 0.0085621847         3889 
 4209000   0.58083238   -8.8838084    520.85513  0.010312329 0.0085586766         3869 
 4210000   0.57725292     -8.88061    522.21607  0.010336818  0.008555173         3902 
 4211000   0.58307289   -8.8780321    522.01914  0.010330467 0.0085516716         3849 
 4212000   0.58908906   -8.8873974    522.11259  0.010329863 0.0085481696         3901 
 4213000   0.58394931   -8.8882382    521.90945  0.010323393 0.0085446738         3883 
 4214000   0.59015959   -8.8821041    520.93923  0.010301757  0.008541175         3881 
 4215000   0.58170236   -8.8649204    521.49686  0.010310337 0.0085376805         3890 
 4216000   0.58835619   -8.8787276    521.40253  0.010306027 0.0085341867         3881 
 4217000   0.57585488   -8.8696591    521.94751  0.010314353 0.0085306964         3867 
 4218000   0.57387782   -8.8855733    521.03755   0.01029393 0.0085272074         3869 
 4219000   0.57045578   -8.8899184    522.29899  0.010316406 0.0085237203         3866 
 4220000   0.57877989   -8.8715141    521.49595  0.010298103 0.0085202344         3861 
 4221000   0.57189829   -8.8828224    521.11641   0.01028817 0.0085167494         3872 
 4222000   0.56974583   -8.8934684    521.13307  0.010286063 0.0085132688         3888 
 4223000   0.57295991    -8.904927    521.50169  0.010290901 0.0085097883         3892 
 4224000   0.56985802   -8.8785853     521.6833  0.010292047 0.0085063096         3888 
 4225000   0.57338229   -8.8766482    523.15045  0.010318549 0.0085028351         3837 
 4226000   0.57517068   -8.8626279    521.88547  0.010291163 0.0084993593         3889 
 4227000   0.57915126   -8.8896079    521.08526  0.010272953 0.0084958897         3902 
 4228000   0.59009313   -8.8808255    521.03774  0.010269586 0.0084924216         3877 
 4229000   0.56868395   -8.8779402    521.84065   0.01028298 0.0084889525         3857 
 4230000   0.56952885    -8.904412    521.71823  0.010278137 0.0084854845         3891 
 4231000   0.57080785   -8.8578443    521.62681  0.010273907 0.0084820189         3882 
 4232000   0.58324006    -8.886448    521.56922  0.010270345 0.0084785566         3889 
 4233000   0.57062922   -8.8673683    522.23327  0.010280992    0.0084751         3888 
 4234000   0.58538763   -8.8847888    521.57724  0.010265652 0.0084716433         3884 
 4235000   0.56634536   -8.8817255    522.76187  0.010286538 0.0084681865         3888 
 4236000   0.58707865   -8.8830548    521.37204  0.010256768 0.0084647344         3888 
 4237000   0.58431363   -8.8784816    522.08603   0.01026839 0.0084612824         3908 
 4238000    0.5792744   -8.8862615    521.63338  0.010257067 0.0084578337         3873 
 4239000   0.58229364   -8.8672043    521.56158  0.010253235 0.0084543839         3906 
 4240000   0.57253686   -8.8632844    521.53238  0.010250243 0.0084509352         3892 
 4241000   0.58229157   -8.8903986    522.09907  0.010258962  0.008447488         3899 
 4242000   0.56457149   -8.8942617    521.76619  0.010250004 0.0084440429         3884 
 4243000   0.56821253   -8.8954726    521.28444  0.010238126 0.0084406012         3905 
 4244000   0.57433991   -8.8749687    521.64045  0.010242704 0.0084371578         3896 
 4245000   0.56706072   -8.8904237    521.54329  0.010238384  0.008433719         3874 
 4246000   0.56754209   -8.8941098    521.85297  0.010242051 0.0084302809         3893 
 4247000   0.57066911   -8.8839164    522.35556  0.010249501 0.0084268458         3907 
 4248000   0.57381572   -8.8825699    521.44217   0.01022917 0.0084234144         3863 
 4249000   0.56947673   -8.8843779    520.67583  0.010211733  0.008419985         3883 
 4250000   0.55815805   -8.8912925    520.93995  0.010214509 0.0084165557         3893 
 4251000   0.57668047    -8.869978    522.32662  0.010239289  0.008413128         3882 
 4252000   0.57824694    -8.873946    521.97637  0.010230017 0.0084097033         3913 
 4253000   0.58102278   -8.8759288    521.77831   0.01022373 0.0084062805         3856 
 4254000   0.58006982   -8.8673045    520.93468  0.010204801 0.0084028586         3889 
 4255000   0.57835448   -8.8926621    521.46681  0.010212824 0.0083994384         3890 
 4256000   0.56985835    -8.897713    522.45504  0.010229774  0.008396019         3867 
 4257000   0.56132348   -8.8685416    521.27722  0.010204315 0.0083926048         3918 
 4258000   0.56952676   -8.8685806    522.00838  0.010216228 0.0083891901         3857 
 4259000   0.57104606   -8.8916304    521.55027  0.010204866 0.0083857794         3885 
 4260000   0.56247336   -8.8818766    521.08394  0.010193348 0.0083823688         3907 
 4261000   0.56218655   -8.8784894    521.17896  0.010192814 0.0083789607         3891 
 4262000   0.56503194   -8.8923323    521.36833  0.010194125 0.0083755564         3904 
 4263000   0.56955358   -8.8608735    521.82629  0.010200686 0.0083721492         3903 
 4264000   0.55748314   -8.8909747     521.3777  0.010189527 0.0083687454         3893 
 4265000   0.56946044   -8.8839535    521.97575  0.010198823 0.0083653457         3885 
 4266000   0.55908675   -8.8742765    521.50991  0.010187332 0.0083619424         3890 
 4267000    0.5759977   -8.8942508    521.70105  0.010188678 0.0083585432         3879 
 4268000   0.55971505   -8.8800094    522.01012  0.010192325 0.0083551468         3902 
 4269000   0.57880193    -8.892306      521.673  0.010183357 0.0083517526         3893 
 4270000   0.55368214   -8.8746538    521.54767  0.010178526 0.0083483576         3901 
 4271000   0.58165881   -8.8850487    521.56087    0.0101764 0.0083449669         3876 
 4272000   0.57172497   -8.8877988    522.32142  0.010188854 0.0083415783         3890 
 4273000   0.57016349   -8.8857384     522.3445   0.01018692 0.0083381892         3880 
 4274000   0.57502968   -8.8892458     520.4241  0.010147093 0.0083348038         3904 
 4275000   0.56041246   -8.8792668     521.7708  0.010170971 0.0083314226         3882 
 4276000   0.56467003   -8.8842788    520.44071  0.010142671 0.0083280405         3882 
 4277000   0.57955302   -8.9068106    521.39164  0.010158827 0.0083246625         3875 
 4278000   0.55988021   -8.8862792     522.1816   0.01017184 0.0083212844         3881 
 4279000   0.56941725   -8.8905022    521.70903   0.01016026  0.008317911         3875 
 4280000   0.55991432   -8.8831008    522.07519  0.010165015 0.0083145379         3869 
 4281000   0.57598737   -8.9060068    521.63733  0.010154118 0.0083111619         3904 
 4282000   0.56635902   -8.8824499    521.18662  0.010142975 0.0083077936         3887 
 4283000   0.56533192   -8.8904384    521.56396  0.010147949 0.0083044277         3896 
 4284000   0.57775146   -8.9071031    521.04276  0.010135441 0.0083010627         3873 
 4285000   0.56369168   -8.8897803    520.92811  0.010130846 0.0082977008         3890 
 4286000   0.58358728   -8.8991113    521.70421  0.010143572 0.0082943374         3880 
 4287000   0.55893505   -8.9047585    520.39893  0.010115833 0.0082909734         3887 
 4288000   0.57112552   -8.9032431    521.74079  0.010139552 0.0082876147         3857 
 4289000   0.54819999   -8.8699347     521.8799  0.010139891 0.0082842571         3877 
 4290000   0.57102815   -8.8825054    521.27315  0.010125741 0.0082809006         3890 
 4291000    0.5574775   -8.9012365    520.41263   0.01010667 0.0082775483         3879 
 4292000   0.58305432   -8.8864182    520.72973  0.010110472 0.0082741949         3885 
 4293000   0.56177955   -8.9037421    521.52522  0.010123558 0.0082708459         3879 
 4294000   0.57001765   -8.8906669    521.41756  0.010119111 0.0082674963         3870 
 4295000   0.55582946   -8.8902799    520.94068  0.010107503 0.0082641489         3844 
 4296000   0.57503138    -8.889183    521.17995  0.010109791 0.0082608046         3877 
 4297000   0.56750877   -8.9063889    520.37454  0.010091819 0.0082574626         3877 
 4298000   0.55707804   -8.8921058    520.70624  0.010095902 0.0082541224         3874 
 4299000   0.56925274   -8.8838132    521.18121  0.010102761 0.0082507837         3855 
 4300000   0.56247517   -8.8913409    520.74908  0.010092036 0.0082474485         3868 
 4301000   0.57162632   -8.9044943    522.02867  0.010114482 0.0082441122         3888 
 4302000   0.56816299   -8.9041311    521.64487  0.010104697  0.008240778         3864 
 4303000   0.56017901    -8.901523    521.47023  0.010098966  0.008237447         3867 
 4304000   0.55679744   -8.8947345    521.29379  0.010093204  0.008234119         3856 
 4305000   0.54928505   -8.8927117    521.39086  0.010092738 0.0082307929         3864 
 4306000   0.56167903   -8.9014889    520.55799  0.010074276 0.0082274701         3867 
 4307000   0.56506528   -8.9164689    520.90022  0.010078558 0.0082241459         3870 
 4308000   0.53985468   -8.8782903    520.95383  0.010077256 0.0082208279         3859 
 4309000   0.55609685   -8.9082097    521.42842  0.010084096 0.0082175065         3885 
 4310000   0.55895055   -8.8957256    520.40728  0.010062012 0.0082141912         3858 
 4311000    0.5689894   -8.8897906    521.06877  0.010072465 0.0082108753         3852 
 4312000   0.57188528   -8.8924553    521.96103  0.010087373 0.0082075608         3870 
 4313000   0.57512115   -8.9163323    520.86358   0.01006383  0.008204251         3878 
 4314000   0.56101115   -8.9022752    521.82275  0.010080025  0.008200945         3867 
 4315000    0.5639709   -8.8943242    521.25781  0.010066779 0.0081976333         3898 
 4316000   0.57044139   -8.9033637    521.12257  0.010061835 0.0081943253         3879 
 4317000   0.56269358   -8.9087326    521.33595  0.010063624 0.0081910203         3873 
 4318000   0.56816456   -8.9045311    520.93037  0.010053466 0.0081877167         3907 
 4319000   0.55851218   -8.8984159     521.5993  0.010064044  0.008184415         3885 
 4320000   0.57001356    -8.914433    520.64038  0.010043217 0.0081811155         3872 
 4321000   0.56351947   -8.8827408    522.26232  0.010072173 0.0081778195         3863 
 4322000   0.54974582   -8.8869272    522.03337  0.010065428 0.0081745223         3871 
 4323000    0.5552267   -8.8941092    521.01361  0.010043442 0.0081712261         3876 
 4324000   0.55979143   -8.8952728      520.784  0.010036694 0.0081679357         3898 
 4325000   0.58697171   -8.9028317    521.89402  0.010055761 0.0081646461         3889 
 4326000   0.56294734   -8.8953579    521.34467  0.010042855 0.0081613588         3892 
 4327000   0.55334993   -8.8982574    520.52067  0.010024664 0.0081580716         3888 
 4328000   0.56752713   -8.9104901    520.95565  0.010030723 0.0081547884         3885 
 4329000   0.57174484   -8.9158315    521.01267  0.010029504 0.0081515048         3894 
 4330000   0.56298788   -8.9197009    521.41446   0.01003492 0.0081482226         3890 
 4331000   0.55964672   -8.8961508    521.32286  0.010030841 0.0081449406         3871 
 4332000   0.57055379   -8.8898693    520.98926  0.010022108 0.0081416602         3874 
 4333000   0.55982583   -8.9207108    520.82183  0.010016575 0.0081383831         3915 
 4334000   0.55715904   -8.9004559    520.57049  0.010009431 0.0081351067         3887 
 4335000   0.55002477   -8.8919629    521.40261  0.010023118 0.0081318324         3904 
 4336000   0.56419644   -8.9057737    521.47914  0.010022278 0.0081285587         3891 
 4337000   0.54712964   -8.8953908    520.93392   0.01000949 0.0081252858         3884 
 4338000   0.55452512   -8.8960665    521.21399  0.010012563 0.0081220172         3891 
 4339000   0.54291524   -8.9010435    520.79278  0.010002166 0.0081187512         3897 
 4340000   0.56246238   -8.9007804    521.34942   0.01001055 0.0081154835         3867 
 4341000   0.55909315   -8.9124626    521.66476  0.010014297 0.0081122222         3892 
 4342000   0.56107222   -8.9079609    520.48852 0.0099894158 0.0081089589         3905 
 4343000   0.54590303   -8.9046263    521.12672 0.0099993614 0.0081056985         3857 
 4344000   0.55215174   -8.9245444    520.32067 0.0099815967 0.0081024387         3895 
 4345000   0.54617666   -8.9179476    521.32423 0.0099985467 0.0080991796         3886 
 4346000   0.56174862   -8.9130201    521.11068 0.0099921514 0.0080959228         3911 
 4347000   0.56302059   -8.9096466     521.1168 0.0099899702 0.0080926685         3874 
 4348000   0.55505326   -8.9066677    521.54403 0.0099958608  0.008089417         3896 
 4349000    0.5624777   -8.9237039    521.28329 0.0099885662  0.008086168         3884 
 4350000   0.56092859   -8.9023841    520.16588 0.0099648636 0.0080829196         3895 
 4351000   0.55927346   -8.9255472    520.54062 0.0099697507 0.0080796709         3856 
 4352000   0.56301949   -8.9148614    521.45609 0.0099849895 0.0080764279         3887 
 4353000   0.55773863   -8.9355879    520.43975 0.0099632389  0.008073183         3887 
 4354000   0.55737989   -8.9160354    520.97043 0.0099711076 0.0080699429         3882 
 4355000   0.55232888   -8.8971612    520.71829 0.0099639933 0.0080667016         3871 
 4356000   0.55341931   -8.9009865    519.96759 0.0099473445 0.0080634638         3894 
 4357000   0.54683583   -8.8882175    520.88621 0.0099626312   0.00806023         3880 
 4358000   0.54551216    -8.911218    520.15508 0.0099463645 0.0080569945         3898 
 4359000   0.55822612   -8.9022772    520.47738 0.0099502444 0.0080537619         3859 
 4360000    0.5546976   -8.9221672    521.07009 0.0099592908 0.0080505314         3921 
 4361000   0.53955266   -8.9079995    520.64815 0.0099489443  0.008047303         3884 
 4362000   0.54992338   -8.9035546    520.83939 0.0099503169 0.0080440779         3909 
 4363000   0.55354441   -8.8883908    521.90752 0.0099684376 0.0080408531         3875 
 4364000   0.55499937   -8.9220836    521.23911 0.0099533897 0.0080376279         3865 
 4365000   0.55482633   -8.9265968    521.31625 0.0099525822 0.0080344085         3886 
 4366000   0.54273377   -8.9036787    521.17812 0.0099476661 0.0080311885         3869 
 4367000   0.54707215   -8.9066055     520.8941 0.0099399684 0.0080279695         3903 
 4368000   0.55129604   -8.9128208    520.50058  0.009930185 0.0080247526         3897 
 4369000   0.55009705   -8.9143225    520.79859 0.0099335963 0.0080215369         3862 
 4370000   0.55376461   -8.9274912    520.77407 0.0099308556  0.008018322         3864 
 4371000   0.55086693   -8.9072122    521.12796 0.0099353307 0.0080151083         3881 
 4372000    0.5733192   -8.9109034    520.95692  0.009929798 0.0080119002         3865 
 4373000   0.55210894   -8.9114968     520.6419 0.0099215241 0.0080086925         3867 
 4374000   0.55689539   -8.9165051    521.82027 0.0099417061 0.0080054867         3872 
 4375000   0.54541493   -8.9096825    521.16405 0.0099269344 0.0080022819         3910 
 4376000   0.55781772   -8.9149624    520.83943 0.0099184839 0.0079990794         3902 
 4377000   0.55698155   -8.9190988    521.57792 0.0099302779 0.0079958765         3877 
 4378000   0.55562852   -8.9298949    520.21736 0.0099021121 0.0079926776         3899 
 4379000   0.54423671   -8.9077845    520.72596 0.0099095295 0.0079894789         3887 
 4380000   0.55526028   -8.9233865    520.75574 0.0099078338 0.0079862816         3870 
 4381000   0.54770156   -8.8905468    521.81784 0.0099257749 0.0079830888         3879 
 4382000   0.55851706   -8.9046899    521.10632 0.0099099788  0.007979896         3884 
 4383000    0.5451513   -8.8996059    520.72627  0.009900492 0.0079767036         3847 
 4384000   0.53964367   -8.9328164    520.74138 0.0098985207 0.0079735119         3883 
 4385000   0.53878383    -8.932251    520.95541 0.0099003308 0.0079703215         3887 
 4386000   0.54417988   -8.9226581     521.0952 0.0099007296 0.0079671361         3900 
 4387000   0.54647275   -8.9022519     520.1031 0.0098796273 0.0079639514         3867 
 4388000   0.54461164   -8.9254181    521.59033   0.00990562 0.0079607677         3895 
 4389000   0.55735765   -8.9267539    519.88186 0.0098709247 0.0079575865         3879 
 4390000   0.55259336   -8.9186983     519.7428 0.0098660364 0.0079544088         3849 
 4391000   0.54826408   -8.9207945    520.30081 0.0098743796 0.0079512313         3834 
 4392000    0.5430091    -8.905394    520.24036 0.0098709844 0.0079480542         3877 
 4393000   0.54993923   -8.9285654     520.4701 0.0098730954 0.0079448788         3883 
 4394000   0.53819336   -8.9198785    520.53939 0.0098721626 0.0079417069         3898 
 4395000   0.53736918   -8.9047286    521.58152 0.0098896761 0.0079385344         3875 
 4396000   0.54361363   -8.9251518     521.2201 0.0098805752 0.0079353653         3888 
 4397000   0.54981936    -8.924127    520.62977   0.00986714 0.0079321957         3912 
 4398000   0.54651841   -8.9294462    519.72014 0.0098476607 0.0079290282         3890 
 4399000   0.54968913   -8.9137479    519.73163 0.0098456397 0.0079258642         3909 
 4400000   0.54391598   -8.9222996    520.26817 0.0098535638 0.0079227001         3881 
 4401000   0.54418414   -8.9228265     519.5881 0.0098384478 0.0079195398         3909 
 4402000   0.53859679   -8.9305063    521.09635  0.009864765 0.0079163783         3888 
 4403000   0.55537364   -8.9103529    520.59887 0.0098531091 0.0079132188         3875 
 4404000   0.53675991   -8.9116626    520.29285 0.0098450812 0.0079100643         3897 
 4405000   0.53727199   -8.9269153    521.11537 0.0098584065 0.0079069085         3890 
 4406000   0.54451081    -8.922229    520.25448 0.0098398865 0.0079037557         3902 
 4407000   0.55424123   -8.9292608    520.33111 0.0098391027 0.0079006039         3893 
 4408000   0.55203076   -8.9200866    519.66157  0.009824213 0.0078974536         3904 
 4409000   0.54248738   -8.9267327    519.60094 0.0098208387  0.007894307         3879 
 4410000   0.54344475   -8.9160935    520.05241  0.009827143 0.0078911598         3872 
 4411000   0.55955818   -8.9189541    520.61754 0.0098355917 0.0078880161         3895 
 4412000   0.55426806   -8.9099856      520.615 0.0098333145  0.007884875         3885 
 4413000   0.53937324   -8.9037774    520.49539 0.0098288274  0.007881731         3863 
 4414000   0.54331551   -8.9213633    521.08799 0.0098377886 0.0078785898         3882 
 4415000   0.54391683   -8.9198829    520.70385 0.0098283097 0.0078754516         3881 
 4416000   0.54792273   -8.9346123    520.27767 0.0098180418 0.0078723136         3889 
 4417000   0.54919955   -8.9107658    519.99178 0.0098104253 0.0078691817         3879 
 4418000    0.5519265   -8.9290587    520.03969 0.0098091084 0.0078660474         3859 
 4419000   0.54867105   -8.9111778     520.0754  0.009807562 0.0078629157         3870 
 4420000   0.53239059   -8.9286951    520.17908 0.0098072978 0.0078597882         3876 
 4421000    0.5502179   -8.9305677     520.0108 0.0098019075 0.0078566615         3894 
 4422000   0.56092325   -8.9213243    520.04058 0.0098002522 0.0078535353         3894 
 4423000   0.54001965   -8.9378606    520.51469 0.0098069691 0.0078504107         3915 
 4424000   0.54801691    -8.908573    521.08149  0.009815429 0.0078472879         3915 
 4425000   0.55818913   -8.9266105    520.95579 0.0098108435 0.0078441673         3872 
 4426000   0.55276088   -8.9351615    520.86402 0.0098068991 0.0078410488         3889 
 4427000   0.53917402   -8.9362983    520.96218 0.0098065315 0.0078379321         3902 
 4428000   0.54168276   -8.9154371       520.99 0.0098048403 0.0078348149         3872 
 4429000   0.54783544   -8.9427639    520.54941 0.0097943368  0.007831701         3906 
 4430000    0.5275035   -8.9249082    521.01357 0.0098008573 0.0078285893         3895 
 4431000   0.53122561   -8.9366169    520.53142 0.0097895776 0.0078254786         3919 
 4432000    0.5487548   -8.9268059    520.83767 0.0097931271  0.007822367         3922 
 4433000   0.53069789   -8.9250257     520.8661 0.0097914524 0.0078192553         3901 
 4434000   0.53140614    -8.942527    520.45993 0.0097816105 0.0078161468         3913 
 4435000   0.54723363   -8.9291694    520.61789 0.0097823729 0.0078130418         3881 
 4436000   0.53873082   -8.9379069    519.89746  0.009766634 0.0078099351         3893 
 4437000   0.55032067   -8.9143027    519.60444 0.0097589295 0.0078068341         3897 
 4438000   0.53608477   -8.9250106    520.20406 0.0097679898 0.0078037339         3882 
 4439000   0.54830917   -8.9294388    520.47434 0.0097708632 0.0078006349         3879 
 4440000   0.54840649   -8.9339255    520.07482  0.009761164 0.0077975389         3872 
 4441000   0.54121867   -8.9080535    520.70589 0.0097708078 0.0077944429         3871 
 4442000    0.5317397   -8.9441219    520.57581 0.0097661679 0.0077913502         3854 
 4443000   0.55101821   -8.9270063    520.61669 0.0097647364 0.0077882578         3874 
 4444000   0.53084413   -8.9303733    520.11101 0.0097530568 0.0077851703         3883 
 4445000   0.54478775   -8.9381969    519.59106 0.0097411147 0.0077820808         3855 
 4446000   0.54778516   -8.9450479    520.30255 0.0097522596 0.0077789972         3867 
 4447000   0.52906157   -8.9244483    520.27218 0.0097494974  0.007775913         3881 
 4448000   0.54462338   -8.9213296    520.59603 0.0097533728 0.0077728298         3882 
 4449000   0.53526451   -8.9189104    520.12198 0.0097423013 0.0077697488         3864 
 4450000   0.54254306   -8.9332248    520.99286 0.0097564206 0.0077666678         3894 
 4451000   0.54787984   -8.9371074    520.48731 0.0097447635 0.0077635894         3880 
 4452000   0.55019248    -8.943985    519.04229 0.0097155266 0.0077605147         3896 
 4453000   0.53271622   -8.9335415    520.39149 0.0097385936 0.0077574393         3880 
 4454000   0.52966234   -8.9265619    520.33764 0.0097353996 0.0077543678         3864 
 4455000   0.53294268   -8.9235033    520.40187 0.0097344158 0.0077512979         3858 
 4456000   0.54017607    -8.921743    520.49756 0.0097340208 0.0077482288         3859 
 4457000   0.54730039   -8.9376807    520.42674 0.0097305126 0.0077451606         3860 
 4458000   0.53597132   -8.9384385    520.22001 0.0097244656 0.0077420935         3876 
 4459000   0.53028389   -8.9467208    520.22858 0.0097224448 0.0077390278         3887 
 4460000   0.54360744   -8.9451013    520.03336 0.0097166172 0.0077359642         3881 
 4461000   0.53554011   -8.9275749    520.10404 0.0097157596 0.0077329014         3861 
 4462000   0.54247165   -8.9372515    519.76906 0.0097073259 0.0077298422         3876 
 4463000    0.5350733   -8.9320222    519.82489 0.0097061933 0.0077267834         3862 
 4464000   0.54607329   -8.9470978    519.62799 0.0097003434 0.0077237276         3872 
 4465000    0.5305957   -8.9306685    519.84964 0.0097023075 0.0077206723         3894 
 4466000   0.53240824   -8.9440002    520.29444 0.0097084348 0.0077176204         3864 
 4467000   0.52963246    -8.949528    520.83341 0.0097163162 0.0077145685         3870 
 4468000   0.52211625   -8.9192733    519.92749  0.009697245 0.0077115173         3888 
 4469000   0.53075896   -8.9373324    520.39704 0.0097038308 0.0077084731         3889 
 4470000   0.54102199   -8.9183421     520.4016  0.009701745 0.0077054255         3877 
 4471000   0.54808215   -8.9400482    520.11365  0.009694208 0.0077023813         3892 
 4472000   0.53500137   -8.9317665    520.42534 0.0096978485 0.0076993389         3862 
 4473000   0.54075281   -8.9222825     520.7902 0.0097024779 0.0076962966         3838 
 4474000   0.53884758   -8.9163548    520.54013 0.0096956513 0.0076932591         3854 
 4475000     0.537758   -8.9302911    520.94352 0.0097009967 0.0076902229         3877 
 4476000   0.52630866    -8.947741    520.95258  0.009698998  0.007687187         3859 
 4477000   0.53044151   -8.9516945    520.65871 0.0096913617 0.0076841537         3869 
 4478000   0.53694322   -8.9401637    520.38559 0.0096841148   0.00768112         3858 
 4479000   0.53400627   -8.9482663    519.25856 0.0096609838 0.0076780862         3874 
 4480000   0.53634473   -8.9191651    519.89888 0.0096707381  0.007675054         3864 
 4481000   0.52858851   -8.9234155    519.62591 0.0096635034 0.0076720272         3870 
 4482000   0.53955441   -8.9333034     520.7762 0.0096827347 0.0076689994         3856 
 4483000   0.52628325   -8.9456328    520.08146 0.0096676604  0.007665973         3865 
 4484000   0.53084461   -8.9581623    520.49161 0.0096731268 0.0076629505         3866 
 4485000    0.5292842   -8.9325259    520.18843 0.0096653369 0.0076599282         3871 
 4486000   0.52999321   -8.9414724    520.54528 0.0096698113 0.0076569078         3865 
 4487000   0.54666074   -8.9379135    521.10182 0.0096779924 0.0076538882         3870 
 4488000   0.53597655      -8.9299    521.37896  0.009680982 0.0076508728         3846 
 4489000   0.53640115   -8.9411321    520.40512 0.0096607469 0.0076478562         3866 
 4490000   0.53143372   -8.9541389    520.70863 0.0096642284 0.0076448421         3848 
 4491000   0.53816944   -8.9404279    520.23311  0.009653253 0.0076418304         3877 
 4492000    0.5338452   -8.9356307    520.44173 0.0096549742 0.0076388187         3888 
 4493000    0.5410136   -8.9317716    519.02721 0.0096265896 0.0076358084         3873 
 4494000    0.5343623   -8.9401569    521.16887 0.0096641609 0.0076328033         3845 
 4495000   0.53237355   -8.9494792    520.21811 0.0096443847 0.0076297981         3861 
 4496000   0.51960103   -8.9326458    519.68716 0.0096323984 0.0076267948         3877 
 4497000   0.53495699   -8.9314745    520.42471 0.0096439239 0.0076237936         3881 
 4498000   0.52648429   -8.9593521    520.42247 0.0096417384 0.0076207934         3900 
 4499000   0.54137238   -8.9569845    520.14024 0.0096343677 0.0076177964         3880 
 4500000   0.52599782   -8.9279205    520.70265 0.0096426417 0.0076147962         3875 
 4501000   0.52694065   -8.9533682    519.09694 0.0096107706 0.0076117978         3892 
 4502000   0.52472862   -8.9192856    519.82931 0.0096221922 0.0076088023         3901 
 4503000   0.53559144   -8.9394389    520.01339  0.009623462 0.0076058089         3915 
 4504000   0.52356258   -8.9563544    520.88608 0.0096374718 0.0076028169         3904 
 4505000    0.5290331   -8.9479373    520.03489 0.0096195874 0.0075998264         3893 
 4506000   0.52486684   -8.9413209    519.60149 0.0096094373 0.0075968403         3872 
 4507000    0.5262247   -8.9353647    520.24379 0.0096191811 0.0075938512         3872 
 4508000   0.52831973   -8.9419478    520.08298 0.0096140747 0.0075908635         3880 
 4509000   0.53139097   -8.9343927    520.07684  0.009611829  0.007587878         3866 
 4510000   0.52459361        -8.95    519.64639 0.0096017442 0.0075848942         3881 
 4511000   0.52823305   -8.9397649    519.26709 0.0095926086 0.0075819102         3857 
 4512000   0.53060615   -8.9383081    519.62417 0.0095970775 0.0075789281         3895 
 4513000   0.54488669   -8.9417723    520.06512 0.0096030932 0.0075759506         3886 
 4514000   0.52501278   -8.9338891    519.80393  0.009596144 0.0075729736         3893 
 4515000   0.53628013   -8.9321742    520.81968 0.0096127664      0.00757         3867 
 4516000   0.51770283   -8.9391417    520.09886 0.0095973365 0.0075670239         3889 
 4517000   0.53811301   -8.9426311    520.56025  0.009603724 0.0075640507         3903 
 4518000   0.52859074   -8.9362332    519.38841  0.009579984  0.007561079         3901 
 4519000    0.5336559   -8.9603956    518.88294 0.0095685428 0.0075581084         3906 
 4520000   0.52175009   -8.9604872    519.28324  0.009573806  0.007555139         3898 
 4521000   0.51277596   -8.9474877     520.3074 0.0095905663 0.0075521719         3902 
 4522000   0.52240142   -8.9530127    519.86715 0.0095803322  0.007549208         3889 
 4523000   0.52228047   -8.9449414    519.40743 0.0095697441 0.0075462463         3910 
 4524000   0.52502911   -8.9603679    520.05649 0.0095795846 0.0075432831         3900 
 4525000   0.52899069   -8.9607788    520.50414 0.0095857116 0.0075403232         3902 
 4526000   0.52551247   -8.9481755    519.46083 0.0095643841 0.0075373639         3893 
 4527000   0.51791513   -8.9459232    519.36943 0.0095605889 0.0075344061         3903 
 4528000   0.53154862   -8.9466305    519.68096 0.0095642109 0.0075314497         3893 
 4529000   0.53426552   -8.9451154    519.73473 0.0095630885 0.0075284938         3891 
 4530000   0.52515184   -8.9358077    520.59145 0.0095767374 0.0075255421         3901 
 4531000    0.5337528    -8.946505     520.6623 0.0095759269 0.0075225923         3883 
 4532000    0.5165325   -8.9558902    520.34341 0.0095679504 0.0075196421         3895 
 4533000   0.52069004   -8.9576713    520.04698   0.00956039 0.0075166929         3898 
 4534000   0.53254641   -8.9379152    520.24031 0.0095618348 0.0075137451         3886 
 4535000     0.521881   -8.9567729    519.32954 0.0095429905 0.0075107988         3892 
 4536000   0.52155039   -8.9478705     519.9861 0.0095529487 0.0075078536         3874 
 4537000   0.53025631   -8.9580928     519.9896 0.0095509073 0.0075049114         3906 
 4538000   0.52557969   -8.9471705    520.03339 0.0095496068 0.0075019696         3887 
 4539000   0.52095989   -8.9462746    519.88068 0.0095446993 0.0074990295         3866 
 4540000   0.52912242   -8.9604393    519.55436 0.0095366072 0.0074960906         3877 
 4541000   0.52882508   -8.9471671    519.62464 0.0095357969 0.0074931522         3896 
 4542000   0.53031489   -8.9439732    519.54669 0.0095322672 0.0074902168         3913 
 4543000   0.51911042    -8.952436    520.02909 0.0095390177 0.0074872827         3892 
 4544000   0.51962829   -8.9539659    519.51683  0.009527524 0.0074843512         3882 
 4545000   0.53294358   -8.9547461    520.16735 0.0095373552 0.0074814215         3868 
 4546000    0.5249262    -8.954736    520.01275 0.0095324232 0.0074784925         3879 
 4547000   0.52498633   -8.9535038    518.67828 0.0095058698 0.0074755648         3878 
 4548000   0.52167546   -8.9404392    519.65049 0.0095215935 0.0074726405         3892 
 4549000   0.53473748   -8.9619737    519.21385 0.0095115016 0.0074697166         3904 
 4550000    0.5296212   -8.9411101    519.94425 0.0095227885 0.0074667949         3895 
 4551000   0.51558244   -8.9468473    519.11883 0.0095055817 0.0074638724         3874 
 4552000   0.53122807   -8.9415559    519.53929 0.0095111908 0.0074609511         3889 
 4553000   0.53103286   -8.9512252    519.05152 0.0095001742 0.0074580322         3879 
 4554000   0.53193402   -8.9576454    519.18352 0.0095005037 0.0074551149         3909 
 4555000   0.51522216   -8.9510138    520.40878  0.009520834 0.0074521982         3905 
 4556000   0.51637282   -8.9623023    518.93331 0.0094917566 0.0074492844         3904 
 4557000   0.51865601    -8.959145    519.30786 0.0094965229 0.0074463726         3902 
 4558000   0.52311347   -8.9416764    520.08693 0.0095086831 0.0074434631         3877 
 4559000   0.51050088   -8.9519874    519.43281 0.0094946407 0.0074405543         3878 
 4560000   0.54025736   -8.9638828    519.72621 0.0094979206 0.0074376469         3873 
 4561000   0.52590461   -8.9417115    519.80874  0.009497346 0.0074347411         3887 
 4562000   0.51409087   -8.9608081    519.44582 0.0094886348 0.0074318386         3887 
 4563000   0.52237737   -8.9515308    518.88552 0.0094763226  0.007428934         3894 
 4564000   0.53184346   -8.9393297    519.30601 0.0094819239 0.0074260332         3906 
 4565000   0.52617469    -8.958376    519.73476 0.0094876736 0.0074231339         3896 
 4566000   0.51551797    -8.946089    518.85498  0.009469539 0.0074202355         3883 
 4567000   0.52304326    -8.975643    519.09998  0.009471936  0.007417337         3896 
 4568000   0.51129192   -8.9566552    520.13701 0.0094887809 0.0074144424         3891 
 4569000   0.51370129   -8.9664567    519.75815  0.009479794 0.0074115497         3909 
 4570000   0.52055919   -8.9653376    519.59002 0.0094746539 0.0074086568         3880 
 4571000   0.52592989   -8.9589277    519.88421 0.0094779444 0.0074057665         3885 
 4572000   0.52102861   -8.9594928    519.33285 0.0094658218 0.0074028747         3917 
 4573000   0.52358909    -8.976509    519.45028 0.0094658919 0.0073999901         3886 
 4574000   0.52162585   -8.9628665    519.29037  0.009460909  0.007397104         3899 
 4575000   0.52546909   -8.9619529    519.13339 0.0094559817 0.0073942201         3899 
 4576000   0.52412057   -8.9656033    519.31758 0.0094572694 0.0073913374         3885 
 4577000   0.51991299    -8.953148    518.91388 0.0094478531 0.0073884573         3864 
 4578000   0.51597259   -8.9638173    519.61071 0.0094584737 0.0073855769         3863 
 4579000   0.51679389   -8.9544519    519.91411 0.0094619296 0.0073826993         3905 
 4580000   0.53122101   -8.9651933    519.29018 0.0094485112 0.0073798207         3897 
 4581000   0.52293009   -8.9575516    519.77344 0.0094552397 0.0073769445         3911 
 4582000   0.51699658   -8.9577741     519.2456 0.0094435762 0.0073740694         3885 
 4583000   0.51592345    -8.966321    519.41656 0.0094446243 0.0073711953         3907 
 4584000   0.52206776   -8.9474358     519.8081 0.0094496818  0.007368323         3907 
 4585000    0.5129459   -8.9846242    520.06745 0.0094523345  0.007365453         3909 
 4586000   0.51749953    -8.983582    519.28693 0.0094360904 0.0073625828         3887 
 4587000   0.52078502   -8.9443447    519.49287 0.0094377747 0.0073597147         3893 
 4588000   0.51530885   -8.9356299    519.63516 0.0094383021 0.0073568493         3862 
 4589000   0.52476121    -8.956318     518.9919 0.0094245643 0.0073539876         3904 
 4590000   0.51290629   -8.9803086    519.08409 0.0094241846 0.0073511271         3875 
 4591000   0.51821577   -8.9869428    518.99412 0.0094204988 0.0073482647         3890 
 4592000   0.51072135   -8.9707671    519.91982 0.0094352465 0.0073454055         3899 
 4593000   0.51677883   -8.9731512    519.88919 0.0094326365 0.0073425476         3880 
 4594000   0.52661678   -8.9686794    519.05589 0.0094154674  0.007339691         3904 
 4595000   0.51510321   -8.9576504    519.45985 0.0094207445 0.0073368382         3888 
 4596000   0.52150882   -8.9734718    519.08889 0.0094119686 0.0073339861         3903 
 4597000     0.519188   -8.9345182    520.39826 0.0094336571 0.0073311345         3882 
 4598000    0.5214677   -8.9660471    520.01146 0.0094245951 0.0073282862         3885 
 4599000    0.5080442   -8.9812831    519.16082 0.0094071323 0.0073254362         3899 
 4600000   0.51203913   -8.9486861    518.74754 0.0093976004 0.0073225879         3889 
 4601000   0.51871829   -8.9719453    518.83031 0.0093970569 0.0073197445         3895 
 4602000    0.5165991   -8.9644115    519.22834 0.0094022226 0.0073168985         3888 
 4603000   0.50879496   -8.9749069    519.70434 0.0094087975 0.0073140546         3896 
 4604000   0.51570113   -8.9541154    519.86524 0.0094096662 0.0073112131         3892 
 4605000    0.5196722   -8.9479687    519.74826  0.009405506 0.0073083728         3913 
 4606000   0.52348194   -8.9631384    519.41574  0.009397448 0.0073055353         3899 
 4607000   0.52080815   -8.9523215    519.11597 0.0093899856 0.0073026974         3870 
 4608000   0.52145638    -8.956671    519.84102 0.0094010601 0.0072998606         3880 
 4609000   0.51790236   -8.9573743    519.55806 0.0093939043 0.0072970263         3912 
 4610000   0.51450283     -8.96742    519.36696 0.0093884121 0.0072941914         3908 
 4611000    0.5074829   -8.9729512    518.87442 0.0093774746 0.0072913582         3890 
 4612000   0.52220917   -8.9685352    519.26932 0.0093825766 0.0072885276         3898 
 4613000   0.52529544   -8.9441428    519.01865 0.0093760143 0.0072856993         3899 
 4614000   0.51029888    -8.984262    518.55097 0.0093655356 0.0072828734         3890 
 4615000   0.51712441   -8.9695701    519.24642 0.0093760638 0.0072800471         3865 
 4616000   0.50811494    -8.966178    519.17678 0.0093727755 0.0072772227         3883 
 4617000   0.51001669   -8.9713844    518.90686 0.0093658737 0.0072744025         3879 
 4618000   0.51839684   -8.9714957    518.81616 0.0093622087 0.0072715794         3907 
 4619000   0.50673927   -8.9580784    519.83554 0.0093785729 0.0072687591         3883 
 4620000   0.50733528    -8.983049    518.97154 0.0093609584 0.0072659415         3905 
 4621000   0.51615575    -8.994952      518.818 0.0093561639 0.0072631249         3859 
 4622000   0.51093377   -8.9917071    519.52525 0.0093668912 0.0072603079         3888 
 4623000   0.52581137   -8.9557069    519.27885 0.0093604234 0.0072574951         3854 
 4624000   0.52264285   -8.9631552    518.54549 0.0093451825 0.0072546836         3878 
 4625000   0.52009085   -8.9671237    518.60458 0.0093442266 0.0072518733         3906 
 4626000   0.50662001   -8.9631839    519.26192 0.0093540481  0.007249064         3901 
 4627000   0.51322325   -8.9838152    519.41474 0.0093547788 0.0072462566         3885 
 4628000   0.50600365   -8.9860946    519.65469 0.0093570781  0.007243451         3887 
 4629000   0.49758433   -8.9855522    518.93989 0.0093421886 0.0072406447         3868 
 4630000   0.50484025   -8.9829552    518.75609 0.0093368627 0.0072378408         3890 
 4631000    0.4984229   -8.9679546    519.43576 0.0093470769 0.0072350386         3875 
 4632000   0.50090463   -8.9678333    519.19485 0.0093407248 0.0072322382         3871 
 4633000   0.51502067   -8.9848669    519.39845 0.0093423708 0.0072294411         3878 
 4634000   0.51387814   -8.9722311    518.85339 0.0093305531 0.0072266434         3871 
 4635000   0.51174753   -8.9687912    519.37922 0.0093379939 0.0072238457         3879 
 4636000   0.50849798   -8.9760609    518.65985 0.0093230488 0.0072210504         3890 
 4637000   0.51073726   -8.9641913    520.24027 0.0093494405 0.0072182561         3853 
 4638000   0.51011926   -8.9752712    519.13049 0.0093274848 0.0072154624         3883 
 4639000   0.51056556   -8.9832025     518.9932 0.0093230079 0.0072126703         3861 
 4640000    0.5065002   -8.9780558    518.82202 0.0093179241 0.0072098828         3868 
 4641000   0.50009085   -8.9692725    519.08022 0.0093205527 0.0072070966         3887 
 4642000   0.51383587   -8.9616518    519.96633 0.0093344524 0.0072043101         3895 
 4643000   0.50372661   -8.9947401    518.93412 0.0093139156 0.0072015248         3888 
 4644000   0.49979985   -8.9720242    519.74675  0.009326492 0.0071987401         3886 
 4645000   0.50695311   -8.9629898    518.84805 0.0093083611  0.007195957         3888 
 4646000   0.50629091   -8.9747819    518.67213 0.0093032022  0.007193176         3881 
 4647000   0.51163991   -8.9899958    519.53572 0.0093166868 0.0071903972         3884 
 4648000   0.49976516   -8.9855941    519.46843 0.0093134759 0.0071876189         3889 
 4649000    0.5136969   -9.0011748    518.08621 0.0092866963 0.0071848395         3904 
 4650000   0.50577492   -8.9745313    519.41524 0.0093085168 0.0071820623         3898 
 4651000   0.51193164   -8.9785267    519.41824 0.0093065693  0.007179288         3897 
 4652000   0.51135651   -8.9734354    518.84502 0.0092943003 0.0071765154         3894 
 4653000   0.50388881   -8.9702334     519.3771 0.0093018321 0.0071737445         3883 
 4654000   0.51029441   -8.9740528    518.67486 0.0092872594 0.0071709754         3890 
 4655000   0.50928801   -8.9928322    518.70569 0.0092858161 0.0071682069         3897 
 4656000   0.50138086   -8.9852589    519.22587 0.0092931319 0.0071654418         3900 
 4657000   0.50545776     -8.99403    518.68128 0.0092813915 0.0071626762         3917 
 4658000   0.50348362   -8.9708449    518.85689 0.0092825406 0.0071599125         3908 
 4659000   0.51009444   -8.9776178    519.18791  0.009286469 0.0071571494         3884 
 4660000   0.51003083   -8.9747665    518.15051 0.0092659247 0.0071543885         3914 
 4661000   0.50433943   -8.9716869     519.5144 0.0092883216 0.0071516291         3890 
 4662000   0.51950827   -8.9745938    518.30688 0.0092647447 0.0071488706         3882 
 4663000   0.49972445   -8.9766376    519.45335 0.0092832466 0.0071461149         3885 
 4664000   0.51834673   -8.9691646    519.30621 0.0092786272 0.0071433595         3894 
 4665000   0.51477445   -8.9786462    518.60446 0.0092641026 0.0071406073         3910 
 4666000   0.50818609   -9.0106446    518.35759 0.0092577081 0.0071378548         3883 
 4667000   0.50398031    -8.990834    518.19884 0.0092528898 0.0071351037         3869 
 4668000   0.50222343   -8.9721968    518.72967  0.009260384 0.0071323578         3890 
 4669000   0.49047835   -8.9822131     519.7968 0.0092774471 0.0071296107         3904 
 4670000    0.5020845   -8.9925288    518.57661 0.0092536869 0.0071268624         3895 
 4671000    0.5006261   -8.9870079     518.2944  0.009246671 0.0071241195         3884 
 4672000   0.49904291   -8.9823445    518.50126 0.0092483814 0.0071213751         3906 
 4673000   0.50424271   -8.9853902    518.27069 0.0092422906 0.0071186351         3888 
 4674000   0.50681178   -8.9706686    518.15921 0.0092383256 0.0071158953         3899 
 4675000   0.50038394   -8.9905377    518.57109 0.0092436914 0.0071131555         3884 
 4676000   0.50997303   -8.9819414     518.5421 0.0092411979 0.0071104174         3897 
 4677000   0.50368669   -8.9872361     517.9611 0.0092288699  0.007107679         3902 
 4678000   0.50779995   -8.9789148    518.96503  0.009244781 0.0071049436         3906 
 4679000    0.5094887   -8.9796879    519.13338 0.0092458036 0.0071022113         3901 
 4680000   0.50248239   -8.9880482    519.48301 0.0092500536  0.007099481         3921 
 4681000   0.50594821    -8.983201    518.98614 0.0092392321 0.0070967501         3896 
 4682000   0.50535062   -8.9888003    519.31099 0.0092430405 0.0070940222         3888 
 4683000   0.51254939   -8.9889896    518.66221 0.0092295218 0.0070912919         3894 
 4684000   0.49926162   -8.9830195     519.4374 0.0092413428 0.0070885656         3890 
 4685000   0.50234483   -8.9892825    519.48021 0.0092401317 0.0070858409         3865 
 4686000   0.50688185    -8.981085    518.84106 0.0092267936 0.0070831182         3891 
 4687000     0.502391   -8.9879328    518.17144 0.0092129195 0.0070803965         3896 
 4688000   0.48363782   -9.0004845    518.25911 0.0092125127 0.0070776771         3904 
 4689000   0.49842588   -8.9718276    518.54978 0.0092157138 0.0070749581         3885 
 4690000   0.50672074   -8.9844142    518.57417 0.0092141821 0.0070722415         3870 
 4691000   0.50426827   -8.9809199    518.18051 0.0092052246 0.0070695298         3896 
 4692000   0.50301637   -8.9758587    518.63676 0.0092113661 0.0070668166         3901 
 4693000   0.49771374   -8.9828427    518.69886  0.009210506 0.0070641049         3882 
 4694000   0.50057805   -8.9862889    518.79697 0.0092102856 0.0070613957         3897 
 4695000   0.49439282   -8.9837299    519.24771 0.0092163242 0.0070586833         3890 
 4696000   0.49757003   -8.9928901    518.77772 0.0092060215 0.0070559752         3891 
 4697000   0.50700178   -9.0020045    518.35735 0.0091966033 0.0070532686         3870 
 4698000   0.50496554   -8.9855672    518.53216 0.0091977466 0.0070505634         3898 
 4699000   0.50153995    -8.980637    518.23975 0.0091906035 0.0070478584         3881 
 4700000    0.4992457   -8.9919476    518.69164 0.0091966603 0.0070451563         3895 
 4701000   0.49618123   -8.9877046    519.28729 0.0092052628 0.0070424554         3847 
 4702000   0.48940778   -8.9955483    518.88193 0.0091961209 0.0070397553         3879 
 4703000   0.50242968   -8.9999881    518.61324 0.0091894047 0.0070370575         3871 
 4704000   0.50469092   -8.9767381    518.35838 0.0091829362 0.0070343617         3873 
 4705000   0.50270334   -9.0032741    518.42757   0.00918221 0.0070316668         3889 
 4706000   0.48341952   -8.9957023    518.19502 0.0091761407 0.0070289734         3884 
 4707000   0.48955218   -8.9959375    518.32669 0.0091765223 0.0070262814         3893 
 4708000   0.49396706   -8.9859663    518.25045 0.0091732238 0.0070235913         3883 
 4709000   0.49709621   -8.9972528     517.9007 0.0091650864 0.0070209018         3889 
 4710000   0.49517936   -8.9929924    518.23773 0.0091691036 0.0070182126         3896 
 4711000   0.50308559   -8.9985607    518.14592 0.0091655331 0.0070155254         3915 
 4712000   0.49885855   -8.9935883    518.95878 0.0091779637 0.0070128394         3892 
 4713000   0.49871236   -8.9943109    518.35641 0.0091653654 0.0070101522         3893 
 4714000   0.50231198    -8.994519    518.02729 0.0091576031 0.0070074681         3886 
 4715000   0.50021439   -8.9958303    517.65876 0.0091491474 0.0070047857         3896 
 4716000   0.48345664   -8.9926537    518.44381 0.0091610794 0.0070021056         3865 
 4717000   0.50340811   -8.9902407    518.77849   0.00916505 0.0069994259         3875 
 4718000   0.48133441   -9.0036427    518.53987 0.0091588927 0.0069967461         3899 
 4719000   0.48992772   -9.0084667    518.97415 0.0091646209 0.0069940679         3862 
 4720000   0.48845453    -8.987037    518.45938 0.0091535907 0.0069913904         3902 
 4721000   0.49832399   -8.9861029    518.40186 0.0091506366 0.0069887146         3900 
 4722000   0.49241401   -8.9952989    518.06817 0.0091428098  0.006986042         3886 
 4723000   0.49197935   -8.9996183    518.56653 0.0091496671 0.0069833721         3901 
 4724000   0.49508421   -8.9861745    518.82362 0.0091522654 0.0069807026         3883 
 4725000   0.49760471   -9.0008785    518.59047 0.0091462164 0.0069780334         3871 
 4726000   0.50141024   -9.0087963    518.80487 0.0091480616 0.0069753653         3895 
 4727000   0.50260623    -8.980975    518.79814 0.0091460078 0.0069726999         3917 
 4728000   0.49768848    -8.983641    518.65224 0.0091415017 0.0069700364         3891 
 4729000   0.49025604   -8.9744037    518.75651  0.009141406 0.0069673745         3879 
 4730000   0.49401293   -9.0002533    518.38804 0.0091329817 0.0069647145         3890 
 4731000   0.48880259   -8.9924229     517.8043  0.009120769 0.0069620588         3879 
 4732000    0.4979391   -8.9913962    518.14707  0.009124878 0.0069593988         3888 
 4733000   0.50348992   -8.9876103    518.60131 0.0091309478 0.0069567416         3899 
 4734000   0.48835567   -8.9861137    519.01758 0.0091363466 0.0069540876         3897 
 4735000   0.48649159   -8.9973463    518.39917 0.0091235334 0.0069514333         3894 
 4736000   0.49272134    -8.993482    518.45452 0.0091225809 0.0069487803         3887 
 4737000   0.49485158   -9.0028224    518.84747 0.0091275678 0.0069461301         3895 
 4738000   0.49653669   -8.9968061    519.02951 0.0091288432 0.0069434797         3885 
 4739000    0.4833306   -8.9866895    518.67282 0.0091206447 0.0069408316         3904 
 4740000   0.48958474   -8.9899799    518.82988 0.0091214816 0.0069381836         3874 
 4741000   0.48756885   -9.0063061    518.54366 0.0091145268 0.0069355371         3900 
 4742000   0.49255789   -9.0232671    517.80139 0.0090995604 0.0069328916         3907 
 4743000   0.48579256   -8.9923092    518.54001 0.0091106193 0.0069302454         3906 
 4744000   0.48197692   -9.0018776    518.77724 0.0091128662  0.006927601         3894 
 4745000   0.49793135   -8.9999111    519.21324 0.0091186027  0.006924961         3880 
 4746000   0.49174369   -9.0033725    518.84849 0.0091102769 0.0069223218         3888 
 4747000   0.48989193   -9.0042555     518.6043  0.009104071 0.0069196836         3903 
 4748000   0.49266472   -8.9970344    518.78683 0.0091053572 0.0069170477         3879 
 4749000   0.49836604   -8.9994735    518.64441 0.0091009408 0.0069144119         3881 
 4750000   0.50134669   -9.0153038    517.63769 0.0090813629 0.0069117778         3910 
 4751000   0.48371001   -9.0087006    518.46237 0.0090939166 0.0069091452         3892 
 4752000   0.49543271   -8.9972305    519.21563 0.0091052123 0.0069065133         3889 
 4753000   0.49344701   -9.0235506    518.58755 0.0090922847 0.0069038823         3887 
 4754000   0.47925996   -8.9992402    517.63121 0.0090736084 0.0069012517         3873 
 4755000   0.49860423   -9.0134582    518.97562 0.0090952615 0.0068986227         3907 
 4756000   0.48501517   -9.0079104    518.84088 0.0090909883  0.006895997         3884 
 4757000   0.49624964   -9.0246198    518.75086 0.0090875002 0.0068933735         3908 
 4758000   0.49009217   -9.0011244    519.03337 0.0090905382 0.0068907477         3897 
 4759000   0.49337846   -9.0044949    517.99012 0.0090703601 0.0068881261         3900 
 4760000   0.47985039   -9.0106116    518.38453 0.0090753594 0.0068855035         3914 
 4761000   0.48354938   -9.0113848    518.58038 0.0090768813 0.0068828836         3881 
 4762000   0.49081926   -9.0079499    518.43927 0.0090725058 0.0068802664         3876 
 4763000   0.49232816   -9.0022417    517.69535 0.0090575854  0.006877651         3878 
 4764000   0.49321851   -8.9951787    518.09319 0.0090626433 0.0068750364         3897 
 4765000   0.48714992   -9.0018751    517.73638 0.0090545011 0.0068724223         3899 
 4766000   0.48241627   -9.0078847    517.71914 0.0090522999 0.0068698097         3911 
 4767000   0.48814935   -9.0182821    517.67694 0.0090496634  0.006867199         3896 
 4768000   0.48527148   -8.9929015    518.45904 0.0090614346 0.0068645866         3897 
 4769000   0.49029951   -8.9848007    518.69075 0.0090635835 0.0068619769         3883 
 4770000   0.48386866   -9.0082976    518.17771 0.0090527204  0.006859368         3879 
 4771000   0.49171251    -9.012736    517.88275 0.0090456709 0.0068567609         3899 
 4772000   0.47611811    -9.001895    517.66288 0.0090399358 0.0068541547         3885 
 4773000   0.49084507   -9.0043975     517.8137 0.0090406749 0.0068515504         3905 
 4774000   0.48369006   -9.0171315    518.57238 0.0090520245 0.0068489487         3904 
 4775000   0.47576637   -9.0110374    517.76294 0.0090360025 0.0068463471         3886 
 4776000   0.48688805   -9.0154604    518.53663 0.0090476101 0.0068437457         3902 
 4777000   0.47942091   -9.0176332    518.00151 0.0090363811  0.006841145         3879 
 4778000   0.48151249    -8.999677    517.77666 0.0090305682 0.0068385465         3896 
 4779000   0.47996076   -9.0120305     518.4563 0.0090405298 0.0068359508         3901 
 4780000   0.49357499   -8.9931306    518.35938 0.0090369488 0.0068333552         3882 
 4781000   0.49619276   -9.0066572    518.87083 0.0090439731 0.0068307613         3895 
 4782000   0.49667115   -9.0193561     517.3044 0.0090147847 0.0068281687         3897 
 4783000   0.48542999   -9.0015493    517.69392 0.0090196864 0.0068255783         3873 
 4784000   0.47587812   -9.0091328    518.15105 0.0090257638 0.0068229899         3911 
 4785000   0.48703528    -8.997922    517.97105 0.0090207427 0.0068204017         3911 
 4786000   0.48495777   -9.0147191    518.03492   0.00901997 0.0068178156         3870 
 4787000   0.49350715   -9.0109787    517.87277  0.009015263 0.0068152332         3882 
 4788000   0.48381662   -9.0020481    517.83456 0.0090127152 0.0068126483         3897 
 4789000   0.49430605   -9.0224415    518.20294 0.0090172433 0.0068100663         3886 
 4790000   0.48246596   -9.0173106    518.54162 0.0090212529 0.0068074872         3889 
 4791000   0.48522082   -9.0137565    518.13606 0.0090123159 0.0068049078         3900 
 4792000   0.49412198   -9.0198947    518.60478 0.0090185861  0.006802328         3898 
 4793000   0.48909742   -9.0213649    518.12334  0.009008334   0.00679975         3908 
 4794000   0.47979372   -9.0198144    518.57036 0.0090142253 0.0067971745         3883 
 4795000   0.48674857   -9.0104656    518.37013 0.0090088657 0.0067945982         3897 
 4796000   0.48610212   -9.0235333    517.43523 0.0089907428 0.0067920244         3901 
 4797000   0.48818945    -9.008136    517.64535 0.0089925187 0.0067894524         3892 
 4798000     0.487125   -9.0000246    518.24001 0.0090009728 0.0067868817         3890 
 4799000   0.49099542   -9.0099722    517.55746 0.0089872449 0.0067843123         3898 
 4800000   0.49059699   -9.0008589     518.2122 0.0089967395 0.0067817429         3886 
 4801000   0.49222492   -9.0135465    518.77464 0.0090046282 0.0067791773         3903 
 4802000   0.48860031   -9.0129292    517.48908 0.0089804436 0.0067766121         3917 
 4803000   0.46757576   -9.0118453    517.93977 0.0089863934 0.0067740474         3909 
 4804000   0.48343988   -9.0238397    517.54024 0.0089775922 0.0067714846         3906 
 4805000   0.48311321   -8.9976346    517.26865 0.0089710138 0.0067689209         3902 
 4806000   0.48393888   -9.0295417    517.63218 0.0089754504 0.0067663606         3900 
 4807000   0.48256017   -9.0119652    517.76124 0.0089758207  0.006763802         3908 
 4808000   0.48381248   -9.0268917    518.32564 0.0089837361 0.0067612424         3868 
 4809000   0.48002781   -9.0053261    517.86115 0.0089738191 0.0067586852         3886 
 4810000   0.48825904   -9.0210484    518.18754 0.0089776082  0.006756131         3889 
 4811000   0.47249684   -9.0041658    518.65589 0.0089838545 0.0067535766         3908 
 4812000   0.48727068    -9.019134     518.2746 0.0089753844 0.0067510227         3885 
 4813000   0.47949818   -9.0226984    517.56317 0.0089612017 0.0067484713         3901 
 4814000   0.47658407   -9.0203182    517.91395 0.0089654126 0.0067459207         3894 
 4815000   0.46595881   -9.0137212    518.08069 0.0089664363 0.0067433732         3897 
 4816000   0.48250529   -9.0077294    518.46918 0.0089712967 0.0067408258         3893 
 4817000   0.48043053   -9.0013777    518.98046 0.0089782794 0.0067382795         3854 
 4818000   0.47541062   -9.0240545    518.14353 0.0089619402 0.0067357352         3893 
 4819000    0.4735919    -9.013392    518.18095 0.0089607275 0.0067331936         3898 
 4820000   0.46741755   -9.0199995    518.05474 0.0089566865 0.0067306519         3896 
 4821000   0.48355502   -9.0288354    517.97482  0.008953447 0.0067281104         3893 
 4822000   0.47883049   -9.0297045    518.26444 0.0089565955 0.0067255704         3901 
 4823000   0.48276831   -9.0272809    517.08924 0.0089344329  0.006723033         3881 
 4824000   0.47969329   -9.0183644    518.15644 0.0089510165 0.0067204948         3893 
 4825000   0.48889149   -9.0272671    517.25797 0.0089336437 0.0067179585         3881 
 4826000   0.48418701   -9.0191098    517.55533 0.0089369273 0.0067154236         3892 
 4827000   0.47725129   -9.0125179    518.28208 0.0089476224 0.0067128899         3904 
 4828000   0.47921068   -9.0214217    518.38517 0.0089475485 0.0067103584         3904 
 4829000   0.48412627   -9.0206286    518.12419  0.008941192 0.0067078277         3903 
 4830000   0.46898729   -9.0307305    518.24367 0.0089414022 0.0067052989         3906 
 4831000   0.47331265   -9.0287149    517.79355 0.0089317869 0.0067027705         3896 
 4832000    0.4834116   -8.9990506    518.35576 0.0089396343 0.0067002439         3887 
 4833000   0.48736494   -9.0290941     517.0959 0.0089160614 0.0066977204         3913 
 4834000   0.47588312   -9.0061457     517.7674  0.008925793  0.006695196         3889 
 4835000   0.47770717    -9.021276    518.31524 0.0089333891 0.0066926731         3914 
 4836000   0.47101958    -9.012288    517.43595 0.0089163901 0.0066901509         3889 
 4837000   0.47357955   -9.0131126    517.20234  0.008910522 0.0066876314         3895 
 4838000   0.47556577   -9.0233136    517.68888 0.0089170607 0.0066851106         3882 
 4839000   0.47702432   -9.0092955    517.32278 0.0089089133 0.0066825938         3886 
 4840000     0.483296   -9.0063715    517.87371 0.0089165584 0.0066800777         3867 
 4841000    0.4872623   -9.0204253    518.43223 0.0089243309 0.0066775638         3903 
 4842000   0.47626206   -9.0179627    517.28903 0.0089028127 0.0066750507         3872 
 4843000    0.4663788   -9.0137481    517.72172 0.0089084198 0.0066725366         3892 
 4844000   0.47806237   -9.0154906    517.72942 0.0089067131 0.0066700248         3896 
 4845000   0.47504652   -9.0341702    517.27122 0.0088969938 0.0066675126         3875 
 4846000   0.47549948   -9.0241316    517.40629 0.0088974805 0.0066650037         3877 
 4847000   0.48883788   -9.0212283    517.98252 0.0089055518 0.0066624963         3912 
 4848000   0.47348623   -9.0265851    517.75846 0.0088998636 0.0066599901         3882 
 4849000   0.47450383   -9.0394191    517.48502 0.0088933288 0.0066574846         3895 
 4850000   0.48199753   -9.0111339    517.70098 0.0088952059 0.0066549801         3881 
 4851000   0.46715704   -9.0149829    518.04123 0.0088992171 0.0066524771         3886 
 4852000   0.47221177    -9.023591    517.97603 0.0088962633 0.0066499756         3870 
 4853000   0.47525191   -9.0184228    518.39889 0.0089016912 0.0066474762         3862 
 4854000   0.48479169   -9.0319025    518.03637 0.0088936335 0.0066449762         3888 
 4855000   0.47043902   -9.0386159    517.58834 0.0088841116 0.0066424776         3896 
 4856000   0.47338504   -9.0125959    517.63866 0.0088831456 0.0066399814         3904 
 4857000   0.47519414   -9.0326321    518.25834 0.0088919488 0.0066374873         3884 
 4858000    0.4682121   -9.0246074    517.62947 0.0088793308 0.0066349948         3899 
 4859000   0.48261846    -9.023926    516.85696 0.0088642546 0.0066325008         3846 
 4860000   0.46396985   -9.0308907    518.01305 0.0088822539 0.0066300095         3897 
 4861000   0.47323325   -9.0414243    517.01554 0.0088633261 0.0066275177         3903 
 4862000   0.47119347   -9.0214217    517.23851 0.0088653248  0.006625027         3904 
 4863000   0.46971545   -9.0324358    517.95286  0.008875743 0.0066225397         3894 
 4864000    0.4701539   -9.0297126    517.39764 0.0088644059 0.0066200543         3898 
 4865000   0.47335354   -9.0396875    517.45809 0.0088636193 0.0066175695         3909 
 4866000   0.47150349   -9.0234452    517.75711 0.0088669186 0.0066150839         3912 
 4867000   0.47186362   -9.0260272    517.36633 0.0088584057 0.0066126012         3889 
 4868000   0.47290147   -9.0323904    517.55971 0.0088598964  0.006610119         3876 
 4869000   0.47112683   -9.0365243    517.73049 0.0088609997 0.0066076401         3884 
 4870000   0.46944287   -9.0307788    517.56015 0.0088562655 0.0066051613         3883 
 4871000   0.47850279   -9.0229198    517.79961  0.008858544 0.0066026842         3885 
 4872000   0.47459384    -9.031971    517.34818 0.0088490042 0.0066002083         3881 
 4873000   0.46981793   -9.0420923    517.22895 0.0088451493  0.006597733         3889 
 4874000   0.46964878    -9.032316    517.70173 0.0088514179 0.0065952587         3895 
 4875000   0.46726777   -9.0248246    517.38089 0.0088441178 0.0065927857         3898 
 4876000   0.46326603   -9.0347914    517.40943 0.0088427917 0.0065903141         3900 
 4877000   0.48055416   -9.0403765    516.80343 0.0088306239 0.0065878445         3921 
 4878000   0.47511476   -9.0441772    517.10796 0.0088340161 0.0065853767         3887 
 4879000   0.47095809   -9.0328904    517.78743 0.0088438108 0.0065829082         3896 
 4880000   0.47378414   -9.0352409    518.38301 0.0088521689 0.0065804414         3917 
 4881000   0.47324249   -9.0286261    517.80755 0.0088405304 0.0065779754         3893 
 4882000   0.47789832   -9.0333485    517.40258  0.008831807 0.0065755108         3897 
 4883000   0.46600433   -9.0313028    517.85455 0.0088377116 0.0065730468         3910 
 4884000   0.47158269   -9.0250723    516.89986 0.0088196127  0.006570586         3899 
 4885000   0.46602235   -9.0320012    517.38505 0.0088260841 0.0065681237         3894 
 4886000   0.47720612   -9.0409345    516.38678 0.0088072516 0.0065656627         3923 
 4887000   0.47585389   -9.0383404    517.78023 0.0088292106 0.0065632038         3895 
 4888000   0.46782938   -9.0319563    518.29267 0.0088361407 0.0065607456         3881 
 4889000   0.47644516   -9.0278042    518.04602 0.0088301292 0.0065582899         3891 
 4890000   0.45782914   -9.0489612    518.17882 0.0088305865 0.0065558367         3904 
 4891000   0.46370295   -9.0210541    517.52148 0.0088175812  0.006553383         3899 
 4892000   0.48482518   -9.0261716    518.24892 0.0088281705 0.0065509314         3912 
 4893000   0.47081544   -9.0161562    517.28839 0.0088100074 0.0065484798         3888 
 4894000   0.47940518   -9.0506278    517.16297 0.0088060715 0.0065460316         3908 
 4895000   0.45839652   -9.0243916    518.34888 0.0088244616 0.0065435859         3900 
 4896000   0.47128842   -9.0362274    517.34493 0.0088055714 0.0065411375         3893 
 4897000   0.46913619   -9.0397472    516.84688 0.0087952978 0.0065386907         3902 
 4898000   0.46132809   -9.0366651    517.02076 0.0087964605 0.0065362469         3871 
 4899000   0.47901998   -9.0293618    518.38324 0.0088178411 0.0065338042         3879 
 4900000     0.464157   -9.0317337    517.51743 0.0088013168 0.0065313632         3913 
 4901000   0.47143299   -9.0428392    518.40334 0.0088145845 0.0065289237         3907 
 4902000   0.46880259    -9.045568    517.45083 0.0087965938 0.0065264836         3917 
 4903000   0.47135824   -9.0408728    517.55548 0.0087965782 0.0065240452         3876 
 4904000   0.47261741   -9.0385067    517.63265 0.0087960958 0.0065216079         3884 
 4905000   0.46400686   -9.0355122    517.78625 0.0087969122 0.0065191719         3867 
 4906000   0.46423393   -9.0452352    517.47785 0.0087898805 0.0065167376         3891 
 4907000   0.46787235   -9.0422713    517.24265 0.0087840951 0.0065143054         3910 
 4908000   0.46379127   -9.0410174    516.88623 0.0087762536  0.006511873         3892 
 4909000   0.46677752   -9.0278409     517.9674 0.0087928192 0.0065094412         3891 
 4910000   0.45987263   -9.0324752    517.71906 0.0087868136 0.0065070111         3904 
 4911000    0.4685643    -9.024464    516.95046 0.0087719824  0.006504583         3921 
 4912000   0.46936704   -9.0301844    518.07066 0.0087892009 0.0065021571         3885 
 4913000   0.46179168   -9.0364951    517.65555  0.008780371 0.0064997309         3893 
 4914000   0.47090921   -9.0357428    517.86815 0.0087821894 0.0064973077         3903 
 4915000   0.46920929   -9.0254837    518.17008 0.0087855219 0.0064948837         3884 
 4916000   0.47008412   -9.0396839    517.06671 0.0087650311  0.006492462         3888 
 4917000   0.46721096   -9.0396929    516.95803 0.0087614066 0.0064900414         3906 
 4918000   0.45410409   -9.0385599    516.95786 0.0087596221 0.0064876218         3897 
 4919000   0.45447919   -9.0384811    517.63197 0.0087692615 0.0064852036         3908 
 4920000   0.46417662   -9.0295623    517.89156 0.0087718761 0.0064827833         3895 
 4921000   0.46634674   -9.0395118    517.11722 0.0087569806 0.0064803681         3875 
 4922000   0.46475808   -9.0436294    517.99723 0.0087701007 0.0064779545         3893 
 4923000   0.47106196   -9.0314429    516.93881  0.008750403 0.0064755408         3882 
 4924000    0.4685473   -9.0508513    517.07761 0.0087509749 0.0064731295         3902 
 4925000     0.462777    -9.030456    517.23276 0.0087518234  0.006470719         3904 
 4926000   0.45901631   -9.0515066    516.78107 0.0087424055  0.006468309         3919 
 4927000   0.46012519   -9.0380822    517.75464 0.0087570976  0.006465901         3906 
 4928000    0.4626539   -9.0379102    517.70597 0.0087544977 0.0064634923         3891 
 4929000   0.46640986    -9.035765      517.006 0.0087408873 0.0064610848         3906 
 4930000    0.4647689   -9.0598662    517.32167 0.0087444501 0.0064586775         3917 
 4931000   0.45779952   -9.0645287    517.13072 0.0087394497 0.0064562742         3898 
 4932000   0.46364607     -9.04098    517.87921 0.0087503245   0.00645387         3882 
 4933000   0.46039124   -9.0390211    517.63252 0.0087443834 0.0064514679         3896 
 4934000   0.46942728   -9.0444471    517.29985 0.0087369925 0.0064490672         3899 
 4935000   0.45808727   -9.0294576    517.53729 0.0087392315 0.0064466694         3889 
 4936000   0.47412164   -9.0365173    516.87249 0.0087262373 0.0064442696         3902 
 4937000   0.46634918   -9.0347656     516.6564 0.0087208224 0.0064418734         3893 
 4938000   0.45560899   -9.0550191    517.11394 0.0087267777 0.0064394784         3883 
 4939000   0.46579958   -9.0343237    518.15483 0.0087425732 0.0064370854         3891 
 4940000   0.45216903   -9.0481388    517.03144 0.0087218529 0.0064346937         3883 
 4941000   0.45999766   -9.0598155    517.53017 0.0087284992 0.0064323021         3902 
 4942000   0.45844772   -9.0456097    516.68932 0.0087125542 0.0064299116         3908 
 4943000   0.46144586   -9.0471638    517.25159 0.0087202709  0.006427524         3897 
 4944000   0.47139105   -9.0480177    517.59738 0.0087243356 0.0064251356         3903 
 4945000    0.4636225    -9.036527    517.52221 0.0087213045 0.0064227486         3897 
 4946000   0.47133385   -9.0378037    517.48036  0.008718836 0.0064203633         3904 
 4947000   0.47965579   -9.0194833     516.8024 0.0087056532 0.0064179777         3879 
 4948000   0.46213133   -9.0429757    516.89035 0.0087053751 0.0064155963         3905 
 4949000   0.45742869   -9.0352805    516.75843 0.0087013947 0.0064132147         3907 
 4950000   0.45461528   -9.0589147    517.33491 0.0087093419 0.0064108346         3878 
 4951000   0.45661925   -9.0445678    517.20025 0.0087053162 0.0064084557         3870 
 4952000    0.4506184   -9.0536575    516.56883 0.0086929327 0.0064060765         3872 
 4953000   0.45852198   -9.0518106     517.8376 0.0087125244 0.0064036969         3893 
 4954000   0.46686957   -9.0519778    517.50462 0.0087051644 0.0064013213         3906 
 4955000   0.46613037    -9.048695     516.6542 0.0086891053 0.0063989458         3880 
 4956000   0.45802395   -9.0380673    516.86001 0.0086908127 0.0063965706         3887 
 4957000   0.46092483   -9.0584769      517.673 0.0087027267 0.0063941984         3898 
 4958000   0.45107524   -9.0511102    517.11219 0.0086915454 0.0063918268         3904 
 4959000   0.46027957   -9.0511833    516.65703 0.0086821441 0.0063894579         3874 
 4960000    0.4516622   -9.0494149     517.3615 0.0086922294 0.0063870878         3904 
 4961000   0.46120447   -9.0494665    517.41999 0.0086914599 0.0063847192         3899 
 4962000   0.45659087   -9.0685035    517.58581 0.0086924931 0.0063823524         3918 
 4963000   0.46632197   -9.0648831    517.47482 0.0086888779 0.0063799876         3907 
 4964000   0.46523869   -9.0455192    517.24874 0.0086833323 0.0063776215         3900 
 4965000   0.45610439   -9.0375652    516.68329 0.0086720928 0.0063752574         3911 
 4966000   0.45807942   -9.0575336    516.13117 0.0086610814 0.0063728952         3869 
 4967000   0.45827954   -9.0548129    517.07167  0.008675117 0.0063705356         3884 
 4968000   0.45765271   -9.0483167    516.01473 0.0086556417 0.0063681765         3879 
 4969000   0.45769972   -9.0688712    517.05401 0.0086713291 0.0063658187         3900 
 4970000   0.45641256   -9.0549661    516.79541 0.0086652484 0.0063634618         3916 
 4971000   0.46556263   -9.0703227    517.46644 0.0086747542 0.0063611068         3910 
 4972000    0.4700492   -9.0436609    517.83641 0.0086792104 0.0063587526         3893 
 4973000   0.45728077   -9.0534344     517.2202 0.0086671392 0.0063563995         3912 
 4974000   0.46039719    -9.045307    516.93124 0.0086605555 0.0063540459         3882 
 4975000   0.44116381   -9.0404797    517.55869 0.0086693248 0.0063516951         3853 
 4976000    0.4499607    -9.039084    517.11726   0.00866019 0.0063493455         3896 
 4977000   0.44078969   -9.0569384    516.79325 0.0086530248 0.0063469976         3893 
 4978000   0.45069762    -9.063522    516.55642 0.0086473219 0.0063446488         3903 
 4979000    0.4543474   -9.0608098    516.56179 0.0086456749 0.0063423024         3901 
 4980000   0.46416475   -9.0491738    517.59185 0.0086611756  0.006339957         3885 
 4981000   0.44778286    -9.058443     516.9425 0.0086485728 0.0063376132         3886 
 4982000   0.45303793   -9.0613427    517.29255 0.0086526921 0.0063352696         3900 
 4983000     0.450241   -9.0466985    517.60766 0.0086562255 0.0063329273         3911 
 4984000   0.44726163   -9.0617191    516.55644 0.0086369121 0.0063305861         3877 
 4985000   0.45143155   -9.0613168    517.07445 0.0086438391 0.0063282459         3891 
 4986000   0.44832974   -9.0515495    517.05575 0.0086417928 0.0063259082         3896 
 4987000   0.44879435   -9.0545446     516.4764  0.008630379  0.006323569         3913 
 4988000   0.45717602   -9.0652381    517.26798 0.0086418735 0.0063212333         3897 
 4989000   0.46127391   -9.0594606    516.91449 0.0086342368 0.0063188988         3895 
 4990000   0.45590541   -9.0609602    515.87946 0.0086152214 0.0063165641         3890 
 4991000   0.45395487   -9.0491935    516.93506 0.0086311204 0.0063142319         3890 
 4992000   0.44435753   -9.0509346    517.43183 0.0086376842 0.0063118996         3892 
 4993000   0.45085394   -9.0577749    516.09612 0.0086136611 0.0063095693         3894 
 4994000   0.45526886    -9.064082    517.60341 0.0086370881 0.0063072388         3912 
 4995000   0.45725206   -9.0581067    517.77418 0.0086382079 0.0063049093         3892 
 4996000   0.46079393   -9.0632512    516.48059 0.0086149018 0.0063025824         3890 
 4997000   0.44752717   -9.0594328    516.87139 0.0086196949 0.0063002575         3897 
 4998000   0.46046931   -9.0624395    517.13987 0.0086224468 0.0062979316         3917 
 4999000     0.447682   -9.0547271    517.25381 0.0086226213 0.0062956076         3883 
 5000000   0.45370197   -9.0670473    516.54743 0.0086091238 0.0062932849         3892 
 5001000   0.45087914   -9.0494807    516.57864 0.0086079224 0.0062909637         3874 
 5002000   0.45878963   -9.0609823     516.2202 0.0086002299 0.0062886437         3876 
 5003000   0.44969698   -9.0785681    517.17767 0.0086144592 0.0062863239         3879 
 5004000   0.44959383   -9.0650003    516.81514 0.0086067003 0.0062840054         3891 
 5005000   0.44182033   -9.0574614    516.63145 0.0086019223 0.0062816876         3892 
 5006000   0.45013438   -9.0583435     516.6083 0.0085998186 0.0062793722         3901 
 5007000   0.45796837   -9.0741075    516.49141 0.0085961555  0.006277057         3920 
 5008000   0.44547376   -9.0594786    516.93316 0.0086017898  0.006274743         3908 
 5009000   0.44847894   -9.0553518      516.874 0.0085990884 0.0062724301         3891 
 5010000   0.46398936   -9.0560379    517.25337 0.0086036821 0.0062701184         3901 
 5011000   0.44619987   -9.0551713    517.20399  0.008601144 0.0062678088         3899 
 5012000   0.44679406   -9.0666089    516.80856 0.0085928532 0.0062654987         3876 
Loop time of 13318 on 48 procs for 5000000 steps with 4000 atoms

Performance: 64874.728 tau/day, 375.432 timesteps/s
99.4% CPU use with 48 MPI tasks x no OpenMP threads

MPI task timing breakdown:
Section |  min time  |  avg time  |  max time  |%varavg| %total
---------------------------------------------------------------
Pair    | 971.19     | 1079.8     | 1178.5     | 160.4 |  8.11
Neigh   | 95.357     | 99.329     | 105.35     |  19.2 |  0.75
Comm    | 852.32     | 950.85     | 1075.4     | 173.1 |  7.14
Output  | 18.616     | 18.62      | 18.713     |   0.3 |  0.14
Modify  | 11015      | 11046      | 11093      |  16.8 | 82.94
Other   |            | 123.7      |            |       |  0.93

Nlocal:        83.3333 ave          89 max          76 min
Histogram: 1 1 0 9 5 8 18 2 0 4
Nghost:        2474.06 ave        2490 max        2458 min
Histogram: 3 1 5 7 8 9 5 5 3 2
Neighs:        17241.4 ave       19702 max       14336 min
Histogram: 1 3 4 5 9 7 5 6 6 2
FullNghs:      34480.2 ave       37073 max       31032 min
Histogram: 1 1 1 6 7 8 15 5 1 3

Total # of neighbors = 1655052
Ave neighs/atom = 413.76300
Neighbor list builds = 266035
Dangerous builds = 2

#clear
#
#next RN
#
#jump SELF
Total wall time: 3:42:01
