
units lj                  # Use reduced LJ style units
atom_style atomic         # Uncharged point particles
atom_modify map hash      # Needed for indexing of clusters etc
                          # Used to be able to find where atoms are in relation to each other.

lattice fcc 1.0 spacing 1 1 1
Lattice spacing in x,y,z = 1.5874011 1.5874011 1.5874011
region box block 0 10 0 10 0 10 units lattice
create_box 2 box
Created orthogonal box = (0.0000000 0.0000000 0.0000000) to (15.874011 15.874011 15.874011)
  3 by 4 by 4 MPI processor grid
create_atoms 1 box
Created 4000 atoms
  using lattice units in orthogonal box = (0.0000000 0.0000000 0.0000000) to (15.874011 15.874011 15.874011)
  create_atoms CPU = 0.031 seconds
set type 1 type/fraction 2 0.91 78393
Setting atom values ...
  3634 settings made for type/fraction
mass 1 1.0
mass 2 1.0
pair_style lj/cut  3.5
pair_modify tail  yes
pair_coeff 1  1  1.0  1.0   # Intearaction between 1 and 1 set with epsilon = 1 and sigma = 1
pair_coeff 1  2  1.5  0.8
pair_coeff 2  2  0.5  0.88

write_data data.0
System init for write_data ...
Neighbor list info ...
  update every 1 steps, delay 10 steps, check yes
  max neighbors/atom: 2000, page size: 100000
  master list distance cutoff = 3.8
  ghost atom cutoff = 3.8
  binsize = 1.9, bins = 9 9 9
  1 neighbor lists, perpetual/occasional/extra = 1 0 0
  (1) pair lj/cut, perpetual
      attributes: half, newton on
      pair build: half/bin/atomonly/newton
      stencil: half/bin/3d
      bin: standard
WARNING: Not all mixed pair coeffs generated from mixing. Use write_data with 'pair ij' option to store all pair coeffs. (../write_data.cpp:312)


#############################
#   M E L T   S Y S T E M   #
#############################

velocity all create 2.4 6229865 mom yes dist gaussian # Assign velocities
                                                    # Temperature 2.4, random number seed, zero linear momentum
                                                                                # Gaussian distribution

timestep 0.002   # simulation timestep
thermo 1000       # output thermodynamic data every 1000 steps bf 100

# Define a fix  in this case with index 1 applied to all
# particles in the simulation. This fix is for simulations
# in the anisotropic NPT ensemble. Note that we use the MTK
# correction.
fix 1 all npt temp 2.4 2.4 0.1 iso 5.68 5.68 0.5 mtk yes tchain 5 pchain 5 # Use NPT ensemble
                                                                         # Set temperature and pressure and damping
                                                                         # Numbers of thermostats in chain and in barostat
run 10000          # run for 10000 steps
Per MPI rank memory allocation (min/avg/max) = 3.642 | 3.644 | 3.648 Mbytes
Step Temp E_pair E_mol TotEng Press Volume 
       0          2.4    -3.140535            0     0.458565   -2.4974117         4000 
    1000      2.38256   -2.1436116            0    1.4293349     5.622357    4038.5944 
    2000    2.3566378   -2.2055993            0    1.3284737    5.7158149     3979.339 
    3000    2.4127978   -2.1565354            0    1.4617565    5.5824616    4043.2447 
    4000    2.3886574   -2.1319304            0      1.45016    5.6845931    4045.2891 
    5000    2.3488563   -2.1585355            0    1.3638681    5.4011669    4064.5723 
    6000    2.3664056   -2.2089568            0    1.3397642    5.3227365    4027.8934 
    7000    2.3434695   -2.1351851            0    1.3791403    5.6543484    4041.5754 
    8000    2.3945614   -2.1498893            0    1.4410548    5.5973881    4046.3878 
    9000    2.4111001   -2.1780079            0    1.4377381    5.5161563    4025.0202 
   10000    2.4401411   -2.1464462            0    1.5128503     5.583975    4049.3083 
Loop time of 2.58067 on 48 procs for 10000 steps with 4000 atoms

Performance: 669594.619 tau/day, 3874.969 timesteps/s
99.5% CPU use with 48 MPI tasks x no OpenMP threads

MPI task timing breakdown:
Section |  min time  |  avg time  |  max time  |%varavg| %total
---------------------------------------------------------------
Pair    | 1.0582     | 1.1446     | 1.3066     |   3.9 | 44.35
Neigh   | 0.20584    | 0.21383    | 0.24536    |   1.4 |  8.29
Comm    | 0.76143    | 0.89422    | 1.0239     |   5.4 | 34.65
Output  | 0.00024481 | 0.00025123 | 0.00031551 |   0.0 |  0.01
Modify  | 0.24478    | 0.3126     | 0.36212    |   4.9 | 12.11
Other   |            | 0.01518    |            |       |  0.59

Nlocal:        83.3333 ave          97 max          74 min
Histogram: 3 4 5 16 4 7 5 2 1 1
Nghost:        1633.27 ave        1672 max        1602 min
Histogram: 2 3 9 10 6 5 3 6 2 2
Neighs:        9426.35 ave       11104 max        8198 min
Histogram: 2 4 7 12 8 5 4 4 1 1

Total # of neighbors = 452465
Ave neighs/atom = 113.11625
Neighbor list builds = 903
Dangerous builds = 196

# Equilibrate just above the melting temperature to avoid step fn in T

fix 1 all npt temp 1.25 1.25 0.1 iso 5.68 5.68 0.5 mtk yes tchain 5 pchain 5
run 2000
Per MPI rank memory allocation (min/avg/max) = 3.643 | 3.645 | 3.649 Mbytes
Step Temp E_pair E_mol TotEng Press Volume 
   10000    2.4401411   -2.1464462            0    1.5128503     5.583975    4049.3083 
   11000     1.237279   -3.2283039            0   -1.3728494    5.6645345     3115.942 
   12000    1.2569293    -3.196551            0   -1.3116284    5.6032745    3141.2575 
Loop time of 0.600435 on 48 procs for 2000 steps with 4000 atoms

Performance: 575582.627 tau/day, 3330.918 timesteps/s
99.6% CPU use with 48 MPI tasks x no OpenMP threads

MPI task timing breakdown:
Section |  min time  |  avg time  |  max time  |%varavg| %total
---------------------------------------------------------------
Pair    | 0.26632    | 0.28916    | 0.30568    |   1.9 | 48.16
Neigh   | 0.039549   | 0.04158    | 0.043625   |   0.5 |  6.92
Comm    | 0.20145    | 0.22008    | 0.24389    |   2.3 | 36.65
Output  | 5.1801e-05 | 5.3794e-05 | 7.0358e-05 |   0.0 |  0.01
Modify  | 0.040357   | 0.044805   | 0.049371   |   1.2 |  7.46
Other   |            | 0.004757   |            |       |  0.79

Nlocal:        83.3333 ave          93 max          75 min
Histogram: 2 3 5 10 6 10 5 4 2 1
Nghost:        1940.06 ave        1964 max        1913 min
Histogram: 2 1 4 4 10 9 10 3 3 2
Neighs:        12159.1 ave       13962 max       10508 min
Histogram: 2 1 6 10 7 9 7 2 3 1

Total # of neighbors = 583635
Ave neighs/atom = 145.90875
Neighbor list builds = 144
Dangerous builds = 18

#############################
# L I N E A R  Q U E N C H  #
#############################

# Define solid atoms. This closely follows ten Wolde  Ruiz-Montero and Frenkel  Faraday Discuss  1996  104  93-110
# Compute components of the per-atom q6 vector
compute q6 all orientorder/atom degrees 1 6 components 6 nnn NULL cutoff 1.3 # compute the Q6 parameter.
                                                                             # Use all neighbours within 1.3 unit cell.

# get number of connections
compute coord_number all coord/atom orientorder q6 0.5

# An atom is solid if it has 8 or more connections (of a possible 14)
variable is_solid atom c_coord_number>=8
group solid dynamic all var is_solid    # Must be dynamic to update
dynamic group solid defined

# do clustering
compute cluster solid cluster/atom 1.3 # Create a cluster where all atoms within are solid and max 1.3 units from another member

# define chunks one chunk per cluster
compute clus_chunks solid chunk/atom c_cluster nchunk every compress yes  # Says which atoms are in which chunk

# count the size of each chunk
compute size_chunks solid property/chunk clus_chunks count


# Find the maximum entry in the vector of chunk sizes
variable max_n equal max(c_size_chunks)


# Thermo style which includes this variable
# thermo_style custom step temp pe vol v_max_n

thermo ${N}  # Print the thermo information every 100 steps
thermo 1000  

# Reset the npt fix at a lower temperature (below freezing)
fix 1  all npt temp  ${temp} ${temp}  0.1  iso  5.68  5.68  0.5  mtk yes tchain  5  pchain  5
fix 1  all npt temp  0.45 ${temp}  0.1  iso  5.68  5.68  0.5  mtk yes tchain  5  pchain  5
fix 1  all npt temp  0.45 0.45  0.1  iso  5.68  5.68  0.5  mtk yes tchain  5  pchain  5

dump dmp2 all dcd ${N} traj.dcd
dump dmp2 all dcd 1000 traj.dcd


compute msd all msd com yes
variable twopoint equal c_msd[4]/6/(step*dt+1.0e-6)
fix 9 all vector 10 c_msd[4]
variable fit equal slope(f_9)/6/(10*dt)
thermo_style custom step temp pe c_msd[4] v_twopoint v_fit v_max_n

fix 1 all npt temp 1.25 ${temp} 0.1 iso 5.68 5.68 0.5 mtk yes tchain 5 pchain 5
fix 1 all npt temp 1.25 0.45 0.1 iso 5.68 5.68 0.5 mtk yes tchain 5 pchain 5
run 5000000 # 5000000  # Run for this many steps
Neighbor list info ...
  update every 1 steps, delay 10 steps, check yes
  max neighbors/atom: 2000, page size: 100000
  master list distance cutoff = 3.8
  ghost atom cutoff = 3.8
  binsize = 1.9, bins = 8 8 8
  4 neighbor lists, perpetual/occasional/extra = 1 3 0
  (1) pair lj/cut, perpetual
      attributes: half, newton on
      pair build: half/bin/atomonly/newton
      stencil: half/bin/3d
      bin: standard
  (2) compute orientorder/atom, occasional
      attributes: full, newton on
      pair build: full/bin/atomonly
      stencil: full/bin/3d
      bin: standard
  (3) compute coord/atom, occasional
      attributes: full, newton on
      pair build: full/bin/atomonly
      stencil: full/bin/3d
      bin: standard
  (4) compute cluster/atom, occasional
      attributes: full, newton on
      pair build: full/bin/atomonly
      stencil: full/bin/3d
      bin: standard
Per MPI rank memory allocation (min/avg/max) = 9.823 | 9.827 | 9.833 Mbytes
Step Temp PotEng c_msd[4] v_twopoint v_fit v_max_n 
   12000    1.2569293    -3.196551 2.0782541e-30 1.4432319e-32 8.3333333e+20            1 
   13000    1.2289605   -3.2310373    1.0301284 0.0066033868  0.088228807            2 
   14000    1.2896916    -3.199575    2.1202997  0.012620831  0.090144163            1 
   15000     1.242568   -3.1970823    3.2122973  0.017846096  0.090027792            1 
   16000    1.2515761   -3.2159704    4.3311211  0.022557922  0.091535144            3 
   17000    1.2421261   -3.2246192    5.4391342  0.026662422   0.09182706            2 
   18000     1.220317   -3.2526212    6.5673161   0.03040424  0.091798959            2 
   19000    1.2503368   -3.2357191    7.6025539  0.033344534  0.092020326            2 
   20000    1.2487985   -3.1984691    8.6654116  0.036105881  0.091485436            2 
   21000    1.2323979   -3.2006889    9.7550471  0.038710503  0.091196219            2 
   22000    1.2553709    -3.219337    10.888747  0.041245252  0.090819614            2 
   23000    1.2251286   -3.1759379     12.04919  0.043656484  0.091025972            2 
   24000    1.2366331   -3.2510698    13.082232  0.045424417  0.091166926            2 
   25000    1.2667704   -3.2288425    14.208029  0.047360097  0.091138384            1 
   26000    1.2552247   -3.2486234    15.309631  0.049069328  0.091404282            3 
   27000    1.2661149   -3.2124686    16.365307  0.050510205  0.091457977            1 
   28000     1.237793   -3.2174969    17.444656  0.051918617  0.091390009            2 
   29000    1.2717669   -3.2204962    18.489622  0.053131095  0.091266936            3 
   30000    1.2753237   -3.1967799    19.249208  0.053470023  0.090947121            3 
   31000    1.2328134   -3.1981326    20.306101  0.054586293  0.090460717            2 
   32000    1.2214782   -3.2409411    21.340958   0.05557541  0.090117093            1 
   33000    1.2522024   -3.2278897    22.632359   0.05715242  0.089856263            1 
   34000    1.2441565   -3.2351103    23.479353  0.057547433  0.089649593            2 
   35000    1.2399297   -3.2296943    24.480004  0.058285723  0.089482312            1 
   36000    1.2390166   -3.2208947    25.773279  0.059660367  0.089348058            1 
   37000      1.24544   -3.2337183    26.754266  0.060257354  0.089251752            1 
   38000    1.2453582    -3.227461    27.835558  0.061042889  0.089145346            1 
   39000    1.2625508   -3.2512176    29.011439  0.061990253  0.089107764            2 
   40000    1.2625166   -3.2188934    30.292539  0.063109456  0.089135295            1 
   41000    1.2680214   -3.2284674    31.215612  0.063446365  0.089178583            1 
   42000    1.2336428   -3.2287297    32.332263  0.064151315   0.08920011            2 
   43000    1.2406373   -3.1906786    33.312716  0.064559527  0.089181154            5 
   44000    1.2507409   -3.2224715    34.492856  0.065327378  0.089204845            1 
   45000    1.2468315    -3.235114     35.26096  0.065298073  0.089158766            2 
   46000    1.2410548   -3.2440187    36.353668  0.065858093  0.089098156            4 
   47000    1.2509631   -3.2154249    37.247156  0.066041056  0.088993697            3 
   48000    1.2509247   -3.2320251    38.512314  0.066861655  0.088972671            3 
   49000    1.2620954   -3.2225326    39.640881  0.067416464  0.088934778            2 
   50000    1.2617918   -3.2292266    40.613654  0.067689423  0.088895338            1 
   51000    1.2542658   -3.2277203    41.795867  0.068293899  0.088918937            1 
   52000    1.2506895   -3.2252413    43.011775  0.068929126  0.088953236            1 
   53000     1.250162   -3.2288958    44.135055  0.069394739  0.088976576            3 
   54000    1.2240506   -3.2088492    45.343877  0.069975118   0.08901924            2 
   55000     1.243822    -3.247461    46.052722  0.069776851  0.089066151            2 
   56000    1.2380829   -3.2148326    47.509204   0.07069822  0.089102972            1 
   57000    1.2177284   -3.1932139    48.208979  0.070480963  0.089129162            1 
   58000    1.2434122   -3.2636485     49.07864  0.070515286  0.089099917            1 
   59000    1.2383059   -3.2483239    50.232477  0.070949826  0.089033594            2 
   60000    1.2319717   -3.2085492    51.267784  0.071205255  0.089004392            1 
   61000    1.2148827   -3.2409747    52.228504  0.071350415  0.088954428            2 
   62000     1.241643   -3.1983293    53.463527  0.071859579  0.088912076            2 
   63000    1.2520091   -3.2315574    54.412197  0.071973806  0.088854948            1 
   64000    1.2306279   -3.2176417    55.463254  0.072217778  0.088800825            2 
   65000    1.2304146   -3.2314017    56.588379  0.072549204  0.088759411            3 
   66000    1.2449928   -3.2077563      57.5879  0.072711994  0.088711835            1 
   67000     1.264725   -3.2134256    58.654665  0.072953563  0.088657086            2 
   68000    1.2482198   -3.2285443    59.579605  0.073014221  0.088635108            1 
   69000    1.2236334   -3.1999639    60.671728  0.073275033  0.088599477            2 
   70000    1.2383778   -3.2020348    61.770467   0.07353627  0.088589538            3 
   71000    1.2339313   -3.2054702    62.954061  0.073889742  0.088589804            1 
   72000    1.2526099   -3.2417453    64.034105  0.074113548  0.088577727            3 
   73000    1.2390914   -3.2354784    64.993986  0.074194047  0.088577621            5 
   74000    1.2269749   -3.2412697    66.316802  0.074681082   0.08859047            3 
   75000    1.2273078   -3.2402827    67.354574  0.074838415  0.088620959            3 
   76000    1.2465579   -3.2630082    68.453283  0.075058424  0.088667743            1 
   77000    1.2466421   -3.2404249    69.637772  0.075365553  0.088713518            3 
   78000    1.2397017   -3.2536748    70.877332  0.075723645  0.088764373            1 
   79000    1.2542226   -3.2075753    72.365595  0.076335016  0.088824717            4 
   80000    1.2760052   -3.2175563    73.088952  0.076134324  0.088862954            1 
   81000    1.2518213   -3.2486265    73.397113  0.075511433  0.088865504            2 
   82000     1.260732   -3.2275985    74.878769   0.07609631  0.088860434            1 
   83000     1.240911   -3.2331507    75.757761  0.076062008  0.088837814            1 
   84000    1.2630274   -3.2223926    76.582958  0.075975157  0.088804167            2 
   85000    1.2316923   -3.2427184    77.235151  0.075720736  0.088754534            1 
   86000    1.2365165   -3.2527268    78.024239  0.075604882  0.088699614            5 
   87000    1.2491252   -3.2355085    79.234411  0.075895029  0.088635426            1 
   88000    1.2247732   -3.2638163    80.561222  0.076289035  0.088593015            1 
   89000    1.2336206   -3.2433366    81.711689  0.076509072  0.088561182            1 
   90000    1.2358319   -3.2378219    82.775974   0.07664442  0.088542193            1 
   91000    1.2235701   -3.2356745    84.456575  0.077341186  0.088532048            2 
   92000    1.2449772   -3.2231212    85.229384  0.077200528  0.088548973            2 
   93000    1.2342009   -3.2191279    86.727593  0.077712896  0.088569904            1 
   94000     1.245853   -3.2279441    87.835114  0.077868009  0.088596015            1 
   95000    1.2319636   -3.2573829    89.069571  0.078131203  0.088635188            2 
   96000    1.2275408   -3.2453717    90.535376  0.078589736  0.088690838            1 
   97000    1.2379098   -3.2350393    90.972254  0.078154857  0.088750107            1 
   98000    1.2513312   -3.2503352    92.560965  0.078708303  0.088795777            1 
   99000    1.2413394   -3.2307951    93.984757  0.079111748  0.088869821            1 
  100000      1.24425   -3.2494678    95.057309  0.079214424  0.088958456            4 
  101000    1.2482509   -3.2360551     96.40951    0.0795458  0.089034738            2 
  102000    1.2458987   -3.2582316    96.645794  0.078958981  0.089092645            2 
  103000    1.2375393   -3.2104051    98.582584  0.079759372  0.089146572            3 
  104000    1.2495995   -3.2270814    99.335421   0.07959569  0.089187538            1 
  105000    1.2255639   -3.2615368    99.493097  0.078962775  0.089215144            2 
  106000    1.2442534   -3.2654001    101.11113  0.079489879  0.089232077            1 
  107000    1.2207314   -3.2804852    101.48654  0.079039361  0.089240776            2 
  108000    1.2362134   -3.2316128    103.36352  0.079755805  0.089246878            4 
  109000    1.2482266    -3.243051    103.88904  0.079425869  0.089263411            2 
  110000    1.2391924   -3.2390303    105.37935  0.079832839  0.089288806            2 
  111000    1.2455677   -3.2670585    106.59395  0.080025485  0.089314935            1 
  112000    1.2354189   -3.2456984    107.87208  0.080261965  0.089342214            1 
  113000    1.2433766   -3.1887459    109.26764  0.080580852  0.089394321            1 
  114000       1.2235   -3.2247271    110.44634  0.080735627  0.089440924            2 
  115000    1.2354891   -3.2450052    111.17123  0.080558865  0.089484291            2 
  116000    1.2257728   -3.2266741    113.01731  0.081190595   0.08952624            3 
  117000      1.23771   -3.2519738    114.38604   0.08147154  0.089589044            1 
  118000    1.2516502   -3.2360688    115.53127  0.081589877  0.089657355            2 
  119000    1.2219086   -3.2436311    116.41515  0.081523212  0.089718142            2 
  120000     1.232292   -3.2565717    117.03088  0.081271444  0.089770389            1 
  121000    1.2243142   -3.2433486    118.18841  0.081396973  0.089817958            3 
  122000    1.2195637   -3.2437673    120.35206  0.082207688  0.089879546            2 
  123000    1.2506074   -3.2421482    121.19316  0.082109185  0.089940307            2 
  124000     1.270537   -3.2611863     121.1564  0.081422311  0.089995481            2 
  125000    1.2441722   -3.2532741     123.2876  0.082191736  0.090053702            1 
  126000    1.2162875   -3.2189329    124.18892  0.082135528  0.090105441            2 
  127000    1.2405906   -3.2194627    125.50112  0.082349813  0.090162923            2 
  128000    1.2171752   -3.2529472    126.44472  0.082320782  0.090218164            3 
  129000    1.2507461   -3.2376122    127.04338   0.08206937  0.090264073            2 
  130000    1.2748908   -3.2515003    128.20248  0.082181079  0.090304109            2 
  131000    1.2306547   -3.2022304    129.65162  0.082475587  0.090340804            3 
  132000    1.2313291    -3.253629    130.64017  0.082474853  0.090384128            3 
  133000    1.2468079   -3.2569913    131.18618  0.082196857  0.090415301            3 
  134000    1.2444864   -3.2397317    132.73576  0.082547113  0.090445579            3 
  135000    1.2209403   -3.2391227    134.56213  0.083063042  0.090483688            1 
  136000    1.2346297   -3.2139497    135.24706  0.082871973  0.090523734            2 
  137000    1.2241352   -3.2559582     135.9589  0.082700058  0.090564405            4 
  138000    1.2160316   -3.2103224    137.05357  0.082761819  0.090594311            2 
  139000    1.2288873   -3.2280158    137.73103  0.082572562  0.090617861            1 
  140000     1.244719   -3.2459667    139.10608   0.08280124  0.090640675            2 
  141000    1.2273873    -3.214655    140.47117  0.083020784  0.090657871            2 
  142000    1.2290113   -3.2359213    141.34043  0.082946264  0.090676805            3 
  143000    1.2126781   -3.2365416    142.80611  0.083220341    0.0907007            3 
  144000    1.2406403   -3.2150439      143.975  0.083318864  0.090719745            2 
  145000    1.2270628   -3.2442729    144.99984  0.083333241  0.090735809            1 
  146000    1.2246741   -3.2334565    146.26587  0.083485088  0.090750456            1 
  147000    1.2271371   -3.2777629    147.11385  0.083397874  0.090766715            1 
  148000     1.212731   -3.2258801    147.78008  0.083209503  0.090773879            1 
  149000    1.2102916   -3.2114653    149.66071   0.08370286  0.090782394            1 
  150000    1.2507679   -3.2506871    149.87583  0.083264348  0.090800642            2 
  151000    1.2449881   -3.2623139    151.00796  0.083337729  0.090810538            3 
  152000    1.2561074   -3.2363988     152.8034  0.083773791  0.090831701            2 
  153000    1.2425709   -3.2510609    153.55015  0.083632978  0.090846217            3 
  154000    1.2254974   -3.2347396    154.31331  0.083502874   0.09085615            2 
  155000     1.246002   -3.2402941    155.45906  0.083580137  0.090859901            1 
  156000    1.2093685   -3.2576807    157.18882  0.083968384  0.090867282            1 
  157000    1.2256569   -3.2575919    156.73046  0.083190265  0.090866406            1 
  158000     1.215836   -3.2618958    157.88553  0.083272956  0.090854416            2 
  159000    1.2752163   -3.2418975    159.24371  0.083461065    0.0908483            2 
  160000    1.2106081   -3.2442721    159.95741  0.083311151  0.090830013            2 
  161000    1.2205262   -3.2291767    161.25985  0.083467833  0.090806682            2 
  162000    1.2254397   -3.2330555    161.88762  0.083275526  0.090787877            2 
  163000    1.2264131   -3.2385606    162.84277  0.083252948  0.090766098            1 
  164000    1.2269958   -3.2617628    163.45444  0.083056117  0.090741199            1 
  165000    1.2245224   -3.2497667    165.43606  0.083553568  0.090721627            2 
  166000    1.2264404   -3.2450404    167.23411  0.083952865  0.090708126            1 
  167000    1.2265164   -3.2630961    167.15188   0.08340912  0.090693002            2 
  168000    1.2436722    -3.250521    168.76467  0.083712632  0.090680042            2 
  169000    1.2248847   -3.2494449    169.56641  0.083612628  0.090667327            2 
  170000    1.2142168   -3.2570708    170.54485  0.083600416  0.090659161            1 
  171000    1.2421124   -3.2047854    171.28168  0.083470603  0.090642016            1 
  172000    1.2507621   -3.2550033    172.94957  0.083793394  0.090624632            1 
  173000     1.227734   -3.2157866    174.34144  0.083979498  0.090612974            4 
  174000    1.2459331   -3.2345716    175.54574  0.084073629  0.090601667            5 
  175000    1.1856266   -3.2281297    176.53515  0.084064356  0.090591175            2 
  176000    1.2303326   -3.2462195    177.41564  0.084003616  0.090587514            4 
  177000    1.1834631   -3.2768392    177.73639  0.083680031  0.090583178            2 
  178000    1.2352025    -3.262935    179.68982  0.084124446  0.090579058            2 
  179000    1.2342681   -3.2518428       180.46  0.084013034  0.090575437            1 
  180000    1.2091269   -3.2050379    183.33084   0.08487539  0.090576506            1 
  181000    1.2136908   -3.2629755    182.61062  0.084074872  0.090580724            1 
  182000     1.219088    -3.279395    183.56611  0.084050416  0.090572633            1 
  183000    1.2208085   -3.2610719    184.48341  0.084008837  0.090565026            2 
  184000    1.2152914   -3.2379537    185.24148  0.083895598     0.090553            2 
  185000    1.2274022    -3.254865    186.99424  0.084231639  0.090537043            2 
  186000    1.2320239   -3.2147498    188.00756  0.084232778  0.090520106            1 
  187000    1.2164779   -3.2410068    188.37178  0.083944642  0.090500326            4 
  188000    1.2335024   -3.2640924     189.2041  0.083867064  0.090482422            1 
  189000    1.1954738   -3.2709682     189.4719    0.0835414  0.090456511            1 
  190000    1.2155166   -3.2915694     190.2491  0.083442587  0.090425661            2 
  191000    1.2281545   -3.2528795     191.6255  0.083606237  0.090401437            1 
  192000    1.2102175   -3.2332481    194.01709  0.084208806  0.090378257            2 
  193000    1.2212559   -3.2424128    194.50956  0.083985131  0.090352794            1 
  194000    1.2249091   -3.2509248    194.86431  0.083704599  0.090324024            1 
  195000     1.255809   -3.2715022    194.86915  0.083277413  0.090299708            2 
  196000    1.2070204   -3.2611711     197.0026  0.083759611  0.090272543            2 
  197000    1.2250751   -3.2344081     198.4236  0.083935533  0.090249774            2 
  198000    1.2076793   -3.2623674    198.77274  0.083658559  0.090220681            1 
  199000    1.2261373   -3.2904907    200.30459  0.083879643  0.090192894            2 
  200000    1.2638031   -3.2813705     201.9457  0.084144043  0.090166409            3 
  201000    1.2302487   -3.2472903     203.1758  0.084235405  0.090151254            1 
  202000     1.232554   -3.2440711    203.85217  0.084097429  0.090133863            1 
  203000    1.2286203   -3.2606568    205.31415  0.084283311  0.090113489            1 
  204000    1.2131546   -3.2615104    205.66974  0.084015417  0.090101102            1 
  205000    1.2181185   -3.2705289    207.21686  0.084234495  0.090086201            3 
  206000    1.2225938   -3.2542872    208.92769  0.084517672  0.090079026            1 
  207000    1.2060331   -3.2420609    210.22622  0.084632132  0.090079019            2 
  208000    1.2253388   -3.2454572    212.20505   0.08501805  0.090084528            1 
  209000    1.1998318    -3.260714    212.29908  0.084648758  0.090088299            2 
  210000    1.2159107   -3.2150996    213.57379  0.084751505  0.090084658            1 
  211000    1.2235955   -3.2540726    214.62454  0.084764825  0.090080297            2 
  212000    1.1935966   -3.2612702    215.68419  0.084781521  0.090072302            2 
  213000    1.2298558   -3.2655305    217.04208  0.084914743   0.09006262            1 
  214000    1.2142883   -3.2309662    217.50261  0.084697279  0.090046949            1 
  215000    1.1891649   -3.2562658    217.77464  0.084408775  0.090033778            1 
  216000    1.2076926    -3.252128    219.12584  0.084539288  0.090018985            2 
  217000    1.2219919   -3.3012708    219.76992  0.084397051  0.090005559            2 
  218000    1.2296913   -3.2779621    220.69613  0.084363965  0.089991773            4 
  219000    1.2319386   -3.2672323    222.92413  0.084826532  0.089978258            1 
  220000    1.1970519   -3.2555487    223.79538  0.084770978  0.089964621            1 
  221000    1.2353669   -3.2540371    224.69293  0.084725842   0.08995165            1 
  222000    1.2397092   -3.2753814    224.62071  0.084317082  0.089934372            2 
  223000    1.2079953   -3.2906629    225.67408  0.084332616  0.089914842            2 
  224000    1.2081251   -3.2902745     226.9988  0.084448957  0.089896289            2 
  225000    1.2555241   -3.2712709    226.98216  0.084067465  0.089877236            1 
  226000    1.2268339   -3.2712875    228.76261  0.084351996  0.089857672            1 
  227000    1.2223725   -3.2195426    230.84245  0.084743923  0.089837628            2 
  228000    1.2337482   -3.2633081    231.74085  0.084700603  0.089820271            1 
  229000    1.1914297   -3.2493244    232.05843    0.0844463  0.089802571            2 
  230000    1.2131012   -3.2408687    233.36074  0.084550994  0.089784274            1 
  231000    1.2019493   -3.2509672    234.23534  0.084500485  0.089767457            1 
  232000    1.2164541   -3.2471815    234.08854  0.084083528  0.089742326            2 
  233000     1.212387   -3.2636331    235.93225  0.084382063  0.089715682            1 
  234000    1.2258429    -3.253458    236.47204  0.084213689  0.089687969            4 
  235000    1.1987947   -3.2637264    238.09838  0.084432051  0.089661415            1 
  236000    1.2276267   -3.2596289    238.87887  0.084349882  0.089637803            2 
  237000    1.2227267   -3.2874998     239.9267  0.084362411  0.089614939            2 
  238000    1.2189567   -3.3049181    241.38583  0.084518847  0.089596813            2 
  239000    1.2019936   -3.2399371    243.33889  0.084846196  0.089583644            3 
  240000    1.2049018   -3.2700171    242.45207  0.084184746  0.089567977            2 
  241000    1.2099248   -3.2871437    243.26945  0.084118068  0.089550164            1 
  242000    1.2106348   -3.2372604     246.0211   0.08471801   0.08953129            2 
  243000    1.2099572   -3.2573096    246.04067  0.084376088  0.089509525            3 
  244000    1.2039943   -3.2543864    247.69775  0.084596226  0.089490841            2 
  245000    1.2276849    -3.282222    249.36525  0.084818111  0.089473324            2 
  246000    1.2302366   -3.2890225    250.65631  0.084910674  0.089454249            1 
  247000    1.2035403   -3.2619013    250.58266  0.084542058  0.089440141            1 
  248000    1.2079147   -3.2324654    253.39421  0.085145904  0.089428052            2 
  249000    1.2188164   -3.2524977    253.61934  0.084879298  0.089420073            1 
  250000     1.185848   -3.2621356    255.16749  0.085055829  0.089412055            1 
  251000    1.1964749   -3.2996153    255.16079  0.084714738  0.089405522            2 
  252000    1.2265229   -3.2669955    257.28182  0.085079966  0.089399742            1 
  253000     1.224497    -3.247315    260.31154  0.085741613  0.089400615            3 
  254000    1.2006482   -3.2582029    258.91319  0.084945273  0.089393044            2 
  255000    1.2244788   -3.2654343    260.08413  0.084994812  0.089385217            1 
  256000    1.1922526   -3.2417568     261.9748  0.085278256  0.089382426            2 
  257000    1.2260803    -3.261105    261.95729  0.084940754  0.089374811            1 
  258000    1.2061775   -3.2844165     264.5477  0.085448222  0.089371703            2 
  259000    1.1936161   -3.2529908    266.25336  0.085667105  0.089375053            2 
  260000    1.2150311   -3.2876634    266.83684  0.085524628  0.089378385            2 
  261000    1.2009023   -3.2641332    268.97675  0.085880188  0.089383746            2 
  262000    1.2005524   -3.2989941    267.88294  0.085204497  0.089391849            1 
  263000    1.2048667   -3.2900774    271.64869  0.086073728   0.08940064            6 
  264000    1.2452732   -3.2640454    272.54372  0.086030215  0.089413476            2 
  265000    1.2015558    -3.268764    273.25919  0.085930561  0.089426218            4 
  266000    1.2012868   -3.2585695    274.46895  0.085986513    0.0894357            3 
  267000    1.1790231   -3.2845596    274.84495   0.08578182  0.089446742            1 
  268000     1.203376   -3.2754649    276.59407   0.08600562  0.089457997            2 
  269000    1.1782279   -3.3097816    275.93647  0.085482179  0.089463329            1 
  270000    1.2044438   -3.2750991    278.48579  0.085952404  0.089471844            2 
  271000    1.2151879   -3.3110657    279.61463  0.085982359  0.089482321            8 
  272000    1.2020914   -3.3035657    281.40063  0.086213429  0.089496365            3 
  273000    1.2146679   -3.2712351    282.86497   0.08634462  0.089510746            2 
  274000     1.196131   -3.2838074    282.64401  0.085962289  0.089524478            2 
  275000    1.1885786   -3.2631877     284.7355  0.086283485  0.089537516            1 
  276000    1.1934342   -3.2771214    284.99411  0.086048947  0.089550075            1 
  277000    1.2178747   -3.2745407    286.37501  0.086153735  0.089565594            3 
  278000    1.1932569   -3.2658674    288.59584  0.086509545  0.089577494            1 
  279000    1.2291467   -3.2921412    288.16318  0.086070245  0.089583367            3 
  280000     1.216996   -3.2716903    289.20726  0.086073589  0.089587904            2 
  281000    1.2239228   -3.2720459    289.69489  0.085911888  0.089593222            3 
  282000    1.2297458   -3.2408647    290.34542  0.085799475  0.089596346            2 
  283000    1.2321933   -3.3166925    290.78216  0.085624899  0.089597384            1 
  284000    1.2132083   -3.2637615    291.87099  0.085642897  0.089595542            2 
  285000    1.2020752    -3.271154    293.35495  0.085776302  0.089596779            1 
  286000     1.204475   -3.2723864    295.72783  0.086167784   0.08959807            1 
  287000    1.2051674   -3.2896286    294.63467  0.085550135  0.089597575            2 
  288000    1.2301234   -3.2671593    296.43923  0.085775241  0.089597348            1 
  289000    1.2158894   -3.2821415    298.38187  0.086038601  0.089596281            2 
  290000    1.2063857   -3.2917831    298.13272  0.085670322  0.089592169            2 
  291000    1.2154648   -3.2851996    299.69193   0.08582243  0.089594386            1 
  292000    1.2121084   -3.2539124    302.12023  0.086221528   0.08959425            2 
  293000    1.2134498   -3.2519342      303.077  0.086199375  0.089595972            3 
  294000    1.1958327   -3.2935308    302.70872  0.085801791  0.089594175            4 
  295000    1.1960824   -3.2769433    305.42404  0.086277978  0.089592007            2 
  296000    1.2213626   -3.3004959    304.84135  0.085822451  0.089586467            3 
  297000    1.2250126    -3.240926    306.09196  0.085884389   0.08958522            1 
  298000     1.202603   -3.3001415    306.61667  0.085742916  0.089580047            3 
  299000    1.2084212   -3.2982799    306.65513  0.085466871  0.089571964            2 
  300000    1.1735402   -3.2943046    308.43426  0.085676185  0.089565008            2 
  301000    1.2014504    -3.281284    310.39414  0.085934146  0.089560703            2 
  302000    1.1897051   -3.2755794    311.24985  0.085885719  0.089559681            2 
  303000    1.2091047   -3.2860851     313.5253  0.086228079  0.089554425            2 
  304000    1.2106446   -3.2981613    312.84718  0.085758547  0.089552035            1 
  305000    1.2222581   -3.2846534    314.36044  0.085890831  0.089548216            2 
  306000    1.2101044   -3.2720603    317.08052  0.086350905  0.089543402            1 
  307000     1.158764   -3.2595373    315.32826  0.085593991  0.089537049            3 
  308000    1.2179171   -3.2429345    316.72647  0.085694391  0.089529914            4 
  309000    1.1802531   -3.3166278    317.38199  0.085593849  0.089521393            1 
  310000    1.2395807   -3.2582455    319.86557  0.085985369  0.089514232            2 
  311000    1.1820486   -3.2700741    320.16689  0.085789627  0.089509621            1 
  312000    1.2191051   -3.2801726    321.31963  0.085822551  0.089503028            2 
  313000    1.2231202   -3.2728481    323.09447  0.086020892   0.08949485            2 
  314000    1.1790487   -3.3055627    323.69787  0.085907078  0.089488266            1 
  315000    1.1926193   -3.2894642    322.20285   0.08523885  0.089478649            2 
  316000    1.1997532    -3.263669    324.39697  0.085547723  0.089467658            3 
  317000    1.2218587    -3.300157    324.80317  0.085384641  0.089457299            1 
  318000    1.2052302   -3.2457976    326.21296  0.085485577  0.089445316       -1e+20 
  319000    1.2461689   -3.2503453    329.10327  0.085972641  0.089432845            1 
  320000    1.2288541    -3.289422     328.1427  0.085453829  0.089418897            3 
  321000    1.1961162   -3.2882589    330.32354  0.085753774  0.089405144            2 
  322000    1.1989601   -3.2533492    331.40461  0.085767238  0.089393186            1 
  323000    1.2005887   -3.2906879    330.38836  0.085239514  0.089377276            2 
  324000     1.188218   -3.2757646     332.4778  0.085513837  0.089365281            2 
  325000    1.1870196   -3.2818635     334.5988  0.085794564  0.089352761            3 
  326000    1.1935589   -3.2799166    335.02965  0.085641526  0.089338432            1 
  327000    1.2163818   -3.3056096    335.39712  0.085473271  0.089326571            2 
  328000    1.1892858   -3.2798851    336.42128  0.085472886  0.089316095            2 
  329000    1.1765951   -3.2577061     338.1917  0.085661525   0.08930245            1 
  330000    1.2069457   -3.2569129    340.48043  0.085979905   0.08929327            3 
  331000    1.2157647   -3.3069022    339.57271  0.085491618  0.089282271            2 
  332000    1.2071477    -3.275475    340.85136  0.085555061  0.089272438            2 
  333000    1.1914344   -3.2490322    344.26439   0.08615225  0.089264333            3 
  334000     1.207643   -3.2839003    344.44046  0.085938239  0.089255314            3 
  335000    1.2093885    -3.278239    344.87467  0.085789719  0.089247476            2 
  336000    1.1876843   -3.2943812     347.6893  0.086232466  0.089240484            1 
  337000    1.1803148   -3.2908173    347.49123  0.085927603  0.089237989            1 
  338000    1.2004524   -3.3086788    346.95985  0.085542369  0.089231941            2 
  339000    1.1902752   -3.2943612    350.75509  0.086222981  0.089225905            5 
  340000    1.2211983   -3.2744539    350.84367  0.085991095  0.089222504            2 
  341000    1.2157614   -3.2548813    351.02246  0.085782614  0.089217298            3 
  342000    1.1868157    -3.286532    352.60856  0.085918266  0.089210166            1 
  343000    1.1804354   -3.2999214    352.60849  0.085667756  0.089202216            2 
  344000    1.2017116   -3.2892342    352.87184  0.085482518  0.089193923            1 
  345000    1.1837739   -3.3173512    353.46296  0.085377526  0.089180791            4 
  346000    1.1926432   -3.2881024    356.25784  0.085803912  0.089168118            2 
  347000    1.2047098   -3.2784844      357.315  0.085810518  0.089159493            1 
  348000    1.2124955   -3.2601153     359.0606  0.085981944  0.089151805            1 
  349000    1.1754899   -3.2788867    359.06468  0.085736551  0.089145916            2 
  350000    1.2025834    -3.273423     362.1964  0.086237237  0.089140684            1 
  351000    1.1851512   -3.2947651    362.27688  0.086010656  0.089134342            4 
  352000    1.2225763   -3.2971459    362.01262  0.085703746  0.089126891            2 
  353000    1.2221617   -3.2640671    362.56484  0.085591321  0.089115461            1 
  354000    1.2228443   -3.2739479    365.26885  0.085986076  0.089105455            2 
  355000    1.1883747   -3.2889064    364.91839  0.085661595   0.08909513            1 
  356000    1.1939782   -3.3139363    365.13448  0.085471554  0.089082882            1 
  357000    1.1750035   -3.2898579    366.81135  0.085623564  0.089073569            1 
  358000    1.1936943   -3.2942697    367.15786  0.085465052   0.08906245            2 
  359000    1.1859024   -3.3091734     367.8169  0.085379967  0.089049347            2 
  360000    1.1611111   -3.3048998    368.74297  0.085357169  0.089034417            1 
  361000    1.1811563    -3.353183    369.19813  0.085225791  0.089020198            2 
  362000    1.2057163   -3.2754715    373.29358  0.085933144  0.089005854            1 
  363000    1.1682611   -3.2982671    372.47343  0.085508133  0.088991395            2 
  364000    1.2123311   -3.3043759     371.9863  0.085161699   0.08897628            1 
  365000    1.2029215   -3.3280275    373.30844  0.085230238  0.088960069            5 
  366000     1.158647    -3.298575    374.69854  0.085313874  0.088944337            3 
  367000    1.1756925     -3.27636     375.8291  0.085338124  0.088928613            1 
  368000    1.1732127   -3.2985344    376.98439  0.085367842  0.088912237            3 
  369000    1.2019772   -3.3225726    377.37689  0.085225133  0.088896301            1 
  370000    1.1772834   -3.3128839    379.38652  0.085447413  0.088881161            4 
  371000    1.1892503   -3.3139009    380.41054  0.085447112  0.088867188            1 
  372000    1.2042778   -3.2460214    383.54226  0.085918966  0.088854401            3 
  373000    1.1810995   -3.2774885    381.60469  0.085255739  0.088843952            1 
  374000    1.1812791   -3.3012022    384.73903  0.085726166   0.08883125            2 
  375000    1.2004501   -3.2689191    385.43321  0.085651824  0.088818303            2 
  376000    1.1843532   -3.3072737    384.55445  0.085229267  0.088802311            1 
  377000    1.1856286    -3.316831     385.5351   0.08521996  0.088789136            1 
  378000    1.1862895   -3.3201595    387.35332  0.085395353  0.088774062            1 
  379000    1.1893241   -3.2648343    388.64781  0.085454664  0.088758843            3 
  380000     1.182256   -3.3084706    389.92795  0.085510516  0.088742479            2 
  381000    1.2383663   -3.2986702     388.7651  0.085031736  0.088722849            2 
  382000    1.2063247   -3.2833614    392.54367  0.085633437  0.088704352            3 
  383000    1.1901147    -3.292409     392.1286  0.085319539  0.088690021            2 
  384000    1.1892201   -3.2848824    393.46615  0.085387619  0.088674137            2 
  385000    1.1581755   -3.3156048    393.31074  0.085132195   0.08865849            2 
  386000    1.1974231   -3.3008169    395.90196  0.085471063  0.088642551            2 
  387000    1.1994225   -3.3059807    396.12971  0.085299249  0.088628171            2 
  388000    1.1710879   -3.2903888    399.08562  0.085714265  0.088614719            1 
  389000    1.1773489    -3.278461    400.24583  0.085742467  0.088602513            2 
  390000    1.2159307   -3.2895607    401.64355  0.085821272  0.088593716            1 
  391000    1.2031292   -3.3260748    399.32521  0.085107674   0.08858481            2 
  392000    1.1908786   -3.2865219     403.3588  0.085748045   0.08857452            1 
  393000    1.1933486   -3.2771002      404.543  0.085780959  0.088566206            1 
  394000    1.1967831   -3.3102374    404.53601  0.085561763  0.088555516            1 
  395000    1.1831124   -3.2973565    406.34842  0.085727515  0.088546322            1 
  396000    1.1874455   -3.3365243    406.33305  0.085507797  0.088539378            1 
  397000    1.1933232   -3.2867137    410.35642  0.086136949  0.088532589            4 
  398000    1.1796794   -3.2579437    411.18863  0.086094772  0.088525762            1 
  399000    1.2001605     -3.29209    410.79526  0.085796838  0.088519739            1 
  400000    1.1680648   -3.2967066    412.42469   0.08592181  0.088513916            3 
  401000    1.1861034   -3.3014984    413.72125  0.085976984  0.088507646            1 
  402000    1.1783096   -3.3087556    413.65456  0.085749287  0.088499392            2 
  403000    1.1888716   -3.2780402    414.11017  0.085630721  0.088490379            2 
  404000    1.1879475   -3.2879087    415.24725  0.085653311   0.08848295            2 
  405000    1.1914096   -3.2578022    420.41761  0.086505681   0.08847637            2 
  406000    1.1913524    -3.298486    418.75244  0.085950829  0.088469175            5 
  407000    1.2051774   -3.3146502     418.1457  0.085615418  0.088461747            1 
  408000    1.1820757    -3.292246    420.90877  0.085969928  0.088454887            8 
  409000    1.1867321   -3.2819223    420.66287  0.085709631  0.088449494            1 
  410000    1.2020928   -3.2893028    421.12396  0.085594301  0.088443927            2 
  411000    1.1734848   -3.2576488     425.7158  0.086317072  0.088441284            1 
  412000     1.208523   -3.2676908    425.91813  0.086148489  0.088438114            2 
  413000    1.1836511   -3.2855555    427.74171   0.08630785  0.088437557            1 
  414000    1.1972832   -3.2879666    429.03253  0.086359204  0.088436363            1 
  415000    1.1741294   -3.3012145    430.21967  0.086389491   0.08843467            4 
  416000    1.2051714   -3.2913945     431.4227  0.086422816  0.088436059            2 
  417000    1.1748508   -3.2875226    429.86044  0.085903366  0.088433875            2 
  418000    1.1526893   -3.2669975    432.18094  0.086160474  0.088429939            1 
  419000    1.1829129    -3.286183    433.54142  0.086225421  0.088428029            2 
  420000     1.172417    -3.291008    433.96101  0.086103375  0.088426163            2 
  421000    1.1753915   -3.2921064    435.16298  0.086136774  0.088421031            2 
  422000    1.2046614   -3.3348729    436.32654  0.086162429  0.088418063            2 
  423000    1.1736191   -3.3083595    436.48138  0.085989239  0.088414425            2 
  424000    1.1794774   -3.3050493    438.03798   0.08609237  0.088409848            3 
  425000    1.1672344   -3.2950971    440.13955  0.086301873   0.08840708            2 
  426000    1.1893803   -3.3103161    440.46059  0.086162088  0.088405202            2 
  427000    1.1851964   -3.3019794    441.94232  0.086249477  0.088403752            2 
  428000    1.1534223   -3.2946878     443.7136  0.086392834  0.088403927            1 
  429000    1.1785063   -3.3345378    444.91783  0.086425375   0.08840446            1 
  430000    1.1730083   -3.3143861    445.45013  0.086327544  0.088406005            1 
  431000    1.1929008   -3.3032229    447.56993  0.086537109  0.088409998            3 
  432000    1.1851709   -3.3226756    445.64596  0.085965656  0.088410885            2 
  433000    1.2023249   -3.2777815    447.31642   0.08608861    0.0884106            1 
  434000    1.1566117    -3.294779    449.37326  0.086285187  0.088409546            3 
  435000    1.2077592    -3.288738    449.64984  0.086139817  0.088407181            1 
  436000    1.2015813   -3.2983428    449.64037  0.085940437   0.08840517            1 
  437000    1.1664924   -3.3052507    453.21857  0.086426119   0.08840523            2 
  438000    1.1708634   -3.2957029    455.35672    0.0866356  0.088405085            5 
  439000    1.1705826   -3.3083212    453.76519  0.086136141  0.088403474            2 
  440000    1.1402696   -3.3006904    456.47903  0.086454362  0.088402536            2 
  441000    1.1917825   -3.3030986    457.57692  0.086465782  0.088401934            1 
  442000    1.1527238   -3.3026362    456.62195  0.086090111  0.088402691            3 
  443000    1.2067989   -3.3417567    457.01389  0.085969506  0.088400474            3 
  444000     1.193542   -3.2910601    458.95965  0.086141076  0.088397775            3 
  445000    1.1753925    -3.299248    459.86188  0.086116458  0.088394829            1 
  446000    1.1656212   -3.2843408    462.60553  0.086436011  0.088392623            2 
  447000    1.1537104   -3.2633681      464.138  0.086528336  0.088389718            2 
  448000    1.1697336   -3.2976751    463.72732  0.086258801  0.088386053            2 
  449000    1.1748272   -3.2893963    465.41601  0.086380107  0.088383644            2 
  450000     1.176628   -3.3167312    466.11139  0.086316924  0.088383703            1 
  451000    1.1932173   -3.2592094    467.51311  0.086384535  0.088383418            1 
  452000    1.1910381   -3.3104005    469.21513  0.086507213  0.088385095            1 
  453000    1.1664064   -3.3204338    469.73399  0.086411699  0.088384906            2 
  454000    1.1646845    -3.340777     469.0486  0.086095557   0.08838326            3 
  455000    1.1819303   -3.2854304    469.62102  0.086011175  0.088380038            2 
  456000     1.175251   -3.2984024    470.93751  0.086063142  0.088376732            2 
  457000     1.159582   -3.3121075    472.21076  0.086106996  0.088373362            2 
  458000    1.1726938   -3.3045289    473.91183  0.086228499  0.088370556            3 
  459000    1.2151525   -3.3025532    471.80509   0.08565815  0.088365488            2 
  460000    1.1713273   -3.3489832    472.45487   0.08558965  0.088359675            6 
  461000     1.175178   -3.2587304    475.84168  0.086016211  0.088353428            1 
  462000    1.1612607   -3.2970594    477.12098  0.086060782  0.088346812            2 
  463000    1.1813805   -3.3408158    476.86767  0.085829314  0.088338904            1 
  464000    1.1467969   -3.3292253    478.59627  0.085954789  0.088333094            2 
  465000    1.1715642   -3.3072485    480.04641  0.086029822  0.088327453            2 
  466000    1.2134841   -3.3066253    479.92319  0.085823175  0.088320017            1 
  467000    1.1725168   -3.2908663    479.79938  0.085617305  0.088312716            1 
  468000     1.181234   -3.2996538    483.71313  0.086131255  0.088305095            2 
  469000    1.1459634   -3.3245044    481.83933  0.085614664  0.088297813            2 
  470000    1.1763892   -3.3026505       484.96  0.085985816  0.088289552            1 
  471000    1.1875519   -3.3019328    483.54923   0.08555365  0.088280263            2 
  472000    1.1568999   -3.2911149    486.96224  0.085974971  0.088271374            2 
  473000    1.1771585   -3.3079875    486.88024  0.085778759  0.088260947            3 
  474000    1.1737081   -3.2680555    489.30901  0.086024792  0.088252748            2 
  475000    1.1737989   -3.3083152    486.93097  0.085426485   0.08824239            2 
  476000    1.1903364   -3.3090929    488.76808  0.085568641  0.088232847            2 
  477000    1.1559067   -3.3347312    490.16013  0.085632448  0.088220674            3 
  478000    1.1720223   -3.3113019    490.82824  0.085569777  0.088209551            2 
  479000    1.2092234   -3.3256624    491.97558  0.085590741  0.088198194            2 
  480000     1.189725   -3.3504509    491.58913  0.085345336  0.088187444            2 
  481000    1.1729528   -3.3313199    494.82618  0.085728721  0.088176206            2 
  482000    1.1822526    -3.334464    494.52651   0.08549905  0.088164163            2 
  483000    1.1848788   -3.3029568    495.41383  0.085475126   0.08815204            2 
  484000    1.1478164   -3.3248155    494.85874  0.085202952  0.088139609            7 
  485000    1.1955044   -3.3485941    497.07819  0.085408624  0.088127843            3 
  486000     1.171314   -3.2955077    498.90864  0.085546749   0.08811389            1 
  487000    1.1642773   -3.3205314    500.54282  0.085650721  0.088101601            2 
  488000    1.1512748   -3.2822382    501.17949  0.085583929   0.08809139            2 
  489000       1.1789   -3.3259375    500.49211   0.08529177  0.088079586            2 
  490000       1.1712   -3.2879777    502.11134  0.085393085  0.088068835            2 
  491000    1.1648304   -3.3144782     503.1629  0.085397641   0.08805672            2 
  492000    1.1685917   -3.3092406    504.83435  0.085507173  0.088042508            2 
  493000    1.1728221   -3.3468576    504.27587  0.085239329   0.08802937            1 
  494000    1.1405595   -3.3184323    504.34941  0.085079185   0.08801328            1 
  495000    1.1950663   -3.2984079    505.56283  0.085111588  0.087996925            3 
  496000    1.1787875   -3.2959563    504.73782   0.08480138  0.087979039            2 
  497000     1.197913   -3.3345305    506.29673  0.084892141  0.087960871            1 
  498000    1.1602373   -3.3486374     506.8339  0.084811563  0.087945719            3 
  499000    1.1759062   -3.3050667    506.84215  0.084642977  0.087929619            1 
  500000     1.172045   -3.3210815    511.79875  0.085299792  0.087914569            2 
  501000    1.1846005   -3.3206898     510.8732  0.084975583  0.087899438            2 
  502000    1.1909323   -3.3282171    512.70601  0.085110559  0.087887134            1 
  503000    1.1633432    -3.331555    514.54146  0.085245438   0.08787475            5 
  504000    1.2033486   -3.2910132    516.92295  0.085470065  0.087863791            1 
  505000     1.187377   -3.3182678    514.34812  0.084875928  0.087851439            2 
  506000    1.1914146   -3.3110526     518.0923  0.085324819  0.087838668            2 
  507000    1.1499689   -3.3415944    517.31092  0.085028093  0.087824986            1 
  508000    1.1964339   -3.2996946    521.04878  0.085473882  0.087811964            2 
  509000    1.1598087    -3.297947     520.6178  0.085235396  0.087800326            2 
  510000    1.1756217   -3.3307384    519.35619  0.084862123  0.087788302            4 
  511000    1.1937337    -3.313033    521.97776  0.085123575  0.087774698            3 
  512000     1.169167    -3.341473    523.50504  0.085205898  0.087761271            2 
  513000    1.1731883   -3.3353351    523.86181  0.085097759  0.087749336            3 
  514000    1.1485595   -3.3141579    524.60862  0.085053278  0.087736035            1 
  515000    1.1538515   -3.3401953    525.32071   0.08500335   0.08772336            1 
  516000    1.2010145   -3.2875013    528.01133  0.085273147  0.087712836            1 
  517000    1.2017538   -3.3434942    529.23058  0.085304736   0.08770239            3 
  518000     1.178714   -3.3265392    529.92923  0.085252449  0.087691607            2 
  519000    1.1827988     -3.34099    531.15046  0.085284274  0.087681127            1 
  520000    1.1576738   -3.3364029    529.97624   0.08493209  0.087670389            2 
  521000    1.1865515   -3.3480451    531.67597  0.085040941  0.087659747            2 
  522000    1.1909894   -3.2954421    534.46978  0.085324038  0.087647213            2 
  523000    1.1508014   -3.2795459    532.79789  0.084894501    0.0876333            2 
  524000     1.161391   -3.3216492    535.10851  0.085099953   0.08762098            3 
  525000    1.1520952   -3.2866481    538.05968  0.085406298  0.087608429            9 
  526000    1.1749436   -3.3219779    538.18196  0.085263302  0.087597939            3 
  527000    1.1628018   -3.3518172       537.37  0.084973118  0.087587695            2 
  528000    1.1676758   -3.3203916    540.20868  0.085260208  0.087576674            1 
  529000    1.1842545   -3.3210315    542.49091  0.085458556  0.087567301            2 
  530000    1.1525258   -3.3171661    540.99536  0.085062164  0.087555906            1 
  531000    1.1755003   -3.3257641    542.03499  0.085065126  0.087543611            2 
  532000     1.162627    -3.338682    543.91438   0.08519962  0.087533473            3 
  533000    1.1881562   -3.3391604    545.36837    0.0852671  0.087523178            2 
  534000    1.1819837    -3.341936    544.84744   0.08502613  0.087509461            1 
  535000    1.1850813   -3.3240886    546.57148  0.085135744  0.087497418            2 
  536000    1.1796019   -3.3161688    547.85756   0.08517686   0.08748635            2 
  537000    1.1745517   -3.3499509    547.82438  0.085013094  0.087474188            2 
  538000    1.1551529   -3.3513426     546.4886  0.084648173  0.087461461            3 
  539000    1.1711677   -3.2826022    548.66096  0.084826987  0.087446644            2 
  540000    1.1631366    -3.343274    548.74295  0.084682554   0.08743288            1 
  541000    1.1721703   -3.3181745    553.23427  0.085217848  0.087418914            8 
  542000    1.1647748   -3.3292474    553.47068  0.085096968  0.087405202            2 
  543000     1.122524   -3.3403034    551.26229  0.084601333  0.087391393            2 
  544000    1.1696492   -3.3097879    553.94965  0.084857483   0.08737925            2 
  545000    1.1708372   -3.3454239    554.60108  0.084801388  0.087365227            1 
  546000    1.1464557   -3.3421988    556.55989  0.084945039    0.0873503            1 
  547000    1.1698087   -3.3195567    556.48458  0.084778272  0.087336174            2 
  548000    1.1261367   -3.3356657    555.77662   0.08451591  0.087321111            1 
  549000    1.1628767   -3.3455071    558.67079  0.084801273   0.08730708            2 
  550000    1.1650807   -3.3149172    559.25284  0.084735278  0.087291744            5 
  551000    1.1828517   -3.3549645    560.25233  0.084732658  0.087276788            1 
  552000    1.1684321   -3.3514946    559.27591   0.08443175  0.087261123            1 
  553000     1.123865   -3.2849894    563.83205  0.084965649  0.087247324            2 
  554000      1.16453   -3.3336968    559.17152   0.08411124   0.08723196            2 
  555000    1.1792996   -3.3157798    564.18731   0.08471281  0.087218077            1 
  556000    1.1574652   -3.3256074    566.37822  0.084888821  0.087203106            1 
  557000    1.1608662   -3.3352772    565.58239  0.084617353  0.087187176            1 
  558000    1.1596941   -3.3231196    564.95318  0.084371742  0.087172888            2 
  559000    1.1892202    -3.312521    569.37767  0.084880393  0.087159053            2 
  560000    1.1762553    -3.327459    569.65535  0.084770142  0.087144645            1 
  561000    1.1273454   -3.3485727    572.00363  0.084967859  0.087130402            1 
  562000    1.1678836   -3.3375757     570.7585  0.084632043   0.08711709            2 
  563000    1.1538807   -3.3524564    572.84179  0.084790082  0.087102832            1 
  564000    1.1551669   -3.3303778    573.41363  0.084724236  0.087089781            2 
  565000     1.158723   -3.3234446    571.71198  0.084323301  0.087076675            1 
  566000    1.1553337    -3.323838     575.1341  0.084678165   0.08706176            1 
  567000    1.1534456   -3.3217651    575.30508  0.084553951  0.087048066            1 
  568000    1.1371241    -3.344859    573.44458  0.084132127  0.087032793            2 
  569000    1.1580974   -3.3544482    576.49688  0.084431294  0.087018264            1 
  570000    1.1826391   -3.3285952    577.62662  0.084448337  0.087002861            1 
  571000    1.1684183   -3.3333287    578.58862  0.084440838  0.086987611            2 
  572000    1.1856067   -3.3261431    577.99383  0.084206561  0.086970767            2 
  573000    1.1881889   -3.3145149     581.7665  0.084608275  0.086955125            3 
  574000    1.1471167   -3.3524122    580.47008  0.084272659  0.086940303            2 
  575000     1.145185   -3.3411133     581.5158  0.084277652  0.086923798            1 
  576000    1.1305514   -3.3235514    583.53912  0.084424063  0.086908446            1 
  577000    1.1687155   -3.3488818    585.34047  0.084537907  0.086893763            5 
  578000    1.1767404   -3.3282917    585.85669  0.084466074  0.086877055            3 
  579000    1.1638028   -3.3282369    586.48195  0.084410182  0.086861603            3 
  580000    1.1386211   -3.3240637    589.19493  0.084654443  0.086847517            2 
  581000    1.1576537   -3.3508916    589.62058  0.084569791   0.08683323            2 
  582000    1.1574285     -3.30199    589.82318  0.084453491  0.086819243            1 
  583000    1.1521432   -3.3231282    590.71066  0.084435486  0.086804942            3 
  584000    1.1631675   -3.3259591    592.55236  0.084553704  0.086791052            1 
  585000    1.1636835   -3.3390056    592.13039  0.084349058  0.086777321            2 
  586000    1.1790476   -3.3048888     591.3266  0.084090814  0.086762026            3 
  587000    1.1539375    -3.308703    593.94464  0.084319227  0.086747431            2 
  588000      1.13462   -3.3484682    593.42177  0.084101725  0.086733842            2 
  589000    1.1513971   -3.3284445    595.43117  0.084243232   0.08671978            3 
  590000    1.1542765   -3.3204685    597.27843   0.08436136  0.086705373            1 
  591000     1.171115    -3.349278    597.30557  0.084222444   0.08669236            1 
  592000    1.1746074     -3.30627    602.93635  0.084872796  0.086679696            1 
  593000    1.1652575   -3.3661711    598.78422   0.08414618  0.086666484            2 
  594000      1.16171   -3.3633295    599.35446   0.08408452  0.086652583            2 
  595000    1.1240145   -3.3472206    603.69701  0.084551401  0.086639018            1 
  596000    1.1473721    -3.322536    604.31515  0.084495967  0.086626444            1 
  597000    1.1631876   -3.3371813    603.30623  0.084213599    0.0866126            2 
  598000     1.174389   -3.3568562    606.45638  0.084511759   0.08659931            3 
  599000    1.1627545   -3.3632582    605.45242  0.084230999  0.086585685            3 
  600000    1.1478246   -3.3683056    604.29944  0.083930478  0.086571624            1 
  601000    1.1626531   -3.3521891    606.65206  0.084117035  0.086557437            4 
  602000    1.1472994   -3.3667799    606.82195  0.084000824  0.086542899            1 
  603000    1.1654425   -3.3528875    610.39188  0.084354876  0.086528395            1 
  604000    1.1430766   -3.3510899    610.71818  0.084260235  0.086516744            2 
  605000    1.1610704   -3.3324881    612.71992  0.084396683  0.086503623            2 
  606000    1.1655927    -3.321115    613.84785   0.08441252  0.086491073            1 
  607000    1.1709146     -3.35382    614.79658  0.084403705  0.086478311            2 
  608000    1.1536023   -3.3202575    615.85314  0.084409696  0.086467079            2 
  609000    1.1613006   -3.3124985    620.12598  0.084855771  0.086455869            4 
  610000    1.1325054   -3.3459359    617.81507  0.084400966  0.086442766            2 
  611000    1.1537796   -3.3472389    615.49013  0.083945735  0.086430202            3 
  612000    1.1629315   -3.3442569     616.5822  0.083957272  0.086415598            2 
  613000    1.1570028   -3.3044207    621.65405  0.084509795  0.086401398            2 
  614000    1.1561905   -3.3545107    617.47643  0.083805162  0.086387711            2 
  615000    1.1827843   -3.3510138    620.95368  0.084140065  0.086373722            2 
  616000    1.1580482   -3.3679972     624.6131  0.084498526  0.086360091            2 
  617000    1.1346428   -3.3469475    623.94948  0.084271945  0.086346934            2 
  618000    1.1463339   -3.3734205    623.93433  0.084133539  0.086332671            2 
  619000    1.1244281   -3.3455151    624.42833  0.084064126  0.086318134            2 
  620000    1.1628234   -3.3182137     624.7617  0.083973347  0.086302876            1 
  621000    1.1571353   -3.3242387    626.53312  0.084075835  0.086288725            4 
  622000    1.1560747   -3.3368628    626.04424  0.083875166  0.086274508            1 
  623000    1.1655035   -3.3432081     626.4526  0.083795157  0.086258796            5 
  624000    1.1362938   -3.3306971    626.83545  0.083711999  0.086242902            3 
  625000    1.1800715   -3.3549068    628.56391  0.083808521  0.086226145            3 
  626000    1.1352928   -3.3467734    629.55285  0.083806289  0.086210319            1 
  627000    1.1546394   -3.3389609    632.85259   0.08411119  0.086194391            2 
  628000    1.1619113   -3.3446783    631.99942  0.083864042  0.086177493            1 
  629000    1.1315025   -3.3354629    633.43752   0.08392124  0.086161036            2 
  630000    1.1370557   -3.3458028    633.30507  0.083770512  0.086144129            2 
  631000    1.1462172   -3.3424943    634.95567  0.083855741  0.086128446            2 
  632000    1.1596742   -3.3739002    633.03502  0.083469808  0.086112233            2 
  633000    1.1586964   -3.3532465    632.71478  0.083295785  0.086094875            1 
  634000    1.1440978   -3.3558214    637.71801  0.083822031  0.086079022            2 
  635000    1.1405539   -3.3616086    637.00473  0.083596421  0.086061807            1 
  636000    1.1589396   -3.3612391    637.62915  0.083546797  0.086044958            1 
  637000    1.1530248   -3.3345515    638.73673  0.083560535  0.086027939            2 
  638000    1.1608636   -3.3431823    638.56009   0.08340649  0.086011513            2 
  639000    1.1513758   -3.3680216    640.59693  0.083541592  0.085994182            1 
  640000    1.1527024   -3.3678656    643.01959  0.083726509  0.085978923            2 
  641000    1.1353427   -3.3234113    642.34321  0.083507957  0.085963161            2 
  642000    1.1759123   -3.3477342    645.25151  0.083755388  0.085947961            2 
  643000    1.1318403   -3.3925149    641.91747  0.083193036  0.085932808            3 
  644000    1.1267834   -3.3648288    643.78099  0.083304993  0.085916641            2 
  645000    1.1399171   -3.3503467    648.07802  0.083731011  0.085900524            4 
  646000    1.1493289   -3.3338447    643.74887  0.083042939  0.085883574            2 
  647000    1.1584625   -3.3473773    647.50255  0.083398061     0.085866            2 
  648000    1.1420511   -3.3650793    646.23568   0.08310644  0.085847278            1 
  649000    1.1718477   -3.3283279    650.32129  0.083502991  0.085830141            2 
  650000    1.1742018   -3.3883565    650.90659  0.083449563  0.085814724            2 
  651000    1.1490691   -3.3385506    651.46815   0.08339326  0.085797856            3 
  652000    1.1442274   -3.3735133    652.12407  0.083349191  0.085781378            1 
  653000    1.1555732   -3.3587464    654.06541  0.083469297  0.085765867            2 
  654000     1.138798   -3.3590158    653.52606  0.083272943  0.085750194            2 
  655000    1.1250739   -3.3434326    655.57737   0.08340679   0.08573475            2 
  656000     1.142581   -3.3511917    656.27725  0.083368553   0.08571852            2 
  657000    1.1459446   -3.3856835    655.45563  0.083137447  0.085701864            1 
  658000    1.1575284   -3.3584133    658.61682  0.083411451  0.085684754            3 
  659000    1.1189009   -3.3185634    662.46553  0.083771565  0.085669355            6 
  660000    1.1494149   -3.3391066    657.63039   0.08303414  0.085654359            3 
  661000    1.1190416   -3.3662983    659.46558  0.083139886  0.085638258            1 
  662000    1.1476822   -3.3433677    664.24534   0.08361598  0.085622206            1 
  663000    1.1555863   -3.3861649    661.01934  0.083084381  0.085606664            1 
  664000    1.1311372    -3.379552    662.47565  0.083142025  0.085590638            2 
  665000    1.1259379    -3.353173    666.22831  0.083487256  0.085574523            2 
  666000    1.1569049   -3.3826761    665.49658  0.083270342  0.085558402            1 
  667000    1.1342118   -3.3692797    668.94166   0.08357592  0.085542798            2 
  668000    1.1400911   -3.3272282    668.55451  0.083402509  0.085528178            2 
  669000    1.1468644   -3.3698531     669.6192  0.083410463  0.085513384            3 
  670000    1.1248083   -3.3473573    671.51157  0.083521339  0.085497092            1 
  671000    1.1530113    -3.366831    672.03078  0.083461348  0.085480803            2 
  672000    1.1659798   -3.3748144    671.65879  0.083291021  0.085464885            3 
  673000    1.1209335   -3.3650479    672.69066   0.08329503  0.085449229            1 
  674000    1.1214772   -3.3205619    673.91116  0.083322349  0.085434303            2 
  675000    1.1587163   -3.3429394    678.10602  0.083716793  0.085419471            1 
  676000    1.1344568   -3.3447606    677.12938  0.083472557  0.085404812            1 
  677000    1.1468802   -3.3132184    678.38773  0.083504151  0.085390081            2 
  678000    1.1375671   -3.3871588    678.84264  0.083436903  0.085375063            1 
  679000    1.1678449   -3.3595215    678.95864  0.083328257  0.085361283            1 
  680000    1.1528314   -3.3559621    679.57406  0.083281134  0.085346682            4 
  681000    1.1278058   -3.3684147    680.92837  0.083324568  0.085331641            1 
  682000     1.112523   -3.3531702     683.8794  0.083562976   0.08531868            4 
  683000    1.1430929   -3.3243883    685.93012  0.083690839  0.085304549            1 
  684000    1.1530081   -3.3362945    683.36897  0.083256453  0.085290888            1 
  685000    1.1516534   -3.3463227    685.33688  0.083374316  0.085277217            5 
  686000    1.1588365   -3.3504069    685.48924  0.083271288  0.085264658            3 
  687000    1.1295675   -3.3721059    689.21172  0.083601615  0.085251023            1 
  688000    1.1260075   -3.3314022    689.45353   0.08350939   0.08523796            3 
  689000      1.16487   -3.3127139    692.04201  0.083701259  0.085226097            6 
  690000    1.1119753   -3.3778493     687.4406  0.083024227   0.08521316            1 
  691000    1.1245315   -3.3655522    690.25818  0.083243871  0.085201114            3 
  692000    1.1596848   -3.3626954    695.07977  0.083704211  0.085188413            2 
  693000    1.1100511   -3.3586083    693.59702  0.083405125  0.085176924            3 
  694000    1.1661027    -3.384239    695.24252  0.083482531  0.085164923            1 
  695000    1.1487372   -3.3665005    696.26904  0.083485496  0.085152359            3 
  696000    1.1445046   -3.3356873    700.96049  0.083927262  0.085141205            2 
  697000    1.1302304   -3.3629507    699.81614  0.083670031  0.085129807            3 
  698000    1.1353956   -3.3585881    699.08441  0.083462799  0.085119742            3 
  699000    1.1515653   -3.3558877    702.72444  0.083777353  0.085108817            3 
  700000     1.132049   -3.3493059    701.37349  0.083496844  0.085098523            1 
  701000    1.1667098   -3.3937184    701.88616  0.083438678  0.085088017            3 
  702000    1.1496177   -3.3256985     702.6042  0.083405057   0.08507788            1 
  703000    1.1375516   -3.3501814    705.90021  0.083677123  0.085068416            5 
  704000    1.1286683   -3.3767584    704.06028  0.083340469  0.085058825            6 
  705000    1.1481215   -3.3729669    707.23662  0.083597709  0.085049751            2 
  706000    1.1408985   -3.3696853    706.78636  0.083426152  0.085039928            2 
  707000    1.1596009   -3.3376964    710.03479  0.083691041  0.085029305            1 
  708000    1.1389749   -3.3923121    705.84785  0.083080019  0.085018959            1 
  709000    1.1329872   -3.3228952    711.02306  0.083571117   0.08500826            1 
  710000    1.1566863   -3.3489314    713.66214  0.083763162  0.084997283            2 
  711000    1.1436578   -3.3535484    712.78696  0.083542775    0.0849853            2 
  712000    1.1697176   -3.3980789    708.89984  0.082970487  0.084973078            1 
  713000    1.1619337   -3.3579545    714.00495  0.083450789  0.084960152            1 
  714000    1.1483035   -3.3609459     714.0845  0.083343196  0.084946457            3 
  715000    1.1027431   -3.3724052    712.72656  0.083068364  0.084933131            3 
  716000    1.1384084   -3.3694074    713.59302  0.083053191  0.084919814            3 
  717000    1.1491112   -3.3872921    713.72486   0.08295268  0.084905793            2 
  718000    1.1149908   -3.3624238    715.38241  0.083029528  0.084892054            1 
  719000    1.1185102   -3.3560763    717.33156  0.083139958   0.08487815            1 
  720000     1.126107   -3.3547263    718.14084  0.083118153   0.08486455            1 
  721000    1.1172528   -3.3807946    714.98781  0.082638443  0.084851195            1 
  722000    1.1425889   -3.3567017    715.13966  0.082541512  0.084837244            2 
  723000    1.1299127   -3.3643068    715.96239  0.082522174  0.084823035            3 
  724000    1.1395401   -3.3551582    721.32705  0.083025673  0.084809595            2 
  725000    1.1297801    -3.346624    724.33435  0.083256822   0.08479678            2 
  726000    1.1374607   -3.3656676    720.88578  0.082746302  0.084782309            2 
  727000    1.1218868   -3.3372935    724.20821   0.08301332  0.084767154            1 
  728000    1.1249899    -3.356298    723.34383  0.082800347  0.084753026            1 
  729000    1.1161117   -3.3779365    724.87689  0.082862013  0.084738787            2 
  730000    1.1268944   -3.3643005    726.39736  0.082922074  0.084723907            4 
  731000    1.1407765   -3.3588044    729.09989  0.083116722  0.084710092            5 
  732000    1.1558696   -3.3522109    729.03982  0.082996337  0.084696922            2 
  733000    1.1458252   -3.3307508    728.64618  0.082838356  0.084683291            1 
  734000    1.1196473   -3.3581403    727.40773  0.082584892  0.084669762            2 
  735000     1.149016   -3.3435413     729.3282  0.082690272    0.0846554            1 
  736000    1.1381004   -3.3728506    729.96459  0.082649976  0.084640854            2 
  737000    1.1215456   -3.3813934    729.94771  0.082535923  0.084626075            2 
  738000    1.1619119   -3.3637487    732.90482  0.082757997  0.084611524            1 
  739000    1.1445911    -3.414048    728.95557  0.082200673   0.08459629            4 
  740000    1.1358406    -3.372082    732.44783  0.082482864  0.084581458            2 
  741000    1.1305687   -3.4016278    732.47241  0.082374315  0.084565389            2 
  742000    1.1167025   -3.3689614    736.80524  0.082749915   0.08455028            4 
  743000    1.1247773   -3.3456924    736.60687  0.082616294  0.084534843            1 
  744000    1.1216953   -3.3497504    739.46681  0.082825583  0.084520181            1 
  745000    1.1416075    -3.410802    737.01606  0.082440275  0.084504761            3 
  746000    1.1404413   -3.3703168    738.40701  0.082485144  0.084488149            2 
  747000    1.1382427   -3.3874757     740.1118  0.082564904    0.0844729            1 
  748000    1.1195897   -3.3883062    738.40977  0.082264903  0.084459064            2 
  749000    1.1333845   -3.3910878    740.02064  0.082334295  0.084444524            2 
  750000    1.1194385   -3.3623865    745.97394  0.082885994  0.084430157            3 
  751000    1.1262955     -3.37297    745.87316  0.082764443  0.084415415            2 
  752000    1.1293545   -3.4016772    741.59076  0.082179827  0.084401027            3 
  753000    1.1276288   -3.3989584    747.34721  0.082707748  0.084385869            3 
  754000    1.1217858   -3.3717497      747.447  0.082609085  0.084369773            1 
  755000    1.1269066   -3.3997719    746.77289  0.082425264   0.08435519            2 
  756000    1.1490964   -3.4236249    747.29716  0.082374026  0.084340155            1 
  757000     1.121199   -3.3900334    748.36959  0.082383266  0.084325365            4 
  758000    1.1299839   -3.3705574       749.51  0.082399956  0.084311649            3 
  759000    1.1092915   -3.3425734    752.60588    0.0826313  0.084297525            3 
  760000    1.1154804   -3.3771643    753.93254  0.082668041  0.084283781            3 
  761000    1.1265448   -3.4022502    754.32825  0.082602743  0.084271322            1 
  762000    1.1267847   -3.3650769    753.66979   0.08242233  0.084258017            2 
  763000    1.1457881   -3.4067392    754.40537  0.082394645   0.08424469            2 
  764000     1.140898   -3.3590093    756.94874  0.082564217  0.084230808            2 
  765000    1.1169221   -3.3814601    757.40003   0.08250545  0.084218677            4 
  766000    1.1387517   -3.3925237     760.0649  0.082687652  0.084205381            1 
  767000    1.1283172   -3.3969892    758.64552  0.082425633  0.084192321            6 
  768000     1.143208    -3.348126    760.16599  0.082483289  0.084178538            2 
  769000    1.1213113   -3.3751551    760.86817  0.082452121  0.084164754            4 
  770000    1.1159564   -3.3317103    763.19062  0.082596387  0.084150831            1 
  771000    1.1289748   -3.4057968    763.25997  0.082496754  0.084137426            2 
  772000    1.1323285   -3.3765285    761.79071  0.082231294  0.084123254            2 
  773000    1.1184377   -3.3679031    764.54316  0.082421643  0.084109425            2 
  774000    1.1372791   -3.4081101    764.13326  0.082271022  0.084095067            4 
  775000    1.1412021   -3.3755012    763.40455   0.08208651  0.084079772            3 
  776000    1.1456041   -3.3917346    763.54517   0.08199583  0.084064838            4 
  777000    1.1308278   -3.3898293    765.73256  0.082124899  0.084050696            2 
  778000    1.1185138    -3.392267    768.27924  0.082292121  0.084036994            1 
  779000    1.1352009   -3.3820679    769.80071  0.082349241  0.084023222            8 
  780000    1.1364512   -3.3639542    771.73824  0.082450666  0.084009598            4 
  781000    1.1354931   -3.3887711     770.0979   0.08217007   0.08399508            3 
  782000    1.1254308   -3.4064565    770.54653  0.082112801  0.083981217            2 
  783000    1.1143066   -3.3984748    774.52165  0.082430997  0.083967709            1 
  784000    1.1553301   -3.3852101    773.44805   0.08221174  0.083952854            2 
  785000         1.11   -3.3757655     773.7028  0.082134056  0.083939676            3 
  786000     1.130991   -3.3649543     773.5199  0.082010168  0.083925543            3 
  787000    1.1221938   -3.3911537    777.41687  0.082318602  0.083910711            2 
  788000    1.1298018   -3.3845241    775.88656  0.082052301  0.083895067            6 
  789000    1.1350433   -3.4033218    772.81912  0.081624326  0.083879137            2 
  790000    1.1176887   -3.3838635     773.4499  0.081587543  0.083863669            2 
  791000    1.1240066   -3.3592106    780.16102  0.082191426   0.08384754            5 
  792000    1.1371306    -3.398318    776.66952  0.081720277  0.083831021            3 
  793000     1.120183   -3.3903601    778.77161  0.081838126   0.08381542            4 
  794000    1.1236287   -3.3706223    780.34939   0.08190065  0.083800177            4 
  795000    1.1241078   -3.4153393    780.23876  0.081786034  0.083784518            2 
  796000    1.1115611   -3.3752778    784.45032  0.082124196  0.083769356            2 
  797000     1.117647   -3.4056614    782.90649  0.081859734  0.083754841            3 
  798000    1.1051073   -3.3594208    783.75333  0.081845586  0.083740758            3 
  799000    1.1210038   -3.3919179    785.77912  0.081954434  0.083726384            1 
  800000    1.1302668   -3.3478318    787.45381  0.082026438  0.083712125            1 
  801000     1.121474   -3.3854394    788.51794  0.082034742  0.083697266            2 
  802000    1.1291608   -3.3533416    788.51056  0.081931687  0.083683983            2 
  803000    1.1091201   -3.4097905    790.87456  0.082074985  0.083670288            1 
  804000    1.1276741   -3.3812575    791.39846  0.082027204  0.083655929            2 
  805000    1.1052277   -3.3923946    792.51491  0.082040881  0.083643017            2 
  806000    1.1332534   -3.3651322    795.13445  0.082209931  0.083629647            1 
  807000    1.1210412    -3.421811    791.69439  0.081752828  0.083616467            2 
  808000    1.1183444   -3.3760026    793.72852   0.08186144  0.083603089            3 
  809000    1.1216685   -3.4025209    798.35568  0.082236885  0.083590149            3 
  810000    1.1156793   -3.3517751     799.4378  0.082246687  0.083577368            2 
  811000    1.1344754    -3.379965    794.51826  0.081639772  0.083564241            1 
  812000    1.1383957   -3.3833951    799.84168  0.082085558  0.083551042            2 
  813000    1.1081044   -3.3962666    797.76176  0.081771398  0.083537269            3 
  814000    1.1315034   -3.3727657    803.78265  0.082287331  0.083523167            3 
  815000    1.1187613   -3.4039325    802.40797  0.082045805   0.08351037            5 
  816000    1.1145216   -3.3946922     797.4024  0.081434069  0.083496788            2 
  817000    1.1356023   -3.4143308    801.41313  0.081743485  0.083482783            3 
  818000    1.1313987   -3.3816812    801.80793  0.081683774   0.08346818            3 
  819000    1.1396666   -3.3772957    800.97553  0.081499341  0.083453863            2 
  820000    1.1142464   -3.4013883    803.45882  0.081652319  0.083438591            2 
  821000    1.1211562   -3.3914308    806.17717  0.081828783  0.083423451            3 
  822000     1.120079   -3.3701647    808.28936  0.081943366  0.083408454            1 
  823000    1.1201812   -3.3967303    805.70918  0.081582542  0.083392118            4 
  824000    1.1542727   -3.3925185    807.25987  0.081640359  0.083376462            1 
  825000    1.1146411   -3.3871532    811.83346   0.08200338  0.083361275            3 
  826000    1.1245103   -3.4089812    805.50951  0.081266093  0.083345285            3 
  827000    1.1147287   -3.3795353    807.70769  0.081389328   0.08332928            2 
  828000    1.1256489   -3.3805914    811.23151  0.081645683  0.083313358            3 
  829000    1.1197391   -3.4070293    807.81257  0.081203515  0.083297966            1 
  830000    1.1186727    -3.381737    813.16802  0.081643376  0.083282657            3 
  831000    1.1319887    -3.366743    815.41355  0.081770311  0.083266485            2 
  832000    1.1271474   -3.4033239     815.4609  0.081676772  0.083251406            5 
  833000    1.1369907   -3.3939302    813.34303   0.08136685  0.083236513            1 
  834000    1.1140284   -3.3813285     818.9476  0.081829296   0.08322104            1 
  835000    1.1177063   -3.3924986    814.39245  0.081276692  0.083205828            2 
  836000    1.1075415    -3.423281    816.05585   0.08134528  0.083191042            4 
  837000    1.1614252   -3.3982577    815.98535  0.081241074  0.083175226            1 
  838000    1.1284389   -3.4033007    817.75743  0.081320349   0.08315926            3 
  839000    1.1060355   -3.3942573    817.71114  0.081218826  0.083143227            2 
  840000    1.1188732   -3.3760022    819.86333  0.081335648  0.083127297            3 
  841000    1.1137673   -3.4033695    818.30038  0.081084064  0.083112457            2 
  842000    1.1084045   -3.3897825    821.66419  0.081320684  0.083097831            1 
  843000    1.1164854    -3.387253    824.82328  0.081536505   0.08308307            1 
  844000    1.1242449   -3.4121623    822.75958  0.081236136  0.083068012            2 
  845000    1.1016212   -3.4096678    824.19734  0.081281789  0.083052927            1 
  846000    1.1124291   -3.4060216    824.65315   0.08123061  0.083037629            1 
  847000    1.1266914   -3.3777724    822.90437   0.08096265  0.083023456            2 
  848000    1.0927309   -3.3929545    826.22021  0.081193023  0.083009876            2 
  849000    1.1094116   -3.4221453     832.0885   0.08167339  0.082994932            1 
  850000    1.1160314   -3.3912023    827.49241  0.081126707  0.082980938            1 
  851000    1.1173758   -3.3960813    833.20368  0.081590646  0.082966652            1 
  852000    1.1306398   -3.4066164    829.84097  0.081165979   0.08295176            3 
  853000    1.0985424   -3.3804726    836.31003  0.081702817  0.082937967            2 
  854000    1.1068902   -3.3876588    835.74276  0.081551792  0.082925309            1 
  855000      1.10102   -3.3808588     835.7796      0.08146  0.082911725            2 
  856000    1.1114267   -3.3952523    837.71328  0.081553084  0.082898116            2 
  857000    1.1042492   -3.3865839    838.18244  0.081503543  0.082884694            2 
  858000    1.1144092   -3.3895984    840.78188  0.081661022  0.082871996            2 
  859000    1.1305944   -3.3684154      841.281  0.081614377  0.082859073            4 
  860000    1.1135936   -3.3677647    844.63346  0.081844328  0.082845614            2 
  861000    1.1228786   -3.3970559    841.00782  0.081398357  0.082832013            2 
  862000    1.1249168    -3.386889    841.25594  0.081327914  0.082817651            3 
  863000    1.0750962   -3.3801969    841.68749  0.081275346  0.082803353            3 
  864000    1.1298594   -3.4023875     841.6861  0.081181144  0.082789078            3 
  865000    1.1052996   -3.3961465    842.99042   0.08121295  0.082775861            2 
  866000    1.1320953   -3.3972416    843.20749  0.081140058  0.082762054            3 
  867000    1.0897539   -3.4216687    846.61692  0.081374175  0.082748006            9 
  868000    1.1242956   -3.3825484    845.63132  0.081185802   0.08273415            1 
  869000    1.1003937   -3.4080795    847.51906  0.081273404  0.082720275            2 
  870000    1.1219586   -3.4367909    844.76531  0.080916217  0.082706325            2 
  871000    1.1031843   -3.3910732    847.60478  0.081094985  0.082692387            5 
  872000    1.1015183   -3.3937745    849.32513  0.081166393  0.082678701            4 
  873000    1.1284645   -3.3952664    853.85408  0.081505735  0.082665062            2 
  874000    1.1090789   -3.3847231    848.10556  0.080864375  0.082650948            3 
  875000     1.087309   -3.3946231    850.97536  0.081045272  0.082636036            3 
  876000    1.1062767   -3.3967175    850.88339  0.080944006  0.082621992            3 
  877000    1.1146112   -3.4122735    855.23983  0.081265662  0.082608273            1 
  878000    1.1257211   -3.4058379    856.28279  0.081272095  0.082595688            4 
  879000    1.0868018   -3.4150415    856.65823  0.081215228  0.082583047            2 
  880000    1.1378908   -3.4016013    855.41005  0.081004739  0.082570413            4 
  881000    1.1205179   -3.4168425    862.18462  0.081553596  0.082557771            5 
  882000    1.1085152   -3.3867155    860.73441  0.081324113  0.082545164            5 
  883000    1.1188253   -3.3870934    863.91986   0.08153264    0.0825328            2 
  884000    1.0949731    -3.422948    859.66797   0.08103959  0.082519805            3 
  885000    1.0998804   -3.3754427    862.42865  0.081207971  0.082507274            2 
  886000    1.1138841   -3.3687128    862.84644  0.081155609  0.082494911            4 
  887000    1.1004691   -3.3956154    863.99589  0.081172106  0.082483244            1 
  888000    1.0995186     -3.43141    865.23111  0.081196613  0.082471235            6 
  889000    1.0990471   -3.4128848     864.2947  0.081017501  0.082459051            2 
  890000    1.1044767   -3.4400588    867.17344  0.081196015   0.08244649            2 
  891000    1.1296111   -3.4054887    868.64309  0.081242339  0.082433755            1 
  892000    1.1232545   -3.3744818    870.85562  0.081357961  0.082421389            2 
  893000    1.1192578    -3.375305    874.43216  0.081600612   0.08240958            1 
  894000    1.1143036   -3.3977973    868.39859  0.080946923  0.082397812            2 
  895000    1.1103379   -3.3831235    869.91832  0.080997981  0.082385551            2 
  896000    1.1022383   -3.3725427    877.33553  0.081597427  0.082373419            2 
  897000    1.1132015   -3.3963763    874.22815  0.081217776  0.082360817            2 
  898000    1.1145286   -3.4109387    870.85095  0.080813934  0.082347308            2 
  899000    1.1148518    -3.413446    873.28699  0.080949851  0.082333417            2 
  900000     1.080129    -3.415142    874.09236  0.080934477  0.082320243            1 
  901000    1.1178969   -3.3989227    875.60954  0.080984974  0.082306042            4 
  902000    1.0925056   -3.4072154    874.79747  0.080820166  0.082293021            3 
  903000    1.1080772   -3.4170497    871.41479  0.080418493  0.082279769            2 
  904000    1.1100232   -3.4006478    881.95819  0.081301456   0.08226606            1 
  905000    1.1172913   -3.3839926    878.12418   0.08085858  0.082252759            2 
  906000    1.0985417   -3.3969105    877.81255  0.080740668  0.082238968            3 
  907000    1.0811858   -3.3738833    880.75321  0.080921831   0.08222611            1 
  908000    1.0944275    -3.411117     881.4866  0.080900019  0.082212785            2 
  909000    1.1159761   -3.4172951      881.499  0.080812156  0.082200392            3 
  910000    1.0955789   -3.4121825    883.14829  0.080874385  0.082188512            5 
  911000    1.0886741    -3.415112     886.5416  0.081096011  0.082176853            3 
  912000    1.0974769   -3.4067481    889.11605  0.081242329  0.082165123            3 
  913000    1.0985441   -3.4231275    884.21634  0.080706128  0.082152723            2 
  914000    1.1089387   -3.4010867    891.46319  0.081278555  0.082141429            2 
  915000    1.1115582   -3.3931353    889.69493  0.081028683  0.082130129            4 
  916000    1.0845112    -3.393731    892.23022  0.081170872  0.082118782            1 
  917000    1.1182992   -3.4155268    889.35894  0.080821423  0.082106672            1 
  918000    1.1036789   -3.3925859    892.54489  0.081022593  0.082094466            2 
  919000    1.0977696   -3.3905837    889.63749  0.080670791  0.082081483            2 
  920000    1.1107004   -3.3939516     895.2358  0.081090199  0.082069863            1 
  921000    1.1222654   -3.4391324    893.93355  0.080884324  0.082057913            2 
  922000     1.130519   -3.4062607    894.91195  0.080885028  0.082045594            2 
  923000    1.0800068   -3.3930168    897.64068  0.081043759  0.082033282            2 
  924000    1.0971701    -3.413885    895.22831  0.080738484  0.082021379            2 
  925000    1.0931453   -3.4183824    896.31391  0.080749001  0.082009833            3 
  926000    1.1381027   -3.4248635    897.14797  0.080736859  0.081997753            2 
  927000    1.1412208   -3.4414944    896.14893  0.080559954  0.081985866            4 
  928000    1.0883982   -3.4041389    904.64655  0.081236221  0.081975291            2 
  929000    1.1060774   -3.4489114    903.93751  0.081085173  0.081964875            2 
  930000     1.102663   -3.3965153    908.05136  0.081366609  0.081955155            3 
  931000    1.1092656   -3.3859392    909.41692  0.081401443   0.08194624            2 
  932000    1.1122464    -3.395842    909.40085  0.081312665  0.081936807            1 
  933000    1.1220351   -3.4041539    907.26096  0.081034384  0.081926384            4 
  934000    1.0797892   -3.4100465    909.95248  0.081187766  0.081915876            3 
  935000    1.1027837   -3.4003568    912.38786  0.081317991  0.081905961            4 
  936000    1.0756963   -3.4147121    910.12124  0.081029313  0.081896201            1 
  937000    1.0921631     -3.44318    910.79658  0.081002897  0.081885579            2 
  938000    1.0964368   -3.3792375    915.56761  0.081340406  0.081874974            1 
  939000     1.095357   -3.3998395    914.06203  0.081120166  0.081865088            3 
  940000    1.0822381   -3.4051364    915.30169  0.081143767  0.081854682            2 
  941000    1.1293347   -3.4285419    913.90342  0.080933707  0.081843961            1 
  942000    1.1111871   -3.4094701    913.72521  0.080832025  0.081833404            1 
  943000    1.0812945     -3.40802    916.74605   0.08101326  0.081822463            1 
  944000    1.0902057   -3.4333439     914.6807  0.080745119  0.081811645            3 
  945000    1.0992415   -3.4184529    917.63302  0.080920019  0.081801274            2 
  946000    1.0954775   -3.4181076     922.1789  0.081234928  0.081791032            2 
  947000    1.0788661   -3.4028441    918.54028  0.080828958  0.081781488            1 
  948000    1.1273251   -3.4268072    922.65845  0.081105701  0.081772789            3 
  949000    1.1395098   -3.4373006    921.71027  0.080936975  0.081763724            2 
  950000     1.093994   -3.4022107    922.28232  0.080901957  0.081754282            2 
  951000     1.105106   -3.3793507    923.27075    0.0809035  0.081744222            1 
  952000    1.0997408    -3.398769    927.36029  0.081176496  0.081734962            2 
  953000    1.1057507   -3.3771425    928.69945  0.081208416   0.08172506            3 
  954000    1.0987484   -3.4572141    923.05018   0.08062982  0.081714996            2 
  955000    1.0902977   -3.4010031    929.61671  0.081118387  0.081705068            3 
  956000    1.1057831   -3.4447855    924.25045  0.080565764  0.081695088            1 
  957000    1.0930786   -3.4292803    931.93721  0.081150924  0.081684985            2 
  958000    1.1009741   -3.4193575    932.95702  0.081154925  0.081675929            2 
  959000    1.1136408   -3.4134767    928.61367  0.080692881  0.081666212            1 
  960000    1.0989592   -3.4238476    930.80242  0.080798821  0.081656762            1 
  961000    1.0809928   -3.4403928    933.51279  0.080949774  0.081646929            5 
  962000    1.1106443    -3.402653    935.34593  0.081024422    0.0816376            2 
  963000    1.0975919   -3.4124769    936.53096  0.081042831  0.081629348            1 
  964000    1.0952182   -3.4331956    937.31927  0.081026908  0.081621034            4 
  965000    1.0969016   -3.4064912    937.99853  0.081001601  0.081611684            2 
  966000    1.0959569    -3.394521    937.13955  0.080843646  0.081602599            2 
  967000      1.11309   -3.4037506    941.41953  0.081128881  0.081593744            5 
  968000    1.1064607   -3.4309913    942.47416  0.081135861  0.081584656            2 
  969000    1.1228847   -3.4223132    940.37834  0.080871891  0.081575198            3 
  970000    1.0839037   -3.4018044    943.38499  0.081046821  0.081566772            2 
  971000    1.1079716   -3.4448402    943.06188  0.080935623  0.081558151            2 
  972000    1.1039549   -3.4382698    942.41029  0.080796493  0.081549677            2 
  973000     1.091654   -3.4238056    948.10942   0.08120156  0.081540665            2 
  974000    1.0866635   -3.4261911    948.56533  0.081157198  0.081532382            1 
  975000    1.1040246   -3.4340218    946.37603   0.08088684  0.081522834            2 
  976000    1.0931226   -3.4290512    948.10754  0.080951805  0.081513368            1 
  977000    1.0968697   -3.4273547    947.07636  0.080780993  0.081503659            4 
  978000    1.0848473   -3.4302024    948.24493  0.080797966  0.081494439            5 
  979000    1.0839601   -3.4504111    946.78159  0.080590874  0.081484676            2 
  980000    1.1014099   -3.3996022    954.58394  0.081172103  0.081475369            2 
  981000    1.1089229   -3.4161112    953.94887  0.081035412  0.081466331            2 
  982000    1.1225654   -3.4066637    953.14463  0.080884643  0.081456767            2 
  983000    1.0900509    -3.423139     952.8411  0.080776628  0.081447517            3 
  984000    1.1067372   -3.4367678    949.68162  0.080426967  0.081437662            1 
  985000    1.0915974   -3.4163732    953.04272  0.080629671  0.081427954            2 
  986000    1.0904352   -3.4242238    953.74356   0.08060713  0.081417694            3 
  987000    1.0948355    -3.441863    955.31364  0.080658024  0.081408006            2 
  988000    1.1008677   -3.4246794    958.63659  0.080856662  0.081398447            2 
  989000    1.0972539   -3.4260269    957.76833  0.080701746  0.081388897            4 
  990000    1.1027655   -3.4224065    960.34856  0.080837421  0.081378504            4 
  991000    1.1138963   -3.4418109    958.24107   0.08057863  0.081368485            3 
  992000    1.0970569   -3.4260305    956.64039  0.080362936  0.081357853            3 
  993000    1.1017765    -3.423436     960.6439  0.080617985  0.081347202            1 
  994000    1.0801011   -3.4377499    961.15798  0.080579978  0.081336598            5 
  995000    1.1010674   -3.3985076    962.20476  0.080586663  0.081326309            1 
  996000    1.0637294   -3.4273403    960.24274  0.080341595   0.08131584            3 
  997000    1.0754561   -3.4291482    960.38149  0.080272609  0.081304588            2 
  998000    1.0853335   -3.4572061    962.60373  0.080377733  0.081293483            4 
  999000    1.0603902   -3.3941698    960.32005  0.080106778  0.081281549            2 
 1000000     1.084682   -3.4358456    965.54328   0.08046194  0.081270222            3 
 1001000    1.1018459   -3.4268712    966.65436  0.080474056   0.08125916            3 
 1002000    1.0763015   -3.4287181    967.16103   0.08043588  0.081248436            1 
 1003000    1.0862632   -3.4217034    970.58984  0.080640565  0.081237034            3 
 1004000    1.0762625   -3.4064176    967.47869  0.080302016  0.081226525            2 
 1005000     1.130431   -3.4222795    970.28347  0.080454683  0.081216816            2 
 1006000    1.1087242   -3.4214041    970.20652  0.080368333  0.081206086            5 
 1007000    1.1010304   -3.4152042    973.79255  0.080585282  0.081195897            2 
 1008000    1.0745571   -3.4248884    974.50197  0.080563986  0.081185696            3 
 1009000    1.0968059   -3.4347487     970.3379   0.08014023  0.081174656            2 
 1010000     1.073499   -3.4428565     972.0164  0.080199373  0.081164042            2 
 1011000    1.0913251   -3.4416449    974.54833  0.080328745  0.081153015            3 
 1012000     1.085488   -3.4346362    973.90207  0.080196152  0.081141843            4 
 1013000     1.069286    -3.458852    976.30408  0.080314584   0.08113051            2 
 1014000    1.0790765   -3.4373681    976.14449  0.080222262   0.08111932            2 
 1015000    1.1002417   -3.3988547    983.95859  0.080784777  0.081109324            2 
 1016000    1.0759248   -3.4018888     983.8914  0.080699754  0.081099653            3 
 1017000    1.1014464    -3.425647    986.70767  0.080851169   0.08109039            3 
 1018000    1.1010883   -3.4333759    985.42341  0.080666619   0.08108081            2 
 1019000    1.0972229   -3.4533041    982.76984  0.080370448  0.081071074            6 
 1020000    1.0947955   -3.4106396    985.02886  0.080476214    0.0810622            6 
 1021000     1.122583   -3.4308338    986.14125  0.080488186  0.081052945            2 
 1022000    1.0751066   -3.4234211    985.18885  0.080331771  0.081042929            3 
 1023000    1.1095429   -3.4466932     989.6899  0.080619901   0.08103374            3 
 1024000    1.1002227    -3.429992     988.0488  0.080407617  0.081024531            3 
 1025000    1.0701416   -3.4229192    985.27305    0.0801035  0.081014739            2 
 1026000    1.1010663   -3.4431453    988.76302  0.080308887  0.081004908            2 
 1027000    1.0755962   -3.4363477    987.98556  0.080167604  0.080995165            2 
 1028000    1.0957735   -3.4133909    986.95185  0.080005824  0.080984481            4 
 1029000    1.0956543   -3.4236343    992.59049  0.080384717  0.080974343            2 
 1030000    1.1073329   -3.4118123    987.64129  0.079906253  0.080963126            2 
 1031000    1.0751272    -3.407068    988.35793  0.079886674   0.08095294            2 
 1032000    1.0755848   -3.4332815    989.57501  0.079907543  0.080941781            4 
 1033000    1.1112405   -3.4565592    987.86146  0.079691954  0.080931312            3 
 1034000    1.0857561   -3.4315555    995.30912  0.080215113  0.080920951            1 
 1035000    1.0567134   -3.4368143    996.92541  0.080267746  0.080911215            2 
 1036000     1.089496    -3.450817    995.59573  0.080083312  0.080901141            2 
 1037000    1.0806777   -3.4378157    997.18875  0.080134101  0.080890436            3 
 1038000    1.0599583   -3.4381416    998.07997   0.08012845  0.080879928            1 
 1039000    1.0823322   -3.3948109    1000.7573  0.080266068  0.080869571            2 
 1040000    1.0714594   -3.4567032    1002.5028   0.08032875  0.080859525            2 
 1041000    1.0973764   -3.4309728    1000.9508  0.080127347   0.08084895            2 
 1042000    1.0866148   -3.4191816    1002.6663  0.080187642   0.08083817            1 
 1043000    1.0826786   -3.4276682    1005.2195  0.080314756  0.080827645            3 
 1044000    1.0962624   -3.4346638    996.22806   0.07952012  0.080816827            3 
 1045000    1.0613326   -3.4133081    1005.3834  0.080174113  0.080806768            4 
 1046000    1.0647506   -3.4644521    1005.6392  0.080117843  0.080796476            3 
 1047000    1.0860994    -3.428522     1007.059  0.080154327  0.080786767            1 
 1048000     1.073731   -3.4429021    1004.2689  0.079855984  0.080776274            2 
 1049000    1.0863407   -3.4358039    1004.2659   0.07977962  0.080765881            1 
 1050000    1.0815379    -3.437078    1009.9234  0.080152652  0.080755353            3 
 1051000    1.0906958   -3.4447608    1010.4582  0.080118789  0.080744705            1 
 1052000     1.087932   -3.4495267    1008.4522  0.079883728  0.080734544            1 
 1053000    1.0659979   -3.4251027    1015.0975  0.080333769  0.080723934            1 
 1054000    1.0538216   -3.4461946    1012.4839   0.08005091  0.080714113            1 
 1055000     1.087942   -3.4240052    1013.8841  0.080085635  0.080704365            1 
 1056000    1.0775552   -3.4427632    1013.9756  0.080017015  0.080693958            4 
 1057000    1.0890197   -3.4625691    1014.0548  0.079947556  0.080684248            2 
 1058000    1.0758699   -3.4267251    1014.2728  0.079889161  0.080675291            2 
 1059000    1.0807445   -3.4495286    1017.1057  0.080036643  0.080665475            1 
 1060000     1.096871   -3.4425292     1017.122  0.079962422  0.080656302            2 
 1061000    1.0852219   -3.4168945    1016.6339  0.079848723   0.08064626            2 
 1062000    1.0893436   -3.4549823    1016.7678  0.079784038  0.080636292            3 
 1063000    1.0977962   -3.4659012    1019.6778  0.079937111  0.080625463            2 
 1064000    1.0908778   -3.4543286    1018.2325  0.079748782  0.080614214            1 
 1065000    1.0798313     -3.45059    1020.9185   0.07988408  0.080604262            4 
 1066000    1.0537251   -3.4432571    1022.3084   0.07991779   0.08059318            1 
 1067000    1.0769351   -3.4539788    1023.4027  0.079928356  0.080582522            3 
 1068000    1.0878478   -3.4283517    1024.0494  0.079903982  0.080572205            5 
 1069000    1.0984254   -3.4352356    1022.5085  0.079709113  0.080560988            3 
 1070000    1.0594054   -3.4631713    1022.9299  0.079667441  0.080550047            4 
 1071000    1.0916743   -3.4432966    1020.0884   0.07937196  0.080539464            1 
 1072000    1.0736125   -3.4363036    1022.5396  0.079488468  0.080528334            5 
 1073000    1.0682736   -3.4327436    1028.0972  0.079846005  0.080516781            4 
 1074000    1.0702051   -3.4543669    1026.9812  0.079685068  0.080505794            4 
 1075000    1.0927026   -3.4228042    1021.3569  0.079174952  0.080494603            2 
 1076000    1.0532216   -3.4851043     1024.174  0.079319549  0.080482565            3 
 1077000     1.082443   -3.4358154    1027.0822  0.079470921  0.080470614            3 
 1078000    1.0720211   -3.4577713    1022.3052  0.079027922  0.080459069            3 
 1079000    1.0779581   -3.4468968    1031.2146  0.079642768  0.080447585            2 
 1080000    1.1086811   -3.4114095    1029.3717  0.079426828  0.080435655            5 
 1081000    1.0899905   -3.4686956    1028.1661  0.079260412   0.08042386            3 
 1082000    1.0693191   -3.4640453    1029.8492  0.079316787  0.080411575            3 
 1083000    1.0693189   -3.4324601    1030.4848  0.079292461  0.080399955            2 
 1084000    1.0677458   -3.3980835     1036.107   0.07965152   0.08038783            1 
 1085000    1.0863569   -3.4377072    1033.4025  0.079370391  0.080376069            2 
 1086000    1.0741412   -3.4534892    1035.0398  0.079422942  0.080364341            2 
 1087000    1.0748097   -3.4377878    1035.4972   0.07938494  0.080352414            3 
 1088000    1.0808515   -3.4495854    1035.1364  0.079284344  0.080341055            1 
 1089000    1.0704476   -3.4128765    1037.9305   0.07942535  0.080328882            3 
 1090000    1.0759243   -3.4680543    1032.9094  0.078968612  0.080317401            2 
 1091000    1.1011955   -3.4336523     1038.347  0.079311564  0.080305654            2 
 1092000    1.0627882   -3.4642039    1040.5005  0.079403272  0.080293703            1 
 1093000     1.079352   -3.4319708    1042.6879    0.0794974  0.080282212            3 
 1094000    1.0810359   -3.4177392    1048.1034  0.079837248  0.080270704            3 
 1095000    1.0730501   -3.4568087    1041.5973  0.079269204  0.080259425            2 
 1096000    1.0574338   -3.4512098    1042.3968  0.079257662  0.080247954            3 
 1097000    1.0570316   -3.4348453    1043.8246  0.079293875  0.080235691            2 
 1098000    1.0655074   -3.4521368    1043.4667  0.079194495  0.080224165            1 
 1099000    1.0863581   -3.4293741    1047.8935  0.079458108  0.080212155            2 
 1100000    1.0568797   -3.4518666    1041.6666  0.078914133  0.080200089            3 
 1101000    1.0698378   -3.4068054    1047.7126  0.079300076  0.080187827            1 
 1102000    1.0714399   -3.4586313    1045.1614  0.079035195  0.080176286            3 
 1103000    1.0714696   -3.4571878    1050.9996  0.079404627  0.080164692            2 
 1104000    1.0735832   -3.4383125    1047.1379  0.079041204  0.080152821            3 
 1105000    1.0378583     -3.44574    1046.5431  0.078924818  0.080141049            3 
 1106000    1.0660141   -3.4312057    1053.4529  0.079374085  0.080129541            2 
 1107000    1.0739323   -3.4339759    1053.2237  0.079285133  0.080117612            3 
 1108000    1.0626653   -3.4492643    1051.2994  0.079068851  0.080105929            2 
 1109000    1.0850719   -3.4678741    1052.1329  0.079060183  0.080094345            4 
 1110000    1.0611804    -3.422753    1056.0594  0.079283736  0.080082975            2 
 1111000    1.0570035   -3.4183049    1054.3484  0.079084037  0.080071468            2 
 1112000    1.0756905   -3.4472011    1056.2838  0.079157958  0.080059292            2 
 1113000    1.0712067     -3.47957    1058.2547  0.079234404  0.080047517            2 
 1114000    1.0962678   -3.4530469    1059.7693  0.079276576  0.080035867            3 
 1115000    1.0724668    -3.477848    1057.9782  0.079071614  0.080024062            2 
 1116000    1.1053973   -3.4372784    1063.3332  0.079400629  0.080012713            1 
 1117000    1.0674684   -3.4599561    1059.0561   0.07901045  0.080001402            1 
 1118000    1.0561674   -3.4539328    1062.2123  0.079175034   0.07998996            2 
 1119000    1.0829576   -3.4564216    1061.7321  0.079068519   0.07997873            2 
 1120000    1.0664251   -3.4679421    1064.5254  0.079205757  0.079967255            2 
 1121000    1.0619417   -3.4442477    1059.9452   0.07879462  0.079956213            2 
 1122000    1.0581301   -3.4726862    1060.9515  0.078799128  0.079944016            2 
 1123000     1.087287   -3.4468853    1060.8345  0.078720284  0.079932657            3 
 1124000    1.1071666   -3.4389269    1064.1086  0.078892989  0.079920283            3 
 1125000    1.0695818   -3.4475748    1063.3806  0.078768934  0.079907313            2 
 1126000    1.0876272   -3.4562554    1062.4226   0.07862808  0.079895165            1 
 1127000    1.0668103   -3.4271817    1069.0028  0.079044872  0.079882751            2 
 1128000    1.0583426   -3.4729322    1066.8039  0.078812348  0.079871294            1 
 1129000    1.0780665   -3.4591921    1070.5341  0.079017868  0.079859665            2 
 1130000    1.0578734   -3.4634068    1068.4012  0.078790651  0.079847858            2 
 1131000    1.0931121   -3.4810973    1067.9673  0.078689015  0.079835514            3 
 1132000     1.088214   -3.4659282    1071.0124  0.078843667  0.079823678            2 
 1133000    1.0663062   -3.4655465    1069.2448  0.078644075  0.079811344            2 
 1134000    1.0804283   -3.4480484    1073.7124  0.078903031  0.079799334            3 
 1135000    1.0733727   -3.4363442    1073.2922   0.07880266  0.079787375            3 
 1136000     1.063734   -3.4542608    1075.2862   0.07887956   0.07977514            2 
 1137000    1.0762968   -3.4209881    1081.5417  0.079268668  0.079763064            2 
 1138000    1.0734435   -3.4634508    1072.8954  0.078565863  0.079750922            1 
 1139000    1.0691026   -3.4626079    1071.7336  0.078411879  0.079738879            4 
 1140000    1.0626845     -3.44801    1078.4655  0.078835194  0.079726356            2 
 1141000    1.0789669   -3.4577993    1078.6952  0.078782879  0.079713924            3 
 1142000    1.0607884   -3.4526624    1077.3565  0.078616208  0.079701696            4 
 1143000    1.0775807   -3.4355706    1078.4652  0.078628257  0.079689577            4 
 1144000    1.0723613   -3.4457266    1079.0736  0.078603843  0.079677137            2 
 1145000    1.0765266     -3.47373    1080.8386  0.078663651  0.079665476            1 
 1146000    1.0810004   -3.4889476     1079.545  0.078500946  0.079653337            3 
 1147000    1.0639351   -3.4410936    1084.1277  0.078765453  0.079641014            3 
 1148000    1.0752456   -3.4576154     1085.456   0.07879326  0.079628998            1 
 1149000    1.0715422   -3.4243125    1085.5115  0.078728713  0.079616381            3 
 1150000    1.0429054   -3.4407928    1085.8228  0.078682815   0.07960445            2 
 1151000    1.0383969   -3.4725115    1084.8485  0.078543911  0.079592648            5 
 1152000    1.0726939   -3.4872741    1092.1648  0.079004976  0.079580663            6 
 1153000    1.0873843   -3.4774198    1088.6936  0.078685576  0.079569121            7 
 1154000    1.0566777   -3.4743674    1088.9332   0.07863469  0.079557179            5 
 1155000    1.0771693   -3.4841287    1087.4986  0.078463101  0.079544921            2 
 1156000    1.0745135   -3.4612355    1093.2125  0.078807133   0.07953314            3 
 1157000    1.0626893   -3.4229686    1092.8359  0.078711891  0.079521522            4 
 1158000    1.0685366   -3.4888669    1092.3324  0.078607687  0.079510128            5 
 1159000     1.067997   -3.4483674    1093.5488  0.078627319  0.079498543            2 
 1160000     1.043942    -3.475334    1093.0908   0.07852664  0.079487385            1 
 1161000    1.0487947   -3.4286539    1096.9095  0.078733096  0.079475917            3 
 1162000    1.0812645   -3.4608867    1099.4887  0.078850312  0.079463686            3 
 1163000    1.0787204   -3.4422441    1099.4875  0.078782426  0.079452268            4 
 1164000    1.0669206   -3.4717742    1099.9401  0.078747141  0.079440089            2 
 1165000    1.0621535    -3.477072    1096.0525  0.078401466  0.079428291            4 
 1166000    1.0447572   -3.4843115    1094.4912   0.07822264  0.079415761            2 
 1167000     1.089222   -3.4476865    1096.0638   0.07826791  0.079403358            3 
 1168000    1.0743983   -3.4601631    1100.0384  0.078484475  0.079391115            3 
 1169000    1.0561892   -3.4348784    1100.0055  0.078414988  0.079378905            2 
 1170000     1.064066   -3.4583307    1102.8362  0.078549585  0.079366796            2 
 1171000    1.0728675    -3.490871    1100.0428  0.078283715  0.079354223            2 
 1172000    1.0675126   -3.4575556    1104.0776   0.07850381  0.079341166            2 
 1173000    1.0547176   -3.4722036     1100.877  0.078209506  0.079328661            4 
 1174000    1.0787083   -3.4709887    1102.2025  0.078236976  0.079315658            2 
 1175000    1.0521713   -3.4665418    1103.2721  0.078246247   0.07930312            2 
 1176000    1.0530914   -3.4698387    1102.2499  0.078107274  0.079290507            4 
 1177000    1.0531732   -3.4715836    1104.5681  0.078205047  0.079277541            4 
 1178000    1.0645322   -3.4802777     1104.164  0.078110075  0.079264266            1 
 1179000     1.064806   -3.4752158    1101.8409  0.077879625  0.079251268            2 
 1180000     1.066786   -3.4621339    1102.6683  0.077872054  0.079237836            1 
 1181000    1.0723667   -3.4663397     1105.279  0.077990336  0.079224186            1 
 1182000    1.0360602   -3.5101765    1103.6762   0.07781135  0.079210829            2 
 1183000    1.0674455   -3.4998247    1102.0676  0.077632265  0.079196916            3 
 1184000    1.0409431   -3.4596705    1105.6609  0.077819603   0.07918329            3 
 1185000    1.0717217   -3.4939468    1104.3038  0.077658496  0.079169727            2 
 1186000    1.0603607   -3.4693727     1109.555  0.077961985  0.079156188            3 
 1187000    1.0516879   -3.4900888    1109.8709  0.077918482  0.079142119            3 
 1188000    1.0618091   -3.4529682    1111.1751  0.077944381  0.079128266            2 
 1189000    1.0517725   -3.4664621    1110.6702  0.077843441  0.079114283            5 
 1190000    1.0681903   -3.4664967    1113.1578  0.077952226  0.079099673            1 
 1191000    1.0647859    -3.467905    1107.2668  0.077474584  0.079085373            2 
 1192000    1.0785063   -3.4565714    1110.7634   0.07765404  0.079070721            2 
 1193000    1.0622282   -3.4707164    1114.5297   0.07785203  0.079056015            3 
 1194000    1.0554557   -3.4642506    1110.3121  0.077492466  0.079041758            2 
 1195000    1.0527929   -3.4742527    1115.9107   0.07781804  0.079027741            4 
 1196000    1.0634038   -3.4744454    1112.0932  0.077486984  0.079013296            3 
 1197000    1.0446429   -3.4460771    1113.2795  0.077504837  0.078998355            2 
 1198000    1.0840808   -3.4534993    1116.9984  0.077698832  0.078983183            3 
 1199000    1.0657475   -3.4457135    1119.1528  0.077783767   0.07896849            2 
 1200000    1.0556884   -3.4586066    1119.6013  0.077750091  0.078953816            2 
 1201000    1.0679855   -3.4757764    1115.6634  0.077412116  0.078939117            2 
 1202000    1.0618018   -3.4948573    1114.7733  0.077286002  0.078924573            2 
 1203000    1.0617278   -3.4761951    1119.2288  0.077530394  0.078909888            3 
 1204000    1.0520821    -3.479258    1116.1843  0.077255283  0.078895403            2 
 1205000    1.0716794    -3.464205    1120.2873   0.07747492  0.078880704            2 
 1206000    1.0581795   -3.4750609    1126.8814  0.077866322  0.078865621            1 
 1207000    1.0464613    -3.454174      1117.98  0.077187244  0.078850586            2 
 1208000    1.0689509   -3.4653665    1122.8389  0.077458533  0.078836105            2 
 1209000    1.0724263   -3.4642787     1123.045  0.077408668  0.078821566            3 
 1210000    1.0478518   -3.4512695    1125.6385  0.077523314  0.078806803            4 
 1211000    1.0560679   -3.4686549    1123.7215  0.077327381  0.078792065            2 
 1212000    1.0557943   -3.4849159    1120.0314  0.077009859   0.07877741            3 
 1213000     1.052298   -3.4861288    1126.0552  0.077360211  0.078762232            2 
 1214000    1.0696678   -3.4726145    1125.8126  0.077279832  0.078747726            4 
 1215000    1.0484327   -3.4728883    1131.1845  0.077584671  0.078733109            2 
 1216000    1.0568955   -3.4679016    1126.2824  0.077184924  0.078718145            2 
 1217000    1.0521872   -3.4687109    1128.7005  0.077287076  0.078703411            3 
 1218000    1.0285306   -3.5020882    1131.7178  0.077430063  0.078688655            2 
 1219000    1.0678034   -3.4894893    1127.4076  0.077071888  0.078673595            3 
 1220000    1.0427139   -3.4700353    1131.7159  0.077302997  0.078659131            5 
 1221000    1.0743717   -3.4758192    1133.7334   0.07737738   0.07864476            2 
 1222000    1.0558232   -3.4996071    1129.4725  0.077023493  0.078630237            2 
 1223000    1.0605976    -3.504476    1129.9573  0.076993549  0.078615076            2 
 1224000    1.0498694    -3.446236    1138.0931  0.077484551  0.078600425            2 
 1225000     1.040902   -3.4854134    1132.5308  0.077042909  0.078585725            4 
 1226000    1.0612703   -3.4683848    1131.7729  0.076928552   0.07857095            1 
 1227000    1.0549769   -3.4817142     1132.841    0.0769384  0.078555639            3 
 1228000    1.0541118   -3.4961953    1139.4175  0.077322034  0.078540483            3 
 1229000    1.0576915   -3.4795845    1136.1589   0.07703817  0.078525181            2 
 1230000    1.0440836   -3.4840881    1130.8924  0.076618725  0.078509621            2 
 1231000     1.064726   -3.4856773    1137.4545  0.077000708  0.078494039            1 
 1232000    1.0509872   -3.4636543    1141.0313   0.07718015  0.078478933            4 
 1233000    1.0637644   -3.4539155    1141.7027  0.077162927  0.078463609            4 
 1234000     1.055167   -3.4948464    1138.7532  0.076901213  0.078448812            2 
 1235000    1.0698659   -3.4568743    1139.5684  0.076893956  0.078433827            2 
 1236000    1.0629062   -3.4942442    1141.5747   0.07696701  0.078418378            2 
 1237000    1.0643622   -3.4916884    1139.6845   0.07677745  0.078403288            2 
 1238000    1.0435849    -3.459495     1144.027  0.077007738  0.078388353            5 
 1239000    1.0535608   -3.4674298    1149.9849  0.077346309  0.078373423            3 
 1240000    1.0699812   -3.4880874    1144.0862  0.076887514  0.078358869            3 
 1241000    1.0343671   -3.5095525    1148.2031  0.077102007  0.078344675            2 
 1242000    1.0322704   -3.4647153    1148.1681  0.077037581  0.078329844            2 
 1243000    1.0359413   -3.4931837    1148.4863  0.076996935  0.078315289            5 
 1244000    1.0636039   -3.4938691    1152.2576  0.077187674  0.078300475            4 
 1245000    1.0534602   -3.4838858    1147.4374   0.07680304  0.078285694            4 
 1246000     1.047587   -3.4703022    1144.6909  0.076557714  0.078270858            2 
 1247000    1.0671912   -3.4669652    1154.1067  0.077125548  0.078256759            1 
 1248000    1.0536159   -3.4919732    1149.9433  0.076785744  0.078242453            6 
 1249000     1.033447   -3.4794049    1149.6285  0.076703261  0.078227954            3 
 1250000     1.054123   -3.4901976    1152.9604  0.076864027  0.078213774            2 
 1251000    1.0450613   -3.5173082    1155.3035  0.076958667   0.07819867            6 
 1252000    1.0616893   -3.4609069    1158.2959  0.077096371  0.078183909            2 
 1253000    1.0451472   -3.4711585    1153.0443  0.076685573  0.078169673            3 
 1254000    1.0554842   -3.4909036    1152.9636  0.076619062  0.078154459            2 
 1255000    1.0803797   -3.4535101    1155.3697  0.076717778  0.078140129            2 
 1256000    1.0562304   -3.4890438    1162.0134  0.077097493   0.07812505            2 
 1257000    1.0599167   -3.5047621    1161.0601  0.076972956  0.078110714            7 
 1258000    1.0454032   -3.4985158    1152.7244  0.076359589    0.0780959            3 
 1259000    1.0649355   -3.4641428    1158.8391  0.076703674   0.07808111            3 
 1260000    1.0477137   -3.4872763    1161.7005  0.076832044  0.078067186            3 
 1261000    1.0567806   -3.5030312    1154.3674  0.076286506  0.078052915            2 
 1262000    1.0545668   -3.4888153    1161.5398  0.076699671  0.078038751            1 
 1263000    1.0634326    -3.484381    1161.0044  0.076603614  0.078024189            1 
 1264000    1.0425574    -3.494651    1163.5904  0.076713502  0.078009689            1 
 1265000    1.0476186   -3.4906908     1165.826   0.07680013  0.077995806            1 
 1266000    1.0510728   -3.4925898    1167.0768  0.076821798  0.077981888            1 
 1267000     1.045672   -3.4784344    1164.0928  0.076564906  0.077967557            3 
 1268000    1.0487316   -3.4972009    1166.2847  0.076648573  0.077952999            6 
 1269000    1.0557489   -3.4849829    1167.1508  0.076645049  0.077938728            2 
 1270000    1.0588658   -3.4810407    1168.4697   0.07667124  0.077924193            1 
 1271000    1.0619619   -3.5065854    1161.0058  0.076121546  0.077909688            1 
 1272000    1.0396477   -3.4989811    1169.4457  0.076614631  0.077895726            4 
 1273000    1.0677027   -3.4641513    1169.7704  0.076575701  0.077881578            3 
 1274000    1.0441971   -3.4905847    1172.1288  0.076669859  0.077867215            2 
 1275000    1.0595517   -3.5089903    1172.3873  0.076626622  0.077852586            3 
 1276000    1.0375356   -3.4989996    1175.5584   0.07677367  0.077838279            2 
 1277000    1.0325895    -3.521738    1175.4951  0.076709419  0.077823519            3 
 1278000    1.0474577   -3.4823093    1178.1414  0.076821948  0.077808905            1 
 1279000    1.0510019    -3.466734    1175.9614  0.076619843  0.077794403            2 
 1280000    1.0353328   -3.4794266    1170.5402  0.076207044  0.077780402            2 
 1281000    1.0221311   -3.4657314    1181.3422  0.076850261  0.077766084            3 
 1282000    1.0766815   -3.4837856    1173.7724  0.076298255  0.077751387            3 
 1283000    1.0399702   -3.4803332    1180.2995  0.076662736  0.077737302            2 
 1284000    1.0419783    -3.497265    1177.2598  0.076405753  0.077723064            4 
 1285000    1.0577087   -3.4624869    1179.5205  0.076492896  0.077708824            4 
 1286000    1.0527763   -3.4770369     1184.188  0.076735876  0.077695149            3 
 1287000    1.0342093   -3.5190616    1185.4561  0.076758356  0.077681198            2 
 1288000    1.0604747   -3.4822619    1182.2697  0.076492604  0.077667346            2 
 1289000    1.0494634   -3.4734129    1184.9402  0.076605911  0.077652949            2 
 1290000    1.0187054   -3.4723122    1187.5022  0.076712031  0.077638899            3 
 1291000    1.0464757   -3.4661471    1184.5742  0.076463605  0.077625263            3 
 1292000    1.0609939   -3.4972164    1180.8663  0.076165269  0.077611312            2 
 1293000    1.0556419   -3.4698676    1191.0336  0.076761636  0.077597851            2 
 1294000    1.0442812   -3.4745774    1184.9182  0.076308488  0.077584611            2 
 1295000    1.0478066   -3.4968269    1190.2789  0.076594522  0.077571779            2 
 1296000    1.0347846   -3.4652118    1192.6577  0.076688383  0.077559114            4 
 1297000    1.0393441   -3.4795807    1198.0932   0.07697849  0.077546238            3 
 1298000    1.0424887   -3.4955637    1189.5138  0.076368375  0.077532587            3 
 1299000     1.012451   -3.4785163    1190.7919  0.076391579  0.077519069            2 
 1300000    1.0616712    -3.490978    1192.4893  0.076441623  0.077505783            2 
 1301000    1.0283853    -3.510836    1194.2008  0.076492492  0.077493204            3 
 1302000    1.0474742   -3.4617267    1196.7685  0.076598088  0.077480247            3 
 1303000    1.0645001   -3.4704664    1191.6351  0.076210997  0.077467318            2 
 1304000    1.0817615   -3.4761536    1199.5011  0.076655232   0.07745426            3 
 1305000    1.0486397   -3.4892751    1199.7149  0.076610146  0.077441175            1 
 1306000    1.0258395   -3.5013051     1197.854  0.076432748   0.07742788            3 
 1307000    1.0552203   -3.4856763    1196.8972   0.07631326  0.077414674            2 
 1308000     1.068311   -3.4916619    1200.6471  0.076493826  0.077402142            2 
 1309000    1.0571323   -3.4932128     1195.631  0.076116057   0.07738906            2 
 1310000    1.0183246   -3.4867724    1204.8284  0.076643029  0.077376157            2 
 1311000    1.0353717   -3.5067835    1201.1853  0.076352996  0.077363495            2 
 1312000    1.0385333   -3.4684544    1204.7828  0.076523296  0.077351069            4 
 1313000    1.0300744   -3.5171484    1202.3936  0.076313382   0.07733795            3 
 1314000    1.0455833   -3.5083453     1204.198  0.076369733  0.077324766            4 
 1315000    1.0353658   -3.5070452    1203.5418  0.076270074  0.077311612            2 
 1316000    1.0307979    -3.484319    1205.3579   0.07632712  0.077298934            3 
 1317000    1.0492859   -3.5011199    1209.6618  0.076541493  0.077286834            2 
 1318000    1.0622531   -3.4992244    1209.5609  0.076477041  0.077274043            1 
 1319000    1.0536158   -3.4920655    1208.8932  0.076376878  0.077261525            2 
 1320000     1.038859   -3.5134226    1211.1104  0.076458991  0.077248897            3 
 1321000    1.0326765   -3.5113292     1211.311  0.076413767   0.07723599            2 
 1322000    1.0480069   -3.4853465    1211.7301  0.076382385  0.077223098            2 
 1323000    1.0492364    -3.491506    1210.5001   0.07624717  0.077210434            3 
 1324000     1.041539   -3.4952626    1208.8492  0.076085673  0.077197333            3 
 1325000     1.055996   -3.5175856    1216.5729   0.07651402  0.077184312            2 
 1326000    1.0592666   -3.5187392    1215.6767  0.076399996  0.077171561            2 
 1327000    1.0407699   -3.5277221     1210.599  0.076023549  0.077158801            5 
 1328000    1.0400525   -3.4741884    1212.5938  0.076091481  0.077145898            6 
 1329000     1.026767   -3.4821349    1218.7301  0.076418991  0.077133039            4 
 1330000    1.0442894   -3.5067876    1213.7728  0.076050925  0.077119925            2 
 1331000    1.0462273   -3.4785077    1212.0509  0.075885983  0.077106894            3 
 1332000    1.0647851    -3.508383    1219.9106  0.076320731  0.077093501            2 
 1333000    1.0271152    -3.497781    1219.9538  0.076266179  0.077080291            3 
 1334000    1.0349384   -3.4920533     1221.833    0.0763264  0.077066938            3 
 1335000    1.0480433   -3.5053358    1221.5706  0.076252849  0.077054143            1 
 1336000    1.0283796   -3.4826151    1218.4259  0.075999618   0.07704103            2 
 1337000    1.0599506   -3.5086614     1222.523  0.076198145  0.077027888            4 
 1338000    1.0487703   -3.5060518    1219.3258  0.075942064  0.077014207            2 
 1339000    1.0101792   -3.4737473    1223.7438  0.076160308  0.077000854            2 
 1340000    1.0562791   -3.5087832    1223.0483  0.076060216  0.076987879            1 
 1341000    1.0387359   -3.5025661    1223.8629  0.076054123  0.076974722            3 
 1342000    1.0287409   -3.4911026    1225.0024  0.076068204  0.076961816            4 
 1343000    1.0069352   -3.5235457    1219.3168  0.075658777  0.076947857            3 
 1344000    1.0270607   -3.4992343      1229.35   0.07622458  0.076934005            1 
 1345000    1.0309126   -3.5144257     1220.196  0.075600743  0.076920301            3 
 1346000    1.0423858   -3.5113836    1221.5187  0.075626468  0.076906496            4 
 1347000    1.0234833    -3.482539    1227.7916  0.075958399  0.076892573            3 
 1348000    1.0254392   -3.4958898    1225.6347  0.075768711  0.076878405            4 
 1349000    1.0306505    -3.526466    1222.7885  0.075536728   0.07686409            1 
 1350000    1.0374228   -3.4957566    1227.6251  0.075779324  0.076849708            7 
 1351000    1.0243774   -3.5362157     1227.461  0.075713111  0.076835806            2 
 1352000    1.0386141   -3.5185946    1228.6023  0.075727459  0.076821573            4 
 1353000    1.0171299    -3.505092    1224.5374  0.075421124  0.076807282            3 
 1354000     1.012215   -3.5072937    1226.6255  0.075493938  0.076793119            2 
 1355000    1.0121866   -3.4807975    1231.5736  0.075742533   0.07677866            2 
 1356000    1.0105389   -3.4811402    1226.8557  0.075396739  0.076764728            2 
 1357000   0.98825889   -3.5383343    1225.9119  0.075283214  0.076750328            4 
 1358000    1.0248663   -3.4926527    1231.1121  0.075546887  0.076735876            3 
 1359000    1.0406073   -3.5325939    1227.9103  0.075294968  0.076721463            3 
 1360000    1.0251418    -3.504149    1228.6821  0.075286896  0.076707056            2 
 1361000    1.0534503    -3.518723    1232.7272  0.075479258  0.076692766            2 
 1362000    1.0330443   -3.4873273    1235.4614  0.075591129  0.076678613            4 
 1363000    1.0269989   -3.5198928    1229.3005  0.075158997  0.076664087            3 
 1364000    1.0254034   -3.5200314    1234.5015  0.075421643  0.076649584            3 
 1365000     1.045115   -3.5156748    1231.6762  0.075193906  0.076634646            3 
 1366000    1.0263903   -3.5122482    1229.6713  0.075016548  0.076619485            3 
 1367000    1.0374579   -3.5115359      1234.87  0.075278588    0.0766043            2 
 1368000     1.038059   -3.5113222    1237.2339   0.07536756   0.07658912            3 
 1369000    1.0282177    -3.531006    1234.7765  0.075162921  0.076573741            2 
 1370000    1.0297594   -3.5181671    1240.0106  0.075426434  0.076558784            3 
 1371000    1.0469902   -3.5459136    1235.0102  0.075067483  0.076544114            4 
 1372000    1.0127089   -3.5251783    1236.9778  0.075132278  0.076529192            2 
 1373000    1.0321719   -3.5070642    1233.8237  0.074886117  0.076513902            3 
 1374000    1.0174285    -3.505543    1239.8472   0.07519694  0.076498221            2 
 1375000    1.0281416   -3.5033137    1237.3268  0.074989501  0.076483012            3 
 1376000    1.0347528   -3.5007593    1241.3057  0.075175977   0.07646809            2 
 1377000     1.058768    -3.547356    1236.5125  0.074831303  0.076453323            2 
 1378000    1.0343385   -3.4848133    1242.8207  0.075158485  0.076438499            2 
 1379000    1.0486659   -3.5030832    1249.6523  0.075516817  0.076423536            3 
 1380000    1.0423325   -3.5247605    1241.6421  0.074978386  0.076409258            3 
 1381000    1.0281145    -3.505132    1245.6006  0.075162964  0.076394385            2 
 1382000    1.0251185   -3.4942975    1246.0713  0.075136956  0.076379662            3 
 1383000     1.035399   -3.5366456    1248.0886  0.075204179  0.076364644            1 
 1384000    1.0517071    -3.510349    1246.3002  0.075042163  0.076349903            6 
 1385000    1.0300051   -3.4963197     1246.807  0.075018473  0.076335159            3 
 1386000    1.0331142   -3.4923516    1250.0062    0.0751567  0.076320928            1 
 1387000    1.0342243   -3.5154418    1247.5961  0.074957709  0.076306465            3 
 1388000    1.0264307    -3.516896    1247.6586  0.074907456  0.076291423            2 
 1389000    1.0371992   -3.5214372    1245.6566  0.074733418  0.076275928            6 
 1390000    1.0407015   -3.5070397    1250.4148  0.074964917  0.076261203            4 
 1391000     1.043177    -3.521337    1247.6273   0.07474403  0.076246208            4 
 1392000    1.0274185   -3.4907247    1251.5963  0.074927941  0.076230561            2 
 1393000    1.0420394   -3.5236394    1249.4844  0.074747811  0.076215095            2 
 1394000    1.0405768   -3.4809476    1253.0116  0.074905043  0.076199938            1 
 1395000     1.030437   -3.5228953    1255.3712  0.074992307  0.076184625            1 
 1396000    1.0223067   -3.5131886     1258.536  0.075127508  0.076169815            3 
 1397000    1.0320521   -3.4907947     1251.627  0.074661598  0.076155018            2 
 1398000    1.0168448    -3.565356    1255.4428  0.074835645  0.076139849            5 
 1399000    1.0293902   -3.5137263    1259.7407  0.075038162  0.076124821            3 
 1400000    1.0212318   -3.5140246    1257.9496  0.074877951  0.076109831            2 
 1401000    1.0296579   -3.5196482     1259.625  0.074924164  0.076095073            1 
 1402000    1.0259136   -3.5184291    1262.2787  0.075028453  0.076080279            4 
 1403000    1.0497194   -3.5103005    1260.3007  0.074857493  0.076065364            2 
 1404000    1.0102076   -3.5007596    1261.8353  0.074895256  0.076050595            3 
 1405000    1.0300689   -3.5200653    1255.9367  0.074492093  0.076035666            4 
 1406000    1.0574845   -3.5418783    1258.0281  0.074563068  0.076020593            4 
 1407000    1.0444891   -3.5050598    1266.5997  0.075017753  0.076005576            3 
 1408000    1.0350908   -3.4926761    1264.4811  0.074839079  0.075990845            4 
 1409000    1.0155736   -3.5227324    1262.3804  0.074661721  0.075975861            2 
 1410000    1.0280513   -3.4974335    1261.1175   0.07453413  0.075960652            5 
 1411000    1.0227897   -3.4999069    1261.3355  0.074494184  0.075945745            3 
 1412000    1.0268973   -3.5324566    1263.1155  0.074546478  0.075930881            2 
 1413000    1.0153857   -3.5372796    1263.2955  0.074504337   0.07591626            2 
 1414000   0.99421042   -3.5455504    1264.0474   0.07449596  0.075901318            3 
 1415000    1.0154415   -3.5240919    1264.6761  0.074480336  0.075885988            5 
 1416000    1.0348634   -3.5149069    1267.4008  0.074588088  0.075870329            4 
 1417000    1.0234857   -3.5227205    1266.1382  0.074461199  0.075854992            2 
 1418000    1.0290049   -3.5320491    1266.3961  0.074423844  0.075839633            5 
 1419000    1.0208596   -3.5068579    1261.6228  0.074091075  0.075824078            4 
 1420000    1.0158813   -3.5218362    1266.5879  0.074330273  0.075808545            3 
 1421000    1.0129116   -3.5065155    1268.9079  0.074414021  0.075793274            3 
 1422000     1.026521    -3.508137    1268.9883  0.074366404    0.0757776            3 
 1423000    1.0158514   -3.5402179    1274.2181  0.074620411  0.075762439            2 
 1424000   0.99903429   -3.5056822    1271.4498  0.074406004  0.075747185            3 
 1425000    1.0165478   -3.5039717    1271.0988  0.074333264  0.075731542            2 
 1426000    1.0122581   -3.5253291    1267.3791   0.07406376  0.075715858            2 
 1427000    1.0306838   -3.5486919    1264.9125  0.073867815   0.07570002            2 
 1428000    1.0147784   -3.5315736     1271.066  0.074175185  0.075683964            4 
 1429000    1.0078764   -3.5362225    1271.3569  0.074140242  0.075668402            3 
 1430000     1.001734   -3.5528112    1269.1833   0.07396173  0.075652178            3 
 1431000    1.0226569   -3.5199146    1277.0487  0.074368083  0.075636385            1 
 1432000   0.98356663   -3.5382875    1275.3618  0.074217984  0.075620635            3 
 1433000    1.0113376   -3.5229072    1279.2539  0.074392528  0.075605239            4 
 1434000    1.0170566   -3.5060047    1281.3093  0.074460094  0.075589686            3 
 1435000    1.0344464   -3.5294235    1276.2888  0.074116658  0.075574035            2 
 1436000    1.0175687   -3.5303411     1275.389  0.074012826  0.075558358            2 
 1437000    1.0318131   -3.5801756    1275.6893  0.073978734  0.075542032            3 
 1438000    1.0429225   -3.5181005    1278.1553  0.074070198  0.075526189            2 
 1439000    1.0286437   -3.5316861    1275.6975  0.073876393  0.075510487            4 
 1440000    1.0031439   -3.5541788    1279.3998  0.074039339  0.075494699            3 
 1441000    1.0168747   -3.5415608    1279.5916  0.073999053   0.07547872            3 
 1442000    1.0278203   -3.5084796    1283.0492  0.074147547  0.075462651            6 
 1443000    1.0112216    -3.533307    1279.9602  0.073917777  0.075446392            2 
 1444000    1.0442003   -3.5094886      1279.38    0.0738331  0.075430532            4 
 1445000    1.0217335    -3.496145    1285.7934   0.07415187  0.075414703            1 
 1446000    1.0047397   -3.5231827    1284.8837  0.074048159  0.075398619            3 
 1447000    1.0181191   -3.5553443    1279.2003  0.073669678  0.075382359            1 
 1448000     1.011702   -3.5186666    1278.8236   0.07359712  0.075365915            2 
 1449000    1.0059411   -3.5138655    1282.4939  0.073757414  0.075349912            2 
 1450000    1.0125822   -3.5262813    1288.8827  0.074073718  0.075333689            3 
 1451000    1.0154681   -3.5387386    1281.4142  0.073593743   0.07531768            6 
 1452000     1.007712   -3.5568759    1283.6216  0.073669743  0.075301235            2 
 1453000    1.0339676   -3.5490826    1287.6285   0.07384885  0.075284579            2 
 1454000     1.021382   -3.5608752    1283.5273  0.073563007  0.075267954            3 
 1455000    1.0345752    -3.538327     1285.733  0.073638776   0.07525174            3 
 1456000     1.027533   -3.5444256    1287.6232  0.073696383  0.075235851            4 
 1457000    1.0176933   -3.5462814    1288.2071  0.073679201  0.075219701            4 
 1458000   0.99743435    -3.524617    1293.9199  0.073955184  0.075203596            2 
 1459000   0.99607324   -3.5408404    1290.1697  0.073690296   0.07518747            2 
 1460000    1.0104934   -3.5678372     1294.041  0.073860785  0.075171161            2 
 1461000    1.0141463   -3.5115651    1297.1973  0.073990265  0.075155236            5 
 1462000    1.0134137   -3.5130538    1294.9651  0.073812419  0.075139576            3 
 1463000    1.0203981    -3.510714    1297.4473  0.073903355  0.075124003            5 
 1464000    1.0158713   -3.5531664    1292.1127  0.073549219  0.075108434            2 
 1465000    1.0283995   -3.5309781    1292.7453  0.073534999   0.07509273            2 
 1466000    1.0061249   -3.5198992    1299.6449  0.073877041  0.075077507            1 
 1467000    1.0129108   -3.5531567    1292.2947  0.073409151  0.075061855            3 
 1468000    1.0485357   -3.5161706    1295.6732  0.073550929  0.075046035            1 
 1469000    1.0111265   -3.5323351    1294.8815  0.073455949  0.075029794            3 
 1470000    1.0410843   -3.5260109    1298.5309  0.073612865  0.075013904            6 
 1471000   0.99709142   -3.5222819     1296.341  0.073438761  0.074997913            2 
 1472000    1.0380177   -3.5188675    1299.2918   0.07355592  0.074982346            1 
 1473000    1.0281185   -3.5235526    1299.4931  0.073517377  0.074967049            3 
 1474000    1.0351771    -3.531314    1298.9612  0.073437424  0.074951434            2 
 1475000     1.005762   -3.5486672    1307.4402   0.07386668   0.07493593            4 
 1476000    1.0213913   -3.5318832     1303.295    0.0735826  0.074920401            1 
 1477000    1.0230106   -3.5236222    1302.4199  0.073483404  0.074904935            1 
 1478000   0.98913736   -3.5404991    1297.3669  0.073148785  0.074889382            6 
 1479000    1.0261318   -3.5379988    1304.5932  0.073506492  0.074873527            4 
 1480000    1.0310275   -3.5216236    1308.2399  0.073662157  0.074858194            2 
 1481000    1.0226935   -3.5382901    1305.3742   0.07345117  0.074842386            3 
 1482000    1.0160653   -3.5480157    1311.6888  0.073756678  0.074826594            2 
 1483000    1.0177832    -3.526519    1303.9938  0.073274544  0.074810738            1 
 1484000    1.0083477   -3.5244624    1308.1459  0.073458328  0.074794683            2 
 1485000     1.018422   -3.5389067    1307.3716  0.073365408  0.074778582            5 
 1486000    1.0118872   -3.5764726    1302.0947  0.073020116  0.074761919            6 
 1487000    1.0185659   -3.5391799     1300.263   0.07286836  0.074745355            2 
 1488000    1.0090447   -3.5480549    1306.0279  0.073142242  0.074728777            2 
 1489000   0.99553302   -3.5368253    1304.6809  0.073017735  0.074711866            2 
 1490000    1.0383588   -3.5513031    1304.5607  0.072962009  0.074695261            3 
 1491000    1.0295154   -3.5332927    1309.1495  0.073169546   0.07467876            2 
 1492000    1.0124752   -3.5191086    1305.7982  0.072933323  0.074662411            5 
 1493000    1.0103035   -3.5418807    1313.8112  0.073331727   0.07464643            3 
 1494000    1.0358778   -3.5334088    1313.3671  0.073257869  0.074630351            1 
 1495000    1.0068089   -3.5457807    1309.3472  0.072984792  0.074614317            2 
 1496000   0.99635451   -3.5148991    1312.4956  0.073111387   0.07459807            2 
 1497000    1.0205646   -3.5543687     1309.129   0.07287514  0.074582193            4 
 1498000     1.004712   -3.5576269    1313.4062  0.073064432  0.074565938            3 
 1499000    1.0109443   -3.5511325    1317.4769  0.073241989  0.074549664            2 
 1500000    1.0010942   -3.5423426    1315.6301  0.073090563  0.074533513            2 
 1501000    1.0089669   -3.5881521    1310.8584  0.072776947  0.074517284            6 
 1502000    1.0110689   -3.5561001      1316.37  0.073034287   0.07450076            1 
 1503000    1.0164896   -3.5043431    1316.8645  0.073013115  0.074484306            1 
 1504000   0.99941684   -3.5478183    1318.1301   0.07303469  0.074468053            1 
 1505000    1.0131948   -3.5155423    1322.2764  0.073215746   0.07445202            2 
 1506000    1.0083873   -3.5719978    1318.0345  0.072932409  0.074435536            1 
 1507000    1.0245188   -3.5457956    1323.7015  0.073197382  0.074419257            2 
 1508000    1.0177595   -3.5454355    1318.6025  0.072867071  0.074403295            2 
 1509000    1.0094781   -3.5799587    1319.6705  0.072877762    0.0743874            7 
 1510000     1.026554   -3.5396698    1318.9664  0.072790642  0.074371356            3 
 1511000   0.98789238   -3.5453829    1319.8929  0.072793566  0.074354784            3 
 1512000    1.0265174   -3.5541292    1320.0042  0.072751556  0.074338302            1 
 1513000    1.0133764   -3.5032918    1321.8865  0.072807143  0.074321608            3 
 1514000    1.0250716    -3.543184    1322.4974  0.072792682   0.07430538            3 
 1515000   0.96730092   -3.5386254     1320.156  0.072615839  0.074288886            2 
 1516000   0.98493575   -3.5550023    1323.2339  0.072737134  0.074271933            2 
 1517000      1.00394   -3.5485845    1324.7442   0.07277215  0.074255095            2 
 1518000    1.0330202   -3.5363811    1328.0725  0.072906921  0.074238447            5 
 1519000    1.0171956   -3.5447147    1325.7818  0.072733259  0.074222023            1 
 1520000     1.001514    -3.527217    1329.7871  0.072904995  0.074205477            2 
 1521000    1.0365036   -3.5561793    1330.4865  0.072895379  0.074189014            1 
 1522000    1.0239363   -3.5495303    1325.1623  0.072555971  0.074172362            1 
 1523000    1.0122195   -3.5263082    1332.0167  0.072883383  0.074155706            3 
 1524000    1.0263056   -3.5262943    1325.7452   0.07249263  0.074139129            4 
 1525000     1.011331   -3.5415791    1329.8482  0.072669299   0.07412228            7 
 1526000   0.99825765   -3.5611247    1327.5102  0.072494004  0.074105765            2 
 1527000    1.0047899   -3.5523396    1331.4225  0.072660038  0.074088884            2 
 1528000    1.0134908   -3.5418036     1328.112  0.072431935  0.074071945            6 
 1529000    1.0135609   -3.5238373    1335.1868  0.072770155  0.074055442            3 
 1530000    0.9863083   -3.5378543    1340.1149  0.072991005  0.074039431            7 
 1531000    1.0123369   -3.5518024    1334.0096  0.072611015  0.074023338            2 
 1532000    1.0300725   -3.5222735     1335.594  0.072649807  0.074007274            2 
 1533000   0.99685959   -3.5392284    1333.5878  0.072493359  0.073991603            3 
 1534000    1.0341523   -3.5655221    1335.0003  0.072522832  0.073975177            6 
 1535000    0.9943321   -3.5462472    1335.8968  0.072524258  0.073958549            2 
 1536000    1.0069015   -3.5464732    1335.9987   0.07248257  0.073941995            6 
 1537000    1.0198928   -3.5174395    1334.3783  0.072347554  0.073925463            4 
 1538000    1.0359301   -3.5335169    1339.6093  0.072583946  0.073909271            2 
 1539000    1.0246296   -3.5393437    1339.1869  0.072513909  0.073893126            2 
 1540000   0.98674444   -3.5362542    1349.5101  0.073025436  0.073877141            3 
 1541000    1.0081195   -3.5560263    1338.5581  0.072385796  0.073861024            2 
 1542000   0.99756848   -3.5553848    1343.3505  0.072597846  0.073844887            2 
 1543000    1.0004353   -3.5463833     1341.393  0.072445076  0.073828402            3 
 1544000   0.99654184    -3.548781    1340.6291  0.072356926  0.073811726            2 
 1545000   0.99841353   -3.5393761    1339.9783  0.072274987  0.073794955            4 
 1546000   0.99887723   -3.5586848    1339.4044  0.072197302  0.073778002            7 
 1547000   0.99861792   -3.5709584    1335.9053   0.07196215  0.073760695            2 
 1548000    1.0077367   -3.5282817    1340.6888  0.072173171  0.073743424            4 
 1549000    1.0089071    -3.532758    1345.4719  0.072383899  0.073726516            3 
 1550000   0.99978006   -3.5369094    1338.2711   0.07195006  0.073709517            3 
 1551000   0.99625329   -3.5301173    1348.9897  0.072479569  0.073692715            3 
 1552000    1.0001682   -3.5276539    1345.5259  0.072246879    0.0736756            5 
 1553000     1.018936   -3.5819519    1345.2222  0.072184061  0.073658613            1 
 1554000    1.0102396   -3.5535816    1344.0655  0.072075587  0.073641381            3 
 1555000    1.0053361   -3.5646647    1342.2066  0.071929613  0.073624258            4 
 1556000    1.0151195   -3.5320096    1341.9826  0.071871391  0.073607496            5 
 1557000   0.97958162   -3.5601126    1342.3786  0.071846426  0.073590471            3 
 1558000    1.0064001   -3.5345036    1350.1975  0.072218522   0.07357373            2 
 1559000    1.0005835   -3.5546921    1350.3346  0.072179527  0.073557204            5 
 1560000   0.98839039   -3.5353339    1352.6338  0.072256078  0.073540726            3 
 1561000   0.99296976   -3.5560463    1350.5311  0.072097536  0.073524364            2 
 1562000    1.0100414   -3.5399496    1353.4797  0.072208689   0.07350785            4 
 1563000    0.9968538   -3.5304472    1356.1557  0.072305169  0.073491472            4 
 1564000   0.99484272   -3.5501437    1354.7112  0.072181968  0.073475528            4 
 1565000    1.0092417   -3.5651455    1355.7327  0.072190239  0.073459045            2 
 1566000    1.0004359   -3.5424505    1352.7344  0.071984591   0.07344294            2 
 1567000    1.0042071   -3.5589381    1353.9477  0.072003177  0.073426616            2 
 1568000   0.99358645    -3.541138    1351.8621  0.071846411  0.073410324            2 
 1569000   0.99138128    -3.541414    1353.9396  0.071910961  0.073394054            4 
 1570000    1.0003583   -3.5901434     1346.915  0.071492303  0.073377477            3 
 1571000    0.9814692   -3.5747584    1355.3135  0.071892295  0.073360785            2 
 1572000   0.99754795   -3.5437045    1354.2321  0.071789232  0.073344527            4 
 1573000    1.0141569   -3.5453008    1364.0581  0.072264151  0.073328103            1 
 1574000   0.99972058   -3.5549057    1360.2693  0.072017647   0.07331172            3 
 1575000   0.99929549   -3.5603171    1354.4018  0.071661471  0.073294866            2 
 1576000    1.0047454   -3.5788419    1360.9546  0.071962489  0.073278151            1 
 1577000   0.99730345   -3.5702398    1355.5407  0.071630768   0.07326177            4 
 1578000    1.0040635    -3.578299    1359.1495  0.071775955   0.07324494            2 
 1579000     1.026652   -3.5610101    1359.3993  0.071743684  0.073228395            1 
 1580000   0.99433879   -3.5515036    1364.1096  0.071946711  0.073212331            2 
 1581000    1.0075407   -3.5484986    1362.6658  0.071825102  0.073196205            4 
 1582000    1.0020482   -3.5523261    1365.6226  0.071935453  0.073180122            2 
 1583000    1.0040608   -3.5784002    1356.1238  0.071389967  0.073163965            3 
 1584000    0.9907165   -3.5996491    1363.4392  0.071729754  0.073147586           10 
 1585000   0.99089702   -3.5424365    1369.2508  0.071990052  0.073131233            2 
 1586000    1.0043774   -3.5584133    1364.7024  0.071705676  0.073114783            2 
 1587000    1.0057015   -3.5839706    1364.3462   0.07164179   0.07309872            2 
 1588000   0.98612803   -3.5613854    1369.3486  0.071859183  0.073082382            3 
 1589000   0.99996067     -3.56179    1368.5637  0.071772799  0.073066045            2 
 1590000    1.0140406   -3.6096107    1360.9122  0.071326634    0.0730499            1 
 1591000    1.0019917   -3.5750215    1371.8252  0.071853405  0.073033405            2 
 1592000    1.0028874   -3.5659522    1367.6817  0.071591377  0.073017139            2 
 1593000    1.0058329   -3.5646272    1371.7958  0.071761656  0.073001367            4 
 1594000   0.98992559   -3.5525028    1376.1292   0.07194318  0.072985475            4 
 1595000    1.0007345    -3.557429    1371.0093  0.071630581  0.072969603            6 
 1596000   0.99772315   -3.5450786    1378.7098  0.071987774  0.072954089            5 
 1597000    0.9862229   -3.5695312    1368.1573  0.071392051  0.072938294            2 
 1598000    0.9701577   -3.5938378    1372.7163  0.071585124  0.072921858            3 
 1599000   0.99701576   -3.5341455    1376.7926  0.071752794  0.072905504            2 
 1600000   0.98537152   -3.6046333    1371.2179  0.071417597  0.072889373            6 
 1601000    1.0005459    -3.580214    1372.9709  0.071464237  0.072872953            1 
 1602000    1.0093164   -3.5504773    1374.0011  0.071473216  0.072856767            3 
 1603000   0.99861011   -3.5865349    1368.9081  0.071163863  0.072840497            1 
 1604000   0.99702247   -3.5458832    1374.1364  0.071391124  0.072824182            2 
 1605000   0.99881151   -3.5688014    1375.7912  0.071432563  0.072808161            3 
 1606000     0.986859   -3.5689214    1381.8017  0.071699964  0.072792244            4 
 1607000   0.98445628   -3.5451592    1383.7454  0.071756142  0.072776887            3 
 1608000   0.99826331   -3.5752569    1383.5028  0.071698944  0.072760797            3 
 1609000   0.98581349   -3.5643358      1381.39  0.071544954  0.072744771            3 
 1610000   0.98797458   -3.5489167    1379.0336   0.07137855  0.072728868            2 
 1611000    1.0033436   -3.5324445    1383.3722  0.071558672   0.07271312            3 
 1612000    1.0069467   -3.5661942    1380.2031   0.07135045  0.072697374            5 
 1613000    1.0017308   -3.5794684    1387.2004   0.07166772  0.072681776            2 
 1614000    1.0034506   -3.5747293    1382.2119  0.071365754  0.072666286            3 
 1615000    1.0228965   -3.5673997     1391.114  0.071780906  0.072650678            4 
 1616000   0.99364487   -3.5929267    1385.2401  0.071433588  0.072635469            2 
 1617000     0.984191   -3.5594337    1387.3123  0.071496204  0.072620069            2 
 1618000    0.9867375   -3.5605301    1383.6703  0.071264436  0.072604688            5 
 1619000   0.99375856   -3.5348576    1390.9432  0.071594768  0.072589581            2 
 1620000    1.0049871   -3.5829718    1390.5461  0.071530149  0.072574028            6 
 1621000    1.0068931   -3.5742412     1388.234  0.071367158  0.072558488            7 
 1622000   0.99317566   -3.5352052    1390.6744  0.071448542  0.072543182            4 
 1623000   0.99471438   -3.5846603    1395.5905  0.071656936    0.0725276            4 
 1624000   0.98483338   -3.5847894    1391.6205  0.071409095   0.07251197            3 
 1625000    1.0196004   -3.5432551    1396.0255  0.071591053  0.072496546            2 
 1626000   0.99726011   -3.5584427    1395.0681  0.071497955  0.072481238            2 
 1627000   0.99654844   -3.5705237    1389.5671  0.071172252  0.072465146            4 
 1628000   0.99733837   -3.5444798    1396.4723  0.071481998  0.072449388            1 
 1629000   0.97920769   -3.5338147    1392.3172  0.071225555  0.072433623            4 
 1630000    0.9873772   -3.5453563     1395.975  0.071368864  0.072417778            3 
 1631000     1.004593   -3.5473015    1394.7789  0.071263994  0.072401717            5 
 1632000    1.0063709   -3.6110597     1392.854  0.071122039  0.072386125            2 
 1633000   0.99919561   -3.5634719    1396.0675  0.071242472  0.072370197            2 
 1634000   0.98912142   -3.5602887    1399.4234  0.071370024  0.072354415            2 
 1635000    1.0029317    -3.579194    1395.8629  0.071144899  0.072338908            4 
 1636000    1.0006656   -3.5709231    1395.1214  0.071063641   0.07232308            4 
 1637000    0.9896228   -3.5740167    1397.6093  0.071146878  0.072307459            2 
 1638000   0.99143632   -3.5546745    1399.9758  0.071223842  0.072291712            2 
 1639000   0.98964075   -3.5432997     1402.961  0.071332164  0.072276301            3 
 1640000   0.99086551   -3.5741055    1404.7459  0.071379364  0.072261121            2 
 1641000   0.99934324   -3.5685903    1397.0388  0.070944483  0.072245959            3 
 1642000   0.99647682   -3.5778562    1406.1768   0.07136504  0.072230866            2 
 1643000   0.98694745   -3.5575122    1404.8304  0.071253319  0.072216141            3 
 1644000   0.99671811   -3.5455894    1408.5076  0.071396372  0.072201487            1 
 1645000   0.98286875    -3.579444    1407.8804  0.071321197  0.072186486            1 
 1646000   0.98659169   -3.5647007    1405.9697  0.071181133  0.072171652            2 
 1647000   0.98035643   -3.5931924    1406.6427  0.071171964  0.072156793            1 
 1648000   0.97801428   -3.5754888    1409.0986  0.071252962  0.072142075            3 
 1649000   0.98392454   -3.5695191    1405.6468  0.071035317  0.072127367            2 
 1650000    1.0004432   -3.5681701    1408.8267  0.071152865  0.072112686            4 
 1651000   0.99948536   -3.5791691    1409.0545  0.071121267  0.072097833            2 
 1652000   0.97916724   -3.5619036    1406.7487  0.070961899  0.072082853            2 
 1653000   0.98119737   -3.5854361    1405.3851  0.070850226  0.072067934            3 
 1654000    1.0028381    -3.600522    1404.0015  0.070737682  0.072052711            6 
 1655000   0.96148914   -3.5482473      1415.06  0.071251764  0.072037406            4 
 1656000   0.96957151   -3.5554091    1413.3437   0.07112237  0.072022394            2 
 1657000   0.97689879   -3.6036273    1406.9675  0.070758774  0.072007507            3 
 1658000   0.97357912   -3.5611493     1413.029  0.071020758  0.071992513            2 
 1659000   0.95140336   -3.5796314    1414.7156   0.07106267  0.071977655            3 
 1660000   0.98960406   -3.6021817    1415.4204  0.071055239  0.071962441            3 
 1661000   0.99474016   -3.6080858     1409.235  0.070702137  0.071946941            3 
 1662000    1.0025769   -3.6076525    1410.1163  0.070703786  0.071931671            3 
 1663000   0.99419163   -3.6099867    1416.8062  0.070996503  0.071916438            2 
 1664000    1.0111897   -3.5821517    1417.0229  0.070964688  0.071901601            5 
 1665000    1.0109296   -3.5686083    1420.2203  0.071082099  0.071886813            2 
 1666000   0.99800399    -3.585132    1418.0716  0.070931953  0.071872075            1 
 1667000   0.98663192   -3.5985175    1416.8876  0.070830216  0.071856993            3 
 1668000   0.97908251   -3.5726667     1417.409  0.070813799  0.071841823            3 
 1669000   0.99005315   -3.5533438    1420.1984  0.070910643  0.071827057            3 
 1670000   0.98456379   -3.5590001    1421.0363  0.070909995  0.071812234            4 
 1671000   0.98961019   -3.6049483    1423.8456  0.071007659  0.071797495            2 
 1672000   0.98485824   -3.5434897    1422.3476  0.070890531  0.071782792            4 
 1673000   0.98698788   -3.5602466     1426.541  0.071057033  0.071768399            2 
 1674000   0.95415419   -3.5648433    1424.1281  0.070894467  0.071753714            3 
 1675000   0.98685905   -3.5771847    1421.1448  0.070703723  0.071738661            2 
 1676000   0.98937561   -3.5971518    1423.1176  0.070759625  0.071723509            2 
 1677000   0.98278326   -3.5972912     1426.029  0.070862106   0.07170848            2 
 1678000   0.97018339   -3.5651953    1425.3115  0.070784243   0.07169355            2 
 1679000   0.98458572   -3.5567523    1422.5842  0.070606719   0.07167854            2 
 1680000   0.97285283   -3.5733571     1425.665  0.070717509  0.071663547            4 
 1681000   0.97788775    -3.596913    1431.5463  0.070966998  0.071648367            3 
 1682000   0.98033232   -3.6084907    1427.8546  0.070741903  0.071633346            1 
 1683000   0.99688981   -3.5698215    1424.2661  0.070522188   0.07161847            6 
 1684000    1.0157893   -3.5516881    1429.1291  0.070720955  0.071603674            2 
 1685000   0.97750278    -3.592049    1422.9493   0.07037336  0.071588762            2 
 1686000   0.98109777   -3.5863746    1425.3715  0.070451341  0.071573476            4 
 1687000   0.98111261    -3.583262    1427.4057  0.070510063  0.071558307            1 
 1688000    1.0022892   -3.5827966    1431.1624  0.070653754  0.071543494            3 
 1689000   0.99029081   -3.5828459    1432.0738  0.070656887  0.071528589            1 
 1690000   0.95190576   -3.5637291    1434.8903  0.070753962  0.071513923            4 
 1691000    1.0105629   -3.6150864     1433.405  0.070638923  0.071498802            3 
 1692000   0.96431702   -3.5822808    1431.8702  0.070521584  0.071484004            3 
 1693000   0.96605013   -3.5848351    1435.3008  0.070648789   0.07146933            2 
 1694000   0.97537281   -3.5915732    1436.7006  0.070675944  0.071454915            2 
 1695000   0.96423141   -3.5818847    1438.5071  0.070723064  0.071440318            3 
 1696000   0.98064715   -3.5735722    1436.3242  0.070574104  0.071425372            3 
 1697000   0.97163086   -3.6046663     1431.832  0.070311925  0.071410484            8 
 1698000    1.0065776   -3.5504728    1437.5617  0.070551715  0.071395561            2 
 1699000   0.98402358   -3.5731012    1433.5513  0.070313482  0.071380592            2 
 1700000   0.99653133   -3.6083213    1439.8304  0.070579919  0.071365737            3 
 1701000   0.98750567   -3.5450486    1437.0431  0.070401879  0.071350798            2 
 1702000   0.98245958   -3.5748469    1435.5535  0.070287577  0.071335843            3 
 1703000    0.9608914   -3.5579961    1439.5358  0.070441171  0.071320732            4 
 1704000   0.99696196   -3.5479613    1441.4314  0.070492536  0.071306196            4 
 1705000    1.0072416   -3.6203009    1431.8875  0.069984727  0.071291588            2 
 1706000   0.95185719   -3.5738123    1445.6939  0.070618108  0.071276964            3 
 1707000   0.96709623   -3.5807246    1437.9314  0.070197782  0.071262344            2 
 1708000   0.98202463   -3.5980803     1441.384  0.070325136  0.071247905            2 
 1709000   0.97830976   -3.6101244    1443.7805  0.070400842  0.071233372            2 
 1710000   0.96632328    -3.565271    1449.2904  0.070628187  0.071218701            2 
 1711000   0.96587823   -3.5512088    1453.8666  0.070809792  0.071204123            4 
 1712000   0.96334618   -3.5956136    1450.1605  0.070588029  0.071189563            2 
 1713000   0.98744841   -3.5681999    1445.5936  0.070324655  0.071175074            3 
 1714000   0.98043808   -3.5901469    1446.6764  0.070336271  0.071160663            2 
 1715000   0.96470042   -3.5771538    1450.8217  0.070496682  0.071146607            4 
 1716000    0.9833069   -3.5830011    1449.3108  0.070382224  0.071132039            5 
 1717000   0.96729649   -3.5879351    1448.3373  0.070293987  0.071117884            4 
 1718000    0.9790285     -3.58369    1451.3393  0.070398688  0.071103454            3 
 1719000   0.96597937   -3.5757117    1449.2609  0.070256977  0.071088998            3 
 1720000   0.95222524   -3.5676573    1450.7111  0.070286391   0.07107431            4 
 1721000   0.95607512   -3.5880329    1453.6613  0.070388404   0.07105994            6 
 1722000    0.9814899   -3.6065377    1445.5984  0.069957338   0.07104532            3 
 1723000   0.99996342   -3.5760162    1455.8162   0.07041092  0.071031012            3 
 1724000   0.98634049   -3.5767624    1452.8705  0.070227692  0.071016311            4 
 1725000   0.99565624   -3.5985867    1448.7565  0.069988238  0.071002011            1 
 1726000   0.95907736   -3.5834085    1450.2052  0.070017633  0.070987227            4 
 1727000   0.97706607   -3.6020578    1452.6773  0.070096376  0.070972824            3 
 1728000   0.96281188   -3.5904214    1451.4846  0.069998291  0.070958279            2 
 1729000   0.98728075   -3.5961214     1459.874  0.070362154   0.07094393            1 
 1730000   0.97938506   -3.5911216    1451.6168  0.069923737  0.070929627            2 
 1731000   0.95277799   -3.5884366    1451.7953  0.069891938  0.070915041            3 
 1732000   0.98125452   -3.5864292    1455.9979  0.070053789  0.070900479            4 
 1733000   0.96892688   -3.5973198    1455.2573   0.06997775  0.070886048            1 
 1734000    0.9719844   -3.6057029    1451.9841  0.069780088  0.070871391            2 
 1735000   0.96624249   -3.5798883    1464.9146   0.07036093  0.070856782            2 
 1736000   0.97763757   -3.5729858    1461.7959  0.070170692   0.07084258            3 
 1737000   0.96898397   -3.6004536    1460.6181   0.07007379  0.070828381            2 
 1738000   0.98501114   -3.5802648    1457.6064   0.06988907  0.070813854            5 
 1739000   0.93901076   -3.5879437     1456.275  0.069785076  0.070799271            3 
 1740000   0.97075221   -3.6093031    1459.4735  0.069898155  0.070784633            2 
 1741000   0.96911105   -3.6081535    1458.2834  0.069801045  0.070769748            5 
 1742000   0.94934266   -3.5878647     1458.558  0.069774111  0.070754922            3 
 1743000   0.97075348   -3.5742445    1465.6187  0.070071655  0.070740325            3 
 1744000   0.98205538   -3.5943649    1466.0849  0.070053751  0.070726539            3 
 1745000   0.97831162   -3.6118839    1456.9837  0.069578974  0.070712091            2 
 1746000   0.95956098   -3.5845908    1466.6842  0.070002108  0.070697852            3 
 1747000   0.97776335   -3.5948397    1466.9876  0.069976512  0.070683759            2 
 1748000   0.95750887    -3.609695    1468.5851  0.070012638  0.070669555            4 
 1749000   0.97271513   -3.6079949    1466.9189  0.069893219  0.070655155            2 
 1750000   0.96970571   -3.5933499    1468.8516  0.069945314  0.070640759            3 
 1751000   0.97309629   -3.5896572    1469.1761  0.069920813  0.070626428            2 
 1752000   0.97067528    -3.600907    1471.0299   0.06996908  0.070612259            2 
 1753000   0.97394801   -3.5777419    1466.2267  0.069700832  0.070597729            4 
 1754000   0.96371246   -3.5757169    1474.0266  0.070031669   0.07058327            2 
 1755000   0.95849434   -3.6117399    1469.8864  0.069795175  0.070569327            3 
 1756000   0.94885367   -3.5849587    1471.3491  0.069824846   0.07055521            3 
 1757000   0.96642253   -3.6002115    1474.2912  0.069924646   0.07054114            3 
 1758000   0.96949964   -3.6128989    1468.4516  0.069608059  0.070527118            5 
 1759000   0.96634624   -3.5934983    1470.6093  0.069670706  0.070512836            3 
 1760000   0.96904595   -3.5809525    1470.6321  0.069632202  0.070498569            4 
 1761000   0.95631306   -3.6122989    1475.0617  0.069802275   0.07048463            2 
 1762000    0.9605864   -3.6030107    1473.5188  0.069689691  0.070470934            2 
 1763000   0.95685747   -3.5749153    1479.5277  0.069934187  0.070457141            2 
 1764000   0.96249246   -3.5963704    1481.9662  0.070009743  0.070443364            2 
 1765000   0.97167583    -3.604182    1482.4405  0.069992469   0.07042962            4 
 1766000   0.97147861   -3.6091483    1473.7986  0.069545045  0.070415421            4 
 1767000   0.97988491   -3.6224978    1472.9581  0.069466051  0.070401275            2 
 1768000   0.95281132   -3.6156527     1475.941  0.069567353  0.070387116            4 
 1769000   0.95992612   -3.6020408    1479.4268  0.069692234  0.070372713            1 
 1770000   0.97038676   -3.6023604    1479.8476  0.069672673   0.07035836            4 
 1771000   0.96229786   -3.5945336    1481.4724  0.069709785  0.070344142            2 
 1772000   0.97434688   -3.6051168    1473.8271  0.069310906  0.070329847            3 
 1773000   0.97596322   -3.5801383    1481.5269  0.069633714  0.070315501            2 
 1774000   0.95917113    -3.592649    1483.5153  0.069687866   0.07030111            5 
 1775000   0.97832656   -3.6013285    1480.2376  0.069494722   0.07028657            2 
 1776000   0.95698114   -3.6019398    1485.6619  0.069710114  0.070272361            2 
 1777000   0.97456601   -3.5906265    1485.7173  0.069673479  0.070258104            6 
 1778000   0.97846622   -3.6246185    1484.5467  0.069579429   0.07024371            3 
 1779000   0.96232856   -3.6203787    1480.6782  0.069359105  0.070229207            4 
 1780000   0.95552675   -3.5755902    1493.4857  0.069919742  0.070215181            2 
 1781000   0.99803221   -3.6118008    1491.0775  0.069767803  0.070201601            3 
 1782000   0.95332085   -3.6098193    1494.3735  0.069882786  0.070187874            3 
 1783000   0.95933544   -3.6071323    1487.2717  0.069511668  0.070174188            2 
 1784000   0.95360811   -3.5774038    1492.3407  0.069709486  0.070160421            4 
 1785000   0.97300642   -3.6125458     1486.448  0.069395331  0.070146331            2 
 1786000   0.96088622   -3.5878887    1492.7535  0.069650687  0.070132388            1 
 1787000   0.96280543   -3.6036831     1488.986  0.069436019  0.070118578            3 
 1788000   0.96426724   -3.6042076    1488.0261  0.069352446  0.070104252            3 
 1789000   0.95954422   -3.5835255    1491.3041  0.069466375  0.070090037            2 
 1790000   0.95092146   -3.5985655     1489.912  0.069362758  0.070075786            3 
 1791000   0.96646895   -3.6104002    1492.8105  0.069458892  0.070061401            1 
 1792000   0.95846544   -3.6015958    1483.5299  0.068988558  0.070046858            2 
 1793000   0.97018932   -3.5990773    1492.2523  0.069355471  0.070032636            2 
 1794000   0.97045052   -3.6088621    1490.6594  0.069242819  0.070018367            4 
 1795000   0.95785372   -3.6046291    1488.6966  0.069113119  0.070003977            4 
 1796000   0.95364753   -3.6176106    1494.9737   0.06936589  0.069989286            4 
 1797000   0.97318041    -3.616258    1495.4434  0.069349072  0.069974737            2 
 1798000   0.96373154   -3.5985255    1488.5133  0.068989309  0.069960091            3 
 1799000   0.96137793   -3.5834674    1488.9003  0.068968886  0.069945628            2 
 1800000   0.96201004   -3.6135918    1488.2025  0.068898264  0.069931275            3 
 1801000   0.97725495   -3.5976453    1491.4057  0.069008223  0.069916647            2 
 1802000   0.98436683   -3.6340466    1493.2719  0.069056228  0.069901954            3 
 1803000   0.96281369   -3.6237373    1489.2344   0.06883132  0.069886879            4 
 1804000   0.98099984   -3.6243223    1496.3492  0.069121821  0.069872087            3 
 1805000     0.946356   -3.5830377    1496.3973  0.069085749  0.069857407            2 
 1806000   0.98367785   -3.6086971    1494.2365  0.068947788  0.069842947            2 
 1807000   0.98401488    -3.628484    1493.2774  0.068865402  0.069828527            4 
 1808000   0.97057208   -3.6286048    1496.3782  0.068970235  0.069814186            3 
 1809000   0.95130014   -3.6375961    1494.8943  0.068863749  0.069799752            6 
 1810000   0.98469292   -3.6185283    1495.6773  0.068861755  0.069785123            2 
 1811000   0.95695357   -3.6139036    1498.6477  0.068960412  0.069770495            3 
 1812000   0.96050911   -3.5752779    1503.0295  0.069123874   0.06975602            3 
 1813000   0.98272643   -3.5973272    1506.1031  0.069227024  0.069741712            3 
 1814000   0.95339503   -3.6111405    1497.1183  0.068776108  0.069727263            3 
 1815000   0.94968995   -3.6345347    1500.6224  0.068899102  0.069712826            3 
 1816000   0.95250775   -3.6060091    1503.4363  0.068990285  0.069698254            4 
 1817000   0.96555815   -3.6031355    1501.3529  0.068856764  0.069683398            4 
 1818000   0.98315112   -3.6100969    1501.7376  0.068836523  0.069668374            4 
 1819000   0.94630268     -3.61984     1505.651  0.068977965  0.069653563            1 
 1820000   0.96171851   -3.5942554    1500.7643  0.068716315  0.069639093            5 
 1821000   0.99321512   -3.6007175    1504.8302  0.068864643  0.069624327            2 
 1822000   0.96191767   -3.6063371    1506.7937  0.068916655  0.069609429            6 
 1823000   0.94673868   -3.6203337    1503.6856   0.06873677  0.069594591            1 
 1824000   0.95363471   -3.6046968    1497.7867  0.068429581  0.069579821            4 
 1825000   0.95806351   -3.5813639    1510.0487  0.068951996  0.069564982            3 
 1826000   0.97137035   -3.6571123    1503.9917  0.068637811  0.069550009            3 
 1827000   0.96709496   -3.6120306    1508.1477  0.068789806  0.069535277            4 
 1828000   0.94502968   -3.6172773    1505.5901  0.068635583  0.069520056            5 
 1829000    0.9774265   -3.6100892    1503.6061   0.06850766  0.069505088            7 
 1830000   0.98119589    -3.627038    1508.9871  0.068715261  0.069490341            4 
 1831000   0.94688382   -3.6174961    1501.6639  0.068344434  0.069475483            3 
 1832000   0.94738252   -3.6173108    1510.2921  0.068699602   0.06946059            3 
 1833000    0.9398181   -3.6198245    1511.8801  0.068734319  0.069445712            2 
 1834000   0.98196423   -3.6111162     1518.415  0.068993774  0.069430888            4 
 1835000    0.9496465   -3.6011754    1513.2428   0.06872129  0.069416144            2 
 1836000   0.93921832   -3.6368053    1510.3611  0.068553063  0.069401434            2 
 1837000   0.94566542   -3.6123303    1510.3363  0.068514622  0.069386332            2 
 1838000   0.95711346     -3.60987    1512.8753  0.068592461   0.06937129            3 
 1839000   0.95098949   -3.5929265    1515.7874  0.068687121  0.069356595            2 
 1840000    0.9626011   -3.6452279    1508.1487  0.068303834  0.069341398            4 
 1841000    0.9494968   -3.6171508    1515.6414  0.068605894   0.06932617            2 
 1842000   0.95177127   -3.6362978    1517.2873  0.068643111  0.069311326            3 
 1843000    0.9741371   -3.6285001    1513.3568  0.068428144  0.069296201            2 
 1844000   0.95879072   -3.6322297    1512.5178   0.06835312  0.069281217            3 
 1845000    0.9495401   -3.6265709    1519.1076   0.06861371  0.069266237            3 
 1846000   0.96248433   -3.6436619    1512.0047  0.068255899  0.069250865            7 
 1847000   0.94731507   -3.6410976    1513.8972  0.068304331  0.069235524            3 
 1848000   0.93852336   -3.6591707    1510.4938  0.068113897  0.069220577            2 
 1849000   0.95772116   -3.6231199    1515.4622  0.068300981  0.069205435            4 
 1850000   0.95583634   -3.6416396    1512.0851  0.068111941   0.06919027            2 
 1851000   0.92962267   -3.6214726    1515.7299  0.068239234  0.069175316            4 
 1852000   0.96450448   -3.6317123     1520.122   0.06840002  0.069160391            4 
 1853000   0.96602196   -3.6520985    1514.3121  0.068101822  0.069145181            2 
 1854000   0.96221678     -3.64762    1512.0382  0.067962884  0.069130313            3 
 1855000   0.94725157   -3.6344827    1520.6068  0.068311179  0.069115359            2 
 1856000   0.92795781   -3.6514201    1522.9231   0.06837837  0.069100557            2 
 1857000   0.95649395   -3.6496225    1518.9823  0.068164704  0.069085812            5 
 1858000   0.96924379   -3.6216229    1524.7945  0.068388703  0.069071193            3 
 1859000   0.92659598   -3.6073794    1531.0982  0.068634488   0.06905669            4 
 1860000   0.95909619   -3.6026373    1525.8001  0.068360218  0.069042285            2 
 1861000   0.94919872   -3.6496319    1525.0915  0.068291756  0.069027934            3 
 1862000   0.93202651   -3.6557958    1521.1903  0.068080482  0.069013368            3 
 1863000   0.94082701   -3.6266241    1524.8457  0.068207448  0.068998648            2 
 1864000   0.95525582   -3.6252452    1528.9887  0.068356075  0.068984104            2 
 1865000   0.96601417   -3.6201992    1522.6821  0.068037628  0.068969497            3 
 1866000   0.96409585   -3.6251617    1532.5649  0.068442519  0.068954862            3 
 1867000    0.9631107   -3.6053615    1530.6102  0.068318614  0.068940232            4 
 1868000   0.96873418   -3.6130491    1525.8787  0.068070963  0.068925703            3 
 1869000   0.95665991   -3.6432837    1528.3655  0.068145419  0.068911042            4 
 1870000   0.95442055   -3.6167315    1531.9024  0.068266595   0.06889653            3 
 1871000   0.95694999   -3.6332112     1527.654  0.068040888  0.068882032            2 
 1872000   0.91654792   -3.6011461    1531.9472  0.068195653  0.068867495            6 
 1873000   0.95632656   -3.6264507    1531.5446  0.068141332  0.068852957            4 
 1874000   0.96693473   -3.6394426    1527.5449  0.067927114  0.068838442            3 
 1875000    0.9538805   -3.6610319    1529.6577  0.067984787  0.068823869            4 
 1876000   0.95934269   -3.6374591    1531.9099  0.068048592  0.068809306            4 
 1877000   0.95178024   -3.5989218    1535.1351  0.068155526  0.068794632            4 
 1878000   0.93638653   -3.6418946     1536.367  0.068173901  0.068780078            3 
 1879000   0.94790702    -3.631385    1525.9496  0.067675607  0.068765151            2 
 1880000   0.94029582   -3.6334504    1532.6638  0.067937225  0.068750281            3 
 1881000   0.96172509   -3.6151786     1535.163  0.068011829  0.068735884            1 
 1882000   0.93523626   -3.6339842    1534.0121  0.067924728  0.068721436            3 
 1883000   0.94729936    -3.632114    1532.2695  0.067811537  0.068707029            5 
 1884000   0.93308294   -3.6154176    1538.5958   0.06805537  0.068692536            5 
 1885000   0.93797177   -3.6276425    1537.2298  0.067958876  0.068678341            3 
 1886000    0.9679935     -3.64201    1537.8036  0.067948196   0.06866386            6 
 1887000   0.94773692   -3.6188057    1539.3603  0.067980937   0.06864937            4 
 1888000   0.94707713   -3.6462399    1542.3795  0.068078193  0.068634981            4 
 1889000   0.94994709   -3.6043248    1535.4413  0.067736075  0.068620453            2 
 1890000   0.94396563   -3.6379242    1540.7273  0.067933301  0.068606019            5 
 1891000   0.94327287   -3.6054378    1546.2847  0.068142285  0.068591698            2 
 1892000   0.92787885   -3.6419034    1542.2123  0.067926899  0.068577052            2 
 1893000   0.95527015   -3.6316959    1541.8561  0.067875333  0.068562773            4 
 1894000   0.92801337   -3.6365263    1539.4149   0.06773209  0.068548544            4 
 1895000    0.9646234   -3.6114305    1547.2965   0.06804294  0.068534413            4 
 1896000   0.94092004     -3.61718    1548.5336  0.068061429  0.068520568            2 
 1897000   0.97160458   -3.6394597    1545.5143  0.067892912  0.068506728            4 
 1898000   0.94423635    -3.621228    1551.0104  0.068098455  0.068492715            7 
 1899000   0.93224794   -3.6112907    1556.5811  0.068307051    0.0684789            5 
 1900000   0.97377195   -3.6206832    1553.0751  0.068117331  0.068464926            4 
 1901000   0.93279398   -3.6349894    1546.3374  0.067786141  0.068450761            4 
 1902000   0.94327891   -3.6347127     1546.293  0.067748555   0.06843688           10 
 1903000   0.96831349   -3.6169911    1555.9929  0.068137718  0.068422858            2 
 1904000   0.95237819   -3.6265242    1550.8001  0.067874653  0.068408968            3 
 1905000   0.93553929   -3.5965707    1558.1645  0.068161176  0.068395073            3 
 1906000   0.94722205   -3.6293242     1550.991  0.067811778  0.068380867            4 
 1907000   0.95868429   -3.6001184    1545.1396  0.067520523  0.068366726            4 
 1908000   0.96033348   -3.6315262    1547.9522  0.067607976  0.068352664            2 
 1909000   0.94921749   -3.6187105    1557.9544  0.068009184  0.068338652            3 
 1910000   0.94163946   -3.6391062    1550.9221  0.067666757  0.068324763            2 
 1911000    0.9562682   -3.6511919     1556.471   0.06787332  0.068310726            4 
 1912000   0.94257566   -3.6354951    1559.6117  0.067974707  0.068296461            2 
 1913000   0.95519695   -3.6090457    1557.1909  0.067833722  0.068282289            4 
 1914000    0.9535636    -3.615656    1558.7949  0.067868116  0.068267947            3 
 1915000   0.95826737   -3.6360237    1554.4877  0.067645242  0.068253986            4 
 1916000   0.95825873   -3.6345523    1557.4919  0.067740599  0.068239895            2 
 1917000   0.95995309   -3.6409636    1556.5476  0.067664215  0.068225876            4 
 1918000   0.93982804    -3.645498    1559.6391  0.067763255  0.068211835            3 
 1919000   0.93093685   -3.6203096    1561.4083  0.067804773   0.06819817            6 
 1920000   0.93998493    -3.640917    1557.0064  0.067578403  0.068184494            2 
 1921000   0.94473794    -3.630425    1561.2439  0.067727046  0.068170872            3 
 1922000   0.93709556   -3.6143268    1563.5874   0.06779342  0.068157299            7 
 1923000   0.92986557   -3.6478972    1563.6945  0.067762807  0.068143476            2 
 1924000   0.94949865   -3.6582115    1556.0321  0.067395709  0.068129761            4 
 1925000   0.94088001     -3.66364    1560.8647  0.067569901  0.068115893            3 
 1926000   0.94498469   -3.6400429    1565.0233  0.067714751  0.068101927            3 
 1927000   0.94008555   -3.6667536    1561.2563  0.067516703  0.068088116            2 
 1928000   0.93902283    -3.648978    1565.6185  0.067670233  0.068074443            2 
 1929000   0.93554277   -3.6114711    1573.8026  0.067988707  0.068060572            4 
 1930000   0.93612438   -3.6544913    1568.6077  0.067729175  0.068046939            6 
 1931000   0.96161773   -3.6489649    1563.1824  0.067459967  0.068033147            5 
 1932000   0.95486251   -3.6450548    1564.4777  0.067480923  0.068019164            2 
 1933000    0.9200921   -3.6495613    1559.8243  0.067245398  0.068004951            3 
 1934000   0.93639508   -3.6202115    1569.1305  0.067611622   0.06799072            3 
 1935000   0.94366109   -3.6523695    1565.7213  0.067429858  0.067976648            2 
 1936000   0.95833961   -3.6507461    1561.5365    0.0672149  0.067962578            3 
 1937000   0.93028776   -3.6336361    1568.6154  0.067484746  0.067948342            3 
 1938000   0.92584377   -3.6330963    1566.6855  0.067366939  0.067934081            2 
 1939000   0.94166375   -3.6465415     1561.114  0.067092748  0.067919867            1 
 1940000   0.91417275   -3.6216079    1570.9378  0.067480144  0.067905785            4 
 1941000   0.93866769   -3.6695158    1560.6688    0.0670045  0.067891811            4 
 1942000   0.94719225    -3.627929    1569.7004  0.067357553  0.067877408            3 
 1943000   0.94377044   -3.6449503    1569.5591  0.067316827  0.067863366            2 
 1944000   0.91018968   -3.6636042    1566.0904  0.067133505  0.067848997            4 
 1945000   0.96420544   -3.6518519    1568.1497  0.067187218  0.067834759            2 
 1946000   0.92506365   -3.6656698    1565.8951  0.067056145  0.067820435            4 
 1947000   0.94620447   -3.6522591    1568.1018  0.067116154    0.0678062            5 
 1948000   0.94444107   -3.6322887    1570.5167  0.067185007  0.067792133            7 
 1949000   0.95104915   -3.6704607    1569.4419  0.067104579  0.067777991            2 
 1950000   0.93903322   -3.6247639    1571.7864   0.06717036  0.067764051            1 
 1951000   0.92920845   -3.6263521    1571.8796  0.067139912  0.067750011            5 
 1952000   0.94710535   -3.6403607    1574.6371  0.067223236    0.0677359            4 
 1953000   0.93212326   -3.6681968    1575.1371   0.06721015  0.067722025            2 
 1954000   0.91933958   -3.6649576    1579.4393  0.067359235   0.06770812            5 
 1955000   0.93871984   -3.6400993     1575.863  0.067172335  0.067693802            2 
 1956000   0.93537677   -3.6470281    1576.2977  0.067156516  0.067679898            2 
 1957000   0.94136161   -3.6583736    1574.9577   0.06706514  0.067665781            3 
 1958000   0.93341577   -3.6439407    1577.9839  0.067159682  0.067651825            2 
 1959000   0.92134485   -3.6395873    1578.2471  0.067136597  0.067637992            3 
 1960000   0.93461492   -3.6535299    1575.5004  0.066985563   0.06762393            4 
 1961000   0.93983907   -3.6432243    1578.7443  0.067089252  0.067610151            3 
 1962000   0.94646987   -3.6458674    1575.0834  0.066899568  0.067596236            4 
 1963000   0.92647567   -3.6429306    1580.5763  0.067098673  0.067582429            4 
 1964000   0.93750161   -3.6630629    1580.5081  0.067061615  0.067568425            2 
 1965000   0.93950454   -3.6296653    1584.0759  0.067178792   0.06755437            1 
 1966000   0.94153111   -3.6692877    1576.6417  0.066829506  0.067540376            6 
 1967000   0.91247708   -3.6762163    1580.1754   0.06694524  0.067526219            3 
 1968000   0.92743069   -3.6649038    1578.2955  0.066831619  0.067512087            3 
 1969000   0.91756054   -3.6446761    1580.2592  0.066880784  0.067497935            4 
 1970000   0.92271957   -3.6840169    1582.3709  0.066936162  0.067483953            1 
 1971000   0.92638473   -3.7003593    1574.6212  0.066574548  0.067469427            3 
 1972000   0.92297487   -3.6503494    1580.3758  0.066783966  0.067454978            4 
 1973000   0.96816265   -3.6339168    1580.4196  0.066751969  0.067440778            3 
 1974000   0.96106027   -3.6370028    1582.1679  0.066791958  0.067426492            2 
 1975000   0.93280185   -3.6697042     1582.341  0.066765445  0.067412534            3 
 1976000   0.93515407     -3.63201    1584.4776  0.066821762  0.067398337            4 
 1977000   0.92563741   -3.6790124    1581.6628  0.066669312  0.067383917            3 
 1978000   0.97559908   -3.6519861    1584.4891  0.066754679  0.067369626            4 
 1979000   0.92754608   -3.6272844    1585.8462  0.066778095  0.067355667            3 
 1980000   0.93999971   -3.6577863    1593.2223   0.06705481  0.067341745            4 
 1981000   0.96125155   -3.6344506    1589.5169   0.06686509  0.067327966            2 
 1982000   0.93469028   -3.6490782    1586.8282  0.066718307  0.067314041            1 
 1983000    0.9535612   -3.6622379    1583.6707  0.066551971  0.067299955            2 
 1984000    0.9413413   -3.6571969    1587.2504  0.066668783  0.067285749            3 
 1985000   0.93640586   -3.6843196    1583.8593  0.066492832   0.06727144            4 
 1986000   0.94239253   -3.6639606     1590.656  0.066744546  0.067257183            1 
 1987000   0.94948744   -3.6682122    1583.0909  0.066393681  0.067242948            9 
 1988000   0.94471934   -3.6550139    1589.9889  0.066649434  0.067228814            2 
 1989000    0.9293977   -3.6574522    1590.6003  0.066641543  0.067214634            4 
 1990000   0.92598948    -3.659488     1590.608  0.066608375  0.067200033            2 
 1991000   0.93072233   -3.6556779    1587.1269   0.06642922  0.067186039            2 
 1992000   0.93428672    -3.664731    1591.8489  0.066593413  0.067171675            1 
 1993000   0.92404719   -3.6469687    1593.3994   0.06662483  0.067157614            1 
 1994000   0.95505094   -3.6535086    1592.0776  0.066536177   0.06714366            2 
 1995000   0.91320838   -3.6662815    1592.2104  0.066508371  0.067129334            3 
 1996000    0.9329734   -3.6502009    1594.6638  0.066577481  0.067115124            2 
 1997000   0.93135716   -3.6377863    1594.3076  0.066529276  0.067100659            6 
 1998000   0.92348453   -3.6817064    1586.2188  0.066158608  0.067086265            3 
 1999000   0.91937541   -3.6585788    1591.6486  0.066351868   0.06707172            3 
 2000000    0.9156471   -3.6676728    1591.5536  0.066314733   0.06705728            2 
 2001000   0.91971378    -3.664903     1597.358  0.066523321  0.067043058            2 
 2002000   0.91747455   -3.6583877    1595.2095   0.06640066  0.067028896            1 
 2003000   0.92228269   -3.6663023    1598.6526   0.06651076  0.067014795            5 
 2004000   0.92891708   -3.6408634     1597.878   0.06644536  0.067000577            2 
 2005000   0.92970145   -3.6495329    1596.5053  0.066355166  0.066986419            7 
 2006000   0.93875549   -3.6459067    1596.5926  0.066325713  0.066971713            2 
 2007000   0.93035773   -3.6552435    1598.2783  0.066362658  0.066957168            3 
 2008000   0.93046494   -3.6668738    1597.8668  0.066312535  0.066942873            6 
 2009000   0.90995757   -3.6618885    1597.1022   0.06624781  0.066928406            6 
 2010000   0.93648649   -3.6822056     1595.248  0.066137977  0.066913881            6 
 2011000   0.92891382   -3.6700775    1599.4388  0.066278751  0.066899343            2 
 2012000   0.91144638   -3.6601104    1590.6949  0.065883651   0.06688488            5 
 2013000   0.94458176    -3.665329    1602.1425  0.066324827  0.066870434            3 
 2014000   0.94198172   -3.6470195    1602.0243  0.066287002  0.066856065            3 
 2015000   0.94336829   -3.6717613    1606.2738  0.066429852  0.066841532            5 
 2016000   0.92210622   -3.6725157    1594.5928  0.065914053  0.066827313            5 
 2017000   0.92326307   -3.6676471    1598.2721  0.066033386  0.066812711            3 
 2018000   0.91855697   -3.6454472    1608.2992  0.066414734  0.066798414            4 
 2019000   0.91531682   -3.6303774     1603.336  0.066176984  0.066784082            3 
 2020000   0.91099066   -3.6962205    1599.7863  0.065997786  0.066769738            2 
 2021000   0.92317118   -3.6598906    1602.6017  0.066081219  0.066755379            3 
 2022000   0.93696474   -3.6660957    1608.2898  0.066282962   0.06674117            3 
 2023000   0.94031311   -3.6779622    1599.5895  0.065891807  0.066726791            4 
 2024000   0.94777833   -3.6708129    1603.3146  0.066012623  0.066712558            3 
 2025000   0.93097644   -3.6604183    1606.5684  0.066113925  0.066698378            3 
 2026000   0.92369068   -3.6479854     1609.993  0.066222153  0.066683914            3 
 2027000   0.92988001   -3.6617352    1610.5444  0.066212153  0.066669688            4 
 2028000   0.92548999   -3.6664567    1609.6812  0.066144033  0.066655568            8 
 2029000   0.91944227   -3.6624486    1613.5423  0.066270013  0.066641304            6 
 2030000   0.92577114   -3.6747185    1607.2362  0.065978497  0.066627264            4 
 2031000   0.93973333   -3.6715129    1610.4865  0.066079374  0.066613155            1 
 2032000   0.93755431   -3.6754982    1607.5344  0.065925789  0.066599207            4 
 2033000   0.92198621    -3.662173    1611.1958  0.066043442  0.066584819            5 
 2034000   0.92479159   -3.6783225    1614.3255  0.066139196  0.066570321            3 
 2035000   0.91495747    -3.657988    1609.6843  0.065916637  0.066556205            2 
 2036000   0.95631488   -3.6664736    1610.7798  0.065929102  0.066541957            2 
 2037000   0.91525939   -3.6575568    1615.8893  0.066105764  0.066527896            9 
 2038000    0.9161851   -3.6811444    1614.0809  0.065999383   0.06651374            4 
 2039000   0.92701829   -3.6748782    1606.1431  0.065642597  0.066499553            5 
 2040000   0.91964913   -3.6896157    1609.0235  0.065728084  0.066485237            2 
 2041000   0.92058841   -3.6665782    1613.5921  0.065882413  0.066471157            2 
 2042000   0.91367647   -3.6643965    1618.3857  0.066045778  0.066457062            2 
 2043000   0.92212055   -3.6732833    1616.8576  0.065951119  0.066442909            3 
 2044000   0.90981715   -3.6509411    1617.5217  0.065945927  0.066428627            3 
 2045000   0.91891209   -3.6652431    1619.1162  0.065978654  0.066414669            5 
 2046000   0.93172607   -3.6508763    1625.1645  0.066192756  0.066400849            2 
 2047000   0.92939497   -3.6957217    1618.3288  0.065882138  0.066387158            4 
 2048000   0.92787878   -3.6447358    1624.4558  0.066099274  0.066373308            5 
 2049000   0.93115687   -3.6691833    1619.0378  0.065846664  0.066359617            3 
 2050000   0.94087056   -3.6706844    1624.1924  0.066024083  0.066345688            4 
 2051000     0.936174   -3.6424628    1623.4791  0.065962908  0.066332127            3 
 2052000   0.91172526   -3.6569894    1622.4028  0.065887054  0.066318586            7 
 2053000   0.91116648   -3.6948289    1622.0357   0.06584006  0.066304815            5 
 2054000   0.93469366   -3.7098299    1618.1563  0.065650612  0.066290905            2 
 2055000   0.90689534   -3.6578753    1624.4359  0.065873312  0.066277022            5 
 2056000   0.91241042   -3.6771542    1622.1509   0.06574866  0.066263187            2 
 2057000   0.92975654   -3.6822048    1625.9097  0.065868972  0.066249402            2 
 2058000   0.92445655   -3.6733172    1622.3574  0.065693125  0.066235679            4 
 2059000   0.90473772   -3.6846098    1623.5632   0.06571002  0.066222229            5 
 2060000   0.94600171   -3.6625462    1628.3454  0.065871578  0.066208494            3 
 2061000   0.92060184   -3.6860726    1621.7662  0.065573596  0.066195087            4 
 2062000   0.92094862   -3.6640806    1633.8728  0.066031072  0.066181875            2 
 2063000    0.9246038   -3.6690854    1625.5166  0.065661518  0.066168831            2 
 2064000   0.92221949   -3.6736948    1638.6034  0.066158081  0.066155598            4 
 2065000   0.92038908   -3.6400274    1631.8756  0.065854544  0.066142347            4 
 2066000   0.89602509   -3.6894749    1633.3636   0.06588269  0.066129081            4 
 2067000   0.91232083    -3.680548    1629.0818  0.065678188  0.066115849            3 
 2068000   0.90224712   -3.6803259    1636.3804  0.065940539  0.066102664            5 
 2069000   0.93446884   -3.6638667    1636.0956  0.065897197  0.066089478            3 
 2070000   0.93188843   -3.6659941    1631.4893  0.065679922  0.066076484            3 
 2071000   0.90252963    -3.651904    1645.8883    0.0662276  0.066063493            5 
 2072000   0.91487855   -3.6691495    1639.5397  0.065940305  0.066050414            5 
 2073000   0.92608038   -3.6686963    1636.2383  0.065775778  0.066037273            2 
 2074000   0.92308392   -3.6789227    1643.1221  0.066020657  0.066024175            4 
 2075000   0.93012708   -3.7207284    1637.0245  0.065743954  0.066010965            4 
 2076000   0.92729335   -3.6813459    1636.5916   0.06569491  0.065997863            2 
 2077000   0.90366183   -3.6552653    1639.6401  0.065785593  0.065984809            3 
 2078000    0.9000013   -3.6567785    1646.1509  0.066015036  0.065971915            4 
 2079000   0.93375194   -3.6514236     1643.814  0.065889612  0.065958848            3 
 2080000   0.92139624   -3.6588682    1644.0389  0.065866943  0.065945838            3 
 2081000    0.9149376   -3.6872114    1638.7003  0.065621508  0.065932891            2 
 2082000   0.90947734   -3.6554693    1646.8861  0.065917632  0.065919837            4 
 2083000   0.91725534   -3.6918578     1642.617  0.065715193  0.065906676            2 
 2084000   0.92667857   -3.6786121    1642.2712  0.065669834  0.065893466            2 
 2085000   0.92629924   -3.6697067    1638.9608  0.065506028  0.065879922            3 
 2086000   0.91030971    -3.651417    1641.2036  0.065564224  0.065866528            1 
 2087000   0.92247769   -3.6701697    1643.5772  0.065627583  0.065853365            4 
 2088000   0.91471134   -3.6580869    1640.1911  0.065461011  0.065840016            2 
 2089000   0.94752936   -3.6533301    1645.2348  0.065630874  0.065826951            6 
 2090000   0.90843307   -3.6441106     1651.735   0.06585865  0.065814305            4 
 2091000   0.94437572   -3.6484004    1650.2338  0.065767329  0.065801498            1 
 2092000   0.91308355   -3.6666249    1655.5807   0.06594888  0.065788888            4 
 2093000   0.93448677   -3.6902173     1648.677    0.0656425  0.065776277            2 
 2094000   0.90574913   -3.6792141    1649.7125  0.065652358  0.065763668            4 
 2095000   0.90982528   -3.6742958    1651.2211   0.06568103  0.065751141            5 
 2096000   0.92087464   -3.6731863    1653.4973  0.065740192  0.065738636            2 
 2097000   0.89681554   -3.7103446    1652.2039  0.065657442  0.065726033            2 
 2098000   0.92768415   -3.6949171    1650.4878  0.065557985   0.06571334            4 
 2099000   0.92036594   -3.6970708     1657.034  0.065786645  0.065700529            2 
 2100000    0.9273168   -3.6732383     1652.396  0.065571272  0.065688228            4 
 2101000   0.94023494   -3.6944735    1653.8026  0.065595852  0.065675727            5 
 2102000   0.90455123   -3.6496029    1662.2477  0.065899449  0.065663408            1 
 2103000   0.91968544   -3.6771465    1658.3069  0.065711957  0.065650983            3 
 2104000   0.92643351   -3.6860712    1658.1736  0.065675443  0.065638559            3 
 2105000   0.92381283   -3.6663667    1660.4507  0.065734392  0.065626283            3 
 2106000   0.92008046   -3.7093767    1654.2525  0.065457918  0.065613947            3 
 2107000   0.90980781   -3.6813036    1655.5288  0.065477329  0.065601467            3 
 2108000   0.88319857   -3.7016945    1660.3652  0.065637459   0.06558909            4 
 2109000    0.9335083   -3.7039594    1655.7501  0.065423982  0.065576612            4 
 2110000   0.91237588   -3.6663314    1665.8975  0.065793741  0.065563985            2 
 2111000    0.9292753   -3.6771655     1657.011  0.065411772  0.065551428            2 
 2112000   0.90753484   -3.6864573    1659.9496  0.065496748  0.065539032            3 
 2113000   0.90232375   -3.6912853    1665.1816  0.065672094  0.065526664            3 
 2114000   0.91909911   -3.6768041    1662.5339  0.065536658  0.065514299            4 
 2115000   0.91414462    -3.709292    1662.0551  0.065486806  0.065502011            1 
 2116000   0.92859325    -3.681946    1666.8742  0.065645643  0.065489679            5 
 2117000   0.90099078   -3.6660354    1665.4011  0.065556647  0.065477451            3 
 2118000   0.91534045   -3.6946077    1671.6784   0.06577268  0.065465196            3 
 2119000   0.90924565   -3.6761728    1668.8707   0.06563122   0.06545331            6 
 2120000   0.90726482   -3.6904799    1666.0084   0.06548775  0.065441205            3 
 2121000   0.91594537   -3.6624704    1675.2311  0.065819234  0.065429006            1 
 2122000   0.90427816   -3.6744276    1671.0422  0.065623711   0.06541687            7 
 2123000   0.90419719   -3.6757994     1671.057  0.065593383  0.065404603            6 
 2124000   0.91340572   -3.6806342    1663.6626  0.065272385  0.065392269            3 
 2125000   0.90435736   -3.6744703    1668.8528   0.06544521  0.065379926            3 
 2126000   0.89564689   -3.7170529    1664.6715  0.065250529  0.065367516            3 
 2127000   0.90165321    -3.679777    1674.6175  0.065609526  0.065355254            5 
 2128000   0.92639507    -3.682403    1670.7223  0.065426155  0.065342868            2 
 2129000   0.91798986   -3.6822788    1674.9177  0.065559642  0.065330342            2 
 2130000   0.91039057   -3.6797322    1663.2469  0.065072256  0.065317916            2 
 2131000   0.91711669   -3.7046311    1673.2942  0.065434623  0.065305613            2 
 2132000   0.90404972    -3.700084    1669.7866   0.06526683  0.065293253            4 
 2133000   0.90076241   -3.6916603    1677.5164  0.065538226  0.065281106            2 
 2134000   0.94164935   -3.6992504    1673.3583  0.065345139  0.065268836            2 
 2135000   0.88460999   -3.6742973    1676.3491  0.065431269  0.065256506            5 
 2136000   0.90919506    -3.703934    1669.2597  0.065124053  0.065244105            5 
 2137000     0.912187   -3.6716266    1676.5875   0.06537933  0.065231925            4 
 2138000   0.91476894   -3.6922465    1680.4094  0.065497716  0.065219628            3 
 2139000    0.9111395    -3.678476    1681.6738  0.065516354  0.065207381            3 
 2140000   0.92711238   -3.7004296    1671.0612  0.065072478  0.065195146            5 
 2141000   0.90589509   -3.7042279    1677.2892  0.065284495  0.065183001            2 
 2142000    0.9161291   -3.6920705    1676.4252  0.065220401  0.065171079            3 
 2143000   0.89966882   -3.7182599    1681.0308  0.065369061  0.065158831           10 
 2144000   0.89005881   -3.6837129    1682.5837  0.065398932  0.065146879            5 
 2145000   0.92111049    -3.702223    1673.5466   0.06501735   0.06513467            2 
 2146000   0.91792132   -3.6979854     1681.005  0.065276679  0.065122369            5 
 2147000   0.88083143   -3.6875682    1681.9592  0.065283308  0.065110268            4 
 2148000   0.91104856   -3.6737228     1674.172  0.064950808  0.065098161            5 
 2149000   0.92174455   -3.6816415    1688.1185  0.065461397  0.065086046            3 
 2150000   0.91559196   -3.6771293    1681.7434  0.065183854  0.065074047            5 
 2151000   0.91372901   -3.6725861    1683.3644  0.065216347  0.065061994            3 
 2152000   0.92650007    -3.675531    1685.6695  0.065275306  0.065049937            3 
 2153000   0.92404793    -3.673087    1677.1619  0.064915696  0.065037811            2 
 2154000   0.89648934   -3.6852012    1688.1149  0.065309303  0.065025725            3 
 2155000   0.90990441   -3.6939205     1685.866  0.065192036  0.065013681            3 
 2156000   0.90918092   -3.6659671    1685.4931  0.065147381  0.065001594            2 
 2157000   0.89227156   -3.7039283    1685.6549  0.065123431  0.064989564            6 
 2158000   0.89885446   -3.7083701    1686.3868  0.065121515  0.064977442            2 
 2159000   0.91731242   -3.7032673    1687.4629  0.065132888  0.064965431            3 
 2160000   0.93358906   -3.6761113    1692.0869  0.065281129  0.064953659            4 
 2161000   0.91455023   -3.6916107    1686.2751  0.065026804  0.064941729            2 
 2162000   0.89651523   -3.7022794    1685.0262  0.064948589  0.064929774            1 
 2163000   0.89369521    -3.680007     1695.088  0.065306211   0.06491784            5 
 2164000   0.92306878   -3.7078516    1692.0163  0.065157745  0.064905932            3 
 2165000   0.90404374    -3.708909    1688.6984   0.06499994  0.064893991            2 
 2166000   0.90660695   -3.6915096    1692.2325  0.065105896   0.06488224            5 
 2167000   0.92203635   -3.7180527    1694.0342  0.065145139  0.064870429            6 
 2168000   0.91124685   -3.6732195     1689.881  0.064955452  0.064858809            4 
 2169000   0.89274332   -3.7170064    1690.6004  0.064953142  0.064847028            3 
 2170000   0.90634784   -3.6787258    1699.7682  0.065275278  0.064835176            2 
 2171000   0.89953095   -3.6878247    1699.6574  0.065240958   0.06482371            3 
 2172000   0.90908032   -3.6788116    1694.2857  0.065004822  0.064811879            3 
 2173000   0.91374321   -3.7116343    1690.7616  0.064839762  0.064800024            2 
 2174000   0.89832398   -3.6778238    1699.9915  0.065163733  0.064788146            4 
 2175000   0.92189906   -3.6914745    1695.9218  0.064977846  0.064776203            1 
 2176000    0.8941988   -3.7190525    1690.3632  0.064735108  0.064764429            2 
 2177000   0.89776741   -3.7180687    1700.9418  0.065110314  0.064752633            5 
 2178000   0.89402184   -3.7028115    1700.8256  0.065075971  0.064740888            3 
 2179000   0.89099829   -3.6937167    1706.5551  0.065265225  0.064729115            4 
 2180000   0.89050827   -3.7090275    1694.8684  0.064788548  0.064717229            3 
 2181000   0.90334971   -3.6967171    1700.0427  0.064956546  0.064705453            3 
 2182000   0.90464331     -3.69096    1701.6354  0.064987601  0.064693625            8 
 2183000   0.90905784   -3.7004332    1702.7299  0.064999614  0.064681929            6 
 2184000   0.91301547   -3.6820221    1706.7193  0.065122072  0.064670021            5 
 2185000   0.90435736   -3.7079764     1704.709  0.065015599  0.064658082            2 
 2186000   0.90324041   -3.6930806    1701.4948  0.064863325  0.064646106            3 
 2187000   0.88010979   -3.6894179    1699.9481  0.064774735  0.064634128            7 
 2188000   0.91168047    -3.706997    1705.0391  0.064939026  0.064622079            9 
 2189000   0.90686092   -3.6904683    1699.3544   0.06469295  0.064610199            2 
 2190000   0.91020627   -3.7409521    1694.7953  0.064489928  0.064598307            4 
 2191000   0.91648274   -3.7216888    1701.5444   0.06471719  0.064586241            7 
 2192000    0.8727747    -3.680893    1706.2298  0.064865791  0.064573974            3 
 2193000   0.91019499   -3.7233055    1696.8717  0.064480608  0.064561998            5 
 2194000   0.90617634   -3.7139514    1705.7209  0.064787332  0.064550055            2 
 2195000   0.91550749   -3.7338053    1704.5821  0.064714582  0.064537929            3 
 2196000   0.88645509   -3.7259111    1706.0435  0.064740568  0.064525864           12 
 2197000   0.90876871   -3.7051787    1708.1249   0.06479005   0.06451355            7 
 2198000   0.88867325   -3.7213001    1706.6127  0.064703243  0.064501285            2 
 2199000   0.90588847   -3.7070184    1704.9243  0.064609834  0.064488894            2 
 2200000   0.89450907   -3.6799221    1705.3034  0.064594827  0.064476543            4 
 2201000   0.87401577    -3.688608    1707.9796  0.064666803  0.064464083            4 
 2202000    0.8836122   -3.7165655    1704.5006  0.064505775  0.064451797            3 
 2203000   0.88808347   -3.6620123    1713.8837  0.064831431  0.064439627            3 
 2204000   0.88590736   -3.7213833    1705.2059  0.064473907   0.06442728            3 
 2205000   0.91281741   -3.7071353    1703.6094   0.06438433  0.064414743            2 
 2206000   0.90191842   -3.6854201    1705.8035  0.064438027  0.064402322            3 
 2207000   0.90873074   -3.6941391    1713.1766   0.06468723  0.064390072            4 
 2208000   0.91657152   -3.7100785    1706.8237  0.064418164  0.064377833            7 
 2209000   0.90489978   -3.7017266    1705.8556  0.064352483  0.064365529            5 
 2210000   0.89290951     -3.71734    1704.3668  0.064267223  0.064352981            5 
 2211000   0.88343536   -3.7007596    1710.0158  0.064451071  0.064340659            2 
 2212000   0.90302708   -3.7154725    1706.2523  0.064280152  0.064328325            2 
 2213000   0.90088013   -3.7288205    1708.1043  0.064320841  0.064315834            2 
 2214000   0.89059622   -3.7129202     1707.354  0.064263551  0.064303266            3 
 2215000   0.88591924   -3.7184383    1705.3613  0.064159566  0.064290578            4 
 2216000   0.89698692   -3.6962499    1712.7891   0.06440994  0.064277888            4 
 2217000   0.90007755   -3.7146305    1708.8354  0.064232275  0.064265419            5 
 2218000   0.92588483    -3.702199    1710.1515  0.064252762  0.064252718            3 
 2219000   0.89808074    -3.731159    1703.6345  0.063979063  0.064240029            4 
 2220000   0.89309319   -3.7182749    1707.1649  0.064082766  0.064227175            4 
 2221000   0.89722515   -3.7307487    1708.7132  0.064112006  0.064214427            3 
 2222000   0.89229793   -3.6766126    1713.9966  0.064281299  0.064201883            2 
 2223000   0.89985686   -3.7351879    1703.5397  0.063860388  0.064189136            3 
 2224000    0.9009594   -3.7333454    1715.0111  0.064261505  0.064176459            3 
 2225000   0.89346486    -3.719863    1714.2359  0.064203592   0.06416379            4 
 2226000   0.91703123   -3.7179994      1708.64   0.06396526  0.064150991            2 
 2227000   0.90884508     -3.71797    1704.5073  0.063781892  0.064138523            4 
 2228000   0.89978134   -3.7162135     1706.905  0.063842944  0.064125617            2 
 2229000    0.8701717   -3.7040833     1706.347  0.063793441  0.064112682            6 
 2230000   0.88132366   -3.7041123    1718.3653  0.064213949  0.064099827            3 
 2231000   0.91418631   -3.7143232    1705.8555  0.063717896  0.064087008            2 
 2232000   0.90456589   -3.7088726    1710.2284  0.063852614   0.06407394            2 
 2233000   0.89470523   -3.6971047    1716.8643  0.064071663  0.064061335            2 
 2234000   0.88372333   -3.6901598    1713.4077  0.063914043  0.064048612            4 
 2235000   0.89329111   -3.7027673    1716.4684  0.063999568  0.064035912            1 
 2236000   0.89494134   -3.6769551    1715.0585    0.0639184  0.064023174            4 
 2237000   0.90109157   -3.6806686    1720.3712  0.064087738  0.064010574            2 
 2238000   0.88761976   -3.6945158    1720.1797  0.064051969  0.063998005            4 
 2239000   0.91323674   -3.7396342    1714.9294  0.063827952  0.063985289            5 
 2240000    0.8913369   -3.7274412    1711.4098   0.06366852  0.063972603            4 
 2241000   0.89069205   -3.7190522    1715.1013  0.063777381  0.063959836            3 
 2242000   0.90029572   -3.7366967    1718.7587  0.063884874  0.063947267            5 
 2243000   0.89123745   -3.7410866    1721.9586  0.063975279   0.06393465            6 
 2244000   0.88334316   -3.7161933    1713.9123  0.063647961   0.06392198            2 
 2245000   0.90498425   -3.7393395    1721.4605  0.063899798  0.063909303            5 
 2246000     0.887479   -3.7033488    1720.4277  0.063833026  0.063896512            3 
 2247000   0.89293623   -3.7223036    1725.3228   0.06398616  0.063883828            3 
 2248000   0.89713845   -3.7260043     1726.335  0.063995217  0.063871059            5 
 2249000   0.88421818   -3.7354148    1718.6376  0.063681547  0.063858043            5 
 2250000   0.88256684   -3.7319759    1723.5507  0.063835213  0.063845222            3 
 2251000   0.88462984   -3.7072548     1726.173  0.063903931   0.06383242            2 
 2252000   0.90983835   -3.7277973    1724.8171   0.06382538  0.063819622            2 
 2253000   0.90395223   -3.7204242    1720.9607  0.063654413  0.063806935            5 
 2254000   0.89114725   -3.7101355    1719.8531  0.063585221  0.063794079            4 
 2255000   0.90822393   -3.7563716    1721.2447  0.063608451  0.063781393            4 
 2256000   0.85806422    -3.722764     1721.988  0.063607714  0.063768592            4 
 2257000    0.8856695   -3.7542011    1721.7444  0.063570536  0.063755653            5 
 2258000   0.86757444   -3.7181982    1726.7963  0.063728826  0.063743094            2 
 2259000   0.90064392    -3.727436    1724.5297  0.063617002  0.063730373            4 
 2260000   0.88080881   -3.7272855    1729.6699  0.063778389  0.063717724            3 
 2261000   0.87533736   -3.7094455     1727.281  0.063662134  0.063705176            2 
 2262000   0.88741336   -3.7505351    1725.1154  0.063554206  0.063692663            2 
 2263000   0.87972262   -3.7186666    1727.0454  0.063597195  0.063679797            3 
 2264000   0.88629168   -3.7105532    1729.9608  0.063676414  0.063667165            3 
 2265000   0.90632284   -3.7435977    1722.1115  0.063359511  0.063654467            5 
 2266000   0.88660533   -3.7141573    1731.0533   0.06366039  0.063641648            2 
 2267000   0.89697725   -3.7113526    1728.5514  0.063540341  0.063628961            3 
 2268000   0.86219402   -3.6956896    1730.9384  0.063600028  0.063616475            4 
 2269000   0.89682666   -3.7376128    1724.4138   0.06333237  0.063603623            6 
 2270000   0.88206955   -3.7331373    1727.7069  0.063425362  0.063590802            3 
 2271000    0.8774891   -3.7093449    1733.7916  0.063620709  0.063578235            2 
 2272000   0.87781221   -3.7213088    1724.5243  0.063252798  0.063565269            3 
 2273000   0.89420772   -3.7364623    1734.4986   0.06359065   0.06355258            7 
 2274000   0.89831485   -3.7334918    1738.9655   0.06372638  0.063539838            8 
 2275000   0.90155961   -3.7213885    1734.4534   0.06353309  0.063527161            6 
 2276000   0.88972252   -3.7224276    1726.7748  0.063224034  0.063514445            2 
 2277000   0.88809515   -3.7474514     1728.944  0.063275655  0.063501604            4 
 2278000   0.90080174   -3.7419697    1733.2799  0.063406492  0.063488627            3 
 2279000    0.8921641   -3.7443355    1729.1351  0.063227113  0.063475816            3 
 2280000   0.88120392   -3.7543158    1731.9772  0.063303259  0.063462822            5 
 2281000   0.89180922   -3.7264076    1734.2659  0.063359123  0.063450041            2 
 2282000   0.87397315   -3.7440063    1735.9213  0.063391809  0.063437187            4 
 2283000   0.88658823   -3.7039601    1732.4366  0.063236844  0.063424347           10 
 2284000   0.87624155   -3.7554993    1734.6188  0.063288778  0.063411507            4 
 2285000   0.88416917   -3.7286768    1737.5107  0.063366547  0.063398479            2 
 2286000   0.87786191   -3.7546041    1731.9785  0.063137159  0.063385638            5 
 2287000   0.90139036   -3.7152577    1739.7404  0.063392378  0.063372848            3 
 2288000   0.89106584   -3.7076718    1738.3115  0.063312627  0.063360155            3 
 2289000   0.87514516   -3.7402761    1743.8368  0.063486122  0.063347453            2 
 2290000   0.88340712   -3.7283902    1736.9657   0.06320836  0.063334601            3 
 2291000   0.88253788   -3.7312139    1734.9722  0.063108255    0.0633218            2 
 2292000   0.87641396   -3.7241783    1736.6486  0.063141674  0.063308927            3 
 2293000   0.88050397   -3.7186578    1748.1857  0.063533426  0.063295977            4 
 2294000   0.89415609    -3.748069    1740.6769  0.063232958  0.063283173            3 
 2295000   0.87084546   -3.7438878     1742.888  0.063285693  0.063270445           11 
 2296000   0.88533547   -3.7486996     1737.964  0.063079414  0.063257524            3 
 2297000   0.87434927    -3.728057    1740.1299  0.063130531  0.063244717            3 
 2298000    0.8747323   -3.7278324    1744.6003   0.06326517  0.063231736            5 
 2299000   0.90003331   -3.7230932    1743.5213  0.063198539   0.06321905            2 
 2300000   0.87780232   -3.7498557    1735.1435  0.062867518  0.063206102            2 
 2301000   0.89361655   -3.7207396    1746.7294  0.063259793  0.063193323            5 
 2302000   0.89279014   -3.7527667    1742.2958  0.063071814  0.063180509            2 
 2303000   0.88610098   -3.7529166    1740.5424   0.06298098  0.063167711            6 
 2304000   0.88464905   -3.7554418    1739.3438  0.062910293  0.063154831            3 
 2305000   0.88683558   -3.7423053    1741.8857    0.0629749   0.06314198            7 
 2306000   0.88897382   -3.7537317    1738.1306  0.062811889  0.063129119            4 
 2307000   0.87007537   -3.7365958    1739.3754  0.062829626  0.063116286            5 
 2308000   0.87141187   -3.7158291    1747.1391  0.063082723  0.063103562            4 
 2309000   0.87737849   -3.7442058    1746.3444   0.06302672  0.063090793            3 
 2310000   0.89890223   -3.7372708    1751.2984  0.063178153   0.06307813            3 
 2311000   0.87793244   -3.7373419    1753.3869  0.063226126  0.063065524            3 
 2312000   0.90073454   -3.7445125    1745.3901  0.062910541  0.063052936            4 
 2313000   0.88277067   -3.7201043    1748.3549  0.062990161  0.063040521            1 
 2314000   0.85802177   -3.7262865     1740.796  0.062690723  0.063027926            2 
 2315000   0.87464278   -3.7121218    1749.3788  0.062972599  0.063015405            3 
 2316000   0.87294945    -3.740587    1748.7516  0.062922842  0.063002851            4 
 2317000   0.89592543   -3.7372731    1753.7494  0.063075434  0.062990161            7 
 2318000   0.87165656   -3.7359655    1748.7946  0.062870095  0.062977529            3 
 2319000   0.88953281   -3.7390211    1749.9417  0.062884206  0.062964905            3 
 2320000   0.90016849   -3.7380357    1754.6267  0.063025384    0.0629523            4 
 2321000   0.88739057   -3.7236373    1755.1491  0.063016987   0.06293992            6 
 2322000   0.88894701   -3.7512882    1749.0001  0.062769167  0.062927491            3 
 2323000   0.87904966   -3.7204496    1759.5175  0.063119439  0.062914919            3 
 2324000     0.878245   -3.7537358    1753.8622  0.062889493  0.062902389            3 
 2325000   0.87154389   -3.7220639    1757.3554  0.062987647   0.06288994            4 
 2326000   0.87204618   -3.7374409    1754.8348  0.062870263  0.062877373            5 
 2327000     0.879409   -3.7340177    1755.0644  0.062851468  0.062864992            5 
 2328000   0.89676738   -3.7369796     1758.087  0.062932668  0.062852541            5 
 2329000   0.87812543   -3.7240106    1762.5736   0.06306618  0.062840137            3 
 2330000    0.8794876   -3.7140185    1761.8487  0.063013188  0.062827887            9 
 2331000   0.86227097   -3.7143156    1766.9023  0.063166821  0.062815489            3 
 2332000    0.8578888   -3.7318669    1762.0527  0.062966434  0.062803205            5 
 2333000   0.87894606   -3.7390373     1760.147  0.062871374  0.062791018            3 
 2334000   0.87014203   -3.7392318    1765.6688  0.063041586  0.062778835            8 
 2335000   0.88688944   -3.7663174    1761.2438  0.062856666  0.062766633            4 
 2336000   0.87678842   -3.7341634    1764.0112   0.06292848   0.06275422            6 
 2337000   0.88092907   -3.7427846    1758.0185  0.062687864   0.06274198            7 
 2338000   0.88570285   -3.7590191     1766.112   0.06294953   0.06272979            3 
 2339000   0.88518003   -3.7325273     1763.358  0.062824499  0.062717307            3 
 2340000   0.88287645   -3.7177604    1765.5951  0.062877319  0.062705059            7 
 2341000   0.87806369     -3.73133    1764.1459  0.062798871  0.062692899            4 
 2342000   0.88171129   -3.7382625    1765.1504    0.0628078  0.062680584            3 
 2343000   0.88036355   -3.7426644    1767.3049  0.062857624  0.062668391            3 
 2344000   0.88321243    -3.729008    1768.8038  0.062884092  0.062656288            7 
 2345000   0.87819036    -3.735192    1761.5152  0.062598265  0.062644022            4 
 2346000   0.87827375    -3.748759     1767.234  0.062774723  0.062631632            4 
 2347000   0.88054324   -3.7342975    1766.8699  0.062735048  0.062619334            2 
 2348000   0.87564946   -3.7494617    1761.8121  0.062528823  0.062607158            4 
 2349000   0.88669164   -3.7552136    1771.8072  0.062856791  0.062594861            3 
 2350000   0.86854218   -3.7385496      1760.65  0.062434397  0.062582518            4 
 2351000   0.88580621   -3.7405291    1765.8963  0.062593801  0.062570203            4 
 2352000   0.88637979   -3.7586145    1759.5217  0.062341328  0.062557557            3 
 2353000   0.88349257   -3.7370219    1765.8311  0.062538289  0.062544999            3 
 2354000   0.84726834   -3.7746367    1763.9541  0.062445273  0.062532641            4 
 2355000   0.88466995   -3.7239593    1770.0327  0.062633853   0.06252042            5 
 2356000   0.89037119   -3.7183588    1772.4965  0.062694415  0.062508373            2 
 2357000   0.85693409   -3.7299363    1773.1501  0.062690923  0.062496255            5 
 2358000    0.8699459   -3.7631011     1773.552   0.06267854  0.062484163            3 
 2359000   0.88397562     -3.72736    1777.7549  0.062800441  0.062471977            5 
 2360000   0.89345699   -3.7108151    1778.5685  0.062802561  0.062459978            4 
 2361000   0.87020236   -3.7382074     1780.217  0.062834145   0.06244805            6 
 2362000   0.87483396   -3.7322335    1776.6722  0.062682481  0.062436136            1 
 2363000   0.87603181   -3.7790028    1771.7147  0.062481122  0.062424085            9 
 2364000   0.88291163   -3.7644049      1779.71  0.062736535  0.062411874            4 
 2365000   0.85746693   -3.7700319     1774.469  0.062525334   0.06239975            3 
 2366000   0.85878142   -3.7398028    1776.7388  0.062578854  0.062387746            4 
 2367000    0.8795478   -3.7475101    1780.3452  0.062679383  0.062375712            4 
 2368000    0.8724049   -3.7676252    1775.9267  0.062497422   0.06236353            3 
 2369000     0.874137   -3.7397627    1779.6823  0.062603148  0.062351584            3 
 2370000   0.87078422   -3.7204912    1782.5178  0.062676433  0.062339697            2 
 2371000   0.86850039   -3.7522998    1776.2798  0.062430755  0.062327731            9 
 2372000   0.85614876   -3.7236847    1785.2225  0.062718609  0.062315615            3 
 2373000   0.87696487   -3.7459399    1780.8706  0.062539351  0.062303651            3 
 2374000   0.87214491   -3.7612756    1779.0566  0.062449332  0.062291705            3 
 2375000   0.84573507   -3.7608943    1780.8647  0.062486481  0.062279599            3 
 2376000   0.88303384   -3.7661677    1781.7555  0.062491424  0.062267337            2 
 2377000    0.8631064   -3.7792204    1786.4901  0.062631119  0.062255343            7 
 2378000    0.8680087   -3.7475407     1780.888  0.062408467  0.062243304            3 
 2379000   0.86989579    -3.755408    1780.3352   0.06236287   0.06223124            4 
 2380000   0.88392336   -3.7666666    1784.3858  0.062478495  0.062219167            2 
 2381000    0.8694632   -3.7412668    1790.2984  0.062659192  0.062207156            3 
 2382000   0.86607261   -3.7536106     1787.229  0.062525503  0.062195237            3 
 2383000   0.87463601   -3.7559291    1784.2691   0.06239576  0.062183275            4 
 2384000    0.8623987   -3.7402532    1781.3677  0.062268165  0.062171306            5 
 2385000   0.84805046   -3.7574356    1786.5485  0.062423079  0.062159232            6 
 2386000   0.85797493   -3.7678454    1792.0719  0.062589827  0.062147119            4 
 2387000   0.87523426   -3.7812464     1786.689   0.06237568  0.062135104            2 
 2388000   0.85005873   -3.7566258    1788.2568  0.062404271  0.062123382            4 
 2389000   0.86186608   -3.7360691    1790.4748  0.062455518  0.062111501            3 
 2390000   0.87481803   -3.7360447    1791.9036  0.062479204  0.062099906            5 
 2391000   0.85464338   -3.7424974    1792.5729  0.062476401  0.062088398            4 
 2392000     0.876675    -3.733918    1796.9335  0.062602197  0.062076977            7 
 2393000    0.8785858   -3.7495588    1795.7335  0.062534249   0.06206544            6 
 2394000   0.84777168     -3.76391    1792.5818   0.06239842  0.062053856            6 
 2395000    0.8733561   -3.7717332    1790.2899  0.062292619  0.062042179            7 
 2396000   0.87118975   -3.7707797    1789.8132  0.062250041  0.062030558            5 
 2397000   0.85958905   -3.7781057    1800.0621  0.062580383  0.062018799            3 
 2398000   0.86707849   -3.7450376    1803.5732    0.0626763  0.062007396            4 
 2399000   0.87428891   -3.7217865    1799.0685  0.062493697  0.061996007            2 
 2400000   0.87257137   -3.7456091    1798.2718  0.062439992  0.061984675           10 
 2401000   0.85947974   -3.7470598    1800.9318  0.062506311  0.061972975            2 
 2402000   0.86791396   -3.7551892    1794.0329  0.062240941  0.061961671            3 
 2403000    0.8444087   -3.7202146    1803.0703  0.062528446  0.061950183            3 
 2404000   0.87697905   -3.7611881    1797.8654  0.062322011  0.061938676            5 
 2405000   0.87022625   -3.7625976    1797.4354  0.062281198  0.061927212            3 
 2406000   0.88437985   -3.7605585    1796.7598  0.062231914  0.061915738            6 
 2407000   0.86830084   -3.7557662    1805.9175  0.062523109  0.061904192            5 
 2408000   0.88547117   -3.7678312    1796.3458  0.062165898  0.061892815            3 
 2409000   0.88655265   -3.7606295    1800.8885  0.062297235  0.061881466            6 
 2410000   0.87419282    -3.762741    1805.1306  0.062418071  0.061869997            6 
 2411000   0.86864038    -3.754657    1798.0452  0.062147283  0.061858285            2 
 2412000    0.8803971   -3.7681717    1806.6506   0.06241883  0.061846899            4 
 2413000   0.87352731   -3.7718342    1805.4119  0.062350181  0.061835479            3 
 2414000   0.86624814   -3.7555595    1801.4621  0.062188003  0.061823863            2 
 2415000   0.85055485   -3.7649869     1812.652  0.062548377  0.061812419            4 
 2416000   0.86391179   -3.7622453    1802.3136  0.062165895   0.06180091            4 
 2417000   0.85662129   -3.7551489    1802.1805  0.062135583  0.061789438            7 
 2418000   0.85319316   -3.7826274    1807.1937   0.06228266   0.06177794            5 
 2419000   0.88142077   -3.7717068    1810.0764  0.062356221   0.06176659            3 
 2420000   0.86498703   -3.8060621    1806.1979  0.062196899  0.061755231            8 
 2421000   0.85071283   -3.7651756    1805.6114   0.06215102   0.06174377            7 
 2422000   0.86444612   -3.7815784    1807.0011  0.062173173   0.06173239            3 
 2423000    0.8703377   -3.7355093    1804.3808  0.062057394  0.061720965            3 
 2424000   0.86373037    -3.768752    1799.9487  0.061879424  0.061709655            2 
 2425000   0.86955702   -3.7410992    1814.9155   0.06236823  0.061698085            2 
 2426000   0.84144778   -3.7708682    1806.9681  0.062069529  0.061686479            5 
 2427000   0.84871009   -3.7688865    1807.5064  0.062062438  0.061674955            5 
 2428000   0.88215472   -3.7590276    1807.0514   0.06202126  0.061663409            3 
 2429000   0.85521346   -3.7915585    1801.8764  0.061818182  0.061651739            2 
 2430000   0.84939085   -3.7869694     1808.912  0.062034018  0.061640143            5 
 2431000   0.86504038   -3.7327208    1814.2792  0.062192484  0.061628642            4 
 2432000   0.86924475   -3.7834813    1815.3675  0.062204205  0.061617173            3 
 2433000    0.8485668   -3.7389556    1816.2046   0.06220731  0.061605886            7 
 2434000   0.87326532    -3.767677    1808.8444  0.061929759  0.061594689            6 
 2435000   0.86044887   -3.7787746    1811.9674  0.062011205  0.061583262            3 
 2436000   0.85143021   -3.7285548    1818.6386  0.062213965  0.061572131            1 
 2437000   0.87070252   -3.7750258    1819.2818   0.06221043  0.061560953            4 
 2438000   0.86134353   -3.7340343    1816.4343  0.062087581  0.061549744            5 
 2439000   0.86544066   -3.7765552    1814.8552  0.062008172  0.061538483            4 
 2440000   0.86235929   -3.7574211    1825.5293  0.062347313  0.061527308            4 
 2441000   0.84974692    -3.779295    1815.2029  0.061969239  0.061516023            3 
 2442000   0.83099127   -3.7573625    1822.0893  0.062178858  0.061504907            6 
 2443000   0.85459647   -3.7700676    1819.7664  0.062074172  0.061493818            3 
 2444000   0.86534717   -3.7633748     1813.341  0.061829684  0.061482756            4 
 2445000   0.89221566   -3.7357869    1813.9773  0.061826083  0.061471566            3 
 2446000   0.86494358   -3.7702502    1823.9825  0.062141676  0.061460462            6 
 2447000   0.85523287   -3.7567735    1822.1648  0.062054379  0.061449254            3 
 2448000   0.86121417   -3.8126399    1820.2037  0.061962273  0.061438079            5 
 2449000     0.855783   -3.7817608     1819.053  0.061897815  0.061426811            3 
 2450000    0.8697227   -3.7773438    1821.5619  0.061957888  0.061415579            4 
 2451000   0.86652556   -3.7740514    1821.0078  0.061913771  0.061404276            4 
 2452000   0.85864909   -3.7661974    1822.6997  0.061946019  0.061393038            2 
 2453000   0.86494735   -3.7377775     1822.986  0.061930493  0.061381859            3 
 2454000   0.84184099   -3.7796958    1827.8831  0.062071555  0.061370772            6 
 2455000   0.86464634   -3.7688217    1824.1495  0.061919534  0.061359731            3 
 2456000   0.86574296   -3.7819819     1824.593   0.06190937  0.061348515           12 
 2457000   0.86387067   -3.7727536    1828.1531   0.06200492  0.061337348            6 
 2458000   0.84467539   -3.7925729    1816.9443  0.061599685  0.061326065            3 
 2459000    0.8464756   -3.7776567     1820.368   0.06169066  0.061314864            2 
 2460000    0.8624344   -3.7864094    1827.7842  0.061916809   0.06130377            6 
 2461000   0.87390437   -3.7689485     1828.783  0.061925472  0.061292386            5 
 2462000   0.87042843   -3.7464038    1829.5566  0.061926502  0.061281297            7 
 2463000   0.85886301   -3.7811178    1828.2864  0.061858384  0.061270185            3 
 2464000   0.86952533   -3.8006165    1829.2308  0.061865218   0.06125903            1 
 2465000   0.85379957   -3.7653149    1827.4937  0.061781397  0.061247995            3 
 2466000   0.85528917   -3.7804867    1831.7342  0.061899641  0.061237083            4 
 2467000   0.87425017   -3.7683806    1827.1525  0.061719785  0.061226049            5 
 2468000    0.8800411   -3.7780812    1832.6228  0.061879484  0.061214721            3 
 2469000   0.85977316   -3.7849064    1836.1619  0.061973872   0.06120386            2 
 2470000   0.85059201   -3.7682663    1836.0532  0.061945116  0.061192789            3 
 2471000   0.85860952   -3.7654309    1832.4588  0.061798826  0.061181793            5 
 2472000   0.86917911   -3.7417251    1838.3122   0.06197115  0.061170653            2 
 2473000   0.85076372   -3.7886398    1833.6353  0.061788491  0.061159582            6 
 2474000   0.86868708   -3.8014326    1832.7396  0.061733347  0.061148416            4 
 2475000   0.82424285   -3.7723402    1832.8749  0.061712961  0.061137232            3 
 2476000   0.85525021   -3.7874076    1833.1392  0.061696932  0.061126151            4 
 2477000    0.8628946   -3.7642494     1839.271  0.061878314  0.061115165            8 
 2478000   0.85852962   -3.7701852    1840.3428  0.061889385  0.061104149            2 
 2479000   0.85448761   -3.7843099      1833.15   0.06162263  0.061092952            4 
 2480000   0.85291962   -3.7853916    1838.8886  0.061790611  0.061081749            3 
 2481000   0.85903786    -3.764147    1837.2339  0.061710126  0.061070937            5 
 2482000   0.84370423   -3.7614052    1834.8951  0.061606739  0.061059932            2 
 2483000   0.84787628   -3.7784081    1838.9594  0.061718331  0.061048935            8 
 2484000    0.8556384   -3.7738981    1834.4037  0.061540649  0.061037854            6 
 2485000   0.88504064   -3.7995512    1836.7697  0.061595228  0.061026847            6 
 2486000   0.84499151   -3.7940626    1835.1137  0.061514941  0.061015811            7 
 2487000   0.84832314   -3.7819837    1843.6747  0.061777064  0.061004779            4 
 2488000   0.86496577   -3.7835441    1841.5764  0.061681953  0.060993957            5 
 2489000   0.85275067   -3.7668191    1841.2509  0.061646273  0.060983012            4 
 2490000   0.84867051    -3.770433    1845.1169    0.0617509  0.060972054            4 
 2491000   0.85020476   -3.7727012    1843.4708  0.061671044  0.060960944            3 
 2492000   0.86593121   -3.7823846    1839.3494  0.061508473  0.060950041            8 
 2493000   0.84737048   -3.7885329    1837.9912    0.0614384  0.060938918            4 
 2494000   0.84175742   -3.7681202    1842.9696  0.061580114  0.060927784            2 
 2495000   0.84455873   -3.7733912    1838.4997  0.061406134  0.060916696            3 
 2496000   0.86564023   -3.7786656    1841.2247  0.061472511  0.060905515            3 
 2497000   0.84084169   -3.7817246    1837.3486  0.061318537  0.060894292            5 
 2498000   0.85442564   -3.7976253    1831.4016  0.061095597  0.060883099            2 
 2499000   0.85752903   -3.7996632    1839.5623  0.061343281  0.060871781            4 
 2500000   0.84255644   -3.7685136    1837.8961  0.061263202  0.060860602            6 
 2501000   0.87108828   -3.7697019    1840.8829  0.061338227  0.060849332            2 
 2502000   0.86281897   -3.7737839    1842.9818  0.061383621  0.060838183            2 
 2503000   0.82642588    -3.792169    1834.0039  0.061060191  0.060827113            3 
 2504000   0.85659616   -3.7726459    1841.1168  0.061272522  0.060815834            4 
 2505000   0.85419022   -3.7906345    1839.2868  0.061187186  0.060804655            2 
 2506000   0.85937986   -3.7842178    1840.1719    0.0611922  0.060793404            6 
 2507000   0.85119852   -3.7883714    1847.6781  0.061417301  0.060781968            3 
 2508000   0.85396211   -3.7742573    1839.9531  0.061136134  0.060770563            5 
 2509000     0.863237   -3.7935611    1844.4999  0.061262783  0.060759164            5 
 2510000   0.85519528   -3.7849712    1845.4197  0.061268915  0.060747585            3 
 2511000   0.84918303   -3.8002675    1844.2902  0.061207031  0.060736374            3 
 2512000   0.83280765    -3.798065    1843.6149  0.061160262  0.060725074            2 
 2513000   0.88145253   -3.7641811    1852.2267  0.061421499  0.060713824            5 
 2514000   0.87257137   -3.7632265    1847.6468  0.061245255  0.060702477            2 
 2515000   0.84940558   -3.7962893    1850.1364  0.061303392  0.060691213            4 
 2516000   0.85860768   -3.7884333    1852.0958  0.061343927  0.060679805            3 
 2517000    0.8501814   -3.7903568    1848.6246  0.061204629  0.060668345            3 
 2518000   0.84190172   -3.7931401    1846.4049   0.06110686  0.060656806            5 
 2519000    0.8719307   -3.8020721    1846.7021  0.061092434  0.060645405            6 
 2520000   0.86695973   -3.7642767    1851.5261  0.061227714  0.060633973            4 
 2521000   0.85468673   -3.7859678    1846.1289  0.061025019  0.060622691            3 
 2522000   0.86454521   -3.7894522    1845.3825  0.060976161  0.060611363            4 
 2523000   0.84208669    -3.799028    1849.5197  0.061088641  0.060599983            5 
 2524000   0.86444182   -3.7997591    1846.0738  0.060950667  0.060588739            2 
 2525000   0.84323735   -3.7973082    1854.7212  0.061211922  0.060577318            5 
 2526000   0.86343527   -3.8110669    1851.3557  0.061076659  0.060566087            4 
 2527000   0.85053799   -3.8146541    1845.3775  0.060855346  0.060554807            4 
 2528000   0.86409769   -3.7890179    1849.9707  0.060982683   0.06054349            4 
 2529000   0.83368522   -3.8255955    1845.4929  0.060811024  0.060532162            4 
 2530000    0.8628675   -3.7877979    1854.4746  0.061082827  0.060520951            4 
 2531000   0.85010795   -3.7942936    1850.9683  0.060943248  0.060509685            5 
 2532000   0.82756066   -3.7853281    1851.2768  0.060929331  0.060498141            3 
 2533000   0.83968676   -3.7717964    1856.3514  0.061072227  0.060486871            2 
 2534000   0.82487232   -3.8175226    1846.2189  0.060714907  0.060475343            5 
 2535000   0.84396146   -3.7855415    1852.3118  0.060891248  0.060463852           10 
 2536000   0.83391403   -3.7968354     1850.887   0.06082042  0.060452511            3 
 2537000   0.85205088   -3.7717226    1851.4043  0.060813437   0.06044128            4 
 2538000   0.85986355   -3.7833001    1852.9652  0.060840726  0.060430026            2 
 2539000   0.85631741   -3.7824102    1854.0691  0.060852998   0.06041869            2 
 2540000   0.84210786   -3.7854632     1857.217  0.060932317  0.060407535            3 
 2541000   0.84127944   -3.8072702    1855.1239  0.060839694  0.060396156            3 
 2542000    0.8465431   -3.7996336    1855.9926  0.060844237  0.060384697            5 
 2543000   0.84710493   -3.7906036     1857.106  0.060856797  0.060373421            2 
 2544000   0.83702759   -3.8018507    1860.4006  0.060940795  0.060362164            5 
 2545000    0.8629547   -3.7956123    1858.7166   0.06086171  0.060350762            8 
 2546000     0.848875   -3.8147455    1849.5706  0.060538447  0.060339231            1 
 2547000   0.85494803   -3.7848556    1861.3964  0.060901597  0.060327768            4 
 2548000   0.85320901   -3.7708484    1861.2681  0.060873499  0.060316537            4 
 2549000   0.84739367   -3.8011441    1856.5554  0.060695547  0.060305096            2 
 2550000   0.84085543   -3.8307569    1860.8907  0.060813421  0.060293906            4 
 2551000   0.81305907   -3.7854575    1858.1501  0.060700057  0.060282574            4 
 2552000   0.83983583   -3.7901172    1856.0888  0.060608959  0.060271185            7 
 2553000   0.84117432   -3.7933649    1862.9076  0.060807796  0.060259834            2 
 2554000   0.84380751   -3.8261849    1861.5517  0.060739746  0.060248508            6 
 2555000   0.83769658   -3.8362496     1856.143  0.060539564  0.060237217            5 
 2556000   0.84951332   -3.7827916    1864.6301  0.060792583  0.060225839            2 
 2557000   0.83524812   -3.8201975    1866.7913  0.060839243  0.060214424            3 
 2558000   0.84745951    -3.816528    1862.0165  0.060659906  0.060203233            2 
 2559000   0.82347103   -3.8118062     1868.256  0.060839392  0.060192044            5 
 2560000   0.83380088   -3.8247545    1856.9078  0.060446217  0.060180823            3 
 2561000   0.81905141   -3.7829552    1870.7515   0.06087308  0.060169677            4 
 2562000    0.8533226   -3.7972402    1866.3251  0.060705345  0.060158601            3 
 2563000   0.83652405   -3.8047522    1866.8821  0.060699768  0.060147564            6 
 2564000   0.83779009   -3.7941639    1867.6745  0.060701849  0.060136554            3 
 2565000   0.83706624   -3.8086654    1869.6032  0.060740844  0.060125466            4 
 2566000   0.83281866    -3.795854    1862.1152  0.060473994  0.060114423            6 
 2567000    0.8288493   -3.8055776    1866.8834  0.060605227  0.060103158            5 
 2568000   0.82797792   -3.7932204    1874.0086  0.060812844  0.060091929            3 
 2569000   0.83252806   -3.8106283    1872.7597   0.06074866  0.060080842            1 
 2570000   0.84090931   -3.7828293    1867.9333  0.060568524  0.060069727            5 
 2571000   0.83493715   -3.7935794     1871.305  0.060654252  0.060058631            3 
 2572000   0.84860325   -3.7918629    1868.6886  0.060545898  0.060047469            4 
 2573000   0.84679608   -3.7979101    1870.5242  0.060581819  0.060036181            9 
 2574000   0.83949606   -3.8062684    1875.4601  0.060718081   0.06002488            7 
 2575000   0.84904293   -3.8043334    1862.8504  0.060286421  0.060013577            8 
 2576000   0.84924667   -3.8062386    1863.0764   0.06027033  0.060002173            7 
 2577000   0.83253392   -3.7897983    1876.5698  0.060683282  0.059990855            4 
 2578000   0.81698589    -3.819658     1869.715  0.060438163  0.059979556            7 
 2579000   0.82454272   -3.8270688    1865.5939  0.060281565  0.059968198            5 
 2580000   0.81833229    -3.794608    1874.0072  0.060529947  0.059956864            6 
 2581000   0.83661098   -3.7912858    1874.0698  0.060508518  0.059945611            3 
 2582000   0.83729476   -3.8107255    1866.3658  0.060236438  0.059934316            6 
 2583000   0.84618461   -3.8316219    1875.2746  0.060500534  0.059923009            8 
 2584000   0.82860162   -3.8137159    1873.9074  0.060433029  0.059911655            3 
 2585000   0.83556822   -3.8284903    1873.0386  0.060381643   0.05990045            4 
 2586000   0.81639416   -3.7819109     1877.459   0.06050074  0.059889107            4 
 2587000   0.84825799   -3.7999022    1877.8177  0.060488909  0.059877956            2 
 2588000   0.84373775   -3.8246339    1872.3949  0.060290923  0.059866746            3 
 2589000   0.82403102   -3.8134823     1869.441  0.060172557   0.05985535            3 
 2590000   0.82701623   -3.8047214    1869.1188  0.060138957     0.059844            3 
 2591000    0.8343544   -3.7815691    1874.7914  0.060298193  0.059832648            4 
 2592000    0.8296186   -3.8122611    1878.5605  0.060396107  0.059821336            4 
 2593000   0.83777796   -3.8314924    1878.9577   0.06038558  0.059809942            6 
 2594000   0.85166695    -3.798285    1874.3254  0.060213486   0.05979866            5 
 2595000   0.83517143   -3.8083449    1876.1972   0.06025039  0.059787225            2 
 2596000   0.82987236   -3.7920506    1884.6425  0.060498284  0.059776076            2 
 2597000   0.83079978   -3.7762672    1883.6491  0.060443111  0.059764856            3 
 2598000   0.83786616   -3.8142648    1878.1622  0.060243848   0.05975355            3 
 2599000   0.84171488   -3.8068765    1875.3365  0.060130066   0.05974219            2 
 2600000   0.83933291   -3.8042213    1882.1896   0.06032659  0.059730773            4 
 2601000   0.83990336   -3.8028633    1880.9892  0.060264937  0.059719316           11 
 2602000   0.84201448   -3.8235073    1873.5018   0.06000198  0.059707959            3 
 2603000   0.83782652   -3.7809698    1878.4455  0.060137199  0.059696551            3 
 2604000   0.81395011   -3.8367656    1869.5182  0.059828411  0.059685186            5 
 2605000   0.83567229   -3.8119619    1885.1819  0.060306523   0.05967371            5 
 2606000   0.82977371   -3.8025408    1878.0681    0.0600559   0.05966234            5 
 2607000   0.85659386   -3.8185323    1874.3379  0.059913626  0.059650855            9 
 2608000   0.82749661   -3.8174463    1878.9034  0.060036535  0.059639306            7 
 2609000   0.83155798   -3.8407139    1873.2958  0.059834414  0.059627802            3 
 2610000   0.83554924   -3.7918094    1881.2287  0.060064772    0.0596162            7 
 2611000   0.83462368   -3.8250298    1878.9626  0.059969444  0.059604682            2 
 2612000   0.82268456   -3.8052935    1875.2522  0.059828109  0.059593231            3 
 2613000   0.82964351   -3.8080871    1882.4842  0.060035854  0.059581681            5 
 2614000   0.82155425   -3.7954924    1886.4405   0.06013901   0.05957008            5 
 2615000   0.83447549   -3.8132125     1875.913  0.059780528  0.059558253            8 
 2616000   0.83871884   -3.8176437    1876.1178    0.0597642  0.059546682            6 
 2617000   0.84779644   -3.7949821    1879.7653  0.059857511  0.059535216            3 
 2618000   0.85601639   -3.7941509    1883.5103  0.059953855  0.059523607            4 
 2619000   0.82225252   -3.7926669    1885.0148  0.059978834  0.059512005            4 
 2620000   0.83812193    -3.774432    1883.5933  0.059910728  0.059500407            2 
 2621000   0.81599395   -3.8158356    1883.3364  0.059879701  0.059488824            4 
 2622000    0.8389835   -3.8033791     1881.948  0.059812737  0.059477428            4 
 2623000   0.84658868   -3.8236511    1879.3209  0.059706473  0.059465926            5 
 2624000   0.84051592   -3.8227859    1885.0504  0.059865676  0.059454386            2 
 2625000   0.83702143   -3.8308381    1881.9586  0.059744717  0.059442814            5 
 2626000   0.84361393   -3.8099405    1880.7581  0.059683868  0.059431092            6 
 2627000   0.80748009   -3.8037783    1888.9264  0.059920264  0.059419393            8 
 2628000   0.81372095    -3.811569    1881.0775  0.059648575  0.059407736            5 
 2629000   0.83398228    -3.828788    1884.2833  0.059727505  0.059396285            5 
 2630000   0.83279021   -3.8074809    1890.6487  0.059906485  0.059384799            2 
 2631000   0.84469361   -3.8198292    1887.7779  0.059792788  0.059373249            6 
 2632000   0.81770269   -3.8068989    1889.7996   0.05983408  0.059361761            5 
 2633000   0.83399843   -3.8095268    1890.9832  0.059848816  0.059350465            2 
 2634000   0.83391902    -3.827223    1888.3123  0.059741595  0.059338891            8 
 2635000   0.83176794   -3.8419266    1890.1222   0.05977616  0.059327414            3 
 2636000   0.83184228   -3.8198299    1894.4551  0.059890463  0.059316014            4 
 2637000   0.83334316   -3.8112209    1890.2778  0.059735743  0.059304419            7 
 2638000   0.83251046   -3.8295393    1885.5596  0.059564052  0.059292918            7 
 2639000   0.82269256   -3.8195182    1893.8576  0.059803513  0.059281512            2 
 2640000   0.84179129    -3.817739    1897.5852  0.059898523  0.059270186            3 
 2641000   0.82819727   -3.8193209    1893.6924  0.059753011  0.059258884            6 
 2642000   0.83320585   -3.8468616    1887.3475  0.059530264  0.059247428            4 
 2643000   0.83323422    -3.821322    1893.9586  0.059716188  0.059235915            2 
 2644000   0.82522586   -3.8396657    1887.0228  0.059474999  0.059224459            4 
 2645000   0.82782809   -3.8178839    1897.1884  0.059772792  0.059212988            7 
 2646000   0.80789958   -3.8401515     1886.655  0.059418463  0.059201655            4 
 2647000   0.81815921    -3.800885    1886.8145  0.059401035  0.059190066            2 
 2648000   0.83731115   -3.8121204    1902.7508  0.059880122  0.059178698            4 
 2649000   0.82464371   -3.8414439    1891.7562  0.059511646  0.059167381            4 
 2650000   0.83038598   -3.7979015    1898.9177  0.059714394  0.059156022            2 
 2651000   0.82942692   -3.8184222    1893.5086  0.059521836  0.059144749            2 
 2652000   0.82149401   -3.8296993     1896.569  0.059595556  0.059133365            4 
 2653000    0.8389005   -3.8149733    1898.3199   0.05962809  0.059121906            2 
 2654000   0.84538233   -3.8275052    1891.9601  0.059405931  0.059110655            5 
 2655000   0.85032412   -3.8226179    1895.1218  0.059482793  0.059099364            7 
 2656000   0.82143418   -3.8544718    1893.5383  0.059410714  0.059087937            4 
 2657000   0.81840513    -3.822533    1901.6106  0.059641531  0.059076543            8 
 2658000   0.81074525   -3.8175223    1899.6322  0.059557066  0.059065237            3 
 2659000   0.81598442   -3.8252338    1900.8965  0.059574291  0.059053937            7 
 2660000   0.82803378   -3.7928429    1909.0162  0.059806273   0.05904273            2 
 2661000   0.82378624   -3.8138178    1897.8831  0.059435146   0.05903152            2 
 2662000   0.81147944   -3.8295618    1900.3786  0.059490939  0.059020114            5 
 2663000   0.83098609   -3.8480625     1903.309  0.059560302  0.059008737            3 
 2664000   0.83655061   -3.8485981    1899.7379  0.059426235  0.058997396           10 
 2665000   0.82383099   -3.7901563    1907.3172  0.059640938  0.058985992            3 
 2666000   0.82959937   -3.8206473    1903.5628  0.059501212  0.058974833            4 
 2667000   0.82209384   -3.8253865    1902.0427  0.059431407  0.058963695            5 
 2668000   0.82447538   -3.8407945    1898.0419  0.059284169  0.058952321           10 
 2669000   0.81625712   -3.8231394    1906.4318   0.05952391  0.058941052            5 
 2670000   0.82036405   -3.8209711     1902.188  0.059369165  0.058929758            4 
 2671000    0.8301657   -3.8270526    1906.2483  0.059473614  0.058918567            3 
 2672000   0.81194543   -3.8405155    1910.7009  0.059590222  0.058907353            2 
 2673000   0.83659649   -3.8187844    1911.4827  0.059592303  0.058896233            2 
 2674000   0.82962251   -3.8441461    1907.9715  0.059460594  0.058885086            4 
 2675000    0.8185535   -3.8500272    1904.8607  0.059341455  0.058873832            5 
 2676000   0.82999447   -3.8249477    1904.3922  0.059304689  0.058862392            6 
 2677000   0.83438672   -3.8232828    1900.7619  0.059169527  0.058850924            6 
 2678000   0.80651473   -3.8313169    1899.2377  0.059100004  0.058839662            4 
 2679000   0.83093089   -3.8536872    1902.7868   0.05918834  0.058828338            3 
 2680000   0.80936061   -3.8135626    1900.9808  0.059110098  0.058817034            4 
 2681000   0.81532264   -3.8314887    1907.5233  0.059291411  0.058805743            4 
 2682000   0.83009622   -3.8226968    1913.4027  0.059451986  0.058794445            4 
 2683000   0.80859529   -3.8518291    1903.8179  0.059132125  0.058783286            4 
 2684000   0.82014912   -3.8224169    1903.2495  0.059092445  0.058771853            6 
 2685000   0.81185357   -3.8196278    1909.3545  0.059259917  0.058760551            4 
 2686000    0.8376295   -3.8097277    1909.5495  0.059243905  0.058749348            5 
 2687000   0.82058607   -3.8314644    1911.7831  0.059291127  0.058738151            8 
 2688000   0.81841207   -3.8579075    1908.1741  0.059157182  0.058726924            3 
 2689000   0.80715796   -3.8318555    1905.1452  0.059041317  0.058715599            4 
 2690000   0.81794935   -3.8127493    1912.4194  0.059244714  0.058704354            2 
 2691000   0.82660649   -3.8581908    1907.1012  0.059058007   0.05869309            3 
 2692000   0.80785695   -3.8520915     1908.956  0.059093487  0.058681766            4 
 2693000   0.82506579   -3.8469766    1912.7802   0.05918988   0.05867046            6 
 2694000    0.8134109   -3.8495636    1913.2861  0.059183559  0.058659178            4 
 2695000   0.80142003   -3.8519834    1909.2235  0.059035976  0.058647969            2 
 2696000   0.83235593   -3.8430016    1910.0159  0.059038572  0.058636535            8 
 2697000   0.80376111   -3.8500737    1914.6015  0.059158369   0.05862517            6 
 2698000   0.82332725   -3.8512149    1909.6469  0.058983412   0.05861376            4 
 2699000   0.82397279   -3.8451427    1909.1983  0.058947705  0.058602417            4 
 2700000   0.81847645   -3.8223507    1915.5239  0.059121108  0.058591114            2 
 2701000   0.83650433   -3.8176456    1913.5339  0.059037821  0.058579679            7 
 2702000   0.83387112   -3.8637363     1911.939  0.058966784   0.05856826            5 
 2703000   0.81795533   -3.8357304    1906.7135  0.058783866  0.058556867            4 
 2704000   0.79440374   -3.8378159    1911.2886  0.058903124  0.058545453            4 
 2705000   0.82967208   -3.8211532    1910.3178  0.058851442  0.058534043            5 
 2706000   0.81781126   -3.8080348    1910.2536  0.058827716  0.058522562            2 
 2707000   0.81464083   -3.8420072    1911.1324  0.058833037  0.058511118            8 
 2708000   0.81382206   -3.8283391    1921.2809  0.059123613  0.058499616            3 
 2709000   0.82579352   -3.8455262     1919.133  0.059035716  0.058488124            6 
 2710000   0.82307781   -3.8536288    1914.4263  0.058869198  0.058476608            3 
 2711000   0.81583335   -3.8321616    1923.6606  0.059131336  0.058465217            2 
 2712000   0.81559238   -3.8342802    1916.8669  0.058900777  0.058453956            4 
 2713000   0.82252959   -3.8196382    1916.7259  0.058874736  0.058442578            7 
 2714000   0.81716256   -3.8501831    1918.2962  0.058901259  0.058431098            6 
 2715000   0.81689012   -3.8647194    1909.6218  0.058613316  0.058419629            5 
 2716000   0.82341367   -3.8335814    1917.2775   0.05882663  0.058408333            3 
 2717000   0.80991607   -3.8648312     1918.067  0.058829194  0.058397008            4 
 2718000    0.8101332   -3.8368277     1916.469  0.058758553  0.058385762            7 
 2719000   0.81529922   -3.8474339    1915.9736  0.058721761  0.058374403            4 
 2720000   0.81000228   -3.8471763    1920.5233  0.058839561  0.058363141            5 
 2721000   0.81554104   -3.8522414    1913.8565   0.05861376  0.058351776            3 
 2722000    0.8128493   -3.8178928    1923.9809  0.058902182  0.058340423            4 
 2723000   0.81782432   -3.8188852     1923.514  0.058866263  0.058329082            6 
 2724000   0.82036902   -3.8561556    1923.7147  0.058850791  0.058317802            2 
 2725000   0.82660594   -3.8503077     1922.446  0.058790397  0.058306407            6 
 2726000   0.82211897   -3.8499685    1919.2785  0.058672001  0.058294982            3 
 2727000   0.81070729   -3.8122849    1919.5307  0.058658194  0.058283527            4 
 2728000   0.81909307   -3.8365383    1922.0023  0.058712191  0.058272129            3 
 2729000   0.80594501   -3.8561413    1924.0272  0.058752509  0.058260718            4 
 2730000    0.8123876   -3.8439143    1918.1784  0.058552453  0.058249175            4 
 2731000   0.79994977   -3.8349114    1921.4519  0.058630902  0.058237941            5 
 2732000    0.8033102   -3.8536909    1918.5438  0.058520736  0.058226512            3 
 2733000    0.8318708   -3.8266873     1928.253  0.058795372   0.05821523            9 
 2734000   0.81368805    -3.861613    1924.6403  0.058663751  0.058204083            4 
 2735000   0.82334125   -3.8418474     1926.372  0.058695064  0.058192979            7 
 2736000   0.82428618   -3.8439913    1924.1097  0.058604705  0.058181626            6 
 2737000   0.81724935   -3.8129482    1924.6796  0.058600645  0.058170312            2 
 2738000   0.81025788   -3.8623958    1924.9978  0.058588927  0.058159017            3 
 2739000   0.80179427   -3.8744037    1923.0069  0.058506965  0.058147845           14 
 2740000   0.81643123   -3.8664835    1931.4351  0.058741942  0.058136506            6 
 2741000   0.78986143   -3.8569614     1925.903  0.058552323  0.058125262            6 
 2742000   0.81098862     -3.83978    1935.0478  0.058808893  0.058114209            4 
 2743000    0.7874403   -3.8536611    1928.4509  0.058587036   0.05810292            3 
 2744000    0.8094365   -3.8555099    1922.7147  0.058391483  0.058091587            3 
 2745000   0.82496459   -3.8552507    1930.8138  0.058616083  0.058080268            5 
 2746000   0.79490227   -3.8557983    1934.8104  0.058716024  0.058068971            4 
 2747000   0.80814039   -3.8364864    1937.0436  0.058762397  0.058057871            4 
 2748000   0.80638253   -3.8435823    1930.5452  0.058543947  0.058046723            4 
 2749000   0.80305094   -3.8632071    1926.0814  0.058387335   0.05803554            7 
 2750000   0.80657693   -3.8578208    1933.1172   0.05857931  0.058024332            3 
 2751000   0.78640598   -3.8516417    1934.6624  0.058604824   0.05801312            6 
 2752000   0.78954444   -3.8442585    1929.5314  0.058428154  0.058001806            3 
 2753000   0.81394187   -3.8586841    1932.5699  0.058498906   0.05799061            5 
 2754000   0.79687491   -3.8612533    1925.8563   0.05827452  0.057979332            4 
 2755000   0.81861903   -3.8656772    1928.8661  0.058344407  0.057968195            6 
 2756000   0.80201507   -3.8243983    1929.7773  0.058350789  0.057956854            3 
 2757000   0.81456203   -3.8365803    1931.6853  0.058387296  0.057945546            6 
 2758000   0.82058995   -3.8426153    1935.3128   0.05847573  0.057934353            6 
 2759000   0.79276558   -3.8303531    1928.2043  0.058239831  0.057923094            4 
 2760000    0.8066137   -3.8594372    1932.1752  0.058338622  0.057911754            7 
 2761000   0.83670991   -3.8706607    1930.8806  0.058278421  0.057900399            4 
 2762000   0.80429203    -3.855661    1934.3834  0.058363003  0.057889099            3 
 2763000   0.81121301   -3.8705935    1940.0112  0.058511619  0.057877849            4 
 2764000   0.80784485   -3.8566869    1931.6065   0.05823705  0.057866495            2 
 2765000    0.8074907   -3.8325732    1935.1738  0.058323501  0.057855217            4 
 2766000   0.79774685   -3.8550979    1936.2242  0.058334062  0.057844072            2 
 2767000   0.80806778   -3.8925423    1931.1285  0.058159515  0.057832756            5 
 2768000   0.80481891   -3.8592507     1939.566  0.058392522  0.057821575            3 
 2769000   0.78231176   -3.8483045    1934.4489  0.058217434  0.057810275            3 
 2770000   0.81843615   -3.8497823    1937.6675  0.058293245  0.057798947            4 
 2771000   0.78827598   -3.8408832     1941.073  0.058374626  0.057787796            4 
 2772000   0.79238392   -3.8483162    1942.6104  0.058399785  0.057776614            3 
 2773000   0.79670713   -3.8663067    1941.2507  0.058337861  0.057765427            7 
 2774000   0.81157834   -3.8554252    1938.7692  0.058242285  0.057754259            7 
 2775000   0.80850495   -3.8635757    1936.5003  0.058153161  0.057742966            5 
 2776000   0.80996283    -3.853726    1940.2862  0.058245864  0.057731879            5 
 2777000   0.80368119   -3.8361578      1932.74   0.05799844  0.057720626            7 
 2778000   0.81106218   -3.8668815    1939.0794   0.05816773   0.05770931            4 
 2779000   0.79628312   -3.8745248    1942.3765  0.058245668  0.057697955            7 
 2780000   0.79353645   -3.8708084    1937.6891  0.058084207  0.057686689            3 
 2781000   0.80841508   -3.8856623    1937.9433  0.058070936  0.057675213            3 
 2782000   0.79879207   -3.8323321    1942.9435  0.058199842  0.057663771           12 
 2783000    0.7989128   -3.8726308    1940.6309  0.058109682  0.057652517            4 
 2784000   0.78372591   -3.8368469    1937.2267   0.05798691  0.057641197            4 
 2785000   0.81276681   -3.8681007    1937.4489  0.057972737  0.057629901            8 
 2786000   0.80949108   -3.8366522    1951.3585  0.058367986  0.057618592            4 
 2787000   0.81578268   -3.8640248    1935.6469  0.057877254  0.057607377            2 
 2788000   0.80969737   -3.8675124    1937.4223  0.057909561  0.057595997            5 
 2789000   0.79329985   -3.8535107    1935.7142   0.05783776  0.057584812            7 
 2790000   0.81313982   -3.8604486    1939.8049  0.057939215  0.057573571            4 
 2791000   0.82055428   -3.8430611    1942.9716  0.058013006  0.057562347            3 
 2792000   0.79706397    -3.868181    1947.3185  0.058121969  0.057551018            6 
 2793000   0.80170735   -3.8560476    1944.4868  0.058016673  0.057539791            4 
 2794000   0.82729212    -3.834753    1943.2206  0.057958142  0.057528663            6 
 2795000   0.81440243   -3.8629826    1946.7299  0.058042035  0.057517455            5 
 2796000   0.80955461   -3.8520996    1945.6806  0.057990004  0.057506255            4 
 2797000   0.82205099   -3.8839565    1943.6443  0.057908602  0.057494863            9 
 2798000   0.80873573   -3.8785386    1941.7428  0.057831272  0.057483591            6 
 2799000   0.80497357    -3.862077    1945.6518  0.057926991   0.05747233            2 
 2800000    0.8055868   -3.8610594    1949.1001  0.058008933  0.057461013            5 
 2801000   0.81717912   -3.8440423    1943.5856  0.057824157  0.057449711            4 
 2802000   0.79402757   -3.8662991    1948.0013  0.057934848  0.057438514            4 
 2803000   0.80124483   -3.8631681    1943.4926  0.057780134  0.057427192            2 
 2804000   0.81352772   -3.8803896    1944.5206   0.05779008  0.057415869            4 
 2805000   0.80134763   -3.8618373     1951.892  0.057988474  0.057404618            4 
 2806000   0.80327387   -3.8488706     1949.023  0.057882602  0.057393404            3 
 2807000   0.81064876   -3.8902786    1941.3623  0.057634554  0.057382182            9 
 2808000   0.78816043   -3.8543205    1948.2907  0.057819642  0.057370788            6 
 2809000   0.79214396    -3.854845    1949.5375  0.057836048  0.057359358            6 
 2810000    0.7811544   -3.8558162    1948.8057  0.057793763   0.05734798            7 
 2811000   0.80554945   -3.8679078    1952.8507  0.057893119  0.057336587            4 
 2812000   0.81564971   -3.8497987     1945.377   0.05765105  0.057325108            6 
 2813000   0.79944765     -3.86805    1948.1059  0.057711397  0.057313609            4 
 2814000   0.78999577    -3.853837    1946.6356  0.057647345  0.057302196            5 
 2815000   0.79290781   -3.8711306    1951.6214  0.057774465  0.057290784            3 
 2816000   0.81196487   -3.8715698    1951.8609  0.057761034  0.057279482            3 
 2817000   0.80694164   -3.8582729    1953.2504  0.057781636  0.057268196            4 
 2818000   0.77855281   -3.8487832    1948.2084  0.057612031  0.057256887            6 
 2819000   0.79071052   -3.8636042    1947.9855  0.057585003  0.057245628            4 
 2820000   0.79282014    -3.883643    1951.7172   0.05767486  0.057234293            3 
 2821000   0.79674249   -3.8615161    1949.0701  0.057576216  0.057223003            3 
 2822000   0.78956869   -3.8381343    1949.8266  0.057578155  0.057211796            4 
 2823000   0.81530296   -3.8629329    1950.4026  0.057574762  0.057200427            2 
 2824000   0.79520229   -3.8632797    1955.7235  0.057711389  0.057189201            7 
 2825000   0.78771863   -3.8637845    1948.3498  0.057473447  0.057177931            4 
 2826000   0.78261334    -3.875507    1955.2947  0.057657899  0.057166695            3 
 2827000   0.78261349   -3.8853117    1952.0169  0.057540882  0.057155334            3 
 2828000   0.80527093   -3.8860605    1958.3506  0.057707171  0.057144073            4 
 2829000   0.82172866   -3.8759593      1956.78  0.057640509   0.05713283            6 
 2830000   0.81815788   -3.8591213    1959.7952  0.057708927  0.057121573            4 
 2831000   0.81726157   -3.8746571    1956.4087  0.057588859  0.057110282            3 
 2832000   0.79225903   -3.8686354     1955.851  0.057552112  0.057099049            3 
 2833000   0.79441305   -3.8794693    1951.5735  0.057405975  0.057087851            4 
 2834000   0.80389272   -3.8735418    1959.2672  0.057611949  0.057076715            3 
 2835000   0.80057842   -3.8980621    1961.7443   0.05766444  0.057065487            7 
 2836000   0.80351957   -3.8802564    1960.5101  0.057607842  0.057054248            5 
 2837000   0.80418392     -3.87611    1961.2183  0.057608338  0.057042978            5 
 2838000   0.78926197   -3.8781671    1963.4679  0.057654097  0.057031635            3 
 2839000   0.80554248   -3.8609176    1969.3459  0.057806325  0.057020421            6 
 2840000   0.79153547   -3.9053998    1952.6747  0.057296794  0.057009308            4 
 2841000   0.80833398   -3.8832373    1956.9818  0.057402963   0.05699807            2 
 2842000   0.79864215   -3.8815535    1966.8869  0.057673203  0.056986766            3 
 2843000   0.79169719   -3.8581476    1960.0663  0.057452992  0.056975618            3 
 2844000   0.81042657   -3.8784499    1957.4688   0.05735668  0.056964434            5 
 2845000    0.8105597   -3.8813348    1959.7153  0.057402323  0.056953169            4 
 2846000   0.79334611   -3.8863851    1961.9574  0.057447805  0.056941849            4 
 2847000   0.79800594   -3.8942393    1959.1764  0.057346224  0.056930377            5 
 2848000   0.79694545   -3.9024045     1954.423  0.057187003  0.056919028           11 
 2849000   0.78918647   -3.8680349     1964.604  0.057464724  0.056907686            5 
 2850000   0.79892301   -3.8821093     1960.593  0.057327279   0.05689642            5 
 2851000    0.7896663   -3.8458295    1957.2654  0.057209909  0.056885062            4 
 2852000   0.80669317   -3.9191551    1959.4606  0.057253993  0.056873725            6 
 2853000   0.79539575   -3.8769662    1967.2761  0.057462208  0.056862389            6 
 2854000   0.80102861   -3.8784944    1963.8108  0.057340889  0.056851044            7 
 2855000   0.80564496   -3.8888896    1964.4868  0.057340536  0.056839896            3 
 2856000   0.80475636   -3.8915704    1956.7287  0.057094093  0.056828375            7 
 2857000   0.78671958   -3.8632175    1968.1987  0.057408666  0.056817115            3 
 2858000   0.79970497   -3.8799119    1964.4071  0.057278023  0.056805951            4 
 2859000    0.8108086   -3.8805843    1967.7535  0.057355529  0.056794894            4 
 2860000   0.78189157   -3.8714174    1972.3335  0.057468924  0.056783685            6 
 2861000   0.78804922   -3.8532069    1970.1331  0.057384747  0.056772577            6 
 2862000   0.78399519   -3.8547321    1972.2851  0.057427354  0.056761391            3 
 2863000   0.78672237   -3.8661235     1971.224  0.057376412  0.056750225            9 
 2864000    0.7980784   -3.8885762    1966.7274   0.05722554  0.056738965            5 
 2865000   0.78589707   -3.8664654    1967.9843  0.057242127  0.056727909            8 
 2866000   0.80553945   -3.8979989    1967.9883  0.057222271  0.056716851            3 
 2867000   0.77731516   -3.8844838    1971.6743   0.05730945   0.05670574            7 
 2868000   0.79385273   -3.8887192    1975.4433  0.057398979  0.056694811            5 
 2869000   0.78437718   -3.8928856    1966.6739  0.057124257  0.056683734            6 
 2870000   0.80391391   -3.9021881    1967.1321  0.057117656  0.056672593            7 
 2871000   0.80574293   -3.8936432    1967.6498  0.057112789  0.056661514            6 
 2872000    0.7971627   -3.8689072    1974.3398  0.057287018  0.056650394            6 
 2873000   0.78941352   -3.8921798    1971.5689  0.057186706  0.056639396            2 
 2874000   0.78881324   -3.8872323    1974.1205  0.057240793  0.056628333            9 
 2875000    0.7927998   -3.8807305    1966.9684  0.057013576  0.056617275            2 
 2876000   0.79577317   -3.8890102    1967.9547  0.057022332  0.056606189            8 
 2877000   0.78302324   -3.9164289    1973.7082  0.057169163  0.056595092            3 
 2878000   0.80301431   -3.8942022    1972.9846  0.057128347  0.056584184            5 
 2879000   0.81553723   -3.8680284    1970.0464  0.057023459  0.056573092            2 
 2880000   0.79057958   -3.8667303    1969.6431  0.056991988  0.056562028            6 
 2881000   0.79463062   -3.8544438     1978.134  0.057217807   0.05655097            4 
 2882000   0.80392955   -3.9200011    1976.8576  0.057161045  0.056539807            7 
 2883000   0.78989876   -3.8709465    1976.2931  0.057124902  0.056528693            5 
 2884000   0.79030702   -3.9135838    1973.5445  0.057025674   0.05651761            4 
 2885000   0.79542357   -3.8934606    1972.2009  0.056967098  0.056506541            5 
 2886000   0.80900895   -3.8705634    1975.0337  0.057029156  0.056495542            4 
 2887000   0.80904453   -3.8868455    1976.0486  0.057038697    0.0564845            8 
 2888000   0.79602672   -3.8949004    1978.5064  0.057089865   0.05647341            5 
 2889000   0.77493533   -3.8843395    1972.5334  0.056897814  0.056462405            4 
 2890000    0.7871212   -3.8940326    1981.8464  0.057146667  0.056451311            4 
 2891000   0.81006177   -3.8763603    1978.7206  0.057036798  0.056440168            5 
 2892000   0.79000176   -3.8757346    1975.0307  0.056910751  0.056429243            3 
 2893000   0.79704601   -3.8691582    1976.8832   0.05694444  0.056418134            6 
 2894000   0.80059686    -3.904737    1974.0756  0.056843918  0.056407102            7 
 2895000    0.7838161   -3.9184365    1974.1692  0.056826976   0.05639587            4 
 2896000   0.77836509   -3.8773878    1981.2402  0.057010825  0.056384728            3 
 2897000   0.78912064   -3.8931116    1983.0986  0.057044604  0.056373661           11 
 2898000   0.81553273    -3.871597    1982.1185  0.056996738  0.056362822            4 
 2899000    0.7793762   -3.9117574    1977.3287   0.05683939  0.056351774            4 
 2900000   0.79010372   -3.8857509    1977.1217  0.056813842    0.0563407            8 
 2901000   0.78576533   -3.8770554    1985.2129  0.057026682  0.056329751            2 
 2902000   0.79827081   -3.8853447    1980.1981   0.05686303  0.056318761            4 
 2903000   0.76758341   -3.9060364    1978.7326  0.056801371  0.056307756            5 
 2904000   0.78957056   -3.8999618    1984.3481  0.056942955  0.056296738            3 
 2905000    0.7672224   -3.8899669    1985.4956  0.056956271  0.056285864            6 
 2906000   0.79973845   -3.8833177     1981.864  0.056832531  0.056274948            5 
 2907000   0.79614342   -3.8738383    1987.1986  0.056965905  0.056264108            5 
 2908000   0.77537146   -3.9067755    1980.2421  0.056746964  0.056253212            3 
 2909000   0.79458341   -3.8847571    1983.5036  0.056820888  0.056242257            5 
 2910000   0.77645517   -3.8967416    1985.8101  0.056867414  0.056231287            9 
 2911000   0.77351352   -3.8971905    1988.9801  0.056938627   0.05622039            4 
 2912000   0.78485153   -3.9208244    1984.1511   0.05678088  0.056209415            2 
 2913000   0.77972889   -3.8953419    1987.7408   0.05686408  0.056198529            5 
 2914000   0.77953732   -3.8884594    1976.1841  0.056514074  0.056187462            3 
 2915000   0.77884585    -3.901415    1983.5249  0.056704543  0.056176548            4 
 2916000   0.78562022    -3.898831    1986.9011  0.056781581  0.056165656            5 
 2917000   0.77551566   -3.8983161    1986.6452  0.056754805  0.056154647            3 
 2918000    0.7940564   -3.8930095    1992.4611  0.056901447  0.056143646            4 
 2919000   0.77237331   -3.8893302    1983.1258  0.056615444  0.056132676            6 
 2920000   0.76574355    -3.903571    1986.3706   0.05668866  0.056121684            2 
 2921000   0.80663014   -3.8819454    1984.7068  0.056621786   0.05611069            3 
 2922000   0.76613422   -3.8932473    1985.0681   0.05661271  0.056099814            6 
 2923000   0.80047761   -3.8813617    1987.5596  0.056664375  0.056088897            4 
 2924000   0.78267605   -3.9027775    1985.0566   0.05657366  0.056077928            7 
 2925000   0.78514836   -3.9096117    1984.3349  0.056533757  0.056066868            3 
 2926000    0.7826512   -3.9088956    1979.7659   0.05638431  0.056055881            6 
 2927000   0.78818953   -3.9169212    1985.4286  0.056526266  0.056044877            3 
 2928000   0.79003058   -3.8707039     1993.948   0.05674943  0.056034001            7 
 2929000   0.79290977   -3.9128349    1989.2681  0.056596907   0.05602302            3 
 2930000   0.77317121   -3.8954861    1997.5215  0.056812329  0.056012037            8 
 2931000   0.78418362   -3.8603961    1990.5898  0.056595867  0.056001129            4 
 2932000   0.79316654   -3.8893209    1995.2276  0.056708379  0.055990109            6 
 2933000   0.79748399   -3.8999543    1989.5945  0.056528994  0.055979084            6 
 2934000   0.79353736   -3.9254495    1989.1903  0.056498248  0.055968086            6 
 2935000   0.79847845   -3.8972166    1987.7596  0.056438375  0.055956969            9 
 2936000   0.78443966   -3.9077783    1988.8494  0.056450086  0.055945967            6 
 2937000   0.78129206   -3.9010965    1987.7738  0.056400346  0.055934915            4 
 2938000   0.78555938   -3.8960641    1998.4921  0.056685163  0.055923988            5 
 2939000   0.76965406   -3.8865824    1993.3381  0.056519736  0.055913115            6 
 2940000   0.77906364   -3.9062615    1986.7631  0.056314147   0.05590214            6 
 2941000   0.78334868    -3.899697    1996.9525  0.056583715  0.055891202            5 
 2942000    0.7690605   -3.8919303    1992.5847  0.056440763  0.055880274            8 
 2943000   0.77995973   -3.8980916    1991.1569  0.056381155  0.055869306            4 
 2944000   0.78969364   -3.8798241    1993.5921  0.056430937  0.055858391            4 
 2945000   0.78061023   -3.9211245    1994.5852  0.056439876  0.055847479            3 
 2946000   0.79986535   -3.9083795    1995.2202   0.05643868  0.055836552            5 
 2947000   0.79659807   -3.9126268     1997.799  0.056492449  0.055825632            5 
 2948000   0.79053056   -3.9201833    1997.3061  0.056459355  0.055814765            4 
 2949000   0.77478118   -3.8997012    1991.4738  0.056275398  0.055803797            4 
 2950000   0.77074579   -3.9113421      1987.22  0.056136157  0.055792802            5 
 2951000   0.80074277   -3.8987989     1998.207  0.056427397  0.055781815            3 
 2952000   0.78616161   -3.9130719    1993.3184  0.056270281  0.055770906            9 
 2953000   0.76678829   -3.8947617    2000.1906  0.056445157  0.055760034            6 
 2954000   0.77931296   -3.9011017    2001.1911  0.056454275  0.055749209            7 
 2955000   0.77238465   -3.9008819     2004.984  0.056542131  0.055738353            5 
 2956000   0.79024349   -3.8699563     2000.745  0.056403502  0.055727496            6 
 2957000    0.7889766    -3.911809    1999.2659  0.056342743   0.05571669            3 
 2958000   0.79941616   -3.9202384    2002.5277  0.056415587  0.055705885            3 
 2959000   0.77337983   -3.9086584    2005.8466   0.05648999  0.055695043            6 
 2960000   0.80322462   -3.9085789    2001.1959  0.056339975  0.055684182            7 
 2961000   0.77874412   -3.9068812    1999.8747  0.056283764  0.055673438            4 
 2962000   0.76264266   -3.8838409    2002.0959  0.056327252  0.055662721            3 
 2963000   0.77670805   -3.8948309    2006.4161  0.056429747  0.055651985            6 
 2964000   0.77890574   -3.9022502    1996.8118  0.056140681   0.05564124            5 
 2965000   0.77439584   -3.9337993    1995.9591  0.056097784  0.055630434            3 
 2966000   0.76547396   -3.9163205     2005.442  0.056345302  0.055619635            5 
 2967000   0.76640607    -3.916775    2002.0755  0.056231757    0.0556087            4 
 2968000   0.78898854   -3.9002134    2007.6825  0.056370242  0.055597892            5 
 2969000   0.78658377   -3.9077039    2004.2384  0.056254586  0.055587156            5 
 2970000   0.75625513   -3.8974884    2007.6049  0.056330103  0.055576393            8 
 2971000   0.77216941   -3.9095204     2002.468   0.05616706   0.05556571            8 
 2972000   0.77975357   -3.9055211    2010.3433  0.056368979  0.055554963            3 
 2973000    0.8054767   -3.9207012    2006.3111  0.056236998  0.055544144            6 
 2974000   0.77532854   -3.9287392    2003.8106  0.056148021  0.055533295            5 
 2975000   0.77390633    -3.920984    1997.8358  0.055961788  0.055522502            5 
 2976000   0.74728811   -3.9156844    2007.1104  0.056202688  0.055511689            9 
 2977000   0.75569759   -3.9011326    2007.4013  0.056191952  0.055500887            3 
 2978000   0.77209589   -3.9166498     2009.668  0.056236511  0.055490123            6 
 2979000   0.76911706   -3.9203877    2002.4768   0.05601647  0.055479295            6 
 2980000   0.76716572   -3.8824925    2013.2991  0.056300312  0.055468354            4 
 2981000   0.77604868   -3.9125461     2004.354  0.056031366  0.055457593            3 
 2982000   0.77531511   -3.9381019    2004.8645  0.056026842   0.05544669            3 
 2983000   0.78603619    -3.913591    2000.9892  0.055899798  0.055435757            2 
 2984000   0.78277771   -3.9281722     2003.089  0.055939705   0.05542489            8 
 2985000   0.77808458   -3.9126316    2010.6198  0.056131207  0.055414035            4 
 2986000   0.76517309   -3.9296982     2007.075  0.056013479  0.055403153            4 
 2987000   0.77331562   -3.8978753    2008.4802  0.056033929  0.055392351            3 
 2988000   0.77963938   -3.8817318    2013.7192  0.056161289  0.055381635            2 
 2989000    0.7698448   -3.8962149    2010.9062  0.056064074  0.055370945            6 
 2990000    0.7771655   -3.9210274    2008.3864  0.055975094   0.05536015            3 
 2991000   0.77712176   -3.9348737    2008.8134  0.055968276  0.055349342            6 
 2992000   0.76812893   -3.9112435     2012.158  0.056042724  0.055338571            3 
 2993000   0.79446938    -3.933247    2013.9869  0.056074921  0.055327734            5 
 2994000   0.76935313   -3.9208021    2012.7474  0.056021693  0.055316946            4 
 2995000   0.77222271   -3.9147854    2010.8889  0.055951277  0.055306121            3 
 2996000   0.76697093   -3.8743772    2022.5075   0.05625577  0.055295317            7 
 2997000   0.78327093   -3.9008685    2010.6736  0.055907952  0.055284558            4 
 2998000   0.75847292   -3.9190358    2009.8512  0.055866445  0.055273732            7 
 2999000   0.76285305   -3.9273331    2006.3114  0.055749456  0.055262879            4 
 3000000   0.76465377   -3.9095149    2012.0527  0.055890352  0.055252107            7 
 3001000   0.76529067   -3.9300492    2009.9246  0.055812635  0.055241369            9 
 3002000   0.75487128   -3.9150117    2017.3963   0.05600145  0.055230716            4 
 3003000   0.77869221   -3.9141349    2012.1946  0.055838455  0.055220006            8 
 3004000   0.78058616   -3.9184448    2010.3417  0.055768466   0.05520929            4 
 3005000   0.77814938   -3.9016087    2014.9406  0.055877444  0.055198689            3 
 3006000   0.77192639   -3.9393927    2009.2503  0.055701106  0.055187977            3 
 3007000   0.76764755   -3.9313818    2009.3841  0.055686289  0.055177284            2 
 3008000   0.77264847   -3.9175063    2016.0831  0.055853366  0.055166657            3 
 3009000   0.77242288   -3.9027682    2023.5034  0.056040308  0.055155954            6 
 3010000   0.76418575   -3.9184467    2023.4073  0.056019029  0.055145242            8 
 3011000   0.78654744   -3.9268766    2015.5706  0.055783532   0.05513446            3 
 3012000   0.77607336   -3.9255086    2009.2151  0.055589174  0.055123737            5 
 3013000   0.77185177   -3.9421377    2016.2641  0.055765686  0.055113044            5 
 3014000   0.75656629   -3.8934178    2022.0054  0.055905923  0.055102374            4 
 3015000   0.76760945   -3.9351474    2021.6248  0.055876861  0.055091724            5 
 3016000   0.74742803    -3.928048     2018.678  0.055776913  0.055081178            7 
 3017000   0.77176875   -3.9139514    2020.5485  0.055810089  0.055070445            4 
 3018000   0.76372593   -3.9169366    2026.2678  0.055949521  0.055059832            5 
 3019000   0.76631248   -3.9158687    2017.2153   0.05568111  0.055049145            7 
 3020000   0.78742567   -3.9161137     2019.105  0.055714818  0.055038397            3 
 3021000   0.76572453   -3.9349885    2019.7432  0.055713979  0.055027572            4 
 3022000   0.77982297   -3.9249726    2019.2465  0.055681848  0.055016809            5 
 3023000   0.77493463   -3.9201395    2026.0452  0.055850844  0.055006126            5 
 3024000   0.76618494   -3.9197185    2018.5919  0.055626982  0.054995335            5 
 3025000   0.78724958   -3.9023202    2019.4426  0.055632027  0.054984573            7 
 3026000    0.7659238   -3.9148863    2022.6055  0.055700746  0.054973916            5 
 3027000   0.76114767   -3.9333947     2019.486  0.055596466  0.054963092            7 
 3028000   0.76352114   -3.9276076    2018.6061  0.055553888  0.054952288            6 
 3029000   0.76168787   -3.9319142    2015.0926  0.055438886  0.054941572            3 
 3030000   0.76370732   -3.9124369    2024.9541  0.055691808  0.054930785            3 
 3031000   0.77561518   -3.9019532    2027.1613  0.055734118  0.054920163            3 
 3032000   0.77654347   -3.9123665     2025.024  0.055656991  0.054909388            7 
 3033000    0.7549873   -3.9096782    2026.0818  0.055667706  0.054898695            4 
 3034000   0.76053407   -3.9230921    2022.0278  0.055538008  0.054888039            6 
 3035000   0.77347785   -3.9267183    2024.6896  0.055592796  0.054877392            4 
 3036000   0.76142051   -3.9306067    2027.4256  0.055649582  0.054866737            5 
 3037000   0.75663781   -3.9196525     2026.791  0.055613846    0.0548561            7 
 3038000   0.76924575   -3.9435693     2024.623   0.05553607  0.054845339            4 
 3039000   0.75926893   -3.9323046    2023.8267  0.055495962  0.054834644            5 
 3040000    0.7646326   -3.9303524    2026.6404  0.055554836  0.054824017            6 
 3041000   0.76926416   -3.9134141      2023.84  0.055459828  0.054813404            2 
 3042000   0.76008452   -3.9218782    2028.9205  0.055580772  0.054802771            4 
 3043000   0.75728491   -3.9240376    2030.6443  0.055609714  0.054792148            5 
 3044000   0.75720838   -3.9137269    2024.0853  0.055411885  0.054781535            4 
 3045000     0.766744   -3.9418413    2023.0779  0.055366118  0.054770796            6 
 3046000   0.74620083   -3.9229054    2032.8533  0.055615377  0.054760122            7 
 3047000   0.76425369   -3.9268299    2033.4942  0.055614653  0.054749489            4 
 3048000   0.76010494    -3.924011    2032.4956  0.055569104  0.054738865            6 
 3049000   0.76771314   -3.9110106     2031.998   0.05553728  0.054728148            3 
 3050000   0.78101689   -3.9276916     2031.335  0.055500956  0.054717618            3 
 3051000   0.77678784   -3.9021137     2038.258  0.055671856  0.054707071           10 
 3052000   0.75553035    -3.938065    2022.3614  0.055219567  0.054696417            2 
 3053000   0.75776228    -3.948331     2028.733  0.055375395  0.054685663            4 
 3054000   0.74972551    -3.917664    2031.5689  0.055434645  0.054674958            6 
 3055000   0.76335646   -3.9125128    2025.5759  0.055253026  0.054664328            5 
 3056000   0.73902692   -3.9081842      2032.72  0.055429755  0.054653683            5 
 3057000   0.76012588   -3.9110087    2032.3375  0.055401198  0.054642915            2 
 3058000   0.78176511   -3.9376202     2027.195  0.055242943  0.054632172            3 
 3059000   0.75096673   -3.9281551     2033.684  0.055401655  0.054621365            2 
 3060000   0.76093024   -3.9308772    2029.9183     0.055281   0.05461066            3 
 3061000   0.76028036   -3.9064401    2030.6939  0.055284055  0.054600004            3 
 3062000    0.7457975   -3.9230341      2030.93  0.055272425  0.054589365            3 
 3063000   0.75586646    -3.949943    2025.6086  0.055109605  0.054578615            5 
 3064000   0.76176466   -3.9383557    2032.5089  0.055279289  0.054567847            4 
 3065000   0.76965754   -3.9438628    2027.9874  0.055138319  0.054557142           15 
 3066000   0.74678439   -3.9316892     2031.799  0.055223935  0.054546356            6 
 3067000   0.75922682   -3.9153189    2035.1502  0.055296985   0.05453568            4 
 3068000   0.73384765   -3.9482384    2023.8633  0.054972385  0.054524983            9 
 3069000   0.76476653    -3.925732    2029.2402  0.055100472  0.054514234            7 
 3070000   0.75563228   -3.9181476    2040.8643  0.055398053  0.054503577            6 
 3071000   0.76602591    -3.932098    2036.4825  0.055261112  0.054492895            4 
 3072000   0.76242793   -3.9372833    2027.6661  0.055003962  0.054482132            2 
 3073000   0.76001969   -3.9240867     2036.635  0.055229282  0.054471426            6 
 3074000   0.75794155   -3.9487335    2033.5539  0.055127789  0.054460831            6 
 3075000     0.766815   -3.9148445    2040.3571  0.055294232  0.054450244            4 
 3076000   0.76094306   -3.9060459    2037.4283  0.055196909  0.054439652            5 
 3077000     0.768586   -3.9492983    2031.1452  0.055008806  0.054429077            4 
 3078000   0.76016653    -3.931478    2033.8696  0.055064695  0.054418381            6 
 3079000   0.74262993    -3.932876    2041.2761   0.05524727  0.054407632            4 
 3080000    0.7672142    -3.941313    2031.8914  0.054975417  0.054396966            5 
 3081000   0.77713697   -3.9294711    2035.8354  0.055064249  0.054386379            3 
 3082000   0.77187269   -3.9533223    2033.6024  0.054986006  0.054375703            5 
 3083000   0.74940432   -3.9521827    2041.0315  0.055168978  0.054365004            5 
 3084000   0.78008909   -3.9589947    2038.6942  0.055087931  0.054354304            4 
 3085000   0.75837844   -3.9424344    2036.5887  0.055013201  0.054343547            4 
 3086000   0.77127325    -3.933479    2033.7874  0.054919729  0.054332954            6 
 3087000   0.73259315   -3.9573114    2033.6986  0.054899541  0.054322176            4 
 3088000   0.76121509   -3.9459886    2047.5651  0.055255965  0.054311496            5 
 3089000   0.73031883   -3.9294193      2044.32  0.055150535  0.054300922            5 
 3090000   0.75702149   -3.9588381    2032.3614  0.054810177  0.054290295            5 
 3091000   0.75898506   -3.9260251    2041.3569  0.055034963  0.054279656            4 
 3092000    0.7361785   -3.9261587      2041.19  0.055012668  0.054269076            3 
 3093000   0.75201441   -3.9437242    2041.0124  0.054990095  0.054258503            7 
 3094000     0.748945    -3.936194    2037.8357  0.054886763  0.054247855            4 
 3095000   0.75442276   -3.9684795    2039.1698  0.054904948  0.054237165            4 
 3096000   0.75294329    -3.958477    2045.5476  0.055058883  0.054226435            3 
 3097000    0.7583066   -3.9523322    2044.7763  0.055020352  0.054215828            6 
 3098000   0.75286672   -3.9316449    2046.8829  0.055059257  0.054205362            7 
 3099000   0.74413848   -3.9487458    2046.1816  0.055022631  0.054194822            5 
 3100000   0.75565937   -3.9401406    2051.2508   0.05514115  0.054184238            7 
 3101000   0.74692471   -3.9496202    2045.1587  0.054959656  0.054173791            6 
 3102000   0.75460745   -3.9510383    2040.9603  0.054829151  0.054163173            6 
 3103000   0.77750462   -3.9364786    2041.2295  0.054818711  0.054152613            2 
 3104000   0.75972903   -3.9429442    2044.4695  0.054888035  0.054142087            8 
 3105000   0.75002826    -3.954413     2047.433  0.054949893  0.054131581            5 
 3106000   0.76179099   -3.9491341    2046.1663  0.054898216  0.054120937            5 
 3107000   0.76344713   -3.9434403    2051.5051  0.055023741  0.054110447           11 
 3108000   0.74245474   -3.9330082     2042.103  0.054753941   0.05409997            7 
 3109000   0.75669655   -3.9597238    2044.0756  0.054789204  0.054089453            8 
 3110000   0.74967113   -3.9578282    2045.5067  0.054809932  0.054078882            5 
 3111000   0.74593174   -3.9684208    2045.4394  0.054790512  0.054068341            8 
 3112000   0.74738846   -3.9317146    2051.6139  0.054938246  0.054057897            4 
 3113000   0.75426591   -3.9594324    2052.6981  0.054949621  0.054047315            4 
 3114000   0.75783271   -3.9534188    2044.2741  0.054706543  0.054036815            6 
 3115000   0.75170924   -3.9525032    2048.7351  0.054808324  0.054026271            6 
 3116000   0.73927573   -3.9475106    2046.6324  0.054734499  0.054015637            3 
 3117000   0.75792931   -3.9668205    2047.0708   0.05472866  0.054004987            4 
 3118000   0.74889709   -3.9528306    2045.4129  0.054666798  0.053994428            8 
 3119000    0.7654391    -3.943511    2050.9416  0.054796987  0.053983904            4 
 3120000   0.75763407    -3.962709    2049.7736  0.054748226   0.05397338            4 
 3121000   0.73193222   -3.9436002    2049.9332  0.054734945  0.053962933            9 
 3122000   0.73492117   -3.9562468    2047.9816  0.054665321  0.053952344            7 
 3123000   0.74431798    -3.917939     2054.125  0.054811747   0.05394185            6 
 3124000   0.75990117   -3.9537246    2046.3292  0.054586247  0.053931235            4 
 3125000   0.76277215   -3.9558848    2048.6325  0.054630201  0.053920614            7 
 3126000   0.77295143   -3.9416253    2050.2883  0.054656865   0.05391009           10 
 3127000   0.76578599   -3.9636098    2047.6293  0.054568523   0.05389955            6 
 3128000   0.75766724   -3.9394219    2054.8838  0.054744346  0.053889082            5 
 3129000   0.75378544   -3.9595289    2050.6306  0.054613577  0.053878513            4 
 3130000   0.74665792   -3.9583074    2048.5691  0.054541243  0.053867923            6 
 3131000   0.73827248   -3.9574974    2049.3858  0.054545559  0.053857245            4 
 3132000   0.75677649   -3.9362833    2050.9391  0.054569473  0.053846667           13 
 3133000   0.76405655   -3.9798817    2052.5078  0.054593781  0.053835839            5 
 3134000   0.74302189    -3.967291    2050.2824  0.054517187  0.053825197            8 
 3135000    0.7514451   -3.9652403    2054.0895  0.054600995  0.053814521            8 
 3136000   0.74599279    -3.921966    2057.0049  0.054661057  0.053803949            9 
 3137000   0.74714589   -3.9701056    2050.2563  0.054464357  0.053793304            3 
 3138000   0.74843181   -3.9612197    2055.3987  0.054583563  0.053782669            6 
 3139000   0.75391968   -3.9451077    2053.2778  0.054509871  0.053772077            6 
 3140000   0.74193114   -3.9605552    2051.1717  0.054436618  0.053761454            8 
 3141000   0.75852591   -3.9255897    2056.0744  0.054549359  0.053750916            7 
 3142000   0.74641984   -3.9685509    2049.0443  0.054345543  0.053740254            8 
 3143000   0.75065442   -3.9576743    2049.6001  0.054342987  0.053729592            6 
 3144000     0.769556   -3.9453598    2054.0175  0.054442788  0.053719104            3 
 3145000   0.74467435   -3.9615313    2050.4677  0.054331417  0.053708536           12 
 3146000   0.75318407   -3.9472337    2053.2876  0.054388842  0.053697894            4 
 3147000   0.76290152   -3.9460065    2058.3867  0.054506587  0.053687395            4 
 3148000   0.75342096   -3.9581384    2055.5359  0.054413804  0.053676753            6 
 3149000   0.74235606   -3.9624379    2052.1497  0.054306914  0.053666037            6 
 3150000   0.75117563   -3.9737322    2046.3476  0.054136181  0.053655333            6 
 3151000   0.74567742   -3.9537182    2061.6138  0.054522739  0.053644676            4 
 3152000   0.74808785   -3.9522387    2049.9342  0.054196654  0.053633932            4 
 3153000   0.75146324   -3.9607595    2053.6953   0.05427887  0.053623293            8 
 3154000   0.73306218   -3.9384753    2055.6341  0.054312885  0.053612552            6 
 3155000   0.75529465   -3.9508832    2055.4014  0.054289524  0.053601914            9 
 3156000   0.73140564   -3.9786349    2049.9192  0.054127568  0.053591197            6 
 3157000   0.74556167   -3.9495196    2054.5865  0.054233622   0.05358056            7 
 3158000   0.74109876   -3.9659783    2053.1553  0.054178681  0.053569885            7 
 3159000   0.74157575   -3.9721401    2054.9336  0.054208441  0.053559241            4 
 3160000   0.73810472    -3.958266    2059.8591  0.054321179  0.053548582            5 
 3161000    0.7512025    -3.978668    2060.7841  0.054328381  0.053537971            7 
 3162000   0.75002163   -3.9354517     2062.843  0.054365459   0.05352735           10 
 3163000   0.74482251   -3.9295434     2058.587  0.054236141  0.053516753            4 
 3164000   0.74962736   -3.9525779    2052.1543  0.054049575  0.053506147           11 
 3165000   0.73905531   -3.9712264    2061.0146  0.054265788  0.053495533            7 
 3166000   0.75210023   -3.9607587    2057.5175    0.0541566  0.053485006            6 
 3167000    0.7541848   -3.9725589    2055.8371  0.054095283   0.05347438            3 
 3168000   0.74916088   -3.9437545    2060.0789  0.054189786  0.053463692            5 
 3169000   0.74488301   -3.9439712      2055.42  0.054050173  0.053453048            7 
 3170000   0.74836975   -3.9569437    2060.5133  0.054167015  0.053442415            4 
 3171000   0.75295851   -3.9943611    2058.2635  0.054090809  0.053431714            9 
 3172000   0.74459904   -3.9519876    2058.6181  0.054083073  0.053421133            9 
 3173000   0.73825326   -3.9645658    2062.4149  0.054165744   0.05341054            4 
 3174000   0.74900332   -3.9536562    2059.2473  0.054065514  0.053399999            3 
 3175000   0.74733872   -3.9691105    2061.2954   0.05410224  0.053389537            4 
 3176000   0.74295509   -3.9784808    2056.5528  0.053960769  0.053378985            5 
 3177000   0.75036139   -3.9342264    2060.5282   0.05404806  0.053368426           13 
 3178000   0.74872734    -3.985596    2058.8262  0.053986423  0.053357919            8 
 3179000   0.75157204   -3.9780936    2066.1755  0.054162093  0.053347266            3 
 3180000    0.7498939   -3.9658476    2060.5947  0.053998813  0.053336766            4 
 3181000   0.74599475   -3.9586204    2069.3371  0.054210864  0.053326252            7 
 3182000   0.71517124    -3.993276    2059.2633  0.053930003  0.053315719            4 
 3183000   0.74382225    -3.976545    2069.8255  0.054189588  0.053305187            8 
 3184000   0.74129805   -3.9638519    2063.9764  0.054019482  0.053294699            5 
 3185000   0.74231678   -3.9699241    2062.6073  0.053966701  0.053284255            4 
 3186000   0.74245115   -3.9681959    2072.9415  0.054220064  0.053273876            5 
 3187000   0.74918377   -3.9828288    2066.7669    0.0540416  0.053263556           12 
 3188000   0.73674737   -3.9406404     2068.601  0.054072589  0.053253219            3 
 3189000   0.75241715   -3.9596279    2066.2042  0.053993003  0.053242903           10 
 3190000   0.73935463   -3.9573979    2067.7636  0.054016813  0.053232422            4 
 3191000   0.74390204   -3.9438698     2073.654  0.054153714  0.053222057            5 
 3192000   0.74088084   -3.9767422    2067.3362   0.05397181  0.053211549            8 
 3193000   0.73938164   -3.9746663    2064.9063  0.053891488  0.053201052           10 
 3194000   0.73203232   -3.9906535    2064.3825   0.05386095  0.053190617            5 
 3195000   0.73219396   -3.9542881    2065.6309  0.053876654  0.053179965            3 
 3196000   0.75612276   -3.9443654    2069.6178  0.053963752   0.05316949            9 
 3197000   0.74236293   -3.9737828    2065.7965  0.053847265  0.053158935            4 
 3198000   0.74637037   -3.9820564    2073.7863  0.054038626  0.053148359            9 
 3199000   0.73451956   -3.9682032    2074.3097  0.054035367  0.053137762            7 
 3200000    0.7437395   -3.9674192    2069.8455  0.053902228  0.053127252           14 
 3201000   0.75231065   -3.9739499    2065.9153  0.053783069  0.053116724            5 
 3202000   0.73998477    -3.989797    2066.6604  0.053785666  0.053106087            7 
 3203000   0.74346376   -3.9799329     2072.972  0.053933083  0.053095406            8 
 3204000   0.73924445   -3.9482151     2071.873  0.053887668  0.053084807            2 
 3205000   0.74091681   -3.9499065    2067.5084  0.053757369  0.053074261            2 
 3206000   0.74729322   -3.9652018    2068.5272  0.053767084  0.053063674            4 
 3207000   0.74872322   -3.9710785    2067.5678  0.053725387  0.053053062            6 
 3208000   0.72893276    -3.955526    2075.1551  0.053905733  0.053042517            4 
 3209000   0.74796554   -3.9773604    2063.3527  0.053582442  0.053031879            4 
 3210000   0.74459212   -3.9708949    2067.4476  0.053672057   0.05302121            5 
 3211000   0.73211276   -3.9905148    2068.2613  0.053676459  0.053010594           16 
 3212000   0.72825632   -3.9916864    2063.8648  0.053545684  0.052999911            5 
 3213000   0.76100571   -3.9650357    2065.0519  0.053559807   0.05298925            4 
 3214000   0.74375463    -3.960655    2065.1891    0.0535467  0.052978757            5 
 3215000   0.74982006   -3.9551914    2073.4964  0.053745372  0.052968092            3 
 3216000   0.74071923   -3.9929534    2063.5093  0.053469872  0.052957478            8 
 3217000   0.74352328   -3.9782718     2063.436  0.053451352   0.05294677            3 
 3218000   0.73969652   -3.9888783    2070.6904  0.053622601  0.052936075            3 
 3219000    0.7399807   -3.9454712    2073.9601   0.05369059  0.052925404           16 
 3220000     0.744222   -3.9909025    2076.3264  0.053735157  0.052914864            8 
 3221000   0.73351675   -3.9904115    2071.5096  0.053593854    0.0529043            3 
 3222000   0.73739794   -3.9673497    2076.5738  0.053708199  0.052893659            6 
 3223000   0.73238826   -3.9899855    2075.9835  0.053676273  0.052883035            3 
 3224000   0.71711528   -3.9673775    2077.0149  0.053686282  0.052872495            5 
 3225000   0.74404566    -3.966704    2080.0561  0.053748218  0.052861933            3 
 3226000   0.73679546   -3.9902913    2072.3528  0.053532569  0.052851286            5 
 3227000   0.73977074    -3.973566    2077.4952  0.053648776  0.052840679            7 
 3228000   0.73878395   -4.0173657    2067.7509  0.053380599  0.052830048           12 
 3229000   0.73031072   -3.9767554    2071.5313  0.053461633  0.052819244            6 
 3230000   0.72979431   -3.9866811    2072.7826  0.053477362  0.052808668            7 
 3231000   0.73074435   -3.9961299    2071.4083  0.053425366  0.052798027            4 
 3232000   0.73781963   -4.0015048    2076.5341  0.053540998  0.052787388            6 
 3233000   0.73705921   -3.9698413    2074.2077  0.053464473   0.05277683            5 
 3234000   0.73220502   -3.9818002    2070.0063   0.05333968  0.052766088            8 
 3235000   0.74033492    -3.978276    2072.4214  0.053385405  0.052755357            5 
 3236000    0.7446739   -3.9711127    2064.6277  0.053168204  0.052744651            8 
 3237000   0.75154449   -3.9742592    2074.1944  0.053398064  0.052733969            3 
 3238000   0.74497933   -3.9825843    2077.4212  0.053464618   0.05272326            8 
 3239000   0.72524163   -3.9774312    2077.3746  0.053446912  0.052712617            3 
 3240000   0.70651698   -3.9834326    2070.9345  0.053264775  0.052701877            7 
 3241000   0.72938021   -4.0043224    2072.8917  0.053298666  0.052690979            8 
 3242000    0.7287801   -3.9750548    2072.1458  0.053263052  0.052680152            3 
 3243000    0.7348454   -3.9661929    2078.0733  0.053398943  0.052669382            4 
 3244000   0.72171288   -3.9726935    2077.1619  0.053359071   0.05265853            7 
 3245000   0.74238543   -3.9913946    2066.0322  0.053056811  0.052647576            6 
 3246000   0.73883283    -3.984879    2074.3762  0.053254677  0.052636648            6 
 3247000   0.73626095   -3.9747481    2076.9102   0.05330331  0.052625765            5 
 3248000   0.71408639   -3.9731418    2074.0703  0.053214036   0.05261487            7 
 3249000   0.73989957   -3.9874723    2067.0262  0.053016984  0.052603816            6 
 3250000   0.71934576   -3.9988483    2068.5729  0.053040332  0.052592747            3 
 3251000   0.73149153   -3.9754636    2068.4541   0.05302097  0.052581748           14 
 3252000   0.74051007   -4.0055808    2069.2239  0.053024391  0.052570745            7 
 3253000   0.72481331   -3.9826449    2065.3804  0.052909633  0.052559746            8 
 3254000    0.7302231   -3.9874147    2062.1473  0.052810575  0.052548775            4 
 3255000   0.73869231    -4.004276    2075.7111  0.053141605  0.052537832            7 
 3256000   0.75839318   -3.9899411    2067.8304  0.052923588   0.05252689            4 
 3257000   0.73526469   -3.9752584    2075.6541  0.053107515  0.052516075           10 
 3258000   0.72894717    -4.009316    2074.4366  0.053060072  0.052505185           14 
 3259000   0.73112885   -4.0090261    2078.0852  0.053137087   0.05249436            3 
 3260000   0.72625201   -3.9805386    2070.7023  0.052932062  0.052483508            5 
 3261000   0.73181267   -3.9800164    2081.6491  0.053195572  0.052472733            5 
 3262000   0.73356554   -4.0095648    2082.0443  0.053189359  0.052461884            5 
 3263000    0.7200186   -3.9741659    2074.7977  0.052987989   0.05245107            6 
 3264000   0.73976966   -3.9964317    2079.2101  0.053084409  0.052440284            5 
 3265000    0.7231232   -3.9845699    2074.7924  0.052955396  0.052429465            6 
 3266000   0.72315388   -3.9803504    2072.8362  0.052889269  0.052418596            5 
 3267000   0.71815968   -3.9775755    2079.3226  0.053038533  0.052407841            4 
 3268000   0.73764639   -3.9819353    2078.8273  0.053009671  0.052396985            8 
 3269000   0.73485642   -4.0143883    2079.9063  0.053020963  0.052386187            7 
 3270000   0.72509152   -4.0141565    2078.1519  0.052960038  0.052375314            5 
 3271000   0.72357924   -4.0050899     2078.559  0.052954218  0.052364533            7 
 3272000   0.72558724   -4.0113693    2076.6189  0.052888623  0.052353672            5 
 3273000   0.74024209   -3.9954534    2074.0095  0.052806027  0.052342734            6 
 3274000   0.73469622   -4.0073225    2076.3302  0.052848967  0.052331843            4 
 3275000   0.72927484   -3.9968808    2077.5118  0.052862897  0.052320936            5 
 3276000   0.75034295    -3.971879    2084.4617  0.053023548  0.052310079            4 
 3277000   0.71427391   -3.9946034    2080.3058  0.052901683  0.052299244            3 
 3278000    0.7137771   -4.0010637    2075.9229  0.052774123  0.052288361            6 
 3279000   0.74816044   -3.9887181    2078.1749  0.052815261  0.052277493            8 
 3280000   0.73470798   -3.9757852    2082.4698  0.052908278  0.052266638            5 
 3281000   0.71886799   -3.9869523    2076.5431  0.052741621   0.05225581            3 
 3282000   0.70791242   -3.9912921    2086.4606  0.052977367  0.052244971            8 
 3283000   0.72756369   -3.9766521    2077.8354  0.052742293  0.052234077            5 
 3284000   0.74031246   -3.9823012    2081.1672   0.05281078  0.052223329            6 
 3285000   0.72677557    -4.008702    2077.4851  0.052701295  0.052212445            7 
 3286000   0.73846459   -3.9768549    2081.9736  0.052799087  0.052201674            4 
 3287000    0.7283583   -3.9828658    2082.8658  0.052805643  0.052190904            3 
 3288000   0.73495269   -3.9936677    2081.0655  0.052743954  0.052180084            6 
 3289000   0.71470144   -4.0143972    2083.2168  0.052782425  0.052169317            7 
 3290000   0.71510754   -4.0082895    2084.1393   0.05278975  0.052158538            4 
 3291000   0.73091627     -3.99693    2088.4837  0.052883716  0.052147823            5 
 3292000   0.71470871   -3.9811456    2086.2739  0.052811714   0.05213711            5 
 3293000   0.72306877   -3.9847087    2083.3104  0.052720679  0.052126456            7 
 3294000   0.69309286   -3.9986664    2082.9015  0.052694332  0.052115707            5 
 3295000   0.72896011   -4.0371186    2084.7166  0.052724244  0.052104889            6 
 3296000   0.72652044   -4.0373312    2079.8147  0.052584313  0.052094014            2 
 3297000   0.72650478   -3.9896816    2083.9617   0.05267318  0.052083328            3 
 3298000   0.71683966   -4.0158869    2088.5165  0.052772299  0.052072669            2 
 3299000   0.71221218   -3.9893779    2083.0234  0.052617545  0.052061925            3 
 3300000   0.73840027   -3.9895501    2088.0024  0.052727333  0.052051272            4 
 3301000   0.72067361   -4.0014049     2084.846  0.052631677  0.052040446            6 
 3302000   0.73532476   -4.0165717     2082.816  0.052564507  0.052029774            9 
 3303000   0.71312849   -3.9981008    2087.5448  0.052667898  0.052019037            6 
 3304000   0.71651282   -4.0243134    2086.4113  0.052623369  0.052008311            5 
 3305000   0.73830151   -4.0267993    2082.0473  0.052497409  0.051997638            5 
 3306000   0.72441696   -4.0022916    2086.8747  0.052603214  0.051987082            5 
 3307000   0.72257245   -4.0050849    2089.0201  0.052641369  0.051976517           10 
 3308000   0.72239659   -3.9866631    2089.1453  0.052628609   0.05196601            7 
 3309000   0.72323443   -4.0131475    2082.8756   0.05245481  0.051955422            6 
 3310000   0.71717157   -3.9753297    2089.9995  0.052618316  0.051944811            5 
 3311000   0.72972094   -3.9910547    2093.5132  0.052690859   0.05193426            4 
 3312000   0.73163708   -4.0029773    2094.2789  0.052694215  0.051923672            6 
 3313000   0.72816065    -4.006104    2091.4731  0.052607736  0.051913018            7 
 3314000   0.71880184   -4.0120032    2085.5661  0.052443324  0.051902269            6 
 3315000   0.73607249   -3.9962306    2092.3761  0.052598694  0.051891574            5 
 3316000   0.71162717   -3.9975369    2091.7162  0.052566251  0.051880851            5 
 3317000   0.71031411   -3.9941757    2081.8122  0.052301582  0.051870225            8 
 3318000   0.72725447   -4.0159703    2087.1049  0.052418749  0.051859484            7 
 3319000   0.72593332   -3.9932908    2090.1135  0.052478495  0.051848743           10 
 3320000   0.72650103   -3.9868712    2097.2962  0.052642978  0.051838089            5 
 3321000   0.71999798   -4.0270956     2083.683  0.052285531  0.051827377            3 
 3322000   0.72521685   -3.9999639    2084.1389  0.052281229  0.051816615            4 
 3323000    0.7147528   -3.9944046    2094.4219   0.05252337  0.051805886            3 
 3324000    0.7286968   -4.0077752    2095.4055  0.052532227  0.051795124            5 
 3325000    0.7066288   -4.0072177    2089.4476  0.052367108   0.05178442           10 
 3326000   0.72144146   -4.0070599    2088.0101  0.052315345  0.051773658            4 
 3327000   0.72190418   -4.0251523    2099.1971   0.05257983    0.0517629           12 
 3328000   0.71403544   -4.0138156    2091.9113  0.052381592  0.051752134            6 
 3329000   0.70601924   -4.0049221    2085.9753  0.052217264  0.051741379            7 
 3330000   0.73867685   -3.9834617    2088.3536    0.0522611  0.051730646            9 
 3331000   0.71644755   -4.0096132    2092.5618  0.052350691  0.051719885            9 
 3332000   0.71751422   -3.9891641    2090.8725  0.052292731  0.051709083            5 
 3333000   0.72116714   -4.0249351    2086.0841  0.052157318  0.051698345            6 
 3334000   0.71552973   -4.0056138    2088.2397  0.052195554  0.051687583            5 
 3335000   0.72075909    -3.993367    2088.9131  0.052196729  0.051676802           13 
 3336000    0.7118371   -4.0119911    2088.6986  0.052175724  0.051665991            2 
 3337000   0.71342395   -4.0085528    2098.0857  0.052394509  0.051655244            5 
 3338000   0.73198642    -3.997772    2095.9586  0.052325709  0.051644488            3 
 3339000   0.71808838   -4.0364317    2090.5015  0.052173843  0.051633755            5 
 3340000   0.70077497   -4.0068465    2084.8379  0.052016914  0.051622928            5 
 3341000   0.73143573   -4.0168115    2092.4282  0.052190667  0.051612111            5 
 3342000   0.71957928   -4.0122239    2086.7389  0.052033187  0.051601264            6 
 3343000   0.71802979   -4.0076357    2097.2662  0.052280044  0.051590401            6 
 3344000   0.73027504   -4.0194828    2090.8881  0.052105466  0.051579579           10 
 3345000   0.73773116   -4.0273934    2089.5616   0.05205684  0.051568632            8 
 3346000   0.70426886   -4.0228822    2088.5564  0.052016248  0.051557726            7 
 3347000   0.73243028   -4.0231243    2093.6149  0.052126652  0.051546753            2 
 3348000   0.71756797    -4.008357    2086.5699  0.051935729  0.051535809            6 
 3349000   0.70975606   -4.0061043    2091.2451  0.052036555  0.051524879            7 
 3350000   0.71487282   -4.0038038    2098.0674  0.052190731  0.051514046           18 
 3351000   0.70723343   -4.0127108    2093.1427  0.052052688  0.051503194            6 
 3352000   0.71955037    -3.999376    2093.4929  0.052045866  0.051492294            4 
 3353000   0.72753089   -4.0177536    2084.8707  0.051816053  0.051481336            5 
 3354000    0.7045465   -3.9982303      2087.86  0.051874876  0.051470473            6 
 3355000   0.70289704   -4.0159958    2089.4911  0.051899928  0.051459478            5 
 3356000   0.70153308   -3.9934879    2095.0043  0.052021363  0.051448616            7 
 3357000   0.72592013   -4.0039026    2097.6417  0.052071337  0.051437844            5 
 3358000   0.71513373   -4.0141308    2095.4343  0.052001049  0.051427012            4 
 3359000   0.72265542   -3.9972026     2096.806  0.052019599  0.051416245            6 
 3360000    0.7148787   -4.0142686    2103.1401  0.052161212  0.051405542            4 
 3361000   0.69438681   -4.0378573    2096.3229  0.051976665  0.051394745            5 
 3362000   0.72391975    -4.024351    2097.5115  0.051990667  0.051383896            8 
 3363000   0.72476298   -4.0264225    2098.5513  0.052000974  0.051373007            6 
 3364000   0.72550838   -4.0237905    2098.7944  0.051991537   0.05136224            5 
 3365000   0.71234658     -3.99604    2094.6119  0.051872508  0.051351506            7 
 3366000   0.71907949   -4.0329756    2095.8699  0.051888243  0.051340714            9 
 3367000   0.71888907   -4.0115343    2103.1566  0.052053179  0.051329849            6 
 3368000   0.73281412   -4.0389256    2094.8773  0.051832872  0.051319009            8 
 3369000   0.72364979   -4.0275869    2100.3943  0.051953949  0.051308226           10 
 3370000    0.7143085   -4.0323538    2097.0811  0.051856605  0.051297438            8 
 3371000   0.71057603   -4.0153944    2097.5726  0.051853373  0.051286644            8 
 3372000   0.71386615   -4.0156481    2098.5872   0.05186307  0.051275962            6 
 3373000   0.70429789   -4.0145101    2097.3169  0.051816308  0.051265156            9 
 3374000   0.71604031   -4.0186807    2105.8695  0.052012188  0.051254426            6 
 3375000   0.71525154   -4.0222557    2103.0333  0.051926747  0.051243673            5 
 3376000   0.70437088    -4.026336    2090.5358  0.051602877  0.051232912            4 
 3377000   0.72769173   -4.0136717    2106.9629  0.051992964   0.05122213            3 
 3378000   0.70312321   -4.0333792    2105.2781   0.05193601  0.051211382            6 
 3379000   0.70341216   -4.0217944    2091.8692  0.051589947  0.051200613            3 
 3380000    0.7093207   -4.0410871    2103.0171  0.051849533  0.051189825            6 
 3381000   0.71137255   -4.0103446    2105.2402  0.051888993  0.051179104            5 
 3382000   0.71261126   -4.0430809    2095.7786  0.051640514  0.051168372            5 
 3383000   0.69402581   -4.0626377    2100.2355  0.051735036  0.051157508            9 
 3384000   0.69500806   -4.0206416    2100.9228  0.051736673  0.051146654            3 
 3385000   0.71936828   -4.0037557    2102.3801  0.051757264   0.05113586            3 
 3386000   0.71992941   -4.0010824    2105.1996  0.051811371   0.05112506            3 
 3387000   0.73730372   -4.0103747    2104.5298  0.051779594  0.051114338            7 
 3388000   0.69992634    -4.011365    2097.7249  0.051596933  0.051103575            9 
 3389000   0.69918984     -4.02324    2101.4753  0.051673927  0.051092759            6 
 3390000   0.71199412   -4.0476519    2095.7051   0.05151684   0.05108197            4 
 3391000   0.70968618   -4.0386106     2106.294   0.05176187  0.051071066            4 
 3392000   0.70932341   -3.9977609    2104.0884  0.051692423   0.05106026            6 
 3393000   0.72258995   -4.0229865    2099.3648  0.051561174  0.051049542           14 
 3394000   0.73630271   -4.0309466    2100.4163    0.0515718  0.051038768            6 
 3395000   0.71090107   -4.0411323    2099.0185  0.051522301  0.051028017           10 
 3396000   0.72201961   -4.0532979      2099.41  0.051516736  0.051017258            4 
 3397000   0.71199705   -4.0358798    2107.6101   0.05170273  0.051006488            9 
 3398000   0.70440881   -4.0306372    2105.8007   0.05164314  0.050995794            8 
 3399000   0.70647653   -4.0236084    2106.4769  0.051644525  0.050985093           12 
 3400000   0.71128821   -4.0326056    2102.4254  0.051530034  0.050974271            9 
 3401000   0.69547272    -4.012233    2099.5234  0.051443776  0.050963501            5 
 3402000   0.71493942   -4.0381499    2107.7254  0.051629567   0.05095273            7 
 3403000   0.71508053   -4.0361463    2107.3719  0.051605736  0.050941953            8 
 3404000   0.69503627   -4.0441799    2100.1484  0.051413738  0.050931246            6 
 3405000   0.70655712   -4.0420436    2101.8316  0.051439834  0.050920415            5 
 3406000   0.69852394   -4.0426138    2101.2292  0.051409991  0.050909676            4 
 3407000   0.70673539    -4.034961      2102.78  0.051432835  0.050898937           10 
 3408000   0.70580727   -4.0378016    2101.0195  0.051374694  0.050888255            5 
 3409000   0.72766108   -4.0222899    2101.9176  0.051381579  0.050877507            7 
 3410000   0.71288658   -4.0341055    2106.7644  0.051484955  0.050866771            8 
 3411000   0.70167896   -4.0425511    2106.6232  0.051466412   0.05085609           13 
 3412000   0.70173276   -4.0526321    2110.6102  0.051548705   0.05084538            7 
 3413000   0.69967171   -4.0253957    2103.8788  0.051369246  0.050834627            4 
 3414000   0.70766065   -4.0312417    2110.0423  0.051504646  0.050823924            6 
 3415000   0.69334383   -4.0318365    2104.5275  0.051354989    0.0508133            3 
 3416000   0.69077361   -4.0487827    2108.8767  0.051446054  0.050802651            5 
 3417000   0.69697414   -4.0298223    2114.3838  0.051565305  0.050792084            3 
 3418000    0.6975733   -4.0385323    2117.4389  0.051624704   0.05078144            7 
 3419000   0.71307709   -4.0424678    2105.5271  0.051319271  0.050770692           12 
 3420000   0.71606011   -4.0432105    2106.1012  0.051318254  0.050760091            5 
 3421000    0.7192518   -4.0081968    2111.0015  0.051422624  0.050749449            6 
 3422000   0.71424567   -4.0425446    2106.6406  0.051301397  0.050738748            9 
 3423000    0.7124051   -4.0452197     2109.876  0.051365177  0.050728039            9 
 3424000   0.70916635   -4.0437193    2111.4311  0.051388023  0.050717344           13 
 3425000   0.68461932   -4.0399941    2109.5352  0.051326891  0.050706696            7 
 3426000   0.70320958   -4.0376595    2116.7207  0.051486689  0.050696066            7 
 3427000   0.69731041   -4.0339305     2111.272   0.05133917  0.050685348            4 
 3428000   0.70710964   -4.0332349     2107.834  0.051240616  0.050674655            5 
 3429000   0.70574802   -4.0446834    2111.9666  0.051326106   0.05066396            5 
 3430000   0.72541865   -4.0133777    2113.9596  0.051359563  0.050653246           10 
 3431000   0.71101606   -4.0027717    2108.9275  0.051222372  0.050642605            5 
 3432000   0.69294554   -4.0363104    2100.8596  0.051011549  0.050631863           10 
 3433000   0.70313199   -4.0373398    2105.5338  0.051110151  0.050621176            8 
 3434000    0.7131207   -4.0402281    2111.9752  0.051251583  0.050610478            6 
 3435000   0.69910294   -4.0422509     2111.616  0.051227947  0.050599871            6 
 3436000   0.71305113   -4.0240742    2118.9433  0.051390747  0.050589194            5 
 3437000   0.68756221   -4.0393979    2112.3367  0.051215613  0.050578571            5 
 3438000   0.70077772   -4.0456814    2116.9394   0.05131228  0.050567902           10 
 3439000   0.71103394   -4.0536054    2109.9265  0.051127424  0.050557162            6 
 3440000   0.68601457   -4.0432153    2113.7534  0.051205266  0.050546385            6 
 3441000   0.70709261   -4.0396983    2118.1482  0.051296819  0.050535725            7 
 3442000    0.6966769    -4.054951    2109.9497  0.051083422  0.050524988            4 
 3443000   0.71137453   -4.0429267    2107.8896  0.051018724  0.050514205            8 
 3444000   0.70022383   -4.0435755    2114.9597  0.051174984  0.050503448            7 
 3445000   0.70555974   -4.0392828    2106.6494  0.050959104  0.050492656            6 
 3446000   0.69316928   -4.0538374     2113.405  0.051107685  0.050481813            8 
 3447000   0.70093844    -4.056009    2107.4151  0.050948048  0.050470999            4 
 3448000   0.70502348   -4.0671432    2109.1847  0.050976043   0.05046013            5 
 3449000   0.70732309   -4.0596394    2108.6568  0.050948507  0.050449283            3 
 3450000   0.69087583   -4.0351832    2112.9521   0.05103749  0.050438494            3 
 3451000   0.70474836   -4.0525376    2112.6633  0.051015726  0.050427832            8 
 3452000    0.6871071   -4.0517472    2111.3343  0.050968865  0.050417102            7 
 3453000   0.69746803   -4.0572962    2114.2017  0.051023306  0.050406281            4 
 3454000   0.68119393    -4.054641     2117.658  0.051091923  0.050395518            8 
 3455000   0.69580842   -4.0437946    2116.3654  0.051045957   0.05038478            5 
 3456000   0.70666062   -4.0661194    2111.3448  0.050910128  0.050374076           10 
 3457000    0.7128298   -4.0722092    2118.2863   0.05106273  0.050363245            4 
 3458000    0.6969836   -4.0589311    2112.4532  0.050907393  0.050352456            5 
 3459000   0.70118147   -4.0466529    2114.2902  0.050936933  0.050341725            7 
 3460000   0.70103877   -4.0591053    2117.7265  0.051004973  0.050330992            4 
 3461000   0.69639993   -4.0305221    2123.0748  0.051119011  0.050320366           10 
 3462000   0.69660107   -4.0498831     2111.047  0.050814727  0.050309775            5 
 3463000   0.68885794   -4.0567539    2111.5583  0.050812356  0.050299061           14 
 3464000   0.71631603   -4.0473512    2118.3291  0.050960573  0.050288327            4 
 3465000    0.7035699   -4.0532802    2119.0811  0.050963951  0.050277621            6 
 3466000   0.70611849   -4.0622234    2110.2118  0.050736003  0.050266856            7 
 3467000   0.69085472   -4.0333697     2117.345  0.050892823  0.050256121            6 
 3468000   0.69658196   -4.0377539    2120.0216  0.050942465  0.050245506            6 
 3469000   0.70248286   -4.0627463    2123.3118  0.051006816  0.050234836            8 
 3470000   0.69139942   -4.0676448    2123.0264  0.050985264  0.050224152            4 
 3471000   0.70811518    -4.068377    2122.6201   0.05096082  0.050213501            5 
 3472000   0.71767539    -4.075255     2122.482  0.050942828  0.050202901            5 
 3473000   0.68870087   -4.0487752    2119.0303  0.050845339  0.050192313            7 
 3474000   0.70028387   -4.0386298    2115.5529  0.050747287  0.050181669            5 
 3475000    0.6976761   -4.0214377    2122.0514  0.050888523  0.050171042            8 
 3476000   0.69714416   -4.0532189    2120.3629  0.050833403  0.050160431            5 
 3477000   0.71100926   -4.0656618     2119.817    0.0508057  0.050149829            6 
 3478000   0.70959129   -4.0523215    2125.2159   0.05092045  0.050139267           24 
 3479000   0.70861613   -4.0656261    2123.2924   0.05085974  0.050128669            5 
 3480000   0.68847961   -4.0353287    2124.3179  0.050869682  0.050118033            6 
 3481000   0.68655063   -4.0527388    2129.5748  0.050980916  0.050107551            5 
 3482000   0.67834562   -4.0392072    2121.8014  0.050780236  0.050096926            6 
 3483000   0.70272425   -4.0331272    2121.3094  0.050753886  0.050086404            9 
 3484000   0.69194591   -4.0346159    2120.9755  0.050731331  0.050075831            4 
 3485000   0.68592541   -4.0503423    2124.3249  0.050796864  0.050065236            4 
 3486000      0.68548   -4.0428674    2121.3411  0.050710965  0.050054707            8 
 3487000   0.69766303   -4.0631483    2125.9778  0.050807232  0.050044073            5 
 3488000   0.67556341   -4.0518275    2128.3803  0.050850066  0.050033499            6 
 3489000   0.70621726   -4.0370051    2128.6445  0.050841801  0.050022945           11 
 3490000   0.68339386   -4.0495419    2127.4685  0.050799152  0.050012287            6 
 3491000   0.70244812   -4.0546852     2118.783   0.05057727  0.050001726           15 
 3492000   0.70407999   -4.0546299    2120.7534  0.050609807  0.049991076            8 
 3493000   0.69430714   -4.0584228    2122.4857  0.050636647  0.049980451            3 
 3494000   0.68528117    -4.033676    2125.1334  0.050685303  0.049969833            4 
 3495000   0.70055836    -4.061168    2124.0936   0.05064601   0.04995925           12 
 3496000   0.68858069   -4.0531098    2122.1724  0.050585726  0.049948697            4 
 3497000   0.68693745   -4.0748216    2119.1847  0.050500064  0.049937914            5 
 3498000   0.68669534   -4.0646272    2113.9752   0.05036152   0.04992711           19 
 3499000   0.68624208   -4.0533101    2116.5377  0.050408157   0.04991641            8 
 3500000   0.68280136    -4.062439    2124.1909  0.050575973  0.049905644            2 
 3501000   0.67404595   -4.0642321    2124.5872  0.050570961  0.049894955            8 
 3502000   0.68162763   -4.0777216    2124.0662  0.050544123  0.049884246            8 
 3503000   0.69793785    -4.050015    2130.5771  0.050684582  0.049873713            5 
 3504000   0.69192615   -4.0906186    2119.3115  0.050402196  0.049863139            7 
 3505000   0.69035637   -4.0680424    2122.1856  0.050456149  0.049852478           10 
 3506000    0.6863373   -4.0530866    2123.1745  0.050465262  0.049841869           10 
 3507000   0.69761426   -4.0572552    2125.3461  0.050502474  0.049831263            9 
 3508000   0.70197166   -4.0637387    2117.7186  0.050306883  0.049820704            8 
 3509000   0.69567241   -4.0523266     2130.829  0.050603899  0.049810172            6 
 3510000   0.69634637   -4.0798843    2119.2222  0.050313918  0.049799611            3 
 3511000   0.69941901   -4.0633518     2126.635  0.050475528  0.049789022            6 
 3512000   0.68842209   -4.0935901    2120.6353  0.050318795  0.049778439            7 
 3513000   0.68817285   -4.0683914    2125.2869  0.050414815   0.04976772            6 
 3514000    0.6957872    -4.062639    2129.3991  0.050497986  0.049757064            7 
 3515000   0.68691516   -4.0494864    2128.8617   0.05047088  0.049746462            4 
 3516000   0.68311629   -4.0400088    2130.8596  0.050503878  0.049735889            6 
 3517000   0.68113942   -4.0783993    2120.6947  0.050248666  0.049725241            7 
 3518000   0.70450614   -4.0509566    2127.2953  0.050390737  0.049714537           15 
 3519000   0.68073424   -4.0752376    2123.9139  0.050296342  0.049703876           10 
 3520000   0.68976766   -4.0632477     2129.012  0.050402745    0.0496932            5 
 3521000   0.69110635   -4.0818755    2125.5987  0.050307647  0.049682461            5 
 3522000   0.67261641   -4.0580202    2121.3434   0.05019268  0.049671748            5 
 3523000   0.68927914     -4.05961    2121.1248  0.050173262  0.049661043            4 
 3524000   0.69705619   -4.0624368    2121.8228  0.050175531  0.049650355            3 
 3525000   0.67516538   -4.0599777    2124.0203  0.050213247  0.049639664            6 
 3526000   0.69149417    -4.087619    2119.6216  0.050095046   0.04962882            6 
 3527000   0.68410723   -4.0600458    2122.3953  0.050146378  0.049618009            5 
 3528000    0.6989863   -4.0813217    2125.9464  0.050216043  0.049607173            5 
 3529000   0.66905038   -4.0611198     2122.455  0.050119368  0.049596439           10 
 3530000   0.69511019   -4.0462928    2124.3765  0.050150531  0.049585679            7 
 3531000   0.67734744   -4.0467134    2128.9433  0.050244106  0.049575029            8 
 3532000   0.68100592    -4.067826    2126.2643  0.050166674  0.049564246            4 
 3533000   0.67774448   -4.0511447    2124.3433  0.050107163  0.049553581            6 
 3534000   0.69616331   -4.0744281    2123.6169  0.050075855  0.049542959            6 
 3535000   0.68503281   -4.0705894    2128.1609   0.05016881  0.049532248            4 
 3536000   0.69236037   -4.0523954    2126.7373  0.050121072  0.049521547            5 
 3537000   0.67179983   -4.0737652    2123.6599  0.050034395   0.04951089            8 
 3538000   0.67335762   -4.0704759     2127.183  0.050103236  0.049500169            6 
 3539000   0.66540271   -4.0747974    2124.0961  0.050016392  0.049489507            9 
 3540000   0.67979779   -4.0771094    2131.3965  0.050174116  0.049478812            7 
 3541000   0.67926233    -4.074684    2128.4825  0.050091371  0.049468265            4 
 3542000   0.66116897   -4.0656206    2131.7155  0.050153292  0.049457611            5 
 3543000   0.68319511   -4.0417461    2133.5559  0.050182424  0.049446912            3 
 3544000   0.65946319   -4.0768543    2128.7202  0.050054558  0.049436293            5 
 3545000   0.69038459   -4.0716434    2127.1527   0.05000359  0.049425695            7 
 3546000   0.69919352   -4.0510818    2133.4851  0.050138304  0.049415057            4 
 3547000   0.68107314   -4.0630037    2125.9719  0.049947652  0.049404436            7 
 3548000   0.69548256   -4.0879389    2123.3337   0.04987161   0.04939376           11 
 3549000   0.67803542    -4.061379     2128.369  0.049975791  0.049383203           13 
 3550000   0.69258377   -4.0765332    2132.2198  0.050052108  0.049372575           11 
 3551000   0.67402326   -4.0672104    2136.7603  0.050144568  0.049361975            8 
 3552000   0.69350451   -4.0897651     2129.521  0.049960608   0.04935136            8 
 3553000    0.6891722   -4.0608048    2141.7194  0.050232652  0.049340815            9 
 3554000   0.66697982   -4.0727758    2134.2346  0.050043016  0.049330095            3 
 3555000   0.66000379    -4.068027    2136.9389  0.050092333  0.049319483            7 
 3556000   0.68382837   -4.0685245    2131.5005  0.049950798  0.049308911            5 
 3557000   0.69674182   -4.0758094    2134.3783  0.050004177  0.049298371            7 
 3558000     0.672467   -4.0958862    2124.1958  0.049751634  0.049287716            5 
 3559000   0.68382469    -4.055046    2131.0327   0.04989774  0.049277052            5 
 3560000   0.67231017   -4.0890164    2132.6011  0.049920438  0.049266366            9 
 3561000    0.6882451   -4.0894474    2124.5152  0.049717196  0.049255642            5 
 3562000   0.69142249   -4.0899508    2130.1482  0.049835023  0.049244935            7 
 3563000   0.68845708   -4.0710106    2133.0295  0.049888425  0.049234227            8 
 3564000   0.68969854   -4.1035033    2130.2873  0.049810309  0.049223533            7 
 3565000   0.67695273    -4.081137    2128.8001  0.049761573  0.049212878            4 
 3566000    0.6784831   -4.0518798    2141.8426  0.050052407  0.049202202            7 
 3567000   0.69488673   -4.0578063     2142.496   0.05005364   0.04919164            9 
 3568000   0.69341816   -4.0854393    2135.1251  0.049867458   0.04918105            7 
 3569000   0.67512809   -4.0516766    2133.4196  0.049813665  0.049170529            8 
 3570000   0.68136198    -4.075167    2139.7558  0.049947614   0.04915995            4 
 3571000   0.67057607   -4.0964993    2135.2381  0.049828201  0.049149309            6 
 3572000   0.68678534   -4.0669085    2144.2724  0.050025019   0.04913864            7 
 3573000   0.68009219     -4.05441    2132.6374  0.049739655   0.04912803            3 
 3574000   0.68270948   -4.0782906    2134.1254  0.049760431  0.049117401            9 
 3575000   0.67795002   -4.0870101    2130.0169  0.049650745  0.049106651            6 
 3576000   0.68484014   -4.0934441     2131.142  0.049663078   0.04909594           20 
 3577000   0.68312874    -4.080158    2134.5731  0.049729129  0.049085263            5 
 3578000   0.67767625   -4.0621622    2137.1541  0.049775343   0.04907456            7 
 3579000    0.6901322   -4.0724781    2138.2342  0.049786584  0.049063834            6 
 3580000   0.67676275     -4.09695    2138.6332  0.049781965  0.049053282            9 
 3581000   0.67022241   -4.0816312    2135.2468  0.049689259  0.049042604            6 
 3582000   0.69024819   -4.0848277    2131.3306  0.049584278  0.049032067            6 
 3583000   0.67455704   -4.0397576    2140.6932  0.049788195  0.049021491            6 
 3584000   0.67910612   -4.0890137    2135.4265  0.049651843  0.049010915           10 
 3585000   0.68699128   -4.0622892    2136.9024  0.049672301  0.049000277            9 
 3586000   0.67174836   -4.0456532    2138.5535  0.049696818  0.048989737           13 
 3587000   0.68354701   -4.0932636    2137.9505  0.049668955  0.048979151            5 
 3588000   0.67230872   -4.0717695    2139.2124   0.04968442  0.048968513            5 
 3589000   0.67087743   -4.0854054    2137.9164  0.049640485  0.048957992            9 
 3590000   0.66014452   -4.0846161    2131.7274  0.049482995  0.048947355           11 
 3591000    0.6707142   -4.0795739    2138.4248  0.049624635  0.048936749            6 
 3592000    0.6745534    -4.096704    2134.5142  0.049520096  0.048926168           13 
 3593000   0.67485978   -4.0702366    2139.9168  0.049631617  0.048915588           10 
 3594000   0.68979624   -4.0924217    2141.9045  0.049663895  0.048905027            7 
 3595000   0.67437469    -4.086327    2145.8616  0.049741809  0.048894447            9 
 3596000   0.69063646   -4.0970413    2140.8159  0.049611047  0.048883959            8 
 3597000   0.68771622   -4.0959194    2136.8911  0.049506327  0.048873365           12 
 3598000   0.68343274   -4.0881348     2142.254  0.049616778  0.048862814            7 
 3599000   0.67296306   -4.0984172    2138.6291  0.049519058  0.048852297            6 
 3600000    0.6763384   -4.0899925    2145.9246   0.04967418  0.048841766            8 
 3601000    0.6711373   -4.0790882    2143.8665  0.049612759  0.048831336            5 
 3602000   0.67575417   -4.1062172    2140.3283  0.049517127  0.048820895            5 
 3603000   0.67091513   -4.0999401    2141.6301  0.049533492  0.048810378            9 
 3604000   0.67767113   -4.0809716    2149.4414  0.049700366  0.048799902            6 
 3605000   0.66753189    -4.104808    2143.7249  0.049554435   0.04878943            7 
 3606000   0.67003016   -4.0819882    2134.7582  0.049333477  0.048778948            5 
 3607000   0.67470048   -4.0971741    2143.7062  0.049526526  0.048768442            3 
 3608000   0.68484724   -4.0962052    2139.9686  0.049426474  0.048757941            7 
 3609000   0.66793683   -4.1077253    2141.4306  0.049446537  0.048747371            7 
 3610000   0.67796736   -4.0844619     2139.017  0.049377125  0.048736795            6 
 3611000   0.68109104   -4.0790165    2141.8918  0.049429793  0.048726238            8 
 3612000   0.67668882   -4.0996036    2137.1439  0.049306568  0.048715688            9 
 3613000    0.6729781   -4.0885602    2144.7796  0.049469037  0.048705115            8 
 3614000   0.67908801   -4.0858915    2141.0076  0.049368374  0.048694629            3 
 3615000   0.69042736   -4.1094525    2148.0124  0.049516192  0.048684103            6 
 3616000   0.68035913   -4.0804515    2140.0301   0.04931854  0.048673608           10 
 3617000   0.67536077   -4.1017054    2149.0754  0.049513302  0.048663157            6 
 3618000   0.66197265   -4.0578188    2151.7291   0.04956074  0.048652601            5 
 3619000   0.68072219   -4.0861642    2138.1294  0.049233892  0.048642043            7 
 3620000   0.68824706   -4.0867088    2141.3834  0.049295197  0.048631506            5 
 3621000   0.67435048   -4.0631728     2149.256  0.049462763  0.048621043            7 
 3622000   0.68119063    -4.069907    2150.9963  0.049489148  0.048610609            3 
 3623000   0.66784444   -4.1249687    2144.3445  0.049322488   0.04860008            7 
 3624000   0.68100638    -4.086286    2141.3689  0.049240455  0.048589563           21 
 3625000   0.66041526   -4.0768997     2146.978  0.049355816   0.04857906            3 
 3626000   0.67369576    -4.099383    2140.6885  0.049197658  0.048568508            7 
 3627000   0.66452057   -4.0856035    2147.3999  0.049338294  0.048557977            6 
 3628000   0.66129043   -4.0865979    2138.8666  0.049128689  0.048547356            6 
 3629000   0.68057712   -4.0971564    2145.0029  0.049256061  0.048536689            6 
 3630000   0.66180367   -4.0957691    2142.0912  0.049175647  0.048526054            7 
 3631000   0.66847642   -4.0811024    2147.3262   0.04928225  0.048515453            4 
 3632000   0.66086605   -4.1161634    2138.2569  0.049060593  0.048504828            7 
 3633000   0.67790017   -4.0949394    2139.5203  0.049076068  0.048494186            4 
 3634000   0.66334549   -4.0773555    2148.0855  0.049258977  0.048483583            7 
 3635000   0.66902493    -4.103571    2139.4866  0.049048293   0.04847289           12 
 3636000   0.67200267   -4.1140829    2148.5185  0.049241807  0.048462151            5 
 3637000    0.6653763   -4.0809638    2142.7375  0.049095809  0.048451505            6 
 3638000   0.65732137   -4.1251705    2141.9266   0.04906374  0.048440799            4 
 3639000   0.67853913   -4.0843383    2142.4488  0.049062216  0.048430049            7 
 3640000   0.67632758   -4.1034882    2141.4621  0.049026146  0.048419336            3 
 3641000   0.68310961   -4.1053994    2145.0036  0.049093739  0.048408705            9 
 3642000   0.68436818   -4.0880541    2144.2263  0.049062473  0.048398013            4 
 3643000   0.66397551   -4.0808879      2147.43   0.04912229   0.04838733            6 
 3644000   0.67326113   -4.0904541    2144.7118  0.049046646  0.048376666            7 
 3645000   0.67305997   -4.0949049    2147.0153  0.049085856  0.048366017           12 
 3646000   0.66135403   -4.0964204     2141.833  0.048953946  0.048355279           10 
 3647000   0.68337321   -4.1024258    2138.2047  0.048857616  0.048344643           16 
 3648000   0.66664375      -4.0835    2153.3086   0.04918925  0.048334065            8 
 3649000   0.66592934   -4.1041247     2147.843   0.04905095   0.04832342            5 
 3650000   0.66486388   -4.0656238    2147.1779  0.049022325  0.048312823            7 
 3651000   0.67104994   -4.0925099    2141.3229   0.04887526  0.048302204            4 
 3652000   0.67860399   -4.1030191    2144.9858  0.048945459  0.048291527            7 
 3653000   0.66629311   -4.0817764    2139.7859  0.048813439    0.0482809            6 
 3654000   0.67270682   -4.1002168    2144.6707  0.048911484  0.048270296            3 
 3655000   0.67233262   -4.1031412    2141.8958  0.048834833  0.048259632           13 
 3656000   0.67363096   -4.1040011    2146.1259  0.048917895  0.048248968            7 
 3657000   0.64442087   -4.0976398    2145.2348  0.048884212  0.048238236           19 
 3658000   0.65629252   -4.0948327    2141.9581  0.048796202  0.048227533            6 
 3659000   0.66720847    -4.115513    2140.9285  0.048759418  0.048216827            7 
 3660000   0.66700843   -4.1079954     2141.912  0.048768489  0.048206079            6 
 3661000   0.67304681   -4.1186578    2142.3857  0.048765949   0.04819528           11 
 3662000   0.68267006   -4.1000298    2145.5493  0.048824625  0.048184605            4 
 3663000   0.66762472   -4.1168895    2140.4503  0.048695293   0.04817391           10 
 3664000   0.66133882   -4.1055056    2143.7043  0.048756011  0.048163265            6 
 3665000    0.6517942   -4.0999352    2140.3801  0.048667125  0.048152568           14 
 3666000    0.6463363   -4.0866877    2144.1268  0.048739017  0.048141862            6 
 3667000   0.65839214   -4.1062253    2144.8633  0.048742462  0.048131102            5 
 3668000     0.658825   -4.1067752    2145.0611  0.048733667  0.048120468            3 
 3669000    0.6579162   -4.1061173    2143.1127  0.048676131  0.048109847            9 
 3670000    0.6626808   -4.0995735    2149.2089  0.048801292   0.04809915            6 
 3671000   0.66919922   -4.1123426    2142.9429  0.048645756  0.048088473            5 
 3672000   0.66122118   -4.0853445    2143.5412  0.048646087  0.048077835           10 
 3673000   0.66739107    -4.087956     2149.269  0.048762796  0.048067251           17 
 3674000   0.65190532   -4.1069503    2143.3886  0.048616146  0.048056654            5 
 3675000   0.66567334   -4.1341844    2139.8542   0.04852277  0.048045946           13 
 3676000   0.67972693   -4.1138839    2145.5537  0.048638775  0.048035268            4 
 3677000   0.65754865   -4.1059977    2141.6437  0.048536934   0.04802469           11 
 3678000   0.67589505   -4.1235574     2143.176  0.048558457  0.048013985            4 
 3679000   0.66121338   -4.0987641     2150.602  0.048713464  0.048003374           13 
 3680000    0.6712091   -4.0914512    2150.3021  0.048693435  0.047992763           14 
 3681000   0.66568153   -4.1148088    2149.6871  0.048666283  0.047982142            9 
 3682000   0.65731251   -4.1195288    2136.4763  0.048354072  0.047971413            7 
 3683000   0.65080011   -4.1189883    2145.2635  0.048539766  0.047960761           15 
 3684000   0.67841772    -4.103015    2147.1026  0.048568192  0.047950119           12 
 3685000   0.66463878    -4.111288    2149.1589  0.048601512  0.047939479           22 
 3686000   0.65938614   -4.1132858    2148.4435  0.048572153  0.047928804            8 
 3687000   0.67133651   -4.1169607     2151.408  0.048625984  0.047918147            8 
 3688000   0.64827649    -4.124062    2149.3522  0.048566345  0.047907567           11 
 3689000   0.64902816   -4.1364445     2148.249   0.04852826  0.047896947            4 
 3690000   0.66003701    -4.106394    2153.7593   0.04863955  0.047886359           10 
 3691000   0.65590011   -4.0915215    2150.0288  0.048542148  0.047875832            7 
 3692000   0.67724021   -4.1165509    2150.3524  0.048536303  0.047865189            7 
 3693000   0.66057985   -4.1197751    2153.0103  0.048583138  0.047854555            7 
 3694000   0.65113974   -4.1232118    2149.9063  0.048499962  0.047844067            8 
 3695000   0.66173892   -4.1068343    2147.1644  0.048424997  0.047833537            4 
 3696000    0.6702905   -4.1131649    2148.4646  0.048441212  0.047822986            9 
 3697000   0.66367021   -4.1232559    2146.1889  0.048376813  0.047812421            3 
 3698000   0.66850762   -4.1118659    2150.6501  0.048464263  0.047801875            4 
 3699000   0.65986669   -4.1340555    2147.7572  0.048385987  0.047791254           13 
 3700000   0.67771978   -4.1172763    2148.7203  0.048394601  0.047780658            4 
 3701000   0.65873248   -4.1284677    2147.7474  0.048359619  0.047770056            8 
 3702000   0.66329788   -4.1419135    2151.4154  0.048429124  0.047759476            6 
 3703000   0.65600159   -4.1224901    2146.9852  0.048316347   0.04774886            6 
 3704000   0.66840295   -4.0953423    2151.4029  0.048402693  0.047738285            5 
 3705000   0.67508053   -4.1118252    2150.8892  0.048378074  0.047727698            5 
 3706000   0.65751499   -4.1207762    2148.1317  0.048303015  0.047717064            8 
 3707000     0.655405   -4.1164994      2139.57  0.048097519  0.047706467           10 
 3708000   0.64932407   -4.1151492    2148.8738  0.048293639  0.047695813           11 
 3709000   0.66989819   -4.1278515    2151.9866  0.048350557  0.047685189            9 
 3710000   0.65249462   -4.1281886     2150.823  0.048311388  0.047674624            8 
 3711000   0.65784087   -4.1182981     2150.894  0.048299965  0.047664079            8 
 3712000   0.65526068   -4.1194868    2151.5305   0.04830124  0.047653432           14 
 3713000   0.65567763   -4.0979317    2152.8925  0.048318801  0.047642896            6 
 3714000   0.65352562   -4.1145201    2156.1864  0.048379699   0.04763242            5 
 3715000   0.66521645    -4.120688    2151.8876  0.048270247  0.047621898            5 
 3716000   0.66032577   -4.1242426    2152.2989  0.048266481  0.047611326            6 
 3717000   0.66973724   -4.1212771    2154.0283  0.048292267  0.047600701           16 
 3718000   0.65740377   -4.1347914    2155.1553  0.048304539  0.047590188           10 
 3719000   0.65443692   -4.1224263    2149.7828  0.048171165  0.047579629           10 
 3720000    0.6569408   -4.1271166    2156.6033  0.048311005  0.047569106            7 
 3721000   0.65182063   -4.1205934    2148.1045  0.048107688  0.047558622            6 
 3722000   0.64393311   -4.1115384    2155.5511  0.048261488  0.047548151            6 
 3723000   0.65033899   -4.1341332     2158.449   0.04831339  0.047537753            7 
 3724000   0.66914627   -4.1342641     2157.351  0.048275845  0.047527335            9 
 3725000   0.66200164   -4.1035109    2158.6794  0.048292603  0.047516834            3 
 3726000   0.67010722   -4.1347028    2163.8039  0.048394255  0.047506434            6 
 3727000   0.64637539   -4.1406395    2158.6662  0.048266393  0.047496042           10 
 3728000   0.65688279   -4.1362875    2158.8709  0.048258023  0.047485579           10 
 3729000   0.65638135   -4.1395998    2154.4145  0.048145492  0.047475093            9 
 3730000    0.6471444   -4.1214518    2154.1356  0.048126354  0.047464651            8 
 3731000   0.64508514   -4.1232786    2153.6104  0.048101723  0.047454256            6 
 3732000   0.66305951   -4.1126826    2163.4257  0.048308005  0.047443819           12 
 3733000   0.65447578   -4.1208234    2155.0817  0.048108797  0.047433392           11 
 3734000   0.64836778    -4.127217    2162.3782  0.048258753  0.047422876            9 
 3735000   0.65859505   -4.1367669    2150.4086  0.047978773  0.047412435            5 
 3736000     0.660655   -4.1337388    2154.8393  0.048064759  0.047401982            7 
 3737000   0.65653843   -4.1239523    2160.2284  0.048172072  0.047391551            7 
 3738000   0.64335218   -4.1211707    2158.7455  0.048126127  0.047381089            9 
 3739000   0.66316866   -4.1405329    2153.1438  0.047988407  0.047370497            5 
 3740000   0.65220074   -4.1263744    2155.6578  0.048031592  0.047360013            6 
 3741000   0.66917449   -4.1145661    2154.5515  0.047994107  0.047349567            7 
 3742000    0.6480091   -4.1168245    2158.7685  0.048075194  0.047339229            7 
 3743000   0.66108184   -4.1235982    2159.3781  0.048075921  0.047328711            5 
 3744000   0.65656468   -4.1347751    2158.6634  0.048047174  0.047318221            4 
 3745000   0.65062624   -4.1487189    2155.2392  0.047958148  0.047307683           18 
 3746000   0.65261727   -4.1309543    2152.0531  0.047874469  0.047297195            5 
 3747000   0.64827023    -4.112056    2165.5044  0.048160848   0.04728668           14 
 3748000   0.64711243   -4.1243707    2157.6105  0.047972485  0.047276178            4 
 3749000   0.67566704    -4.135144    2155.6485  0.047916077  0.047265635            5 
 3750000   0.65331135   -4.1490093    2157.4104  0.047942454  0.047255088            7 
 3751000    0.6641763   -4.1264763    2153.1345  0.047834678  0.047244622            7 
 3752000   0.65509086    -4.119101    2156.7393  0.047901992  0.047234037           11 
 3753000   0.65165659   -4.1448137    2154.8921  0.047848213  0.047223446            4 
 3754000    0.6565824   -4.1450925    2152.6065   0.04778473  0.047212881            6 
 3755000   0.64209772   -4.1351008    2157.8752  0.047888929  0.047202286            6 
 3756000   0.65229506   -4.1272889    2160.4027  0.047932256  0.047191738            6 
 3757000   0.64753717   -4.1285987    2157.8843  0.047863639  0.047181138            9 
 3758000   0.64164795   -4.1328744    2155.8848  0.047806564  0.047170599            5 
 3759000   0.65465463   -4.1372523    2157.8073  0.047836465   0.04716007           12 
 3760000   0.64363803   -4.1355731    2155.2951  0.047768065  0.047149505           10 
 3761000   0.65918286   -4.1399784    2158.8038  0.047833107  0.047139004            8 
 3762000    0.6650474   -4.1338296    2155.3783  0.047744513  0.047128481            7 
 3763000   0.64387777   -4.1301068    2157.3995  0.047776586  0.047117941            7 
 3764000   0.65867577   -4.1394645    2153.1285  0.047669334   0.04710736            6 
 3765000   0.65883943   -4.1338611    2160.5207  0.047820289  0.047096823            9 
 3766000   0.64973758   -4.1146955    2156.3239  0.047714726  0.047086345           16 
 3767000   0.64787182   -4.1282075    2157.6189  0.047730708  0.047075857            8 
 3768000   0.65295269    -4.124766    2158.8757  0.047745835  0.047065321           13 
 3769000   0.64457472   -4.1501926    2158.4802  0.047724423  0.047054792           10 
 3770000   0.65650235   -4.1337769    2164.1481   0.04783705  0.047044363            5 
 3771000   0.64046078   -4.1455678    2159.2083  0.047715202   0.04703389            7 
 3772000   0.65047789    -4.136798    2157.8699  0.047672984  0.047023364           11 
 3773000   0.64644573   -4.1231715    2162.4023  0.047760455  0.047012858            6 
 3774000   0.64612179    -4.135547    2159.9699  0.047694089  0.047002354            6 
 3775000   0.64812376   -4.1189698    2158.3265  0.047645177   0.04699189            5 
 3776000   0.64770554   -4.1329831    2164.0501  0.047758875  0.046981468            6 
 3777000   0.64865064   -4.1569435    2158.9377  0.047633432  0.046970951           10 
 3778000   0.63441004   -4.1228491    2165.7175   0.04777037  0.046960488            8 
 3779000   0.63499676   -4.1287667    2164.4828  0.047730503  0.046950048           16 
 3780000   0.65374035   -4.1276447    2162.2528  0.047668712   0.04693959           17 
 3781000   0.65440162   -4.1512187    2160.5396  0.047618346  0.046929025            7 
 3782000   0.65362327   -4.1428255    2154.8357  0.047480075   0.04691852            4 
 3783000   0.63420197   -4.1656224    2154.6193  0.047462756  0.046908017           19 
 3784000    0.6513719   -4.1365435    2159.0247  0.047547233  0.046897437           12 
 3785000    0.6459837   -4.1425923    2156.3276  0.047475288  0.046886942           14 
 3786000    0.6498857   -4.1314074    2160.5182  0.047554988  0.046876395            8 
 3787000   0.66022205   -4.1340261    2159.3426   0.04751656  0.046865862           10 
 3788000   0.65569105   -4.1594154    2157.4069  0.047461432  0.046855305            3 
 3789000    0.6496417    -4.141613    2156.7465  0.047434382   0.04684471            5 
 3790000    0.6504973   -4.1415444    2152.6712  0.047332261  0.046834071            5 
 3791000     0.649774   -4.1491795    2153.6312  0.047340878  0.046823495            6 
 3792000   0.63608538    -4.145067    2159.8621  0.047465323  0.046812893            5 
 3793000   0.66400712   -4.1198572    2161.9291  0.047498222  0.046802373            3 
 3794000   0.62978443    -4.136965    2163.8841  0.047528643  0.046791899            7 
 3795000   0.64219863    -4.137779     2159.024  0.047409398  0.046781322            6 
 3796000   0.65140836   -4.1532878    2161.6577  0.047454727  0.046770703            4 
 3797000   0.64461022   -4.1463012    2157.1873  0.047344116   0.04676014           20 
 3798000   0.63980998   -4.1343092    2165.3748  0.047511295  0.046749598            8 
 3799000   0.63880641   -4.1496507    2165.2401  0.047495834  0.046739116            7 
 3800000   0.64848195   -4.1277946    2165.0951  0.047480155  0.046728616            7 
 3801000   0.64380364   -4.1375668    2165.2009  0.047469984  0.046718034            5 
 3802000   0.63591523   -4.1588468    2165.0239  0.047453618  0.046707475            5 
 3803000    0.6296213   -4.1442929    2158.8075  0.047304924  0.046696946            4 
 3804000   0.64897991   -4.1396408    2164.9119  0.047426215  0.046686383            7 
 3805000   0.64831216   -4.1441857    2160.9608  0.047327219   0.04667592            9 
 3806000   0.64583277   -4.1377527    2162.3565  0.047345344  0.046665448            7 
 3807000   0.64528707   -4.1352355    2160.8523   0.04729998   0.04665497            9 
 3808000   0.64764233    -4.154824    2163.0475  0.047335598  0.046644441            4 
 3809000   0.63260746   -4.1413321    2159.9592  0.047255605   0.04663384            6 
 3810000   0.64241555     -4.15927    2158.0099  0.047200565  0.046623228            7 
 3811000   0.62689958   -4.1695809    2164.4324  0.047328619   0.04661266           15 
 3812000   0.63276028   -4.1459312    2165.6767  0.047343405  0.046602161            8 
 3813000    0.6448917   -4.1256626    2163.7436  0.047288741  0.046591664            5 
 3814000   0.63487394   -4.1372951    2170.7155  0.047428672  0.046581189            8 
 3815000   0.64459436   -4.1589531    2164.6945  0.047284721  0.046570712            7 
 3816000   0.64738333    -4.168215    2157.9395  0.047124814  0.046560171            7 
 3817000    0.6381321   -4.1451634    2166.4929  0.047299208  0.046549636            6 
 3818000   0.63266937   -4.1403726    2163.4859  0.047221186  0.046539164            8 
 3819000   0.66304441   -4.1519409    2166.9864  0.047285205  0.046528676           10 
 3820000   0.63322179   -4.1477299    2156.4204  0.047042329   0.04651814            5 
 3821000    0.6416597   -4.1321967    2169.8255  0.047322374  0.046507641           10 
 3822000   0.63808426   -4.1381678    2160.7865  0.047112909  0.046497199            7 
 3823000   0.63460471    -4.152663    2168.8917  0.047277262  0.046486698           26 
 3824000   0.65096511   -4.1413858     2166.476  0.047212256  0.046476231            7 
 3825000   0.65238879   -4.1431598    2172.5682  0.047332641  0.046465751           16 
 3826000   0.62796344   -4.1639057    2163.8774  0.047130976   0.04645534            8 
 3827000   0.64202349   -4.1381044    2167.8798  0.047205813  0.046444826            7 
 3828000   0.64267332   -4.1496615    2165.6984  0.047145994  0.046434341            4 
 3829000   0.63163233   -4.1403995    2164.3352  0.047104013  0.046423849           24 
 3830000   0.63624562   -4.1459007    2166.6299  0.047141644  0.046413348            9 
 3831000   0.64401406   -4.1579297    2166.2656  0.047121413  0.046402816            5 
 3832000   0.63530156   -4.1312671    2168.0575  0.047148084  0.046392374            8 
 3833000    0.6285627   -4.1639394    2163.7465  0.047042059  0.046381876           18 
 3834000   0.64279497   -4.1644017    2165.8845  0.047076258  0.046371364            4 
 3835000   0.62863957   -4.1562463    2159.5426  0.046926175   0.04636083           22 
 3836000   0.65228798   -4.1363079    2167.8336  0.047094057  0.046350398            7 
 3837000   0.64142876   -4.1711445     2165.029  0.047020872  0.046339881            9 
 3838000   0.63745284   -4.1460507    2165.6617  0.047022358  0.046329343            6 
 3839000     0.639056   -4.1755373    2164.8609  0.046992726   0.04631884           11 
 3840000   0.63629838   -4.1429646    2164.5507  0.046973758  0.046308333            9 
 3841000   0.63776334   -4.1611615    2165.7933  0.046988486  0.046297825            7 
 3842000   0.63371409   -4.1500849    2165.4859  0.046969588  0.046287358           10 
 3843000   0.62670278   -4.1545377    2168.8055  0.047029351  0.046276893            3 
 3844000   0.65744478   -4.1549187     2159.211  0.046809118  0.046266315            9 
 3845000   0.65882911   -4.1497226    2165.8078  0.046939918  0.046255825            5 
 3846000   0.63441109   -4.1345192    2168.9176  0.046995094  0.046245379           10 
 3847000   0.64841147   -4.1476777    2170.0671  0.047007778  0.046234891            5 
 3848000   0.61698027   -4.1593448    2161.2625  0.046804888  0.046224328            6 
 3849000   0.64360951   -4.1608796     2168.198  0.046942886  0.046213844            6 
 3850000   0.64063224   -4.1506096    2166.5251  0.046894482  0.046203334            8 
 3851000   0.63576479   -4.1652891    2163.7256  0.046821725  0.046192782            6 
 3852000   0.63182909   -4.1757157    2165.3488  0.046844687  0.046182288            9 
 3853000   0.63401171   -4.1872145    2163.8058  0.046799157  0.046171675           12 
 3854000   0.64630112   -4.1600211    2167.5753   0.04686852  0.046161131           11 
 3855000   0.63837953   -4.1628584    2162.1012  0.046738028  0.046150539            5 
 3856000   0.62948265   -4.1605493    2161.9949  0.046723611  0.046140011            8 
 3857000    0.6432111   -4.1743712    2159.8334  0.046664795  0.046129469            9 
 3858000   0.62553939   -4.1750328    2165.9545  0.046784917  0.046118974           14 
 3859000   0.63803233   -4.1582812    2170.0542  0.046861325  0.046108515            7 
 3860000   0.63318705   -4.1770977    2168.0373  0.046805641  0.046098046            6 
 3861000   0.66116641   -4.1677596    2163.2339  0.046689845  0.046087601            8 
 3862000   0.64014859   -4.1770181    2163.8593  0.046691249  0.046077107           11 
 3863000   0.64737535   -4.1478983    2172.4464  0.046864407  0.046066708            7 
 3864000   0.62813746   -4.1707407    2171.5434  0.046832802   0.04605629            3 
 3865000   0.63699181   -4.1649026    2167.5261  0.046734069    0.0460458            7 
 3866000   0.64288744   -4.1463829    2171.9607  0.046817569  0.046035336            6 
 3867000   0.63633094   -4.1563237    2168.3282  0.046727182  0.046024862            7 
 3868000   0.62813065   -4.1563982    2174.5069  0.046848218  0.046014392            9 
 3869000   0.63056566   -4.1579926    2168.1489  0.046699166  0.046003845            8 
 3870000   0.63019265   -4.1577095    2165.7022  0.046634414  0.045993334            9 
 3871000   0.64268674   -4.1715627    2168.3223  0.046678772  0.045982792            8 
 3872000    0.6451537   -4.1737734    2171.9547  0.046744894  0.045972236            8 
 3873000   0.61595579   -4.1690945    2163.2098  0.046544664  0.045961699            6 
 3874000   0.62466776   -4.1710985    2168.2902  0.046641933  0.045951209            6 
 3875000    0.6262544   -4.1606869    2169.1916  0.046649281  0.045940661            7 
 3876000   0.63428219    -4.170506    2172.7824  0.046714449  0.045930138            7 
 3877000   0.62832042   -4.1730525    2165.9437  0.046555407  0.045919668            6 
 3878000   0.63135723   -4.1598504    2166.1958  0.046548818  0.045909229           20 
 3879000   0.62409482   -4.1719533    2171.8336  0.046657937  0.045898782           10 
 3880000   0.63309421   -4.1669698    2169.4624  0.046594984  0.045888294            8 
 3881000   0.62459775   -4.1720857    2167.7351  0.046545888  0.045877778            6 
 3882000   0.63131041   -4.1717751    2171.6085  0.046617047  0.045867317           10 
 3883000   0.63901958   -4.1650904    2170.4539  0.046580263  0.045856855            6 
 3884000   0.62375612   -4.1685075    2173.6416  0.046636662   0.04584643           11 
 3885000   0.63639922   -4.1689398    2169.2434  0.046530317  0.045835969           14 
 3886000   0.62630855   -4.1724464    2171.0495  0.046557075  0.045825535            8 
 3887000   0.62154508   -4.1498307    2182.9614  0.046800477  0.045815149            5 
 3888000   0.62767938   -4.1790845    2174.1694  0.046599995  0.045804805            4 
 3889000   0.63161948   -4.1546109     2173.771  0.046579476  0.045794433            7 
 3890000   0.63853498   -4.1641788    2172.0505  0.046530644  0.045784109           13 
 3891000   0.62667831   -4.1636499    2169.7549  0.046469521  0.045773711           11 
 3892000   0.61086566   -4.2014551    2169.0376  0.046442224  0.045763291           14 
 3893000   0.62467266   -4.1861828    2169.3635   0.04643727  0.045752813            8 
 3894000   0.62720849   -4.1678373    2173.5385  0.046514691  0.045742353           14 
 3895000   0.62619853   -4.1658167    2175.2731  0.046539861  0.045731952            9 
 3896000   0.63013891    -4.168121    2170.1924  0.046419242  0.045721565           17 
 3897000   0.62416809   -4.1667608    2169.7126   0.04639707  0.045711083            8 
 3898000   0.62555898   -4.1630405    2174.7036  0.046491868  0.045700608            5 
 3899000   0.61705953   -4.1683953    2172.8889  0.046441159  0.045690172           10 
 3900000   0.63892945   -4.1624832    2177.0254  0.046517638  0.045679802            8 
 3901000   0.62400406    -4.178343    2169.1756  0.046338024  0.045669339            5 
 3902000   0.61130766   -4.1934864    2170.7853  0.046360526  0.045658929           11 
 3903000   0.61206062   -4.1511338    2172.1323  0.046377409  0.045648489           12 
 3904000    0.6176336   -4.1733227    2174.3261  0.046412358  0.045638073           11 
 3905000   0.61935917   -4.1599232    2176.0788  0.046437875  0.045627672           11 
 3906000   0.61569273   -4.1600678     2171.646  0.046331413  0.045617223           11 
 3907000   0.62543193   -4.1715632    2168.9676  0.046262426  0.045606808            5 
 3908000    0.6404887   -4.1835739    2170.4182   0.04628152  0.045596343           20 
 3909000   0.63409786   -4.1803142    2173.1417  0.046327741   0.04558585           18 
 3910000   0.61890712   -4.1871471    2177.1849  0.046402064  0.045575396            7 
 3911000   0.63443932   -4.1653877    2173.1169  0.046303522  0.045564923            7 
 3912000   0.61537841   -4.1968037    2170.5247  0.046236466  0.045554531           12 
 3913000   0.61556636   -4.1738992    2171.7718  0.046251209  0.045544099            5 
 3914000    0.6338827   -4.1990876    2171.4903    0.0462334  0.045533614            7 
 3915000   0.62049231   -4.2023985    2170.1781   0.04619366  0.045523135            7 
 3916000   0.61257347   -4.2057452    2168.4664  0.046145438  0.045512706            5 
 3917000   0.62518819   -4.1715075    2172.5185  0.046219865  0.045502283            9 
 3918000   0.61973319   -4.1990424    2170.3178  0.046161261  0.045491838            6 
 3919000   0.60851145   -4.1899866    2176.3018  0.046276724  0.045481428            9 
 3920000   0.62549507   -4.1489359    2173.7806  0.046211322  0.045470999            5 
 3921000   0.62241841   -4.1945022    2172.8175  0.046179067  0.045460604           11 
 3922000   0.62281288   -4.2017499    2171.9889  0.046149687  0.045450176           10 
 3923000   0.62737692   -4.1804394    2175.0144  0.046202191  0.045439773            7 
 3924000   0.62562932   -4.1959334    2172.5277  0.046137609  0.045429432            7 
 3925000   0.62023504   -4.1729926     2171.577  0.046105669  0.045419055           15 
 3926000   0.61962088   -4.2039539    2171.9047  0.046100881   0.04540862           10 
 3927000   0.62705439   -4.1692878    2176.8073  0.046193178  0.045398209           13 
 3928000   0.62022002   -4.1985317    2175.9059  0.046162294   0.04538779            7 
 3929000   0.62725651   -4.1879381    2169.7712  0.046020428  0.045377347           21 
 3930000   0.62450036   -4.2025617    2175.4323  0.046128759  0.045366848           10 
 3931000   0.61429321   -4.2098471    2167.2562    0.0459437  0.045356367            6 
 3932000    0.6173674   -4.1835761    2172.5181  0.046043533  0.045345914           10 
 3933000   0.63663401    -4.181801    2174.4373  0.046072492  0.045335531            8 
 3934000   0.61068838   -4.1788176    2171.7289  0.046003408   0.04532512           11 
 3935000   0.62944088   -4.1796724    2178.1357  0.046127398  0.045314726            6 
 3936000   0.61814086   -4.1810086    2176.4408  0.046079793  0.045304331            9 
 3937000   0.61702044   -4.1947762    2170.7104  0.045946794  0.045293912           14 
 3938000    0.6159388    -4.192919    2176.4462  0.046056504  0.045283451           11 
 3939000   0.61538894   -4.2024654    2179.0079  0.046099007  0.045273079            5 
 3940000   0.63577356   -4.1670145    2181.7415  0.046145124  0.045262712           10 
 3941000   0.61242261   -4.1679712    2172.7934  0.045944205  0.045252376            8 
 3942000   0.61232449   -4.1866389    2172.7205  0.045931011  0.045242052            9 
 3943000   0.62217579   -4.2034633    2175.6549  0.045981379  0.045231681           10 
 3944000   0.63991297    -4.196092    2176.5254  0.045988112  0.045221301            9 
 3945000   0.60373931   -4.1887291    2180.2346  0.046054807  0.045210984           10 
 3946000   0.62724702   -4.1832657    2182.0415  0.046081296  0.045200646            6 
 3947000   0.62880122   -4.2246937    2180.0591  0.046027767  0.045190346            8 
 3948000   0.61545077   -4.1990869    2174.5569  0.045899968  0.045179971           13 
 3949000    0.5969219    -4.188742    2178.0055  0.045961119  0.045169651           15 
 3950000   0.60624145   -4.1962314    2179.5997  0.045983116  0.045159355            4 
 3951000   0.61981702   -4.1874141    2177.7056  0.045931527  0.045149003           10 
 3952000   0.62872159   -4.1997877    2178.2142  0.045930629  0.045138669            6 
 3953000   0.62933286   -4.1820098    2182.1989  0.046003013  0.045128359           20 
 3954000   0.62104129   -4.1866377    2177.2753   0.04588761  0.045118071           15 
 3955000   0.62531758   -4.1708356    2180.2854   0.04593943  0.045107769            6 
 3956000   0.61669709   -4.1846073    2180.1258  0.045924457  0.045097471            6 
 3957000   0.62740306   -4.1952957    2176.2593  0.045831423  0.045087145            7 
 3958000   0.61447083   -4.2100954    2171.8003  0.045725962  0.045076849            9 
 3959000   0.61866897   -4.2050474    2179.3805  0.045873969  0.045066518           10 
 3960000   0.61421253   -4.1915573    2178.0853  0.045835129   0.04505619            6 
 3961000   0.62733199   -4.2140377    2175.6414  0.045772142   0.04504586           10 
 3962000   0.61014667   -4.1984305    2171.6218  0.045676043  0.045035516            8 
 3963000   0.61001152   -4.1872488    2183.5808   0.04591599  0.045025213            8 
 3964000   0.62303644   -4.1988219     2185.864  0.045952405  0.045014928            9 
 3965000   0.60430308   -4.1966772    2175.9643  0.045732751  0.045004647           10 
 3966000   0.61347444   -4.2028216    2175.6117  0.045713812  0.044994357           13 
 3967000   0.62182432   -4.2089073    2177.0907  0.045733357  0.044984061            7 
 3968000   0.59917423   -4.2036873    2179.8209  0.045779169  0.044973761            6 
 3969000   0.61452648   -4.2057178    2187.1386  0.045921277  0.044963462           20 
 3970000   0.61687614   -4.1822797    2182.1208  0.045804383  0.044953193            7 
 3971000   0.62422786   -4.2026174    2180.3091   0.04575483  0.044942903            7 
 3972000   0.63302613   -4.2055397    2183.9121    0.0458189  0.044932639            6 
 3973000   0.62039073   -4.1973311    2177.9382  0.045682066  0.044922407           10 
 3974000   0.61075633   -4.2134681    2186.1283  0.045842314  0.044912135            8 
 3975000    0.6084523    -4.196686    2184.2753  0.045791935  0.044901858            6 
 3976000   0.62388801   -4.1888479    2177.1645  0.045631383  0.044891555           13 
 3977000   0.62386363    -4.211331    2187.7915  0.045842585  0.044881312           11 
 3978000   0.61233077   -4.2179458    2182.6143  0.045722605  0.044871069           13 
 3979000   0.61427727   -4.2085014    2187.0574  0.045804168  0.044860782           12 
 3980000    0.5934203   -4.2149212     2180.045  0.045645833  0.044850463           10 
 3981000   0.61779145   -4.2170424    2173.6792  0.045501115  0.044840184            7 
 3982000   0.62515514   -4.2086794     2173.504   0.04548602  0.044829862            6 
 3983000    0.6257583   -4.2131037    2177.3304  0.045554657  0.044819486           12 
 3984000   0.61861064   -4.2110343    2184.2264  0.045687467  0.044809166            6 
 3985000   0.60512944   -4.2043197    2175.5319  0.045494184  0.044798919            7 
 3986000     0.623175   -4.1963048    2187.1479  0.045725621  0.044788682            4 
 3987000   0.61607951   -4.2276926    2178.1187  0.045525431  0.044778414           10 
 3988000   0.59309676   -4.2131541    2178.1554  0.045514781  0.044768043           13 
 3989000   0.60107206   -4.2170749    2176.4486  0.045467715  0.044757703           12 
 3990000   0.60090914   -4.2073747     2180.468  0.045540267  0.044747398           11 
 3991000   0.61954368   -4.1992563    2183.6443  0.045595179    0.0447371           11 
 3992000   0.61737462   -4.1875863     2188.487  0.045684849  0.044726812            7 
 3993000   0.62042088   -4.2207517    2178.2049  0.045458821  0.044716539            8 
 3994000   0.62617938   -4.1939584    2182.4858  0.045536759  0.044706224            8 
 3995000     0.611705   -4.2126988    2183.9789  0.045556505  0.044695963            4 
 3996000    0.6149336   -4.1927641    2180.1234  0.045464702  0.044685742            7 
 3997000   0.60460813    -4.196649    2183.9146  0.045532369  0.044675484            8 
 3998000    0.6228497   -4.2266118    2182.2489  0.045486262  0.044665193           10 
 3999000   0.60454457   -4.2048525    2174.7525  0.045318674  0.044654938           10 
 4000000   0.60933997   -4.2251706    2181.7613   0.04545336  0.044644648           17 
 4001000   0.61528436   -4.2245669    2178.7956   0.04538023  0.044634306            7 
 4002000   0.61502084   -4.2161385     2182.204  0.045439864  0.044624039            9 
 4003000   0.61154274    -4.187069    2179.7633  0.045377703  0.044613731           16 
 4004000   0.60777009    -4.211518    2180.1366  0.045374139  0.044603477           12 
 4005000   0.60916676   -4.2113477    2183.9953  0.045443098  0.044593171            7 
 4006000   0.62032904   -4.2204847    2181.1521   0.04537261  0.044582888           16 
 4007000   0.60465669   -4.2110261    2178.0545  0.045296866  0.044572592            8 
 4008000   0.62274869   -4.2380533    2180.6523  0.045339577  0.044562285            7 
 4009000    0.6103066   -4.2010012    2182.6839  0.045370498  0.044552052            8 
 4010000   0.61036375   -4.1882638    2186.5205  0.045438914  0.044541871            7 
 4011000   0.60061769   -4.1900522    2185.3679  0.045403637  0.044531658            6 
 4012000   0.60574174    -4.219603    2182.4359   0.04533142  0.044521431           11 
 4013000   0.60499703   -4.2209295    2182.5056  0.045321573  0.044511193           16 
 4014000   0.61747254    -4.212493    2180.5026  0.045268698  0.044500941            7 
 4015000   0.62268528   -4.2072535    2188.7308  0.045428202  0.044490722           14 
 4016000   0.60603361   -4.2022657    2188.2546   0.04540701  0.044480538            7 
 4017000   0.60870142   -4.2056832    2183.7888  0.045303062  0.044470356           10 
 4018000   0.61443247   -4.2213915    2179.0443  0.045193387  0.044460143           18 
 4019000   0.61569207   -4.2314233    2185.5015  0.045316029  0.044449908            8 
 4020000   0.59419523   -4.2134724    2185.1103  0.045296647  0.044439673           15 
 4021000   0.59727454   -4.2165949    2182.2798  0.045226721  0.044429485           10 
 4022000   0.61908434   -4.2212469    2181.5391   0.04520013   0.04441921            5 
 4023000   0.61423107   -4.2371657    2182.4887  0.045208566  0.044408963           12 
 4024000   0.59783923    -4.218504    2185.5993  0.045261747   0.04439875            4 
 4025000   0.62137994    -4.218582    2184.4503  0.045226714  0.044388512           12 
 4026000   0.58994032   -4.2123748    2186.3325   0.04525444  0.044378263            5 
 4027000   0.60873803   -4.2388013    2182.5673  0.045165287  0.044368074            9 
 4028000     0.615392   -4.2193727    2182.5495  0.045153705  0.044357838            8 
 4029000   0.61230465   -4.2218306    2190.2027  0.045300792  0.044347656            6 
 4030000   0.60388829   -4.1979899    2190.5271  0.045296259  0.044337387            6 
 4031000   0.60709273   -4.1922975    2186.4626  0.045200996  0.044327206           18 
 4032000   0.62027816   -4.2133396    2182.2132  0.045101959  0.044316982           12 
 4033000   0.61048666   -4.2178968    2179.5319  0.045035373  0.044306791            9 
 4034000   0.60135669   -4.2079856    2186.4584  0.045167295  0.044296609            6 
 4035000   0.59635752   -4.2021124    2182.7826  0.045080187  0.044286467            9 
 4036000   0.59937026    -4.207066    2188.9063  0.045195455  0.044276259            7 
 4037000   0.60371966   -4.2211632    2183.7365  0.045077543  0.044266093            8 
 4038000   0.60532671   -4.2160786    2189.7265  0.045189998  0.044255951           13 
 4039000      0.60241    -4.221485    2193.9774  0.045266515  0.044245713           13 
 4040000   0.59789097   -4.2248708     2184.416  0.045058085  0.044235477           12 
 4041000   0.59793863   -4.2323047    2189.3331  0.045148335  0.044225285           23 
 4042000   0.60273475   -4.2314797    2184.3485    0.0450344  0.044215113            6 
 4043000   0.59795502   -4.2216445    2184.0793  0.045017711  0.044204941           14 
 4044000   0.60912003   -4.2153766    2191.5487  0.045160498  0.044194809           11 
 4045000   0.59950826   -4.2316064     2185.374  0.045022127  0.044184667           11 
 4046000   0.60554407   -4.2102622    2185.6158  0.045015978  0.044174511           23 
 4047000   0.60501522   -4.2319002    2186.6589  0.045026335  0.044164322            7 
 4048000   0.60582935   -4.2315307    2188.5186  0.045053495  0.044154165            9 
 4049000   0.58685783   -4.2213432    2189.2495  0.045057412  0.044144011            7 
 4050000   0.61150533   -4.2137714    2188.0037  0.045020651  0.044133909            7 
 4051000   0.60819716   -4.2166803    2189.8439  0.045047394  0.044123832            8 
 4052000   0.59925374   -4.2041547    2190.6766  0.045053401  0.044113792            3 
 4053000   0.59729684   -4.2327545    2188.2951   0.04499332  0.044103634           22 
 4054000   0.59878224   -4.2206643    2188.8905  0.044994459  0.044093453            8 
 4055000   0.59263189   -4.2333651    2186.6338  0.044936988  0.044083279           10 
 4056000   0.61237903   -4.2041745    2187.1892  0.044937318  0.044073065            6 
 4057000   0.60713351   -4.2305065    2186.9397  0.044921118  0.044062936           19 
 4058000   0.60785599   -4.2324019    2186.2245   0.04489536  0.044052776            8 
 4059000   0.58511664   -4.2164242    2189.1401  0.044944158  0.044042592           12 
 4060000    0.6002734   -4.2455686    2188.2921  0.044915683   0.04403236           10 
 4061000   0.60588396   -4.2346886    2190.2201  0.044944187  0.044022177            8 
 4062000   0.59862588   -4.2098343    2187.4239  0.044875757  0.044012046            6 
 4063000    0.6119888   -4.2306968    2184.3883  0.044802452  0.044001844            7 
 4064000   0.59552009   -4.2243857    2188.5483  0.044876728  0.043991669            5 
 4065000   0.60840787   -4.2248675    2193.7645  0.044972621  0.043981549           37 
 4066000   0.60527343   -4.2219989    2187.2524  0.044828094  0.043971395           17 
 4067000   0.60811591   -4.2204875    2186.7912  0.044807622  0.043961203            9 
 4068000    0.6002592   -4.2290742    2191.4576  0.044892198   0.04395104           10 
 4069000   0.60216435   -4.2222362    2186.5702  0.044781072  0.043940899           12 
 4070000   0.59013229   -4.2193537    2195.2073  0.044946913  0.043930733            8 
 4071000   0.60711451   -4.2384846    2185.4541  0.044736225  0.043920579            3 
 4072000   0.61662452   -4.2146099    2195.7038  0.044934999  0.043910438            6 
 4073000    0.6062856   -4.2393513    2193.1184   0.04487107  0.043900321           13 
 4074000   0.60655078   -4.2305306      2192.85  0.044854566  0.043890223            8 
 4075000   0.60890106   -4.2411319    2187.6197    0.0447366  0.043880068            8 
 4076000   0.58950826   -4.2331189     2184.249   0.04465671  0.043869858           11 
 4077000   0.59435031   -4.2248383    2192.9532  0.044823669    0.0438597            5 
 4078000   0.60319457   -4.2211986    2185.7189  0.044664845  0.043849539            7 
 4079000    0.6034929   -4.2021117    2191.2074  0.044766025  0.043839427            6 
 4080000   0.59654526   -4.2128279    2190.4723  0.044740038  0.043829294           10 
 4081000   0.59051012   -4.2428676    2187.7589  0.044673668  0.043819113           10 
 4082000   0.59684868   -4.2299085     2185.758  0.044621876   0.04380894            5 
 4083000   0.59529228   -4.2380322    2189.4922  0.044687162  0.043798828           11 
 4084000   0.59925379   -4.2281197    2188.0809  0.044647422  0.043788711            7 
 4085000   0.59148143   -4.2450941    2189.4645  0.044664718  0.043778654            8 
 4086000   0.60361965   -4.2465605    2193.9776  0.044745832   0.04376864            8 
 4087000   0.59414537   -4.2311421    2185.9388  0.044570972  0.043758512            6 
 4088000   0.61997519    -4.233496    2192.1804  0.044687304  0.043748448           13 
 4089000   0.59623048   -4.2369483    2188.4323  0.044599989  0.043738318           17 
 4090000   0.60401189   -4.2190152    2194.7772  0.044718363  0.043728178            9 
 4091000   0.58795324   -4.2406636    2189.8127  0.044606305   0.04371804            5 
 4092000   0.62194258   -4.2468295    2186.7778  0.044533599  0.043707907           15 
 4093000   0.58843483   -4.2183294    2194.6828  0.044683664  0.043697795           28 
 4094000   0.60415181   -4.2300619    2194.3351  0.044665672   0.04368772           18 
 4095000    0.5962511   -4.2450883    2188.5268  0.044536564    0.0436776            6 
 4096000   0.59784592   -4.2530829    2189.2219  0.044539834  0.043667494            7 
 4097000   0.58264904   -4.2622769    2193.5716  0.044617436  0.043657344            9 
 4098000   0.59397929   -4.2455255    2186.5436  0.044463633  0.043647172            9 
 4099000   0.60544896   -4.2291581     2188.614  0.044494878  0.043637111            8 
 4100000   0.59189246   -4.2176939     2187.531  0.044462011   0.04362706            5 
 4101000   0.59716959   -4.2466732    2192.7902  0.044558039  0.043616934            7 
 4102000   0.60264161   -4.2261566    2196.8875  0.044630413  0.043606847            6 
 4103000   0.59414535   -4.2393282    2191.9177  0.044518598  0.043596825           10 
 4104000   0.60472078   -4.2214207    2195.3197   0.04457683  0.043586769            7 
 4105000   0.60816896   -4.2176844    2196.9763    0.0445996  0.043576722            9 
 4106000   0.57849518   -4.2306525    2193.1807  0.044511704  0.043566676           12 
 4107000   0.59096188   -4.2452421    2188.9913   0.04441586  0.043556539            9 
 4108000   0.59610298   -4.2427643    2189.8539  0.044422548  0.043546377           10 
 4109000   0.58329953   -4.2470563    2192.4304   0.04446399  0.043536316            7 
 4110000   0.59328938   -4.2300472    2193.9253  0.044483481  0.043526287           15 
 4111000   0.59132687   -4.2421753    2194.0675  0.044475544  0.043516256            8 
 4112000    0.6024727   -4.2457119    2188.7339  0.044356637  0.043506158           15 
 4113000   0.59900024   -4.2284273    2197.4393  0.044522231  0.043496099           16 
 4114000   0.60080187   -4.2518263     2189.159  0.044343685  0.043486014           10 
 4115000   0.58903496   -4.2598173    2196.6675  0.044484963  0.043475849           22 
 4116000   0.60187712    -4.236163    2195.7131  0.044454834  0.043465753            9 
 4117000   0.57594007   -4.2502616    2189.7037  0.044322396  0.043455706           10 
 4118000    0.6020869   -4.2208252    2193.7621  0.044393761  0.043445597            7 
 4119000   0.58928637   -4.2351571     2200.168  0.044512583  0.043435562            8 
 4120000   0.59340219   -4.2446274    2193.9535  0.044376081  0.043425458           13 
 4121000   0.60413171   -4.2483399    2191.7348  0.044320448  0.043415394           18 
 4122000   0.59263218   -4.2569271    2190.2268   0.04427921  0.043405257           10 
 4123000   0.58895029   -4.2376279    2195.8111  0.044381338  0.043395202           12 
 4124000   0.60431096   -4.2415174    2195.7646  0.044369636  0.043385131           19 
 4125000   0.59457282   -4.2501685    2193.6352  0.044315862  0.043375053           13 
 4126000   0.58632697    -4.263322    2194.7385  0.044327405  0.043364911            6 
 4127000   0.59140402   -4.2649439    2190.9414  0.044239993  0.043354782           10 
 4128000   0.59392467   -4.2673143    2191.1926  0.044234348  0.043344706           20 
 4129000   0.58512337   -4.2552472    2194.2354  0.044285046   0.04333459            9 
 4130000   0.60140099   -4.2475519    2192.7165  0.044243675  0.043324455           10 
 4131000   0.59119013   -4.2522478    2188.7879  0.044153714  0.043314396            8 
 4132000   0.59450581   -4.2615984    2197.7115  0.044322997  0.043304378           19 
 4133000   0.58821617   -4.2422725    2191.7599  0.044192271   0.04329431           22 
 4134000   0.60111276   -4.2600337    2189.5106  0.044136241  0.043284261           11 
 4135000   0.59328227   -4.2566934      2195.18  0.044239823  0.043274213           11 
 4136000    0.5878938   -4.2445941    2194.9481  0.044224454  0.043264215           31 
 4137000   0.58754669   -4.2529525    2193.1916  0.044178383  0.043254177           11 
 4138000    0.5816444   -4.2480722    2193.5907  0.044175743  0.043244175           12 
 4139000   0.59366865    -4.232843    2194.4393  0.044182156  0.043234156           16 
 4140000   0.58557133   -4.2297936     2197.205  0.044227154  0.043224146           10 
 4141000   0.59730476   -4.2485251    2193.4453  0.044140814  0.043214111           27 
 4142000    0.5892886   -4.2336291    2194.4556  0.044150484  0.043204088            8 
 4143000   0.58786189   -4.2555787    2192.4306  0.044099094  0.043194091           18 
 4144000   0.58900241   -4.2474788    2196.9936  0.044180211  0.043184032            8 
 4145000   0.58217366   -4.2730069    2194.8219  0.044125893  0.043174037           21 
 4146000    0.5814278   -4.2440497    2197.3285  0.044165631  0.043164011            9 
 4147000   0.59116822   -4.2650236    2199.0604  0.044189784  0.043154004           14 
 4148000   0.57600483   -4.2696125    2195.3268  0.044104123   0.04314391            8 
 4149000    0.5795335   -4.2338884    2195.1887  0.044090718  0.043133862            6 
 4150000   0.58200816   -4.2636019    2193.0738  0.044037627  0.043123773           12 
 4151000   0.59145069   -4.2577786    2191.7278  0.043999997  0.043113702            4 
 4152000   0.58463813   -4.2464399    2191.5135  0.043985098  0.043103682            9 
 4153000   0.59922159   -4.2340047    2200.9386  0.044163628   0.04309369            9 
 4154000   0.57480973   -4.2528804      2193.62  0.044006179  0.043083743            7 
 4155000   0.58333726   -4.2525676    2200.2484  0.044128528  0.043073746            9 
 4156000   0.59243897   -4.2586103    2195.1302  0.044015284  0.043063746           19 
 4157000    0.5743094   -4.2584758    2189.9782  0.043901415  0.043053704           10 
 4158000   0.58434223   -4.2617351    2194.1686  0.043974841  0.043043658            9 
 4159000   0.57846607   -4.2657594    2194.3015  0.043966929  0.043033609           10 
 4160000   0.56566847   -4.2555598    2195.5614  0.043981598  0.043023579            6 
 4161000   0.59746249   -4.2540362    2189.8798  0.043857242   0.04301357           11 
 4162000   0.58606352   -4.2582079    2188.0767  0.043810602  0.043003527           15 
 4163000   0.58149701   -4.2460499    2196.1703  0.043962092  0.042993467            9 
 4164000   0.59017128   -4.2516655    2198.0736  0.043989624  0.042983456            9 
 4165000   0.57606658      -4.2976    2187.3841  0.043765188  0.042973407           10 
 4166000   0.57045484   -4.2744027    2191.3448  0.043833909  0.042963338           22 
 4167000   0.57784371   -4.2547642    2193.3355    0.0438632  0.042953275           16 
 4168000   0.60126574   -4.2621138    2193.6932  0.043859829  0.042943237           13 
 4169000   0.58778928   -4.2581245     2197.731  0.043930019  0.042933198           10 
 4170000   0.58433846   -4.2842302    2193.0104  0.043825147  0.042923155           18 
 4171000   0.59355376   -4.2774883    2192.9324  0.043813083  0.042913069           13 
 4172000   0.57572978   -4.2678773    2186.4029  0.043672159  0.042903023           13 
 4173000   0.58374151   -4.2564759    2196.4505   0.04386234  0.042892954           10 
 4174000   0.58930548   -4.2764607    2195.5793  0.043834436  0.042882946           12 
 4175000   0.58275672   -4.2536125    2201.8611  0.043949324  0.042872929           15 
 4176000   0.58694501   -4.2475209    2191.6459  0.043734952  0.042862912            7 
 4177000   0.56711204    -4.267304    2196.7756  0.043826822  0.042852922           12 
 4178000   0.58626987   -4.2574482    2197.5977  0.043832728  0.042842928           10 
 4179000   0.59835788   -4.2502994    2197.8098  0.043826471  0.042832909           16 
 4180000   0.57463986   -4.2840804    2192.9705  0.043719507  0.042822876           18 
 4181000   0.58169176   -4.2715621    2191.8746  0.043687208  0.042812843           15 
 4182000   0.57270618   -4.2506936    2193.8911  0.043716943  0.042802824           17 
 4183000   0.59235797   -4.2583723    2192.2296  0.043673392  0.042792816           10 
 4184000   0.56975415    -4.254946    2194.5896  0.043709959  0.042782715           16 
 4185000   0.57996303   -4.2822769    2198.5298  0.043777974  0.042772666           23 
 4186000   0.57427589   -4.2700178    2193.4147  0.043665686  0.042762611           10 
 4187000   0.58651736    -4.275398    2190.5496  0.043598233  0.042752487           14 
 4188000   0.59126642   -4.2528374    2194.4399  0.043665232  0.042742391           12 
 4189000    0.5808817    -4.249246    2194.6143  0.043658278  0.042732343           15 
 4190000   0.58837512   -4.2601819    2201.0795  0.043776442  0.042722281           19 
 4191000   0.58050357   -4.2777598    2195.0873  0.043646849  0.042712203           19 
 4192000   0.58295575   -4.2475362    2192.0868  0.043576789  0.042702175            8 
 4193000   0.58260541   -4.2810981    2195.5307  0.043634842  0.042692098            8 
 4194000   0.57518382   -4.3011162    2192.0703  0.043555681  0.042681985           19 
 4195000   0.57687092   -4.2544787    2196.7155  0.043637574   0.04267189           19 
 4196000   0.57316989   -4.2538911    2198.6979  0.043666546  0.042661894           20 
 4197000   0.57996476   -4.2589874    2192.3006   0.04352912  0.042651874           13 
 4198000   0.57277927   -4.2674872    2192.9537  0.043531715  0.042641821            9 
 4199000   0.59714707   -4.2474741    2196.5865  0.043593446  0.042631783            5 
 4200000   0.57121647    -4.290522    2195.2966  0.043557473  0.042621726            5 
 4201000   0.58381203    -4.273535    2197.7016  0.043594811  0.042611662            7 
 4202000   0.57820556   -4.2646529    2195.5673   0.04354211  0.042601589           13 
 4203000   0.58879199   -4.2731014    2193.8515  0.043497729  0.042591564            9 
 4204000    0.5754119   -4.2831285    2194.8602  0.043507377  0.042581495            7 
 4205000   0.59093998   -4.2698253    2196.6722   0.04353294  0.042571398            9 
 4206000   0.58062833    -4.281479    2192.3909  0.043437766  0.042561276           15 
 4207000   0.57645243   -4.2769647    2193.2415  0.043444288  0.042551152            9 
 4208000   0.59731861   -4.2637785    2196.1053  0.043490678  0.042541043            8 
 4209000   0.58687758   -4.2804757    2197.3641  0.043505269  0.042530987            7 
 4210000   0.59046721   -4.2772279    2192.4415  0.043397496  0.042520885           10 
 4211000   0.58052986   -4.2684617    2193.1749  0.043401703  0.042510738           13 
 4212000   0.58484187   -4.2722405    2194.3621  0.043414888  0.042500604           18 
 4213000   0.57082741   -4.2894692    2193.2799  0.043383177  0.042490482            9 
 4214000    0.5618496   -4.2743245    2190.7463   0.04332278  0.042480421            7 
 4215000   0.56190063   -4.2838078         2192  0.043337288  0.042470322           23 
 4216000   0.58206273   -4.2827924    2198.3493  0.043452508  0.042460236           17 
 4217000    0.5868626   -4.2663611    2194.4358  0.043364868  0.042450171            9 
 4218000   0.57688348   -4.2631175     2197.979  0.043424588   0.04244011           16 
 4219000   0.59226146   -4.2874948    2201.4208  0.043482279  0.042430076           10 
 4220000   0.58563093   -4.2744197    2196.8354  0.043381427  0.042420075            7 
 4221000   0.58355717   -4.2622741    2197.8528  0.043391234  0.042410041            9 
 4222000   0.58308862   -4.2847516    2195.5971  0.043336434  0.042399991            6 
 4223000   0.57723325   -4.2673939    2198.6743  0.043386895  0.042389929           14 
 4224000   0.57430853   -4.2855435    2194.8743  0.043301654  0.042379916            7 
 4225000   0.57146709   -4.2795694    2195.1588  0.043297017  0.042369871           11 
 4226000    0.5819572   -4.2901473    2193.4888  0.043253842  0.042359831            7 
 4227000   0.58780809   -4.2833919    2193.0089  0.043234148  0.042349732            8 
 4228000   0.58161071   -4.2882525    2191.7885  0.043199867   0.04233961           16 
 4229000    0.5748794   -4.2659462     2194.877  0.043250512  0.042329474           28 
 4230000   0.58531198   -4.2987474    2198.0523  0.043302843  0.042319352           24 
 4231000   0.57229087   -4.3142456    2199.4327  0.043319796   0.04230925           23 
 4232000   0.57047895   -4.2928181    2194.9596  0.043221479  0.042299168           19 
 4233000   0.58526782   -4.2833743    2192.2718  0.043158356  0.042289037           15 
 4234000   0.58062666   -4.2934111     2190.096  0.043105337  0.042278929            7 
 4235000   0.57116226   -4.2890314    2193.1513  0.043155279  0.042268773           25 
 4236000   0.56867792   -4.2695518    2199.0135  0.043260416  0.042258715            7 
 4237000   0.59113351    -4.270658    2196.1154  0.043193207  0.042248654            8 
 4238000   0.57337791   -4.2767789    2195.6528  0.043173918  0.042238607            6 
 4239000   0.56882915   -4.2714894    2192.1904  0.043095668  0.042228564           10 
 4240000   0.58804515   -4.2858909    2194.2796  0.043126565   0.04221848           17 
 4241000   0.55744348   -4.2861044    2193.9863  0.043110633  0.042208397           12 
 4242000   0.57342809   -4.2879087    2192.3155  0.043067647  0.042198288           15 
 4243000   0.58750588   -4.2820808     2193.146  0.043073808  0.042188154           12 
 4244000   0.57906415   -4.2707376    2194.3414  0.043087132  0.042178069            9 
 4245000   0.56054507   -4.3017154    2187.6143  0.042944921  0.042167949            9 
 4246000   0.58492759   -4.2984195    2190.7661  0.042996665  0.042157817           24 
 4247000   0.57872083   -4.2720177    2196.8565  0.043106046  0.042147767            7 
 4248000    0.5698762   -4.2954275    2194.5307  0.043050273   0.04213773           12 
 4249000   0.57616592   -4.3008698     2197.485  0.043098081  0.042127676           10 
 4250000   0.56661409   -4.2694855    2192.0448  0.042981271  0.042117622           11 
 4251000   0.56881477   -4.3054899    2192.7703  0.042985381  0.042107529           12 
 4252000   0.57584514   -4.2922032    2193.4962  0.042989498  0.042097465            6 
 4253000    0.5641395   -4.2841413    2197.8538  0.043064773  0.042087411           17 
 4254000    0.5681479   -4.2841052     2197.201  0.043041862  0.042077394           14 
 4255000   0.57533886    -4.284386    2199.4296  0.043075394  0.042067384            6 
 4256000   0.55358289   -4.2953641    2190.9576  0.042899388  0.042057333           12 
 4257000   0.57208603    -4.285836    2192.3149  0.042915882  0.042047304            8 
 4258000   0.57709694   -4.2984338    2193.8078   0.04293502   0.04203723           10 
 4259000   0.56684521   -4.2853973     2194.691  0.042942219  0.042027213            8 
 4260000   0.57338289   -4.2888848    2196.4377  0.042966308  0.042017214            8 
 4261000   0.56879833   -4.2968053    2200.4919  0.043035513  0.042007234            8 
 4262000    0.5750491   -4.2807133    2193.7999   0.04289457  0.041997231           20 
 4263000   0.58801591   -4.2950419    2192.8016  0.042864993   0.04198726            8 
 4264000   0.56544697    -4.291108     2190.616  0.042812227  0.041977207            6 
 4265000   0.57835866   -4.2886337    2196.9423  0.042925798  0.041967169           14 
 4266000   0.56431217   -4.2903519    2198.2745  0.042941758  0.041957132           20 
 4267000   0.57261921     -4.30922    2193.6398  0.042841181  0.041947072           19 
 4268000   0.56810665   -4.2948429    2194.5115  0.042848163  0.041937027           23 
 4269000   0.56279477   -4.2960489    2198.7028  0.042919943  0.041926996           16 
 4270000   0.57105831     -4.28899    2195.3589  0.042844632  0.041916972           12 
 4271000   0.57356843   -4.2863175    2193.1704  0.042791899  0.041906935           15 
 4272000   0.56499513   -4.2987497    2192.2806  0.042764524   0.04189689           10 
 4273000   0.56951103   -4.2956721    2192.5404  0.042759583   0.04188682            6 
 4274000   0.57247818   -4.2957477    2196.9846   0.04283623  0.041876751           18 
 4275000   0.55910889   -4.2924124    2195.9083   0.04280523  0.041866665           10 
 4276000   0.56326842   -4.2844157    2194.1938  0.042761806  0.041856637           11 
 4277000   0.56486385     -4.29819     2191.908  0.042707271  0.041846618           18 
 4278000   0.57348956   -4.2792307    2193.5875  0.042730004  0.041836589            9 
 4279000   0.56911365   -4.2844012    2199.5563   0.04283626    0.0418266           16 
 4280000    0.5756693    -4.281296    2206.0637  0.042952954  0.041816644            4 
 4281000   0.56900076   -4.2920425    2192.4961  0.042678816  0.041806625            8 
 4282000   0.56653275   -4.2642743    2198.5214  0.042786109  0.041796653           21 
 4283000   0.56560332   -4.2913908    2194.7836  0.042703393  0.041786708            5 
 4284000   0.57010251   -4.2707268    2195.3389  0.042704227  0.041776723            7 
 4285000   0.56022996   -4.2768246    2199.8713  0.042782405  0.041766774            5 
 4286000   0.57114949   -4.2977396    2198.1075  0.042738129  0.041756808           10 
 4287000   0.56699811   -4.2911204    2195.1312  0.042670305  0.041746763            6 
 4288000   0.56389043   -4.3014851    2195.1813  0.042661328   0.04173676           13 
 4289000    0.5692795   -4.2789477     2197.021  0.042687126  0.041726735           10 
 4290000   0.57180557   -4.2933692    2196.1883  0.042661001  0.041716732           12 
 4291000   0.55637583   -4.3097876    2198.6151  0.042698188  0.041706704           13 
 4292000   0.57285005   -4.3022339    2192.4546  0.042568627  0.041696688           12 
 4293000   0.58321999   -4.2669646    2201.9973  0.042743949  0.041686718           14 
 4294000   0.56570504   -4.3070407    2196.3102  0.042623627  0.041676753           23 
 4295000   0.57030747    -4.319865     2198.618  0.042658479  0.041666759           14 
 4296000   0.56503179   -4.2952136    2194.3305  0.042565381   0.04165672            8 
 4297000   0.56428989   -4.3088623    2193.5037  0.042539441   0.04164669            9 
 4298000   0.56171584   -4.2951334    2196.5424   0.04258846  0.041636675           12 
 4299000   0.56426046   -4.2826163    2198.9908  0.042626014  0.041626702           10 
 4300000   0.55220811   -4.2994888    2200.6909  0.042649049  0.041616715           15 
 4301000   0.55376661   -4.2846677    2196.3489  0.042555005  0.041606709           16 
 4302000   0.55378352     -4.30504    2197.2651   0.04256286  0.041596683           31 
 4303000   0.56136577    -4.308282    2198.6277  0.042579358  0.041586714            5 
 4304000   0.55565474   -4.3006565    2194.3297  0.042486247  0.041576782           10 
 4305000   0.55942212   -4.2901036    2193.0882  0.042452347  0.041566777           11 
 4306000   0.56184583   -4.3148382    2193.6856  0.042454048  0.041556761           11 
 4307000   0.56699207   -4.3102784    2196.5414  0.042499446   0.04154673           18 
 4308000   0.55835094   -4.2996598     2196.196  0.042482901  0.041536721           10 
 4309000   0.55887027   -4.3066114      2197.41  0.042496519  0.041526758           14 
 4310000    0.5537106   -4.2922225    2194.6051  0.042432427  0.041516793           11 
 4311000   0.56641917   -4.2974512    2195.6413  0.042442613  0.041506819           14 
 4312000   0.55056289   -4.3104233     2196.444  0.042448284  0.041496794           24 
 4313000   0.54337967    -4.311954    2192.8373  0.042368754   0.04148676           15 
 4314000   0.56030744   -4.3187725    2194.6628  0.042394197  0.041476722           13 
 4315000   0.56041084   -4.3073748    2188.2093   0.04225974  0.041466676           14 
 4316000   0.55087693   -4.3040545    2195.1641  0.042384231  0.041456602            7 
 4317000   0.56069486    -4.322596    2194.9599  0.042370471  0.041446576           16 
 4318000   0.55550794     -4.31865     2192.196  0.042307317   0.04143657           20 
 4319000   0.55932661   -4.3120686    2196.9174   0.04238862  0.041426581           13 
 4320000   0.56380666   -4.3147027    2196.9799  0.042380013  0.041416612            8 
 4321000   0.54617978   -4.3093904    2201.6659  0.042460579  0.041406634            7 
 4322000   0.56888842   -4.3221945    2195.8575  0.042338761  0.041396617           19 
 4323000   0.56167059   -4.3009412    2199.3343  0.042395988  0.041386623           14 
 4324000   0.56388564   -4.2870382     2197.342  0.042347788  0.041376674            9 
 4325000   0.55519784   -4.3058563    2205.3594  0.042492474  0.041366732            7 
 4326000   0.56461129   -4.2832194    2197.7382  0.042335841  0.041356833            8 
 4327000   0.56911658   -4.2954545     2200.645  0.042382038  0.041346925           17 
 4328000   0.55780517   -4.3112503    2198.0611  0.042322495  0.041336979           14 
 4329000    0.5599952    -4.308938    2198.7344   0.04232568  0.041327022           12 
 4330000   0.56202302   -4.2982077    2195.8795  0.042260961  0.041317096           12 
 4331000   0.55577576   -4.3049448    2201.0479  0.042350649  0.041307176           19 
 4332000   0.56006869   -4.2954631     2199.569  0.042312422  0.041297256           13 
 4333000    0.5575614   -4.3137167    2197.5628  0.042264075  0.041287352           22 
 4334000   0.54892608   -4.2975823    2198.9066  0.042280161  0.041277488           10 
 4335000    0.5651491   -4.3154062     2197.781  0.042248769  0.041267604            5 
 4336000   0.55950604   -4.3089916    2196.8873  0.042221849  0.041257712           12 
 4337000   0.56340311   -4.3076667    2193.7461  0.042151759  0.041247782           14 
 4338000   0.55769141   -4.3087424    2197.0465  0.042205441  0.041237863            7 
 4339000   0.55664723   -4.3101693     2197.775  0.042209706  0.041227948            5 
 4340000   0.56518187   -4.3162087    2199.6916  0.042236783  0.041217996           18 
 4341000   0.55093893    -4.315182    2197.8966  0.042192595  0.041208075           12 
 4342000   0.55724104   -4.2910313    2193.1781  0.042092317  0.041198188           12 
 4343000   0.56889654   -4.3179838    2199.1598  0.042197403  0.041188279           26 
 4344000   0.55934334   -4.3256158    2196.4161  0.042135054  0.041178334            9 
 4345000   0.55310296   -4.3286151    2200.0859  0.042195741  0.041168421           10 
 4346000   0.54723403   -4.3087898    2197.6052  0.042138464  0.041158446            9 
 4347000   0.55647935   -4.3077679    2195.8306  0.042094752  0.041148452           11 
 4348000    0.5629022   -4.3231572    2192.5391  0.042021985  0.041138506           17 
 4349000   0.54504251   -4.3108892    2200.1206  0.042157595  0.041128575            6 
 4350000   0.56409758   -4.3224056    2201.8255  0.042180565  0.041118649            5 
 4351000   0.55909857   -4.3154132    2198.8811  0.042114478  0.041108704           12 
 4352000   0.56488017   -4.3092014    2202.5525  0.042175102  0.041098798           15 
 4353000   0.54753426   -4.3256041    2201.5617  0.042146444   0.04108893            9 
 4354000   0.56043691   -4.3326548    2198.2645  0.042073659  0.041078993            7 
 4355000    0.5636583   -4.3176375    2200.3016  0.042102977  0.041069075           11 
 4356000   0.57014204   -4.3373257    2197.3005  0.042035898  0.041059143           24 
 4357000   0.54816613   -4.3146688    2199.1363  0.042061363  0.041049199           13 
 4358000   0.55214495   -4.3165483    2197.9349  0.042028738  0.041039234            8 
 4359000   0.55185338   -4.3153951    2196.5401  0.041992432  0.041029322           13 
 4360000   0.55265076    -4.286961    2200.5283  0.042059028   0.04101942            6 
 4361000   0.56351773   -4.3070983     2196.433  0.041971126   0.04100955           14 
 4362000   0.56263174   -4.3212977    2200.6767  0.042042578  0.040999652            8 
 4363000   0.54896759   -4.3113464    2204.5801  0.042107496  0.040989749           15 
 4364000   0.56081495   -4.3237571    2202.9216  0.042066177  0.040979856           14 
 4365000   0.56707838   -4.3304077    2199.6025  0.041993175  0.040969933           11 
 4366000   0.56040799   -4.3111302     2196.882  0.041931631  0.040960017           23 
 4367000   0.56741474   -4.3268942    2200.5391  0.041991816  0.040950117           41 
 4368000   0.54561504    -4.314066    2196.0083  0.041895763  0.040940209           11 
 4369000   0.54642697   -4.3375552     2197.616  0.041916838  0.040930247           14 
 4370000   0.54816411   -4.3310953     2197.257    0.0419004   0.04092031           16 
 4371000   0.55351099    -4.339485    2201.8339  0.041978073  0.040910375           10 
 4372000   0.55343469    -4.315732    2196.6562  0.041869781  0.040900486           12 
 4373000   0.55220534   -4.3243838    2197.6503  0.041879151  0.040890562           40 
 4374000   0.55592577   -4.3214514    2201.7052   0.04194683  0.040880685           11 
 4375000   0.54714326   -4.3292236    2199.7464  0.041899931  0.040870809           16 
 4376000   0.54554131   -4.3253562    2197.3123  0.041844003  0.040860953           12 
 4377000   0.55977588   -4.3177242    2195.1493  0.041793263  0.040851063            6 
 4378000    0.5421647   -4.3519196    2192.7454   0.04173796  0.040841146            8 
 4379000   0.54592749   -4.3322538    2199.3811  0.041854705   0.04083119           11 
 4380000   0.55828835   -4.3175224    2192.8723  0.041721314  0.040821288            9 
 4381000   0.54927375   -4.3219782    2199.6014   0.04183979  0.040811385           14 
 4382000   0.55591142    -4.324015    2196.8216  0.041777378  0.040801473            6 
 4383000   0.55759536   -4.3413875    2196.2965  0.041757861  0.040791565           18 
 4384000   0.55036299    -4.328051    2200.8011  0.041833963  0.040781677           11 
 4385000   0.54852466   -4.3197782    2198.3973   0.04177874  0.040771785           17 
 4386000   0.55697566    -4.320776    2197.3033  0.041748429  0.040761917           27 
 4387000   0.53634161   -4.3364161    2197.9725  0.041751624  0.040752051            6 
 4388000   0.54280941   -4.2905566    2200.1469  0.041783403  0.040742148            6 
 4389000   0.54496576    -4.319101     2202.733  0.041822986  0.040732333           22 
 4390000   0.55485553   -4.3104111    2203.7016  0.041831846   0.04072249            8 
 4391000   0.53349551   -4.3464397    2198.3744  0.041721218  0.040712663            7 
 4392000   0.54400924   -4.3208077    2201.4103   0.04176932  0.040702816           13 
 4393000   0.54132868   -4.3146935    2200.0688  0.041734364  0.040692974            9 
 4394000   0.54154218   -4.3196129    2200.7498  0.041737783  0.040683192            8 
 4395000   0.55222036   -4.3106115    2197.7574  0.041671547  0.040673375            9 
 4396000   0.54455751   -4.3387576    2205.0998  0.041801255  0.040663532           11 
 4397000   0.54621147   -4.3469156    2193.9853  0.041581103  0.040653709           14 
 4398000   0.54561024   -4.3303144    2200.3605  0.041692445  0.040643889           12 
 4399000   0.53922725   -4.3277535    2202.3753  0.041721136  0.040634088            8 
 4400000   0.54288641   -4.3341686    2201.0706  0.041686943  0.040624286            5 
 4401000   0.54464393   -4.3265047    2204.1386  0.041735563  0.040614427           16 
 4402000   0.55669578   -4.3371834     2198.964  0.041628124  0.040604595           32 
 4403000   0.54909959   -4.3368405    2195.8554  0.041559833  0.040594741            9 
 4404000   0.54283361   -4.3524839    2197.9558  0.041590142  0.040584877            8 
 4405000   0.54213897   -4.3343564    2200.1503  0.041622215  0.040575032           14 
 4406000   0.54761663   -4.3448087    2197.6913  0.041566259  0.040565187           17 
 4407000   0.55076548   -4.3388442    2203.8085    0.0416725  0.040555359           12 
 4408000   0.54187687   -4.3498175    2197.5326    0.0415444  0.040545575            4 
 4409000   0.55448744   -4.3502867    2196.2854  0.041511405  0.040535801            7 
 4410000   0.54698105    -4.326298    2204.1092  0.041649833   0.04052599           32 
 4411000   0.54747554   -4.3400588    2200.5456  0.041573067  0.040516212           19 
 4412000   0.54904124   -4.3231589     2203.285  0.041615385  0.040506459           11 
 4413000   0.54640249   -4.3506188    2202.7031  0.041594967  0.040496718           15 
 4414000   0.55306655   -4.3331709    2209.1287  0.041706856  0.040486984           11 
 4415000   0.54671817    -4.329771    2201.9207  0.041561357  0.040477187            8 
 4416000   0.53613643   -4.3524336    2199.6032  0.041508212  0.040467444           18 
 4417000   0.53353428   -4.3419205    2200.3899  0.041513658  0.040457639           10 
 4418000   0.55278418   -4.3514069    2200.2507  0.041501635  0.040447847           14 
 4419000   0.54388296   -4.3528852    2203.8293   0.04155973  0.040438033           23 
 4420000   0.55563971   -4.3509772    2206.5031  0.041600736  0.040428232           20 
 4421000   0.54201331     -4.34795    2202.6076  0.041517899  0.040418447           18 
 4422000   0.55109747   -4.3494069    2203.2084  0.041519832  0.040408664           14 
 4423000   0.54652834   -4.3401377    2201.6034  0.041480205   0.04039891            8 
 4424000   0.55662272   -4.3385242    2200.3582  0.041447375  0.040389154           13 
 4425000   0.54083169   -4.3487665    2203.5326   0.04149779  0.040379401           12 
 4426000   0.55002084   -4.3461444    2204.8529  0.041513273  0.040369627           12 
 4427000   0.55019583   -4.3574613    2199.5024  0.041403178  0.040359853           10 
 4428000   0.54783551   -4.3482762    2201.5145  0.041431694  0.040350064           10 
 4429000   0.54490757    -4.344446    2203.3486  0.041456849  0.040340345           12 
 4430000   0.53804476   -4.3450972    2203.1732  0.041444191  0.040330592           26 
 4431000   0.54430397   -4.3457787    2202.0757  0.041414197  0.040320881            9 
 4432000   0.55463663   -4.3313159    2203.3637  0.041429071  0.040311132           15 
 4433000   0.54380831   -4.3360865    2203.5424  0.041423084  0.040301428            7 
 4434000   0.55669626   -4.3294798    2200.4136  0.041354938  0.040291788            8 
 4435000   0.54486821   -4.3240442    2207.4747  0.041478292  0.040282106            9 
 4436000   0.54015889   -4.3350702    2199.4264  0.041317749  0.040272411            9 
 4437000   0.55041049   -4.3488477    2204.1345  0.041396861  0.040262687            9 
 4438000   0.54079636     -4.34297    2204.1343  0.041387531  0.040252983           25 
 4439000   0.54953934   -4.3448169    2201.2902  0.041324815  0.040243303           11 
 4440000   0.54161671   -4.3444786    2205.6502  0.041397339  0.040233591           11 
 4441000   0.52959705   -4.3520356    2202.2003  0.041323281  0.040223858           24 
 4442000   0.54443017   -4.3577666    2204.1369   0.04135031   0.04021411           21 
 4443000   0.54765111    -4.331941    2198.6266   0.04123765  0.040204392           12 
 4444000   0.53835594   -4.3566357    2200.3112  0.041259961   0.04019468            8 
 4445000   0.55001673   -4.3304412    2202.8883  0.041298992  0.040185017           21 
 4446000   0.55237604   -4.3442611    2208.5961  0.041396689  0.040175364           27 
 4447000   0.54625299   -4.3506286    2205.1418  0.041322648  0.040165666           38 
 4448000   0.54362554   -4.3659529    2201.6564  0.041248059  0.040155962           16 
 4449000   0.53563772   -4.3486428    2201.8754   0.04124289   0.04014624           22 
 4450000   0.52467089   -4.3562043    2205.1435  0.041294823  0.040136533           30 
 4451000   0.53349181   -4.3335063    2200.6342  0.041201119  0.040126845            7 
 4452000   0.54971048   -4.3408884    2204.8695  0.041271141  0.040117158            9 
 4453000   0.53764093   -4.3401017     2203.725  0.041240456   0.04010746            7 
 4454000   0.52236092   -4.3465324     2206.427  0.041281751  0.040097795           14 
 4455000   0.53915878   -4.3451784    2200.7772  0.041166802  0.040088113           14 
 4456000   0.54447337   -4.3577152    2199.6251  0.041136016  0.040078399           13 
 4457000   0.54776976   -4.3374122    2208.2671  0.041288368  0.040068695           19 
 4458000   0.52947578   -4.3522287    2202.9597  0.041179896  0.040059005           41 
 4459000   0.53521367   -4.3411655    2205.5635  0.041219323  0.040049316            9 
 4460000   0.54036867   -4.3662162    2200.5424  0.041116264  0.040039639            7 
 4461000   0.53931917   -4.3530236    2204.1167  0.041173816  0.040029928           13 
 4462000   0.53729511    -4.332381    2208.6696  0.041249619  0.040020254           31 
 4463000   0.53982807   -4.3471327    2202.9411  0.041133414  0.040010511           11 
 4464000   0.53808489   -4.3523877     2201.048  0.041088859  0.040000768            7 
 4465000   0.52205243   -4.3474948    2202.7926  0.041112218  0.039991048           13 
 4466000   0.54051739   -4.3511842    2202.9152  0.041105298  0.039981301           13 
 4467000   0.53683311   -4.3563117    2203.4593  0.041106248  0.039971584           14 
 4468000   0.54034137    -4.364283     2197.508  0.040986049  0.039961815           16 
 4469000   0.53149677   -4.3505846    2200.1662  0.041026445  0.039952049            8 
 4470000   0.54894985   -4.3629809    2203.8183  0.041085353  0.039942242           13 
 4471000   0.55379749   -4.3514171    2194.9291  0.040910481  0.039932481           14 
 4472000   0.53810564   -4.3467771    2201.1427   0.04101712  0.039922705            8 
 4473000   0.52750049   -4.3435907    2208.1208  0.041137954  0.039912978           12 
 4474000   0.53449133   -4.3534478    2197.9507  0.040939329    0.0399032           13 
 4475000   0.54253791   -4.3445417    2205.2178  0.041065509  0.039893443           20 
 4476000   0.54447739    -4.347369    2198.9523  0.040939683  0.039883706           10 
 4477000   0.53269403   -4.3579999     2198.654  0.040924987  0.039873993           34 
 4478000    0.5387048    -4.358349    2197.5115  0.040894586  0.039864248           14 
 4479000   0.53399833   -4.3661642    2200.3239  0.040937781  0.039854447           15 
 4480000   0.53032329   -4.3516469    2197.2151  0.040870817  0.039844717           13 
 4481000   0.53202314   -4.3506312    2199.0367  0.040895572  0.039834974            8 
 4482000    0.5362014   -4.3620317    2200.3932  0.040911668  0.039825252            8 
 4483000   0.52819541   -4.3663734    2201.4157   0.04092155  0.039815504           10 
 4484000   0.52947191   -4.3599695     2201.694  0.040917596   0.03980575           15 
 4485000   0.52597358   -4.3492513    2198.7487  0.040853748  0.039796027           17 
 4486000   0.54426633   -4.3550129    2200.9518  0.040885567  0.039786289            9 
 4487000   0.53796394   -4.3601407    2200.7623  0.040872934  0.039776549            5 
 4488000   0.53091773   -4.3649096    2200.3393  0.040855973   0.03976676            6 
 4489000   0.53912763    -4.353201    2200.7708  0.040854882  0.039757025           32 
 4490000   0.53085555   -4.3460249    2198.8332  0.040809822  0.039747292            9 
 4491000   0.53437798   -4.3634373    2201.8466  0.040856651  0.039737576            9 
 4492000   0.53147167   -4.3549553    2198.9332  0.040793508  0.039727816           15 
 4493000   0.53199513   -4.3546953    2199.1736  0.040788886  0.039718058           54 
 4494000   0.53284078   -4.3570194     2200.469  0.040803831  0.039708335           23 
 4495000   0.52334474   -4.3721145    2196.4946  0.040721071  0.039698566           12 
 4496000   0.53245368   -4.3603672    2198.7099  0.040753076  0.039688819            7 
 4497000   0.53141675   -4.3636917    2198.2907  0.040736245  0.039679085           48 
 4498000   0.52091377   -4.3693542     2202.576  0.040806581  0.039669363           21 
 4499000   0.54153904   -4.3456973    2199.7154  0.040744525  0.039659685           27 
 4500000     0.532899   -4.3582688    2196.5124  0.040676155  0.039649956           11 
 4501000   0.52593295   -4.3696728    2198.4466   0.04070293  0.039640161           12 
 4502000   0.53101655   -4.3627821    2201.3858  0.040748293  0.039630393           20 
 4503000   0.52634459   -4.3790207    2193.9124   0.04060094  0.039620677            6 
 4504000   0.53418324    -4.353201    2196.7463  0.040644358  0.039610941            7 
 4505000   0.54220805   -4.3586323    2203.5968  0.040762057  0.039601248            8 
 4506000   0.51999214   -4.3480536    2203.7819  0.040756434  0.039591597            8 
 4507000   0.53559596   -4.3535475    2207.3921  0.040814143  0.039581912           12 
 4508000   0.53482809   -4.3583911    2203.6518  0.040735948   0.03957224           16 
 4509000   0.51724856   -4.3734564    2198.2762  0.040627564  0.039562542           22 
 4510000   0.52530944   -4.3526776    2203.7154  0.040719057  0.039552835           12 
 4511000   0.53349619   -4.3615466    2195.8339  0.040564434    0.0395431           15 
 4512000   0.52957278   -4.3678586    2202.6458  0.040681253  0.039533322           19 
 4513000   0.53396656   -4.3826577    2195.0033  0.040531119  0.039523532           10 
 4514000   0.51672675   -4.3691725      2198.11  0.040579493  0.039513804           14 
 4515000   0.52751172   -4.3572012    2198.3563  0.040575052  0.039504089           17 
 4516000   0.53035499   -4.3628156    2202.7174  0.040646542  0.039494431           24 
 4517000   0.52332593   -4.3678115    2201.2523  0.040610514  0.039484768           20 
 4518000   0.53703932   -4.3650557    2197.8461  0.040538699  0.039475061           10 
 4519000   0.53469957   -4.3731505    2200.5463  0.040579521  0.039465373            7 
 4520000   0.53659971   -4.3724494    2203.3615  0.040622446  0.039455737           17 
 4521000    0.5310077   -4.3732068    2198.8008  0.040529397   0.03944605           15 
 4522000   0.52415201   -4.3915067     2199.363  0.040530793  0.039436313           26 
 4523000   0.51310037   -4.3671554    2198.2466  0.040501264  0.039426564           24 
 4524000   0.52863488    -4.365076    2200.4705  0.040533276  0.039416841           15 
 4525000   0.52883911   -4.3844427    2192.6162  0.040379672  0.039407103           15 
 4526000   0.52544884   -4.3845047    2197.4152   0.04045911  0.039397359           15 
 4527000   0.52401425   -4.3867194    2195.1872   0.04040916  0.039387641            6 
 4528000   0.52449534   -4.3786115    2199.5752  0.040480992  0.039377889            8 
 4529000   0.51960272   -4.3802814    2195.9535  0.040405416  0.039368122           31 
 4530000   0.52251605   -4.3829865    2197.0472  0.040416615  0.039358396            9 
 4531000   0.53720497   -4.3653791    2197.8986  0.040423354  0.039348661           26 
 4532000   0.53016419   -4.3700659    2196.0007  0.040379536   0.03933892           10 
 4533000   0.51330082   -4.3918093    2199.2224  0.040429856  0.039329136            7 
 4534000   0.51909402   -4.4062184    2196.1401  0.040364287  0.039319346           15 
 4535000   0.52418155   -4.3952082    2195.8542  0.040350132  0.039309571           23 
 4536000   0.52567926   -4.3651216    2199.7741  0.040413251  0.039299824           21 
 4537000   0.52397842   -4.3722034    2195.5576  0.040326897  0.039290111           13 
 4538000   0.52588583   -4.3629917    2200.0516  0.040400537  0.039280395           15 
 4539000   0.53075603   -4.3932965    2202.4175  0.040435072  0.039270663           18 
 4540000   0.51853651   -4.3793786    2197.0271  0.040327224  0.039260945           14 
 4541000   0.53147293   -4.3687853     2196.704  0.040312413  0.039251217           13 
 4542000   0.53576398   -4.3889822    2203.6967  0.040431835  0.039241496            6 
 4543000   0.52927472   -4.3801399    2196.5124   0.04029115  0.039231821           18 
 4544000   0.50639272   -4.3915505     2198.054  0.040310555  0.039222144           15 
 4545000   0.51267385   -4.3658192    2201.5732  0.040366212  0.039212448           16 
 4546000   0.51448797   -4.3844604    2203.1444  0.040386134  0.039202754           23 
 4547000   0.54044596    -4.386661    2198.7227  0.040296215  0.039193051           13 
 4548000   0.51787367   -4.3673537    2203.9842  0.040383761  0.039183365           12 
 4549000   0.53628943   -4.4009622     2198.851   0.04028085   0.03917366           17 
 4550000   0.53021006   -4.3644763    2199.4002  0.040282054  0.039163984           10 
 4551000   0.52108637   -4.3900825    2200.8143  0.040299097  0.039154303           10 
 4552000   0.52924973   -4.3783542    2196.6504  0.040214015  0.039144635            8 
 4553000   0.53708395   -4.3640286    2202.5915  0.040313922  0.039134978            9 
 4554000   0.51834989   -4.3859002    2200.5914   0.04026847  0.039125332           10 
 4555000   0.52854526   -4.3776381    2205.7174   0.04035341  0.039115633           17 
 4556000   0.52598367   -4.3878248    2196.6434  0.040178582  0.039105969           18 
 4557000   0.53087318   -4.3766665    2204.4131  0.040311849  0.039096324           11 
 4558000   0.53413076   -4.3758459    2197.6009  0.040178458  0.039086669            9 
 4559000   0.54156182   -4.3852943    2203.3125  0.040274046  0.039077011           16 
 4560000   0.52216892   -4.3744356    2202.6487  0.040253083  0.039067388           13 
 4561000   0.51998415   -4.3823099    2204.2596   0.04027369  0.039057726           17 
 4562000   0.51220126   -4.4013645    2199.8517  0.040184343  0.039048058            9 
 4563000   0.52334783   -4.3982515    2200.0261  0.040178721  0.039038372           11 
 4564000   0.51726374   -4.3824887    2193.3324  0.040047699  0.039028709           13 
 4565000   0.52717491   -4.3977598     2195.908  0.040085944  0.039019024           14 
 4566000   0.52350535   -4.3795677    2196.6541  0.040090782  0.039009398           15 
 4567000   0.52586352   -4.3838701    2197.3093  0.040093958  0.038999739           16 
 4568000   0.52266126   -4.3902927    2199.9778  0.040133862  0.038990075           18 
 4569000   0.51964835   -4.3887243    2199.2171  0.040111204  0.038980407           13 
 4570000   0.50757812   -4.3944621    2202.6631  0.040165264  0.038970701           22 
 4571000   0.51905531    -4.402902    2195.7217  0.040029929  0.038961003           11 
 4572000   0.51288413    -4.402056    2202.9906  0.040153663  0.038951316           31 
 4573000   0.53033796   -4.3909354    2199.7317  0.040085497  0.038941619           20 
 4574000   0.52062784   -4.4029144    2195.6437  0.040002254  0.038931915           13 
 4575000   0.52396528   -4.3945881    2198.5026  0.040045586  0.038922182           12 
 4576000   0.51556588   -4.3997083    2196.3985  0.039998516  0.038912523           32 
 4577000   0.51437494   -4.3932197    2199.2016  0.040040813  0.038902857           33 
 4578000   0.51788268   -4.4005107    2198.4609  0.040018584  0.038893192           23 
 4579000   0.52251473   -4.3930095    2198.0674  0.040002682   0.03888353            9 
 4580000   0.52539878   -4.3743815     2198.504  0.040001893  0.038873878           18 
 4581000   0.51680309   -4.3748355    2200.3075  0.040025968  0.038864222            8 
 4582000   0.52781793     -4.39701    2197.2478  0.039961585   0.03885455           14 
 4583000   0.51821991   -4.3999663    2199.7548  0.039998451  0.038844886           15 
 4584000   0.52427087   -4.4098332    2204.5723  0.040077303  0.038835193           17 
 4585000   0.50888901   -4.3859062    2201.3471  0.040009944  0.038825531           10 
 4586000   0.51781663   -4.3914186    2198.4409   0.03994841  0.038815878           27 
 4587000   0.51632549   -4.4015986    2196.9062   0.03991182   0.03880622           22 
 4588000    0.5251935   -4.3805726    2194.1526  0.039853106  0.038796542           18 
 4589000   0.51778293   -4.3991246     2192.813  0.039820095  0.038786831           19 
 4590000   0.52605243   -4.4128819    2198.6777  0.039917896  0.038777108           13 
 4591000   0.51695143   -4.4139186     2194.122  0.039826508  0.038767427           26 
 4592000     0.518778   -4.4058318    2197.7693  0.039884025  0.038757744            7 
 4593000   0.51326334   -4.4044119     2197.408  0.039868787  0.038748073           11 
 4594000   0.52878394   -4.3928262    2193.8754  0.039796027  0.038738442           18 
 4595000   0.52961731   -4.3813866    2194.5668  0.039799905  0.038728775           19 
 4596000   0.53202063   -4.3997391    2196.2101  0.039821043  0.038719125           17 
 4597000   0.51409027   -4.3887609    2198.0408  0.039845566  0.038709449           10 
 4598000   0.51302571   -4.3651128    2205.4101   0.03997046   0.03869982           20 
 4599000   0.51342993   -4.4042684    2197.3301   0.03981536  0.038690175            7 
 4600000   0.52284856   -4.4047756     2196.837  0.039797771  0.038680503           17 
 4601000   0.51589781   -4.3937661    2194.1437  0.039740341   0.03867082           18 
 4602000   0.50751168   -4.4011959     2198.141  0.039804088  0.038661169           27 
 4603000   0.51846558   -4.3786391    2198.1561  0.039795714  0.038651543           17 
 4604000   0.51211069   -4.3968109     2196.269  0.039752915  0.038641899            9 
 4605000   0.50995728    -4.407605     2200.015   0.03981207  0.038632271           14 
 4606000   0.51677753   -4.4151163    2193.7707  0.039690453  0.038622595           25 
 4607000   0.51458113   -4.3999571    2195.1317  0.039706456  0.038612945           25 
 4608000   0.52615232   -4.4148923    2195.4896  0.039704311  0.038603286           29 
 4609000   0.50128862   -4.3887995    2197.1532  0.039725776  0.038593632           11 
 4610000   0.51618921   -4.4090969     2198.714  0.039745372  0.038583992           10 
 4611000   0.51603574   -4.3956075    2199.0051  0.039742014  0.038574316           10 
 4612000   0.51472691   -4.3945242    2197.7525  0.039710764  0.038564724           21 
 4613000   0.50773406   -4.3988273    2193.4216  0.039623918   0.03855509           12 
 4614000   0.51745288   -4.3967662    2201.5956   0.03976296  0.038545424           10 
 4615000   0.51415983    -4.399617     2196.116  0.039655399  0.038535762           13 
 4616000   0.51396137   -4.3965582    2197.6833  0.039675102  0.038526132           23 
 4617000   0.51251996   -4.3949717    2196.3494  0.039642433  0.038516506           19 
 4618000   0.51195306   -4.3941394    2195.9191  0.039626085  0.038506868           12 
 4619000   0.51733781   -4.4009931    2196.3981  0.039626148  0.038497203            8 
 4620000   0.51611493   -4.4047012    2194.3439  0.039580517  0.038487525           31 
 4621000   0.51188246   -4.3941467    2191.4033  0.039518923  0.038477898           23 
 4622000   0.50936645   -4.4243646    2195.4219  0.039582826  0.038468241           16 
 4623000   0.50700784   -4.4042965    2192.5537  0.039522562  0.038458587           11 
 4624000   0.50648779   -4.3898062    2198.2996  0.039617568  0.038448973            9 
 4625000   0.50718125   -4.3757008    2201.9496  0.039674768  0.038439382            6 
 4626000   0.50476394   -4.4056045    2195.6912  0.039553451  0.038429828           18 
 4627000   0.50529891   -4.4009913    2200.6378  0.039633993  0.038420213           70 
 4628000   0.50286726    -4.394005    2195.5574  0.039533949  0.038410629           31 
 4629000   0.51223414   -4.3797918    2203.3605  0.039665884   0.03840104           13 
 4630000   0.49983099   -4.4052277    2194.1353  0.039491276  0.038391466           17 
 4631000   0.51205556   -4.4003477     2197.573  0.039544608  0.038381859            7 
 4632000   0.52345056   -4.4044857    2193.5206  0.039463166  0.038372203           10 
 4633000   0.51407097   -4.4019337     2197.786  0.039531369  0.038362586           23 
 4634000    0.5108774   -4.4171697    2196.8238  0.039505535  0.038352917           11 
 4635000    0.5122519   -4.3945895    2195.7221  0.039477204  0.038343266            8 
 4636000   0.51154671   -4.4192885     2197.922  0.039508233  0.038333631           24 
 4637000   0.50531341   -4.4108607     2197.122  0.039485335  0.038323996           20 
 4638000   0.52214263   -4.4167147    2193.7623  0.039416457  0.038314377           20 
 4639000    0.5093475   -4.4245833    2191.9118  0.039374718  0.038304741           23 
 4640000   0.50649487   -4.4154682    2193.9473  0.039402789  0.038295083           19 
 4641000   0.51419076   -4.4322338    2198.2759  0.039472022  0.038285471           16 
 4642000   0.51948747   -4.4238681    2194.0901  0.039388377  0.038275835           11 
 4643000   0.51581015   -4.4101555    2200.2311  0.039490113  0.038266222           48 
 4644000   0.51249021   -4.4191866    2194.3008  0.039375194  0.038256609           60 
 4645000   0.51076172    -4.396953    2198.5008  0.039442066  0.038247001           31 
 4646000   0.49980636   -4.4130894    2198.4434  0.039432548  0.038237416           17 
 4647000   0.50277839   -4.4110605    2194.0989  0.039346153  0.038227822           10 
 4648000   0.51567279   -4.4194224    2196.4939  0.039380628  0.038218199           14 
 4649000   0.49987029   -4.4095483    2198.4986  0.039408092  0.038208608            8 
 4650000   0.49977183    -4.394189    2197.3833  0.039379629  0.038199019           15 
 4651000   0.50632276   -4.3957247    2196.4095  0.039353714   0.03818945           16 
 4652000   0.50107422   -4.4162344    2193.8499  0.039299403   0.03817987           37 
 4653000   0.51254926    -4.429628    2198.4354  0.039373082  0.038170312           10 
 4654000   0.50646884   -4.4033109    2192.9403  0.039266228   0.03816074           24 
 4655000   0.51496933   -4.4277111     2190.571  0.039215377  0.038151135           15 
 4656000   0.51270857   -4.4317733     2197.772  0.039335838  0.038141555           18 
 4657000   0.50542794   -4.4184885    2192.3668  0.039230671   0.03813197           46 
 4658000   0.51102692   -4.4089585    2199.3799  0.039347715  0.038122377           23 
 4659000   0.50053715   -4.4167514    2199.6364  0.039343858  0.038112766           10 
 4660000   0.50475934   -4.4287619    2192.7332  0.039211968  0.038103168           14 
 4661000   0.50561137   -4.4162617    2194.1738   0.03922931  0.038093586           25 
 4662000   0.50789792   -4.4107359    2192.9528  0.039199071  0.038084002           19 
 4663000   0.49948233   -4.4221836    2196.6663  0.039257028  0.038074422           60 
 4664000   0.50336717   -4.4161539    2193.4614  0.039191348  0.038064839           25 
 4665000   0.50144629   -4.4254963    2196.9471  0.039245215  0.038055256           36 
 4666000    0.5100179   -4.4269201    2194.8529  0.039199402  0.038045694           21 
 4667000   0.51038459   -4.4228901    2195.2481  0.039198059   0.03803613           32 
 4668000   0.51324189   -4.4120068    2195.1643  0.039188166  0.038026542           18 
 4669000   0.50646421   -4.4148602    2198.3014  0.039235764  0.038016992           25 
 4670000   0.51655678   -4.4183209    2193.1152  0.039134818  0.038007482           22 
 4671000   0.49865174   -4.4126387    2194.5284  0.039151653  0.037997989           36 
 4672000   0.50360354    -4.420326    2198.3578  0.039211577   0.03798846           36 
 4673000   0.50634466   -4.3888145    2197.5427   0.03918865  0.037978912           25 
 4674000   0.49486362   -4.4109973    2206.8213  0.039345694  0.037969368           53 
 4675000   0.51370698   -4.4129631    2200.5981  0.039226347  0.037959855           60 
 4676000   0.50089364   -4.4277336    2191.9574  0.039063968  0.037950329           21 
 4677000   0.50107726   -4.4197281    2195.5528  0.039119678  0.037940788           29 
 4678000   0.50274462   -4.4171625    2196.3472  0.039125466  0.037931272           14 
 4679000   0.51297066   -4.4062985    2201.0329  0.039200558  0.037921777           16 
 4680000   0.50091959   -4.4188708    2195.2893  0.039089909  0.037912295           23 
 4681000   0.49976152     -4.43046    2198.2339  0.039133979  0.037902782           28 
 4682000   0.49752559   -4.4135869    2199.8376  0.039154166  0.037893279           15 
 4683000   0.49528418   -4.4143915    2199.0577  0.039131926  0.037883797           33 
 4684000   0.50341439   -4.4179798    2199.3817  0.039129336  0.037874293            9 
 4685000   0.50148335   -4.4254237    2191.9211   0.03898828  0.037864761           11 
 4686000   0.49879537    -4.411855    2197.7673  0.039083925  0.037855257            9 
 4687000   0.49735681   -4.4147619    2195.6262  0.039037519  0.037845748           19 
 4688000   0.49927448   -4.4174463    2198.3545   0.03907769  0.037836237           24 
 4689000   0.50914704    -4.405505    2196.3153  0.039033115  0.037826734           17 
 4690000   0.50658698   -4.4206553    2206.9771  0.039214234  0.037817265           16 
 4691000   0.49783439    -4.429548      2200.29  0.039087082  0.037807803            7 
 4692000   0.49919518   -4.4217453    2198.4571  0.039046197   0.03779833           15 
 4693000   0.50473637   -4.4161398    2197.0634   0.03901313  0.037788836           26 
 4694000   0.49843025   -4.4396155    2200.8902  0.039072756   0.03777935           14 
 4695000   0.51298445   -4.4378352    2198.5162  0.039022296  0.037769875           26 
 4696000   0.50992229   -4.4293389    2194.9929  0.038951464  0.037760414           13 
 4697000   0.48902868   -4.4249912    2201.1613  0.039052611  0.037750938           12 
 4698000   0.49633008   -4.4197557    2201.6112  0.039052278  0.037741504           11 
 4699000   0.50622755   -4.4153638    2197.5629  0.038972173  0.037732106            9 
 4700000   0.50653127   -4.4363143     2197.541  0.038963492  0.037722699           45 
 4701000   0.49651509   -4.4337957    2200.4067  0.039006004  0.037713275           16 
 4702000   0.48822239   -4.4268384    2195.6826  0.038913983   0.03770384           13 
 4703000    0.5003188   -4.4214767    2197.3307  0.038934913  0.037694367           19 
 4704000   0.50486787   -4.4214004    2197.6034  0.038931466  0.037684899           37 
 4705000   0.49560861    -4.434175    2199.3252  0.038953688  0.037675431           18 
 4706000   0.50192281   -4.4319042    2191.4929  0.038806717  0.037665961           27 
 4707000    0.4978055   -4.4449913    2199.4645  0.038939602  0.037656507           20 
 4708000   0.49599141    -4.438146     2198.927  0.038921818  0.037647047            7 
 4709000   0.50507774   -4.4411149    2195.1713  0.038847089  0.037637559           20 
 4710000   0.50312518   -4.4356074    2201.5897  0.038952401  0.037628077           31 
 4711000   0.49349011   -4.4286685    2196.6077  0.038856005  0.037618619           14 
 4712000   0.49728649   -4.4316011    2198.4558  0.038880444  0.037609186           19 
 4713000   0.50406914   -4.4350235    2197.5107  0.038855482  0.037599739           19 
 4714000   0.50063237   -4.4239474    2200.3484  0.038897405    0.0375903           10 
 4715000   0.49765652    -4.425293    2197.1944  0.038833411  0.037580851           19 
 4716000   0.50594499   -4.4457523    2200.5275  0.038884074  0.037571425           15 
 4717000   0.49602022   -4.4473973    2196.1976  0.038799335  0.037561959           31 
 4718000   0.49379407   -4.4667749    2194.5352   0.03876175  0.037552483           44 
 4719000   0.49826476   -4.4447518    2196.0509  0.038780302  0.037543039           13 
 4720000   0.48624543   -4.4358657     2200.573  0.038851925  0.037533592           16 
 4721000   0.50165437   -4.4266588    2194.5242  0.038736924  0.037524131           10 
 4722000   0.50088173   -4.4522298    2193.2854  0.038706859  0.037514666           33 
 4723000   0.48572964   -4.4445746    2199.1097  0.038801427  0.037505239           23 
 4724000   0.49745595   -4.4484031    2195.8886  0.038736391  0.037495816           18 
 4725000   0.49863181   -4.4435126    2195.8783  0.038728012  0.037486386           15 
 4726000   0.48721619   -4.4376401    2196.1551  0.038724699  0.037476937           26 
 4727000   0.51046032   -4.4392127    2198.3542  0.038755275  0.037467486           19 
 4728000   0.49078679   -4.4410108    2201.5316  0.038803081  0.037458061           32 
 4729000   0.50454255   -4.4289952    2198.1949  0.038736077  0.037448643           17 
 4730000   0.49587357   -4.4410514    2200.4503  0.038767624  0.037439241           17 
 4731000   0.50297879   -4.4564882     2198.067  0.038717449  0.037429828           35 
 4732000   0.50030563   -4.4387624    2203.5282  0.038805441  0.037420449           13 
 4733000     0.496176    -4.442185    2197.9932  0.038699789  0.037411034           27 
 4734000   0.48049572   -4.4331241    2199.2367  0.038713503  0.037401623           21 
 4735000   0.51622617   -4.4463773    2195.1189  0.038632856  0.037392223           39 
 4736000   0.48966533   -4.4433676    2198.9165   0.03869152  0.037382813           15 
 4737000   0.48032781   -4.4417514    2197.6257  0.038660646  0.037373396           10 
 4738000   0.48998707   -4.4346673    2202.7005  0.038741742  0.037363999           13 
 4739000   0.49690116    -4.416389    2197.0692  0.038634543  0.037354613           15 
 4740000   0.49738511   -4.4445013    2200.6803  0.038689878  0.037345239           18 
 4741000   0.50067063   -4.4328399    2195.5593  0.038591706  0.037335831           15 
 4742000   0.49356947    -4.463408    2201.8756  0.038694567  0.037326397           12 
 4743000   0.49568216   -4.4489428    2196.7625  0.038596573  0.037316968            8 
 4744000   0.50340872   -4.4443654    2198.2923  0.038615309  0.037307559           20 
 4745000   0.49780418   -4.4433661    2193.4042  0.038521323  0.037298107           14 
 4746000   0.49310912   -4.4503999    2185.6827  0.038377629  0.037288629           23 
 4747000   0.49375638   -4.4568753    2196.8073  0.038564835  0.037279194           17 
 4748000   0.48662929   -4.4522899    2195.1006  0.038526758  0.037269749           17 
 4749000   0.50197976   -4.4491779     2193.944   0.03849835  0.037260321           43 
 4750000   0.50132595    -4.437117    2197.3668  0.038550295  0.037250882           26 
 4751000   0.49531524   -4.4408282    2193.4198  0.038472949  0.037241446           20 
 4752000   0.49619569   -4.4343024    2196.1543  0.038512806  0.037232026           24 
 4753000   0.49273864   -4.4371282     2197.096  0.038521214  0.037222591           15 
 4754000   0.49067578   -4.4492339    2193.1768  0.038444412  0.037213163           21 
 4755000   0.49107534   -4.4587741    2198.2129  0.038524587  0.037203736           36 
 4756000    0.4845362   -4.4287838    2201.2764  0.038570163  0.037194335           21 
 4757000    0.4852908   -4.4448471    2198.7263  0.038517382  0.037184909           27 
 4758000   0.49068472   -4.4565981     2198.767  0.038510001  0.037175488           17 
 4759000   0.50028357   -4.4633543    2199.0801   0.03850739  0.037166082           30 
 4760000   0.49424093   -4.4456542    2194.9032  0.038426176  0.037156687           21 
 4761000    0.4865757   -4.4539138    2196.8888  0.038452861  0.037147292           20 
 4762000   0.48786577   -4.4602366    2196.1174  0.038431287  0.037137902           22 
 4763000   0.49129777   -4.4603995    2189.6406  0.038309898  0.037128485           24 
 4764000   0.48697824   -4.4514402    2192.7294  0.038355887  0.037119069           16 
 4765000   0.49063842   -4.4554938    2194.6824  0.038381994  0.037109636            9 
 4766000   0.48609788   -4.4672725    2192.8462  0.038341835  0.037100172           31 
 4767000    0.4808249   -4.4384466     2194.747   0.03836702  0.037090736           16 
 4768000    0.4895078   -4.4604986    2194.6033  0.038356461  0.037081305           37 
 4769000    0.4795771   -4.4460708    2193.6381  0.038331553   0.03707188           24 
 4770000   0.47819705   -4.4341055    2198.7603  0.038413003  0.037062498           23 
 4771000   0.48753744   -4.4428431    2202.8026  0.038475556  0.037053123           26 
 4772000   0.49006668   -4.4631916    2194.2693  0.038318477  0.037043754           20 
 4773000   0.49553051   -4.4612619    2199.3854  0.038399772   0.03703437           25 
 4774000   0.48949244   -4.4530002    2203.4489   0.03846266  0.037025018           43 
 4775000   0.49460142   -4.4797007    2195.4812  0.038315554  0.037015642           26 
 4776000   0.49375346   -4.4338016    2197.0883  0.038335572  0.037006283           22 
 4777000   0.48289638   -4.4596878    2195.7972  0.038305024   0.03699694           37 
 4778000   0.48524981   -4.4369466    2201.0434  0.038388506  0.036987619           47 
 4779000   0.49533846   -4.4517066    2196.9255  0.038308669  0.036978331           35 
 4780000   0.48307146   -4.4422007    2193.7777  0.038245775  0.036969003           29 
 4781000   0.47570988   -4.4510403    2195.7684  0.038272474   0.03695966           32 
 4782000   0.48215963   -4.4590807    2197.7477  0.038298963  0.036950327           20 
 4783000   0.48724511   -4.4755087    2196.5146  0.038269472  0.036940967           31 
 4784000   0.49129848   -4.4519142    2197.3078  0.038275289  0.036931634           24 
 4785000   0.48987606   -4.4594705    2195.9962  0.038244449  0.036922253           32 
 4786000   0.49659418   -4.4750694    2191.9235  0.038165544  0.036912879           34 
 4787000   0.47968222   -4.4777695    2195.5986  0.038221547  0.036903487           18 
 4788000   0.48871278   -4.4501127    2198.1606  0.038258156  0.036894123           28 
 4789000   0.48635661   -4.4432451    2197.7247  0.038242582  0.036884777           33 
 4790000   0.47939712   -4.4402424    2196.6085  0.038215179  0.036875478           23 
 4791000   0.47892259   -4.4544154    2196.2534  0.038201025  0.036866161           27 
 4792000   0.48869319   -4.4604527    2193.9561  0.038153104  0.036856816           32 
 4793000   0.48829946    -4.451693    2198.0701  0.038216672  0.036847468           56 
 4794000   0.49527771   -4.4587966       2197.2  0.038193576  0.036838138           26 
 4795000   0.48124052   -4.4665475    2190.3467  0.038066504  0.036828805           32 
 4796000   0.49840041   -4.4646095    2196.9591  0.038173462  0.036819441           44 
 4797000   0.49574064   -4.4634219    2193.5699  0.038106627  0.036810097           47 
 4798000   0.47716977   -4.4588828    2197.7773  0.038171762  0.036800795           35 
 4799000   0.48624579   -4.4611971    2196.3719  0.038139402  0.036791482           22 
 4800000   0.48048767   -4.4653649    2195.5809  0.038117724  0.036782145           24 
 4801000   0.48662982    -4.468432    2197.1909  0.038137729  0.036772828           14 
 4802000   0.48469244   -4.4821602    2190.4331  0.038012514  0.036763505           32 
 4803000   0.48219828   -4.4406533    2197.1444  0.038121042  0.036754165           47 
 4804000   0.48672721   -4.4559884    2195.3164  0.038081398  0.036744864           67 
 4805000   0.47789241   -4.4655885    2195.3741  0.038074473  0.036735544           20 
 4806000   0.49020079   -4.4575946    2198.1446  0.038114589  0.036726222           20 
 4807000   0.47799432   -4.4579315    2197.2748  0.038091581  0.036716906           21 
 4808000   0.48388861    -4.482668    2195.7038   0.03805643  0.036707595            8 
 4809000   0.48734987    -4.465787     2198.563  0.038098063  0.036698251           34 
 4810000   0.48010955   -4.4715826    2194.8257  0.038025394   0.03668895           16 
 4811000   0.48733308   -4.4584554    2192.8897  0.037983956  0.036679651           15 
 4812000   0.47021316   -4.4628575    2197.4002  0.038054174  0.036670351           22 
 4813000   0.48924929   -4.4795487    2197.7304  0.038051985  0.036661034           10 
 4814000   0.47803936   -4.4628238    2194.3583  0.037985706  0.036651718           20 
 4815000   0.47839052   -4.4620653    2193.1405  0.037956742  0.036642428           22 
 4816000   0.49184894   -4.4735928    2195.3686  0.037987414  0.036633133           62 
 4817000   0.47907578   -4.4655504    2197.3619  0.038014012  0.036623831           20 
 4818000   0.48535698   -4.4744642    2196.2249  0.037986455  0.036614526           16 
 4819000   0.48695063   -4.4676654    2194.8634  0.037955029  0.036605237           27 
 4820000   0.48376947   -4.4752901    2193.0711  0.037916167  0.036595944           21 
 4821000   0.48828876   -4.4706478    2196.1179  0.037960967  0.036586667           37 
 4822000   0.48165953   -4.4544191     2192.033    0.0378825  0.036577359           23 
 4823000   0.48612723   -4.4602458    2193.2975  0.037896494  0.036568037           54 
 4824000   0.48910589   -4.4674121    2194.1395  0.037903184  0.036558705           28 
 4825000   0.47786158   -4.4757896    2191.6321  0.037852023  0.036549411           48 
 4826000   0.47882663   -4.4651304    2192.3655  0.037856843  0.036540106           29 
 4827000   0.48157676   -4.4459814    2195.8719  0.037909534  0.036530828           32 
 4828000   0.48130588   -4.4831539    2189.6317  0.037793974  0.036521545           21 
 4829000   0.48103602   -4.4836536    2192.7889  0.037840631  0.036512241           35 
 4830000    0.4776126   -4.4712484    2193.0387  0.037837106  0.036502929           33 
 4831000   0.47636839   -4.4720829    2192.9001  0.037826883  0.036493628           38 
 4832000   0.47532749   -4.4674599    2194.2429  0.037842213  0.036484352           26 
 4833000   0.47898751   -4.4738394    2197.8151  0.037895977  0.036475073           40 
 4834000   0.48316643   -4.4685682    2193.0363  0.037805756  0.036465786           21 
 4835000   0.48045862   -4.4677409    2198.0767  0.037884811  0.036456518           14 
 4836000   0.47905449   -4.4862083    2194.5431  0.037816086  0.036447235           57 
 4837000    0.4749414   -4.4757737    2190.6081  0.037740475  0.036437947           27 
 4838000    0.4836426   -4.4744188    2195.4342  0.037815803  0.036428668           24 
 4839000   0.46843685   -4.4866776    2193.6976  0.037778081  0.036419421           49 
 4840000   0.47550094   -4.4890551    2196.5408  0.037819228  0.036410167           37 
 4841000   0.48001985   -4.4857544    2194.5406  0.037776985  0.036400927           36 
 4842000    0.4725775   -4.4634035    2194.1438  0.037762354  0.036391673           40 
 4843000   0.47400979   -4.4744848    2192.0154  0.037717933  0.036382419           12 
 4844000   0.48531315   -4.4850232     2192.799  0.037723628  0.036373158           28 
 4845000   0.47304335   -4.4785345    2197.2879  0.037793049  0.036363911           11 
 4846000   0.48238275   -4.4672293    2192.6177   0.03770494  0.036354647           29 
 4847000   0.48807965   -4.4737801    2198.9776  0.037806506  0.036345403           13 
 4848000   0.46841594   -4.4812312    2196.5109  0.037756306  0.036336169           20 
 4849000   0.47455561   -4.4811602     2192.864  0.037685846  0.036326941           26 
 4850000   0.47061811   -4.4718808    2194.3015  0.037702775  0.036317735           20 
 4851000    0.4766563    -4.461326    2198.8802  0.037773659  0.036308519           50 
 4852000   0.47327892    -4.463347    2196.2353  0.037720448  0.036299301           74 
 4853000   0.47586662   -4.4710853    2195.3252  0.037697047   0.03629005           43 
 4854000   0.47877086   -4.4809946    2194.6561  0.037677792  0.036280796           18 
 4855000   0.47339742   -4.4873437    2198.2797  0.037732229  0.036271555           11 
 4856000    0.4768604    -4.468462    2195.8284  0.037682392  0.036262336           22 
 4857000   0.48654282   -4.4822579    2196.6947  0.037689497   0.03625312           21 
 4858000    0.4679272   -4.4728104    2196.2214  0.037673621  0.036243909           20 
 4859000   0.48156983   -4.4771302    2198.5816  0.037706346  0.036234691           33 
 4860000   0.46136698   -4.4873396    2195.3271  0.037642783  0.036225474            9 
 4861000   0.48174683   -4.4865429    2190.7852  0.037557175  0.036216235           20 
 4862000   0.46092108   -4.4745038    2194.3454  0.037610472  0.036207007           27 
 4863000    0.4839489   -4.4907534    2194.3699  0.037603158  0.036197786           21 
 4864000   0.47164582   -4.4865793    2198.3829  0.037664181  0.036188561           11 
 4865000   0.48361946   -4.4852626    2194.6995  0.037593345  0.036179343           34 
 4866000   0.47175922   -4.4791744    2198.1578  0.037644846  0.036170142           47 
 4867000   0.47454885   -4.4712449    2195.0418  0.037583758   0.03616093           30 
 4868000   0.47757588   -4.4753391    2196.0029   0.03759249  0.036151735           31 
 4869000   0.47375467   -4.4916352    2193.6579  0.037544634  0.036142533           39 
 4870000   0.47334073   -4.4878005     2190.978  0.037491068  0.036133311           33 
 4871000   0.48092933   -4.5034057    2193.0461  0.037518752   0.03612411           19 
 4872000    0.4722289   -4.4974889    2189.3231   0.03744737  0.036114894           17 
 4873000   0.46734565   -4.4812745    2196.0507  0.037554736  0.036105694           46 
 4874000   0.47069823   -4.4960216    2196.4674  0.037554154  0.036096513           25 
 4875000   0.47447002   -4.4821603    2189.6972  0.037430721  0.036087324           43 
 4876000   0.47784672   -4.5014483    2193.4459  0.037487112  0.036078117           41 
 4877000   0.47507917    -4.491936     2192.443  0.037462288  0.036068903           61 
 4878000   0.46200369   -4.4856543    2199.7624  0.037579651  0.036059713           16 
 4879000   0.46430393   -4.4906273     2190.021  0.037405564  0.036050521           24 
 4880000   0.47035909    -4.491268    2196.3105  0.037505303  0.036041309           30 
 4881000   0.47506082   -4.4892711    2189.0672  0.037373954  0.036032069           67 
 4882000   0.47521197   -4.4830957    2195.5038  0.037476168  0.036022855           19 
 4883000   0.46951251   -4.5154483    2195.4027  0.037466767  0.036013666           19 
 4884000    0.4583362   -4.4804571    2194.4201   0.03744233   0.03600449           33 
 4885000   0.46694057   -4.4852187    2193.2089  0.037414003  0.035995307           46 
 4886000   0.47440399   -4.4768197    2195.5957  0.037447055  0.035986118           33 
 4887000   0.46318197   -4.4903866    2192.3358  0.037383803  0.035976955           72 
 4888000   0.46800137   -4.4874811    2195.4587  0.037429397  0.035967769           70 
 4889000    0.4619782   -4.5035272    2189.2537  0.037315976  0.035958577           81 
 4890000   0.47245966   -4.4867944    2190.0605  0.037322095  0.035949388           95 
 4891000   0.46838876   -4.4885594    2193.2545  0.037368883  0.035940218           72 
 4892000   0.47055408   -4.5028654    2192.8858  0.037354963  0.035931024          129 
 4893000   0.46624178   -4.5069763     2189.806  0.037294877  0.035921822           67 
 4894000   0.46936816   -4.5044258    2194.3645  0.037364877  0.035912609           56 
 4895000   0.46585648   -4.5032151    2192.6535  0.037328115  0.035903402           28 
 4896000   0.46255966   -4.5039546    2191.5564  0.037301817  0.035894199           55 
 4897000   0.47260873   -4.4979104    2192.6673  0.037313105  0.035884991           71 
 4898000   0.47352646   -4.5063175    2188.3745   0.03723245  0.035875775          102 
 4899000   0.47132948   -4.5083131    2193.2272  0.037307395  0.035866579           49 
 4900000   0.46446141   -4.5004486    2191.3234  0.037267405  0.035857337           61 
 4901000   0.45578955   -4.5072086    2191.7231  0.037266597  0.035848107           85 
 4902000   0.47334413   -4.5029491    2187.7647  0.037191702  0.035838892           49 
 4903000   0.46085429   -4.5109383     2192.229  0.037259993  0.035829678           45 
 4904000   0.46741678   -4.4978051    2188.5326  0.037189583  0.035820473           73 
 4905000   0.46749354   -4.5092938     2190.143  0.037209362  0.035811258           29 
 4906000   0.46701185   -4.5022151    2189.2608  0.037186792  0.035802057          109 
 4907000   0.46856783   -4.4995721    2195.4325  0.037284025  0.035792879           68 
 4908000   0.47559945   -4.4920674     2193.375  0.037241494   0.03578368           34 
 4909000   0.47371772   -4.4965373    2192.6187  0.037221069  0.035774485           41 
 4910000   0.46385816   -4.4975321    2191.6885    0.0371977  0.035765325           46 
 4911000   0.46975854   -4.5012877    2190.6048  0.037171737  0.035756163           45 
 4912000   0.46517072   -4.5126102    2192.0683  0.037188998  0.035746978           34 
 4913000    0.4715294   -4.5033875    2190.3191  0.037151759  0.035737765           57 
 4914000   0.46535835    -4.491658    2192.8114  0.037186463  0.035728561           33 
 4915000   0.46427444   -4.5099987    2189.0937  0.037115865  0.035719367           53 
 4916000   0.46272758   -4.5081746    2189.6474  0.037117701   0.03571016           35 
 4917000   0.46458705   -4.5097538    2191.1701  0.037135959  0.035700968           36 
 4918000   0.46196128   -4.5187694    2190.5118  0.037117252   0.03569177           50 
 4919000   0.46530618   -4.5152031    2192.4533  0.037142598  0.035682593           47 
 4920000   0.45378048   -4.4848892    2190.4941  0.037101865  0.035673417           26 
 4921000   0.46860135   -4.5091607    2191.5475  0.037112163  0.035664279           66 
 4922000   0.45632604   -4.4978658    2194.6229  0.037156693  0.035655147           43 
 4923000   0.46775086    -4.497209    2190.9795  0.037087472  0.035646021           19 
 4924000   0.46994981   -4.4885007    2191.8854  0.037095271  0.035636888           63 
 4925000    0.4736976   -4.5035681     2189.148  0.037041421  0.035627772           74 
 4926000   0.45933106   -4.4940484    2192.8675  0.037096825  0.035618604           72 
 4927000   0.45847254    -4.486993     2192.443  0.037082115  0.035609464           85 
 4928000   0.46291359   -4.5072221    2188.9888   0.03701618  0.035600328           56 
 4929000    0.4545633   -4.5049115    2190.7571  0.037038566  0.035591175          122 
 4930000   0.46072015   -4.5173934    2188.8615  0.036999011  0.035582045           71 
 4931000   0.45995456   -4.4996596    2191.4166   0.03703469  0.035572916          124 
 4932000   0.46845499   -4.4804644    2194.0222  0.037071206  0.035563795           91 
 4933000   0.46704107   -4.4920339    2188.3824  0.036968417  0.035554682           92 
 4934000   0.46567188   -4.5048366    2189.4738  0.036979357  0.035545538           88 
 4935000   0.46820719   -4.5106807    2192.6945   0.03702625  0.035536385          125 
 4936000   0.46519395    -4.506078    2186.3488  0.036911615  0.035527243           93 
 4937000   0.45827833    -4.490275     2191.851  0.036997013  0.035518108          106 
 4938000   0.45192062   -4.5073246    2190.6765    0.0369697  0.035508955          124 
 4939000   0.46206501   -4.5107797    2187.9263  0.036915812  0.035499795          102 
 4940000   0.46280917   -4.5261268    2185.5829  0.036868808  0.035490629          120 
 4941000   0.46085028   -4.5131978    2189.9167  0.036934438  0.035481454           85 
 4942000   0.45302114   -4.5137183     2193.399  0.036985684   0.03547228           90 
 4943000   0.45864185   -4.5142868    2189.1071  0.036905844   0.03546314          155 
 4944000    0.4635565   -4.5203287    2184.6458  0.036823183  0.035453987          121 
 4945000   0.45008298   -4.5058918    2188.3545  0.036878236  0.035444811           93 
 4946000   0.45277028   -4.5166929    2188.8541  0.036879197  0.035435662           88 
 4947000    0.4634221   -4.5055997    2192.0365   0.03692535  0.035426547           85 
 4948000   0.45106422   -4.5011131    2190.3561  0.036889587  0.035417452           91 
 4949000   0.45515387    -4.506449    2190.8874  0.036891079   0.03540833           50 
 4950000   0.46660117   -4.5016283    2192.1542  0.036904953  0.035399219           48 
 4951000   0.46737798   -4.5312172    2189.3447  0.036850211   0.03539009           25 
 4952000   0.45953397   -4.5162875     2192.874   0.03690216  0.035380982           33 
 4953000   0.45630013   -4.5126058    2192.1234  0.036882082  0.035371863           28 
 4954000   0.45952754   -4.5078324    2187.3397  0.036794167  0.035362748           27 
 4955000   0.44880156   -4.5106796    2186.5092  0.036772776  0.035353629           14 
 4956000   0.46302985    -4.523039     2189.442  0.036814669  0.035344489           32 
 4957000   0.46411667   -4.5302836    2186.8584  0.036763809  0.035335359           50 
 4958000   0.46010006   -4.5206137    2186.5705  0.036751556  0.035326202           52 
 4959000   0.45918499   -4.5126917    2187.6526  0.036762327  0.035317061           61 
 4960000   0.46299744   -4.5340333    2189.3984  0.036784247  0.035307921           55 
 4961000   0.45437282   -4.5176531    2189.3308  0.036775696   0.03529878           62 
 4962000   0.45841202   -4.5185499    2186.5246  0.036721157  0.035289667           34 
 4963000   0.45286205   -4.5083197    2184.6428  0.036682162  0.035280535           66 
 4964000    0.4554409   -4.5238749    2190.1978  0.036768026  0.035271451           30 
 4965000   0.46169397   -4.5216616    2186.5795  0.036699891  0.035262337           44 
 4966000   0.44911518   -4.5217895    2191.8237  0.036780502  0.035253228           31 
 4967000   0.45014717   -4.5148591    2191.7523    0.0367719  0.035244138           40 
 4968000   0.45618946   -4.5164409    2186.9228  0.036683488   0.03523505           44 
 4969000   0.45289909   -4.5114703    2189.7615  0.036723711  0.035225969           42 
 4970000   0.46097329   -4.4984279    2188.6654  0.036697944  0.035216882           70 
 4971000   0.45260129   -4.5103701    2186.4838   0.03665399  0.035207789           40 
 4972000   0.46560237   -4.5107112    2187.4031  0.036662026  0.035198691           21 
 4973000   0.46063125   -4.5372505    2186.1807  0.036634169  0.035189596           30 
 4974000    0.4507208   -4.5325404     2187.718   0.03665256   0.03518048           79 
 4975000   0.45493425    -4.539577    2190.7661   0.03669625  0.035171368           24 
 4976000   0.46236833      -4.5203    2185.7855  0.036605464  0.035162274           43 
 4977000   0.45799642   -4.5243801    2189.5069   0.03666042  0.035153186           16 
 4978000   0.45654794   -4.5064418    2184.2295  0.036564709  0.035144103           35 
 4979000   0.45849483   -4.5348772    2193.5345  0.036713103  0.035135025           15 
 4980000   0.45231763   -4.5228584    2183.1866  0.036532574  0.035125945           25 
 4981000     0.452895   -4.5310057    2190.2039  0.036642641  0.035116856           17 
 4982000   0.45281384   -4.5289757     2188.478  0.036606416  0.035107769           18 
 4983000   0.44728174   -4.5245911    2189.2468  0.036611928  0.035098673           31 
 4984000   0.45804633   -4.5245663    2191.3039  0.036638976  0.035089587           29 
 4985000   0.45090482   -4.5358002    2184.7916  0.036522761  0.035080515           26 
 4986000   0.45322843   -4.5215889    2186.7568  0.036548282  0.035071427           22 
 4987000   0.46348893   -4.5126807    2192.7807  0.036641613  0.035062376           29 
 4988000   0.45304458   -4.5225992    2185.2848  0.036509035  0.035053326           41 
 4989000   0.44944091   -4.5102399    2189.1868  0.036566895  0.035044261           35 
 4990000   0.45090656   -4.5314751    2189.1543  0.036559022  0.035035207           34 
 4991000   0.44798204    -4.528124    2193.9507  0.036631782  0.035026144           24 
 4992000   0.45451466   -4.5216991    2185.9361  0.036490653  0.035017103           20 
 4993000   0.45956642   -4.5248767    2189.6596  0.036545491  0.035008076           25 
 4994000   0.45555845   -4.5224602    2189.3539  0.036533072  0.034999039           37 
 4995000   0.44665289   -4.5276629    2191.9782  0.036569539  0.034989977           22 
 4996000   0.45561892   -4.5296542    2188.2815  0.036500558  0.034980902           77 
 4997000   0.44129328   -4.5115369     2185.711  0.036450386  0.034971839           45 
 4998000   0.45005328   -4.5346588    2185.3165  0.036436516  0.034962793           29 
 4999000   0.44683766    -4.526865    2188.7622  0.036486668  0.034953766           60 
 5000000    0.4497748   -4.5348459    2185.7191  0.036428651  0.034944687           72 
 5001000   0.44553602   -4.5299223    2195.2435  0.036580076  0.034935642          166 
 5002000   0.44668151   -4.5226233    2187.0115  0.036435617  0.034926627           83 
 5003000   0.46977464    -4.528754    2185.3504  0.036400667  0.034917572          100 
 5004000   0.44856378   -4.5370941    2190.7727  0.036483692  0.034908529           78 
 5005000   0.45101184   -4.5308365     2189.123  0.036448934  0.034899466           86 
 5006000   0.44927026    -4.534658    2186.8414  0.036403672  0.034890444           80 
 5007000   0.45683825   -4.5297721    2186.6473  0.036393171  0.034881408           81 
 5008000   0.44544122    -4.531488     2187.043  0.036392488  0.034872404          128 
 5009000   0.45103697   -4.5341527    2187.2393  0.036388489  0.034863397          196 
 5010000   0.44690562   -4.5386393    2189.2231  0.036414223   0.03485434          154 
 5011000   0.44382809   -4.5245713    2186.8068  0.036366772  0.034845307          148 
 5012000   0.45115053   -4.5368522    2182.7145  0.036291476  0.034836302          220 
Loop time of 12744.5 on 48 procs for 5000000 steps with 4000 atoms

Performance: 67794.191 tau/day, 392.327 timesteps/s
99.4% CPU use with 48 MPI tasks x no OpenMP threads

MPI task timing breakdown:
Section |  min time  |  avg time  |  max time  |%varavg| %total
---------------------------------------------------------------
Pair    | 848.1      | 919.71     | 1002.6     | 140.0 |  7.22
Neigh   | 83.433     | 87.453     | 92.063     |  27.1 |  0.69
Comm    | 771.42     | 859.89     | 927.8      | 137.6 |  6.75
Output  | 14.082     | 14.087     | 14.172     |   0.3 |  0.11
Modify  | 10695      | 10748      | 10789      |  23.0 | 84.33
Other   |            | 115.6      |            |       |  0.91

Nlocal:        83.3333 ave          89 max          77 min
Histogram: 4 4 4 3 4 11 4 5 3 6
Nghost:        2263.33 ave        2286 max        2239 min
Histogram: 1 5 3 5 8 5 10 9 1 1
Neighs:        15136.3 ave       17022 max       13162 min
Histogram: 1 5 5 3 4 12 8 6 2 2
FullNghs:      30272.6 ave       32741 max       27301 min
Histogram: 1 2 9 3 4 7 8 5 5 4

Total # of neighbors = 1453083
Ave neighs/atom = 363.27075
Neighbor list builds = 270491
Dangerous builds = 0

#clear
#
#next RN
#
#jump SELF
Total wall time: 3:32:28
