
units lj                  # Use reduced LJ style units
atom_style atomic         # Uncharged point particles
atom_modify map hash      # Needed for indexing of clusters etc
                          # Used to be able to find where atoms are in relation to each other.

lattice fcc 1.0 spacing 1 1 1
Lattice spacing in x,y,z = 1.5874011 1.5874011 1.5874011
region box block 0 10 0 10 0 10 units lattice
create_box 2 box
Created orthogonal box = (0.0000000 0.0000000 0.0000000) to (15.874011 15.874011 15.874011)
  3 by 4 by 4 MPI processor grid
create_atoms 1 box
Created 4000 atoms
  using lattice units in orthogonal box = (0.0000000 0.0000000 0.0000000) to (15.874011 15.874011 15.874011)
  create_atoms CPU = 0.003 seconds
set type 1 type/fraction 2 0.95 78393
Setting atom values ...
  3802 settings made for type/fraction
mass 1 1.0
mass 2 1.0
pair_style lj/cut  3.5
pair_modify tail  yes
pair_coeff 1  1  1.0  1.0   # Intearaction between 1 and 1 set with epsilon = 1 and sigma = 1
pair_coeff 1  2  1.5  0.8
pair_coeff 2  2  0.5  0.88

write_data data.0
System init for write_data ...
Neighbor list info ...
  update every 1 steps, delay 10 steps, check yes
  max neighbors/atom: 2000, page size: 100000
  master list distance cutoff = 3.8
  ghost atom cutoff = 3.8
  binsize = 1.9, bins = 9 9 9
  1 neighbor lists, perpetual/occasional/extra = 1 0 0
  (1) pair lj/cut, perpetual
      attributes: half, newton on
      pair build: half/bin/atomonly/newton
      stencil: half/bin/3d
      bin: standard
WARNING: Not all mixed pair coeffs generated from mixing. Use write_data with 'pair ij' option to store all pair coeffs. (../write_data.cpp:312)


#############################
#   M E L T   S Y S T E M   #
#############################

velocity all create 2.4 8172548 mom yes dist gaussian # Assign velocities
                                                    # Temperature 2.4, random number seed, zero linear momentum
                                                                                # Gaussian distribution

timestep 0.002   # simulation timestep
thermo 1000       # output thermodynamic data every 1000 steps bf 100

# Define a fix  in this case with index 1 applied to all
# particles in the simulation. This fix is for simulations
# in the anisotropic NPT ensemble. Note that we use the MTK
# correction.
fix 1 all npt temp 2.4 2.4 0.1 iso 5.68 5.68 0.5 mtk yes tchain 5 pchain 5 # Use NPT ensemble
                                                                         # Set temperature and pressure and damping
                                                                         # Numbers of thermostats in chain and in barostat
run 10000          # run for 10000 steps
Per MPI rank memory allocation (min/avg/max) = 3.642 | 3.644 | 3.648 Mbytes
Step Temp E_pair E_mol TotEng Press Volume 
       0          2.4   -2.9371918            0   0.66190816   -2.1469233         4000 
    1000    2.3928452   -1.7952341            0    1.7931363     5.634382    4174.5255 
    2000    2.4187536   -1.8288105            0    1.7984128    5.6900367    4123.0274 
    3000    2.3534844   -1.7990172            0    1.7303269    5.8400554    4117.8727 
    4000    2.4400425   -1.8263881            0    1.8327606    5.5951854    4132.0538 
    5000    2.3880464   -1.7773951            0     1.803779     5.865515     4135.094 
    6000    2.4113052   -1.8433405            0    1.7727131    5.5509264    4138.5428 
    7000    2.4052964   -1.7815339            0    1.8255086     6.144144    4085.5993 
    8000    2.4194116   -1.8375711            0    1.7906389    5.7032059    4118.9467 
    9000    2.3966477   -1.8159149            0    1.7781579    5.6282726    4138.5237 
   10000     2.403364   -1.7973099            0    1.8068349    5.6583652    4155.2066 
Loop time of 2.46542 on 48 procs for 10000 steps with 4000 atoms

Performance: 700893.468 tau/day, 4056.096 timesteps/s
99.7% CPU use with 48 MPI tasks x no OpenMP threads

MPI task timing breakdown:
Section |  min time  |  avg time  |  max time  |%varavg| %total
---------------------------------------------------------------
Pair    | 1.0185     | 1.119      | 1.2388     |   3.6 | 45.39
Neigh   | 0.20432    | 0.2135     | 0.23758    |   1.2 |  8.66
Comm    | 0.74192    | 0.85632    | 0.95919    |   4.2 | 34.73
Output  | 0.00024147 | 0.0002467  | 0.00031279 |   0.0 |  0.01
Modify  | 0.22806    | 0.26145    | 0.29677    |   4.2 | 10.60
Other   |            | 0.0149     |            |       |  0.60

Nlocal:        83.3333 ave          94 max          76 min
Histogram: 2 5 10 10 4 9 3 2 1 2
Nghost:        1596.31 ave        1625 max        1569 min
Histogram: 2 4 4 8 4 10 7 5 2 2
Neighs:        9173.96 ave       10427 max        8199 min
Histogram: 4 3 5 10 10 6 4 2 1 3

Total # of neighbors = 440350
Ave neighs/atom = 110.08750
Neighbor list builds = 911
Dangerous builds = 234

# Equilibrate just above the melting temperature to avoid step fn in T

fix 1 all npt temp 1.25 1.25 0.1 iso 5.68 5.68 0.5 mtk yes tchain 5 pchain 5
run 2000
Per MPI rank memory allocation (min/avg/max) = 3.643 | 3.645 | 3.649 Mbytes
Step Temp E_pair E_mol TotEng Press Volume 
   10000     2.403364   -1.7973099            0    1.8068349    5.6583652    4155.2066 
   11000    1.2636752   -2.7607909            0  -0.86575191    5.4768571    3240.2221 
   12000    1.2522888   -2.7623793            0  -0.88441568    5.5652989    3230.2562 
Loop time of 0.583989 on 48 procs for 2000 steps with 4000 atoms

Performance: 591791.709 tau/day, 3424.721 timesteps/s
99.6% CPU use with 48 MPI tasks x no OpenMP threads

MPI task timing breakdown:
Section |  min time  |  avg time  |  max time  |%varavg| %total
---------------------------------------------------------------
Pair    | 0.25857    | 0.2813     | 0.30472    |   1.8 | 48.17
Neigh   | 0.038492   | 0.040597   | 0.042643   |   0.5 |  6.95
Comm    | 0.18694    | 0.21253    | 0.23933    |   2.5 | 36.39
Output  | 5.3414e-05 | 5.5403e-05 | 7.0818e-05 |   0.0 |  0.01
Modify  | 0.04194    | 0.044677   | 0.047956   |   0.9 |  7.65
Other   |            | 0.00483    |            |       |  0.83

Nlocal:        83.3333 ave          93 max          74 min
Histogram: 5 0 2 6 11 12 5 4 1 2
Nghost:        1897.15 ave        1918 max        1877 min
Histogram: 6 3 5 7 1 6 9 2 5 4
Neighs:        11818.8 ave       13348 max        9977 min
Histogram: 2 2 3 5 7 8 7 7 4 3

Total # of neighbors = 567302
Ave neighs/atom = 141.82550
Neighbor list builds = 143
Dangerous builds = 17

#############################
# L I N E A R  Q U E N C H  #
#############################

# Define solid atoms. This closely follows ten Wolde  Ruiz-Montero and Frenkel  Faraday Discuss  1996  104  93-110
# Compute components of the per-atom q6 vector
compute q6 all orientorder/atom degrees 1 6 components 6 nnn NULL cutoff 1.3 # compute the Q6 parameter.
                                                                             # Use all neighbours within 1.3 unit cell.

# get number of connections
compute coord_number all coord/atom orientorder q6 0.5

# An atom is solid if it has 8 or more connections (of a possible 14)
variable is_solid atom c_coord_number>=8
group solid dynamic all var is_solid    # Must be dynamic to update
dynamic group solid defined

# do clustering
compute cluster solid cluster/atom 1.3 # Create a cluster where all atoms within are solid and max 1.3 units from another member

# define chunks one chunk per cluster
compute clus_chunks solid chunk/atom c_cluster nchunk every compress yes  # Says which atoms are in which chunk

# count the size of each chunk
compute size_chunks solid property/chunk clus_chunks count


# Find the maximum entry in the vector of chunk sizes
variable max_n equal max(c_size_chunks)


# Thermo style which includes this variable
# thermo_style custom step temp pe vol v_max_n

thermo ${N}  # Print the thermo information every 100 steps
thermo 1000  

# Reset the npt fix at a lower temperature (below freezing)
fix 1  all npt temp  ${temp} ${temp}  0.1  iso  5.68  5.68  0.5  mtk yes tchain  5  pchain  5
fix 1  all npt temp  0.45 ${temp}  0.1  iso  5.68  5.68  0.5  mtk yes tchain  5  pchain  5
fix 1  all npt temp  0.45 0.45  0.1  iso  5.68  5.68  0.5  mtk yes tchain  5  pchain  5

dump dmp2 all dcd ${N} traj.dcd
dump dmp2 all dcd 1000 traj.dcd


compute msd all msd com yes
variable twopoint equal c_msd[4]/6/(step*dt+1.0e-6)
fix 9 all vector 10 c_msd[4]
variable fit equal slope(f_9)/6/(10*dt)
thermo_style custom step temp pe c_msd[4] v_twopoint v_fit v_max_n

fix 1 all npt temp 1.25 ${temp} 0.1 iso 5.68 5.68 0.5 mtk yes tchain 5 pchain 5
fix 1 all npt temp 1.25 0.45 0.1 iso 5.68 5.68 0.5 mtk yes tchain 5 pchain 5
run 5000000 # 5000000  # Run for this many steps
Neighbor list info ...
  update every 1 steps, delay 10 steps, check yes
  max neighbors/atom: 2000, page size: 100000
  master list distance cutoff = 3.8
  ghost atom cutoff = 3.8
  binsize = 1.9, bins = 8 8 8
  4 neighbor lists, perpetual/occasional/extra = 1 3 0
  (1) pair lj/cut, perpetual
      attributes: half, newton on
      pair build: half/bin/atomonly/newton
      stencil: half/bin/3d
      bin: standard
  (2) compute orientorder/atom, occasional
      attributes: full, newton on
      pair build: full/bin/atomonly
      stencil: full/bin/3d
      bin: standard
  (3) compute coord/atom, occasional
      attributes: full, newton on
      pair build: full/bin/atomonly
      stencil: full/bin/3d
      bin: standard
  (4) compute cluster/atom, occasional
      attributes: full, newton on
      pair build: full/bin/atomonly
      stencil: full/bin/3d
      bin: standard
Per MPI rank memory allocation (min/avg/max) = 9.817 | 9.822 | 9.826 Mbytes
Step Temp PotEng c_msd[4] v_twopoint v_fit v_max_n 
   12000    1.2522888   -2.7623793 2.3523832e-30 1.6335994e-32 8.3333333e+20            1 
   13000    1.2707497    -2.751616    1.0917459 0.0069983707  0.093034881            2 
   14000    1.2488328   -2.7355604    2.2931104  0.013649466  0.097301061            1 
   15000    1.2522264   -2.7251528     3.495013  0.019416738  0.098553983            1 
   16000    1.2497211   -2.7368085    4.6879162   0.02441623   0.09799878            1 
   17000    1.2534272   -2.7450746    5.9082893  0.028962202  0.099267435            1 
   18000    1.2734065   -2.7406557     7.312109  0.033852355   0.10138724            1 
   19000    1.2742883   -2.7183005    8.5087485  0.037319071   0.10242249            3 
   20000    1.2673391   -2.7719293    9.7452613  0.040605254   0.10293593            1 
   21000    1.2380451   -2.7614638    11.185439  0.044386661    0.1034329            1 
   22000    1.2323361   -2.7350656    12.504727  0.047366389   0.10453826            3 
   23000    1.2435538   -2.7306031    13.780416  0.049929042   0.10549395            2 
   24000    1.2212954   -2.7613705    15.006279  0.052105135   0.10586629            2 
   25000    1.2548311   -2.7571248    16.585452  0.055284837   0.10650568            1 
   26000    1.2586619   -2.7560157    17.803749  0.057063296   0.10704959            2 
   27000    1.2426114   -2.7354388    18.818883  0.058082972   0.10706247            2 
   28000    1.2356022   -2.7670717    19.908795  0.059252364   0.10678444            1 
   29000    1.2509681   -2.7497637    21.167307  0.060825594   0.10632958            1 
   30000    1.2607647    -2.771312    22.357817  0.062105046   0.10589712            1 
   31000    1.2596523   -2.7577277    23.580793  0.063389226   0.10544944            1 
   32000    1.2531563   -2.7668663    24.870254  0.064766285   0.10514196            2 
   33000    1.2717558   -2.7485181    26.028435  0.065728371   0.10485398            2 
   34000    1.2333592   -2.7532675    27.248139  0.066784653    0.1046167            4 
   35000    1.2586166   -2.7605037    28.247442  0.067255813   0.10426637            1 
   36000    1.2557451   -2.7683072    29.351309  0.067942845   0.10400732            1 
   37000     1.257419   -2.7583186    30.622406  0.068969382   0.10373186            1 
   38000    1.2613505   -2.7680478    31.791738  0.069718722   0.10355232            3 
   39000    1.2461799   -2.7605026    33.165601  0.070866667   0.10329641            3 
   40000     1.230818   -2.7466481    34.260956  0.071376991   0.10312234            2 
   41000    1.2393995   -2.7689454    35.639899  0.072438817   0.10302695            1 
   42000    1.2463698   -2.7788611    36.890697  0.073195826   0.10292586            2 
   43000    1.2231389   -2.7547255    37.934823  0.073517099   0.10279464            2 
   44000    1.2374242   -2.7763369    39.089709   0.07403354   0.10266121            1 
   45000    1.2536474   -2.7430644    40.309673  0.074647541   0.10256804            4 
   46000    1.2388108   -2.7535126    41.761039  0.075654056   0.10247468            3 
   47000    1.2322068    -2.751949    43.294922  0.076764046   0.10250427            1 
   48000    1.2296063   -2.7760767    44.268608  0.076855221   0.10250623            1 
   49000    1.2441851   -2.7627786    45.652138   0.07763969   0.10254768            1 
   50000      1.26079   -2.7815985    46.873098  0.078121829   0.10258114       -1e+20 
   51000    1.2745595   -2.7516278     47.87453  0.078226355   0.10256249            1 
   52000    1.2392479   -2.7420472     49.43185  0.079217708   0.10262491            1 
   53000    1.2571887   -2.7378494    50.670408  0.079670452    0.1026612            1 
   54000    1.2244803   -2.7953823    51.884537  0.080068729   0.10269875            1 
   55000    1.2330375   -2.7646657     52.85588  0.080084665   0.10268952            2 
   56000    1.2775751     -2.77185    54.304601  0.080810418   0.10264819            4 
   57000    1.2636734   -2.7445069     55.81391  0.081599282   0.10266414            1 
   58000     1.246605   -2.7720741    56.910102  0.081767387   0.10270507            1 
   59000    1.2540387    -2.737561    58.402826  0.082489867   0.10279223            1 
   60000    1.2428731   -2.7680328    59.382833  0.082476156   0.10286997            2 
   61000     1.238791   -2.7755699    60.509769  0.082663619   0.10291383            2 
   62000    1.2469084   -2.7737295    61.399189  0.082525791   0.10292085            2 
   63000    1.2357356   -2.7794862    62.675597  0.082904228   0.10287479            2 
   64000    1.2659459   -2.7448629    63.826947  0.083108003   0.10280772            1 
   65000    1.2584304   -2.7944935     64.71728  0.082970871   0.10270646            3 
   66000     1.243695   -2.7332226    66.195977  0.083580779   0.10262142            5 
   67000    1.2315443   -2.7539821    67.098692  0.083456084   0.10254755            1 
   68000    1.2178064   -2.7577587    68.264725  0.083657751   0.10245121            2 
   69000    1.2285584    -2.767232    69.212143  0.083589544   0.10233164            4 
   70000    1.2344948   -2.7512459     70.43011  0.083845368    0.1021866            1 
   71000    1.2423237   -2.7731645    71.345581  0.083738944   0.10206043            4 
   72000    1.2119757   -2.7692842    72.668484  0.084107041   0.10192757            2 
   73000    1.2569437   -2.7234614    73.808151  0.084255879    0.1018058            5 
   74000     1.234002   -2.7486792    75.203178  0.084688263   0.10169047            1 
   75000    1.2557284     -2.75251    76.790167  0.085322407   0.10161802            1 
   76000    1.2430304   -2.7695333    77.951535  0.085473174    0.1015733            3 
   77000    1.2479621   -2.7738495    78.932747  0.085425051   0.10152766            3 
   78000    1.2159707   -2.7480944    80.263702  0.085751818   0.10150139            2 
   79000     1.250088   -2.7628982    81.681293  0.086161701   0.10148655            5 
   80000    1.2102143   -2.7812243    82.840591  0.086292282   0.10146762            1 
   81000    1.2317727   -2.7893507    84.172324  0.086597041   0.10146086            1 
   82000    1.2041101   -2.7914485    85.867794  0.087264018   0.10146665            2 
   83000    1.2199249   -2.7691398    87.106761  0.087456587   0.10149463            1 
   84000    1.2325659   -2.7688929    88.505926  0.087803497   0.10151618            2 
   85000    1.2569755   -2.7641042    89.811111  0.088050108   0.10153465            1 
   86000    1.2139141   -2.7646792    90.395346  0.087592389   0.10155132            2 
   87000    1.2407049   -2.7575771    91.993057  0.088115955    0.1015832            1 
   88000    1.2414932   -2.7566592    93.499637  0.088541322   0.10161768            1 
   89000    1.2100134   -2.7433253    95.433562  0.089357268   0.10169138            1 
   90000    1.2644137    -2.744094    96.684691  0.089522862   0.10175691            1 
   91000    1.2568895   -2.7532569    97.598712  0.089376109   0.10182933            1 
   92000    1.2718499   -2.7722605    98.812836   0.08950438   0.10191433            1 
   93000    1.2465479   -2.7763025    100.13368   0.08972552   0.10199879            2 
   94000    1.2265919   -2.7640109     101.6319  0.090099205   0.10207271            3 
   95000     1.211826   -2.7631231    103.41913   0.09071853   0.10215439            2 
   96000    1.2510875   -2.7734499    104.50132  0.090712955   0.10222989            2 
   97000    1.2631526   -2.7780678    105.67518  0.090786236    0.1023246            2 
   98000    1.2232032   -2.7491365    106.37478  0.090454746   0.10240706            2 
   99000    1.2318244   -2.7790717    107.65812  0.090621315   0.10247315            3 
  100000    1.2146374    -2.754409    109.38362  0.091153019   0.10252027            2 
  101000    1.2390132    -2.758087    110.19227  0.090917711   0.10256824            1 
  102000    1.2537781   -2.7687003    111.99426   0.09149858   0.10260671            2 
  103000     1.214972   -2.7737697    112.22508   0.09079699   0.10263451            2 
  104000    1.2156964   -2.7822738    113.43107  0.090890279   0.10265058            1 
  105000    1.1964646   -2.7853039    114.90286  0.091192745    0.1026704            1 
  106000     1.239105   -2.7467686    116.78406  0.091811371   0.10269692            1 
  107000    1.2162597   -2.7691893     117.2987  0.091354127   0.10273178            1 
  108000    1.2311314   -2.7654109    118.42932  0.091380651   0.10274747            1 
  109000    1.2309338   -2.7630213    119.72544  0.091533213   0.10276554            2 
  110000    1.2215051   -2.7783582    120.62384  0.091381695   0.10275771            2 
  111000     1.225628   -2.7668435    121.78159  0.091427622   0.10274894            1 
  112000    1.2234838   -2.7562634    123.68543  0.092027851   0.10275964            1 
  113000    1.2429551    -2.773708    124.70052  0.091962033   0.10277426            2 
  114000    1.2404451   -2.7584879     125.7974  0.091957162   0.10278457            1 
  115000     1.219129   -2.7726251    127.09885  0.092100617   0.10279132            1 
  116000    1.2549294   -2.7806469    127.99092  0.091947501   0.10280188            1 
  117000    1.2314252   -2.7642025    129.92348  0.092538093   0.10280761            2 
  118000    1.2653925   -2.7822301     130.9901  0.092507136   0.10281664            2 
  119000    1.2333547   -2.7829341    132.16488  0.092552437   0.10283317            2 
  120000    1.2543967   -2.7577561     133.4023  0.092640488   0.10283753            1 
  121000    1.2194606   -2.7513183    134.06718  0.092332767   0.10284505            1 
  122000    1.2301916    -2.756741     135.7489  0.092724661   0.10285038            3 
  123000    1.2406175   -2.7473818    137.42531  0.093106579   0.10283815            2 
  124000    1.2461017   -2.7755148    137.93226  0.092696409   0.10282957            1 
  125000    1.2245219   -2.7611141    138.77491  0.092516605   0.10281808            1 
  126000    1.2099038   -2.7689434    139.89929  0.092525987   0.10280227            1 
  127000    1.2341842   -2.7752149    141.22411  0.092666736   0.10277907            1 
  128000    1.2418337   -2.7686672    141.70625  0.092256676   0.10275624            1 
  129000     1.237578   -2.7584877     143.7981  0.092892831   0.10273597            1 
  130000    1.2492848   -2.7541523    144.56396  0.092669206   0.10271267            1 
  131000     1.251517   -2.8045159    145.73285  0.092705378   0.10268362            1 
  132000    1.2175971   -2.7779389    147.45053  0.093087458   0.10266519            3 
  133000    1.2246435   -2.7776514    148.35572  0.092954713   0.10264228            1 
  134000    1.2300607   -2.7666176    150.18259  0.093397134   0.10263185            3 
  135000     1.211645   -2.7851412     150.2059  0.092719693   0.10261942            2 
  136000    1.2024427   -2.8061161     151.8855  0.093067097   0.10261128            1 
  137000    1.2356181   -2.7721635     153.3894  0.093302555   0.10259981            1 
  138000    1.2458781   -2.7685493    154.61548  0.093366834   0.10258391            1 
  139000    1.2391648   -2.7567012    155.59176  0.093280433   0.10257095       -1e+20 
  140000    1.2318584   -2.7572619    156.10466  0.092919441   0.10254232            2 
  141000    1.2210258   -2.7983231    157.25986  0.092943178   0.10251567            1 
  142000    1.2376539    -2.773266    159.18558  0.093418765   0.10248293            1 
  143000    1.2151237   -2.7617909    160.25457  0.093388444    0.1024709            1 
  144000    1.2342685   -2.7815937    161.20503  0.093289949   0.10244871            3 
  145000    1.2335017   -2.7728054    162.38987  0.093327511   0.10242467            1 
  146000    1.2218519   -2.7476258    163.77848  0.093480867   0.10239648            1 
  147000    1.2211745   -2.7664755    166.09567  0.094158545   0.10237902            4 
  148000    1.2256109   -2.7723457    166.36778   0.09367555   0.10236612            1 
  149000    1.2427632   -2.7892465    167.61503  0.093744422   0.10235185            2 
  150000    1.2363384   -2.7525803    169.10853  0.093949183   0.10234818            1 
  151000    1.2423818   -2.8229601    170.31536  0.093993022   0.10234563            2 
  152000    1.2059651   -2.7811668    172.49901  0.094571825   0.10233909            1 
  153000    1.2312346   -2.7897831    172.74043  0.094085203   0.10233412            1 
  154000    1.2433369   -2.7676675    173.08459  0.093660492   0.10230563            1 
  155000     1.241568    -2.794351    172.94752  0.092982539   0.10227545            1 
  156000    1.2104413   -2.7982176    174.76066  0.093355053   0.10222796            1 
  157000    1.1912076   -2.7635717    176.69567  0.093787509   0.10218871            1 
  158000    1.2387094   -2.7827911    177.95652  0.093858923    0.1021551            3 
  159000    1.2312791   -2.7992763    178.04873  0.093316943   0.10212208            1 
  160000    1.2258028   -2.7469314    180.14148  0.093823689   0.10207206            4 
  161000    1.2462262   -2.7735675    180.37015  0.093359293   0.10203233            1 
  162000    1.2032818    -2.765995    183.14101  0.094208338   0.10198775            1 
  163000    1.2571227   -2.7728616    182.46323  0.093283858   0.10194669            1 
  164000    1.2412564   -2.7974229    183.20538  0.093092164   0.10188801            1 
  165000    1.2124016   -2.7907093    183.88636  0.092871899   0.10182499            1 
  166000    1.2114285   -2.7848892    185.54089  0.093143018   0.10176498            1 
  167000    1.2240625   -2.7866749    187.03015  0.093328417   0.10171383            1 
  168000    1.2030861   -2.7853166    187.69696  0.093103653   0.10165696            1 
  169000    1.2249339   -2.7843085    189.77666  0.093578233   0.10160894            1 
  170000     1.220199   -2.7776612     189.8372  0.093057452   0.10156048            1 
  171000     1.228568   -2.8070177    190.62765  0.092898463   0.10150509            2 
  172000    1.2096274   -2.7812028    192.59131  0.093309741   0.10144562            1 
  173000    1.2384225   -2.7889777    195.28795   0.09406934    0.1014055            2 
  174000    1.2285538   -2.7777039    196.55259  0.094134384   0.10137153            1 
  175000    1.2256595   -2.8010192      197.451  0.094024286   0.10134499            1 
  176000    1.2166592     -2.81276    198.30967  0.093896623   0.10130903            1 
  177000    1.1905374     -2.79211    199.20595   0.09378811   0.10128293            2 
  178000    1.2229556     -2.77312    201.53696   0.09435251   0.10125691            2 
  179000    1.2326888   -2.7938107    201.99543   0.09403884   0.10123495            1 
  180000    1.2371515   -2.7759935    203.62047  0.094268738   0.10121291            2 
  181000    1.2396824   -2.7613316    205.01452   0.09438974   0.10118736            2 
  182000    1.2354695   -2.7963455    206.70252   0.09464401   0.10116692            1 
  183000    1.2132774   -2.7763646    208.93994  0.095145692   0.10116142            2 
  184000    1.2199684   -2.7624445    209.70813  0.094976508   0.10115755            4 
  185000    1.2583338    -2.764385    211.02823  0.095057762   0.10115344            2 
  186000    1.2509771   -2.7902829    211.91361  0.094943373   0.10115646            1 
  187000    1.2193677    -2.752445    212.57588  0.094730786   0.10115589            2 
  188000    1.2010867   -2.8169431    214.15735  0.094927903   0.10115063            1 
  189000    1.2169202   -2.7813136    215.69814  0.095105001   0.10114456            2 
  190000    1.2311916   -2.7931419    217.03631  0.095191365   0.10113797            1 
  191000    1.2260729   -2.7821378    216.31257   0.09437721   0.10112062            1 
  192000    1.2347782   -2.7962067    218.98137  0.095043997   0.10110467            1 
  193000    1.2070308   -2.7651233    221.28519  0.095546281   0.10109984            2 
  194000    1.2085545   -2.7865152    221.67342  0.095220541   0.10110421            4 
  195000    1.2178776   -2.7803021    223.31434  0.095433479    0.1011035            2 
  196000    1.2121238   -2.8389427    223.45287  0.095005472   0.10110349            3 
  197000    1.2021174   -2.8194156    224.44982  0.094944934   0.10109832            1 
  198000    1.2282523   -2.8094392    226.32733  0.095255608   0.10109661            2 
  199000     1.214984   -2.7551643    227.46787   0.09525455   0.10109087            1 
  200000    1.1976989   -2.7797737    228.41422  0.095172593   0.10107899            2 
  201000    1.2032758   -2.7749297    229.06524  0.094969006   0.10106643            2 
  202000    1.2216157   -2.7629641    229.07391  0.094502437   0.10104773            1 
  203000    1.2306389   -2.7953053    231.83202  0.095169138   0.10103071            2 
  204000    1.2118285    -2.814594    231.85344  0.094711371   0.10101953            1 
  205000    1.2350487   -2.7649399    232.63933  0.094568833   0.10100925            3 
  206000    1.2324334   -2.8035738    234.35802  0.094805022   0.10099725            1 
  207000    1.2005258   -2.7919936    236.76321  0.095315304   0.10098086            5 
  208000    1.1956847   -2.7953154    237.34956  0.095091972    0.1009627            2 
  209000    1.2200548   -2.8347639    237.36535  0.094643282   0.10094396            2 
  210000    1.2242526   -2.7872024    238.58854  0.094677992   0.10091971            1 
  211000    1.1927206   -2.7859138    241.05435  0.095203138   0.10089975            4 
  212000    1.1994334   -2.8067614    242.25988  0.095227942   0.10087991            2 
  213000    1.2077049     -2.78866    242.82019  0.095000074   0.10086093            2 
  214000    1.2116878   -2.8090653    242.98838  0.094621645   0.10084262            2 
  215000    1.2069886   -2.7798601    245.19766  0.095037853   0.10082212            1 
  216000    1.2186686   -2.7879993    246.60611  0.095141245   0.10080444            1 
  217000     1.225752   -2.8110939    246.98184  0.094847096   0.10078057            2 
  218000     1.225559   -2.7652456    250.15742  0.095625924   0.10076755            1 
  219000    1.2248888   -2.8012958    250.61664  0.095364018   0.10075722            1 
  220000    1.2056897   -2.7835557    252.25101  0.095549625   0.10075293            3 
  221000    1.2034739   -2.7474826    254.04636  0.095794252   0.10074776            1 
  222000    1.2147171   -2.7858959    254.19695  0.095419274    0.1007424            2 
  223000    1.2234042   -2.7940446    256.01188  0.095669611   0.10073789            1 
  224000     1.238887   -2.7559505    258.12573  0.096028916   0.10073848            1 
  225000    1.2276068    -2.779782    258.25785  0.095651056   0.10074064            2 
  226000    1.1874997   -2.7816572    259.06125  0.095524061   0.10073801            5 
  227000    1.2307601   -2.7917507    259.95985  0.095433131   0.10073202            1 
  228000    1.2198403    -2.778191    262.51264  0.095947603   0.10072415            1 
  229000    1.2059077   -2.7680278    263.56998  0.095913383   0.10071991            5 
  230000    1.2135647   -2.7888244    263.52387  0.095479662   0.10071259            2 
  231000    1.2104437   -2.7900135    265.60415  0.095816794   0.10069965            1 
  232000    1.2159635   -2.7796598    265.88828  0.095505846   0.10069018            2 
  233000    1.1946123   -2.7833648    266.59623  0.095349151   0.10068342            1 
  234000    1.2068266   -2.7854039    270.18121   0.09621838   0.10067427            1 
  235000    1.2386935   -2.7822941    271.34956  0.096223248   0.10067138            3 
  236000    1.1857384   -2.7676632    272.58634  0.096252237   0.10066772            2 
  237000    1.1963118   -2.8052681    272.25372  0.095729156   0.10066136            2 
  238000    1.2197758   -2.7982812    274.53586     0.096126   0.10065848            1 
  239000    1.2220402   -2.7874807    275.97045  0.096224005   0.10065588            2 
  240000     1.230963   -2.8010603    276.81912  0.096117749   0.10064919            1 
  241000    1.2202691   -2.7620942    277.82552  0.096066914   0.10064512            1 
  242000    1.2084361   -2.7771649    277.91222  0.095699798   0.10064111            3 
  243000    1.2172725   -2.7976508    279.34777  0.095798275   0.10064604            1 
  244000    1.1947732   -2.7970795    282.40426  0.096449542   0.10064452            1 
  245000    1.2165144   -2.7779369    283.74178   0.09651081   0.10065247            2 
  246000    1.2066092   -2.7672193    285.30359  0.096647557   0.10065709            1 
  247000    1.1998818   -2.7978186     285.7565  0.096409077     0.100666            1 
  248000    1.2212087   -2.7906059     288.7208  0.097016399   0.10068149            2 
  249000    1.1799197   -2.7960243    290.52048  0.097229075   0.10069578            3 
  250000    1.1868701   -2.8104421    291.54172  0.097180572   0.10071165            3 
  251000    1.2101547   -2.8125068    292.20459  0.097013477   0.10073027            1 
  252000    1.2416908   -2.7847556    293.37574  0.097015786   0.10074255            1 
  253000    1.2248075   -2.8004993    294.24261  0.096917854    0.1007596            4 
  254000    1.2294988   -2.8218976    295.11987  0.096824103   0.10077189            3 
  255000    1.2226002   -2.7946486    296.43568  0.096874406    0.1007879            2 
  256000     1.203212   -2.8091102    297.95469  0.096990458   0.10080269            6 
  257000    1.2143922   -2.8064495     300.0546  0.097293968   0.10081575            4 
  258000    1.2164368   -2.8154163    299.70463  0.096803822   0.10083154            1 
  259000    1.2178313   -2.8477104    300.68431  0.096745273   0.10084564            2 
  260000    1.2145153   -2.8005064    303.95486   0.09742143   0.10086193            2 
  261000    1.2351745   -2.7805495    304.47366  0.097213812   0.10087649            2 
  262000    1.2165998    -2.810756    305.22973  0.097083247    0.1008819            2 
  263000    1.1912739   -2.8022926    305.83988  0.096907439   0.10088644            1 
  264000    1.2478909   -2.8021687    306.40574  0.096718984    0.1008875            3 
  265000    1.2006784    -2.769841    307.47045   0.09668882   0.10088845            1 
  266000    1.2156901   -2.7740391    310.31185  0.097215493   0.10088847            1 
  267000    1.1700811   -2.7831185    309.94025  0.096735408   0.10088898            1 
  268000    1.2212516   -2.7925569    313.01809  0.097331494   0.10089163            1 
  269000    1.1889104   -2.7902934    312.43865  0.096790163   0.10089427            3 
  270000    1.2054051   -2.8118761    315.83139  0.097478824   0.10089881            2 
  271000    1.2109403   -2.7831625    315.23143  0.096934634   0.10090138            2 
  272000    1.1974473   -2.7862175    315.78519  0.096747912   0.10090944            1 
  273000    1.2031158   -2.7754456     318.2237  0.097137882   0.10091354            1 
  274000    1.2124463   -2.7922004     318.0488  0.096730169   0.10091659            4 
  275000    1.1996217   -2.7940327    321.10506  0.097304563   0.10091983            2 
  276000    1.1911172   -2.8046843    320.61403  0.096803753   0.10092501            3 
  277000    1.2295371   -2.7872302    322.69528  0.097080409     0.100925            1 
  278000    1.2027903   -2.8268609    322.61597  0.096707425   0.10092293            1 
  279000    1.2120037   -2.7987313    323.88664  0.096740334   0.10091978            2 
  280000    1.2030956   -2.8002821    324.52943  0.096586141   0.10091523            3 
  281000    1.2135695   -2.8073099    326.38609  0.096793026   0.10091027            3 
  282000    1.2180988   -2.8032124    327.05768  0.096648251   0.10090413            1 
  283000    1.2233397    -2.807765      327.061  0.096307715    0.1008988            2 
  284000    1.2143014   -2.7809742     330.3225  0.096925616   0.10089223            1 
  285000    1.1682933   -2.8237365    330.06422  0.096510006   0.10088711            1 
  286000    1.2084013   -2.8089351    331.27576  0.096525571   0.10088053            2 
  287000    1.2040384   -2.8325265     332.0473  0.096413269   0.10087218            2 
  288000    1.2079291   -2.7814428    334.22964  0.096709964   0.10086151            1 
  289000    1.2206072    -2.797495    335.10365  0.096627349   0.10085004            2 
  290000      1.18357   -2.8177574    335.64375  0.096449353   0.10083431            2 
  291000    1.2141453   -2.8407486    336.19207  0.096274933   0.10082349            2 
  292000    1.2059601   -2.8027391    337.65562  0.096362905   0.10081434            2 
  293000     1.172372   -2.8214615    338.58281  0.096297728   0.10080048            1 
  294000    1.1799315   -2.8187096    340.60085  0.096542191   0.10078935            1 
  295000    1.2038825   -2.8351125     341.4143  0.096444718   0.10077688            1 
  296000    1.2223937   -2.8483384    343.13062  0.096602089   0.10076398            2 
  297000    1.2320173   -2.8239121    344.23394  0.096586403   0.10075615            1 
  298000    1.2299507   -2.8070406    346.62854  0.096931918   0.10074641            1 
  299000    1.1966839    -2.769377    347.65348  0.096893388   0.10073591            1 
  300000    1.1685445   -2.8047873    346.55172  0.096264366   0.10072301            1 
  301000    1.2229148   -2.8207596    348.11814  0.096378221   0.10070499            2 
  302000    1.1724788   -2.8074188    347.50753  0.095890598   0.10068449            1 
  303000    1.1950731   -2.7821148    349.62801  0.096157317   0.10066696            1 
  304000    1.2037761   -2.7956661    350.85493  0.096177338   0.10064803            1 
  305000    1.1969987   -2.8065053    351.15829  0.095944889   0.10063021            2 
  306000    1.2321575   -2.8242752     352.4098  0.095972168    0.1006095            2 
  307000    1.1807246   -2.7897209    354.13423   0.09612764   0.10058722            1 
  308000    1.1930577   -2.8234025    355.66728  0.096230324   0.10056746            2 
  309000    1.2131106   -2.8009048    356.03479  0.096018013   0.10054395            1 
  310000    1.1996723   -2.8027635    357.22825    0.0960291    0.1005185            2 
  311000    1.1956094   -2.7995722     357.3349    0.0957489   0.10049634            2 
  312000    1.2141819   -2.8087052    361.87166  0.096653756   0.10047394            2 
  313000    1.2145915   -2.8159784    359.33142  0.095668643   0.10045612            1 
  314000    1.2045527   -2.8117331    361.94623  0.096057917   0.10043695            1 
  315000    1.2077252   -2.8116484    363.35964  0.096126889   0.10041789            1 
  316000    1.2239992   -2.8164177    363.79546  0.095937622   0.10039926            1 
  317000    1.2151429   -2.7907528    367.04431  0.096489041   0.10038484            2 
  318000    1.2171939   -2.8057771    366.59015  0.096066602   0.10036578            1 
  319000     1.188346   -2.8590877    367.61923  0.096034281   0.10034911            1 
  320000    1.1970709   -2.8218351    369.78504  0.096298186   0.10033496            1 
  321000    1.1827999   -2.8196035    372.17762  0.096619319   0.10032461            1 
  322000     1.203947   -2.7641929    373.06221  0.096548191   0.10031296            2 
  323000    1.2156727   -2.7768927    374.96407  0.096739957   0.10030594            1 
  324000    1.1828546   -2.8149433    376.36415   0.09680148   0.10029734            1 
  325000    1.2176664   -2.7999901    376.00956  0.096412707   0.10028892            2 
  326000    1.2081074   -2.8220102    378.47682  0.096747654   0.10027989            2 
  327000    1.1932595   -2.8115911    379.79267  0.096787122   0.10026992            1 
  328000    1.1658668   -2.8037855    379.86743  0.096511034   0.10026278            4 
  329000    1.2308794   -2.8271379    381.30738  0.096582417   0.10025394            1 
  330000    1.1927234   -2.8112723    384.11554  0.096998873   0.10024715            1 
  331000    1.1690498   -2.8344454    384.08371  0.096697811   0.10024153            2 
  332000    1.2224559   -2.7864788    383.91984  0.096365421   0.10022943            1 
  333000    1.2327261   -2.8048299    385.73755  0.096530919   0.10021672            1 
  334000    1.2070035   -2.8334866    385.76985  0.096249963   0.10020385            2 
  335000     1.160942    -2.812329    389.06717  0.096782879   0.10019289            2 
  336000    1.1796976   -2.7863116    390.91545  0.096953236   0.10018574            2 
  337000    1.1954837   -2.8217065    391.84624  0.096895707    0.1001812            1 
  338000    1.2009774   -2.8135523    392.24749  0.096707961   0.10017218            2 
  339000    1.1763111   -2.7972268    392.63102  0.096516965   0.10016591            1 
  340000     1.194852   -2.8310879     395.8142  0.097013284   0.10015647            2 
  341000    1.2226034   -2.8506056    395.80325  0.096726112   0.10014655            1 
  342000    1.1840023   -2.8284486    396.26626  0.096556107   0.10013763            2 
  343000    1.1950732    -2.812871    397.06868  0.096469554     0.100128            1 
  344000    1.2001546   -2.7889384     398.9329  0.096640721   0.10011856            2 
  345000    1.1880354    -2.818186    398.24697   0.09619492   0.10010643            1 
  346000    1.1754615   -2.8328779     400.2505  0.096399446   0.10009412            2 
  347000     1.175704   -2.8351128    401.81712  0.096497868   0.10008197            2 
  348000    1.2148498   -2.8157712    404.80897  0.096937013   0.10007269            1 
  349000    1.1853213   -2.7800587    404.54772  0.096596878   0.10006505            2 
  350000     1.199608   -2.8060484    404.71132  0.096359837   0.10005756            3 
  351000     1.170414   -2.8221587    406.00078  0.096391447   0.10004611            2 
  352000    1.1944705   -2.8091261    409.23795  0.096883985   0.10003506            2 
  353000    1.1699929   -2.8254109    408.56771    0.0964513   0.10002164            3 
  354000    1.2143865   -2.8184155     411.3703  0.096838583   0.10000927            2 
  355000    1.2028239   -2.8297914    412.16068  0.096751333  0.099995214            2 
  356000    1.1886217   -2.8263842    409.94147  0.095960083  0.099984712            1 
  357000    1.2012604   -2.7967298    415.40025   0.09696551  0.099975057            1 
  358000    1.1845666   -2.8062115    415.29692  0.096670605  0.099966563            1 
  359000    1.1823124   -2.7992768    416.91641  0.096777254  0.099961486            1 
  360000    1.2003715   -2.8369692    416.18178  0.096338374  0.099955616            1 
  361000    1.2137011   -2.7937938    419.74285  0.096893547  0.099949322            2 
  362000    1.1789795   -2.7813774    420.39801  0.096776706  0.099944961            2 
  363000    1.1968814   -2.8190235    422.11414  0.096904073  0.099941459            1 
  364000      1.18217   -2.8246677    422.75026  0.096783485  0.099936498            1 
  365000    1.1933628   -2.8192544    424.33547  0.096880243  0.099933244            3 
  366000    1.1755047   -2.8503797    425.16604  0.096804654  0.099933278            2 
  367000    1.2019064   -2.8050043    428.07946   0.09720242   0.09993215            2 
  368000    1.1930524   -2.8152741    427.56055  0.096820777  0.099928493            3 
  369000    1.2106313   -2.7861532     430.3271  0.097183175  0.099928107            2 
  370000    1.1727238   -2.8240814    434.51527    0.0978638   0.09992948            2 
  371000    1.2155175   -2.8343455    430.91426  0.096791164  0.099932253            1 
  372000    1.1949521   -2.8281054    435.79251   0.09762377  0.099936146            1 
  373000    1.2074149   -2.8277918    437.53213  0.097750699  0.099936238            1 
  374000     1.198742   -2.8133618    437.80749  0.097550689  0.099936978            1 
  375000     1.177056   -2.8203197    437.87267  0.097305037  0.099939313            1 
  376000    1.1921907   -2.8306901    437.17667  0.096891993  0.099938605            2 
  377000    1.1789712   -2.8482474    438.85668  0.097006339  0.099935193            2 
  378000    1.1987082   -2.8263424    439.71716   0.09693941  0.099929505            1 
  379000    1.2007987   -2.8314549    441.91914  0.097167796  0.099927447            3 
  380000     1.217034   -2.8201857    443.56329  0.097272651  0.099926438            2 
  381000     1.169262   -2.8398875    443.52803  0.097009631  0.099924832            1 
  382000    1.2002651    -2.809654    444.03129  0.096865465  0.099917888            2 
  383000     1.211139   -2.8114057    445.14567   0.09685502  0.099914783            2 
  384000    1.1951079   -2.8493123    444.86159  0.096541144  0.099908866            2 
  385000    1.2042971    -2.805264    447.68646  0.096901831  0.099904605            1 
  386000    1.1761919   -2.8356013    449.02614  0.096940013  0.099898596            2 
  387000    1.2017011   -2.8103661    448.66036  0.096610759  0.099891756            1 
  388000    1.1783269   -2.8438004    451.37416  0.096944622  0.099886222            2 
  389000    1.2071174    -2.833607    452.49081  0.096934621  0.099880353            2 
  390000    1.1791889   -2.8250842    455.55834  0.097341527  0.099876615            2 
  391000    1.1897973   -2.8237378    454.70695  0.096911115  0.099874125            2 
  392000    1.1793633   -2.8197571     456.4823  0.097041305  0.099869408            2 
  393000    1.1965162   -2.8021069    457.78437  0.097070476  0.099866686            3 
  394000    1.1961443   -2.8087678    459.67886    0.0972248  0.099862677            1 
  395000    1.1737635   -2.8388954    457.25125  0.096466509  0.099858458            2 
  396000    1.2110196   -2.8448196    461.32832  0.097080876  0.099853178            2 
  397000    1.1826421   -2.8396532    461.68219  0.096910619  0.099850843            1 
  398000    1.1859884   -2.8138479    463.08295  0.096960417  0.099850004            4 
  399000    1.1724855   -2.8339197      463.138  0.096728905  0.099846109            3 
  400000     1.182777   -2.8073102    467.83856  0.097466366  0.099846068            2 
  401000     1.166949   -2.8428529    468.20321  0.097299088  0.099844012            1 
  402000    1.1832956   -2.8429523     466.6409  0.096733189  0.099841959            1 
  403000    1.1686929   -2.8226655    470.38599  0.097267574  0.099838754            3 
  404000    1.1780812    -2.829783    471.88311  0.097335626  0.099835573            3 
  405000    1.2013712   -2.8208527    473.68809  0.097466685  0.099834812            3 
  406000    1.1810709    -2.834205      474.688  0.097431855   0.09983426            2 
  407000     1.185197   -2.8353906    475.51317  0.097361418  0.099832754            2 
  408000    1.1787335   -2.8099095    475.54676  0.097129648   0.09982977            2 
  409000    1.1855847   -2.8263109    477.33116  0.097255737   0.09982636            3 
  410000    1.1793973   -2.8165316    477.85598    0.0971252  0.099823831            1 
  411000      1.16928   -2.8057424    480.16999  0.097358067  0.099823311            1 
  412000    1.1835224   -2.8177654    481.82211  0.097455929  0.099821186            3 
  413000    1.1847975   -2.8458447    479.50362  0.096752142  0.099818168            2 
  414000     1.179072   -2.8236004    483.47278  0.097317387  0.099813525            3 
  415000    1.2078001   -2.8392308    483.04352   0.09699669  0.099808823            1 
  416000    1.1914825   -2.8491833     483.7101  0.096897056  0.099804574            2 
  417000    1.1676338   -2.8397299    486.98301  0.097318747  0.099797927            2 
  418000    1.1896975   -2.8264116    488.34581  0.097357618    0.0997934            2 
  419000    1.1898958    -2.824002    487.65102  0.096987075  0.099789403            1 
  420000     1.172514   -2.8414337    488.77932  0.096980023  0.099784562            3 
  421000    1.1795488   -2.8408457    490.33162  0.097056932  0.099779965            1 
  422000    1.1799094   -2.8355927    492.95718  0.097345414  0.099775746            1 
  423000    1.1786768    -2.859788    491.76541  0.096880499  0.099769147            2 
  424000    1.1729568   -2.8367207    493.00733  0.096896094    0.0997628            1 
  425000    1.1748192   -2.8128556    495.68854  0.097193832  0.099756227            1 
  426000    1.1690117   -2.8120906    496.02425  0.097031348  0.099752117            2 
  427000    1.1793897   -2.8522229     495.9189  0.096783548  0.099745425            2 
  428000    1.2021387   -2.8393194    496.08807  0.096590356  0.099737985            1 
  429000     1.168421   -2.8308267     497.2928  0.096599223  0.099730041            1 
  430000    1.1661184   -2.8390115    500.16134  0.096930492  0.099722276            2 
  431000    1.1759601   -2.8018595    502.19057  0.097097945  0.099710795            2 
  432000    1.1894101   -2.8146729    501.83033  0.096803691  0.099702004            3 
  433000    1.1919405    -2.841498    504.24077  0.097044029  0.099691367            1 
  434000    1.1946249   -2.8425966    501.56958  0.096307524  0.099682143            2 
  435000    1.1870331   -2.8669107     503.2156  0.096401455  0.099670002            1 
  436000    1.2098988   -2.8499326    505.03506  0.096528107  0.099659298            2 
  437000    1.1897816   -2.8257076    507.62966  0.096801994  0.099646718            2 
  438000    1.1661618   -2.8212986    507.94542  0.096641062  0.099634533            2 
  439000     1.187056   -2.8518907    507.55267  0.096346369   0.09961939            2 
  440000    1.1999429    -2.826065    509.46741   0.09649004     0.099605            2 
  441000    1.1791833   -2.8329229     508.4137  0.096072128  0.099591337            3 
  442000     1.203611   -2.8331274    513.32301  0.096780355    0.0995791            1 
  443000     1.205525   -2.8139787    514.76448  0.096833048  0.099567298            3 
  444000    1.1795836   -2.8417088    514.72701  0.096607922  0.099557533            1 
  445000    1.1483063   -2.8339586    515.14007  0.096468178  0.099548572            5 
  446000    1.1946001   -2.8035389    518.25281  0.096833484  0.099538648            2 
  447000    1.1798991   -2.8290523    518.70861  0.096701829  0.099529905            1 
  448000    1.1756156   -2.8377537    517.70919  0.096300072   0.09952159            1 
  449000    1.1627273   -2.8282291    521.34603  0.096760585  0.099512215            4 
  450000     1.177212   -2.8227991    521.61226  0.096594862  0.099504468            1 
  451000    1.2048361   -2.8452173    525.64234   0.09712534  0.099497037            1 
  452000    1.1819914   -2.8430775     525.4957  0.096883425   0.09949015            7 
  453000    1.1639834   -2.8267357    526.61737  0.096875896  0.099484018            1 
  454000    1.1585186   -2.8569666    525.54337  0.096465377  0.099477668            1 
  455000    1.2184353   -2.8444322    530.81644  0.097219128  0.099472372            1 
  456000    1.1562505   -2.8052047    530.76839  0.096997148  0.099469265            2 
  457000    1.2042827   -2.8286088    530.98786   0.09682492  0.099465272            4 
  458000    1.1765197   -2.8151094    533.63966  0.097096008  0.099460903            1 
  459000    1.1689448   -2.8148999    534.52306  0.097044855  0.099457139            3 
  460000    1.1826511   -2.8619371    534.33925  0.096800589  0.099453766            2 
  461000    1.1759704   -2.8697232    538.19118  0.097286909  0.099450434            2 
  462000    1.1479024   -2.8176664    536.78834  0.096823293  0.099446218            1 
  463000    1.1874866   -2.8287745    541.96845  0.097546516  0.099444577            1 
  464000    1.1951824   -2.8305299     540.5186  0.097075898  0.099440891            2 
  465000    1.1624115   -2.8535951    541.82034  0.097100419  0.099433661            1 
  466000    1.1898609   -2.8580289    542.27213  0.096972842    0.0994285            2 
  467000      1.17817   -2.8365472    541.56492  0.096638993  0.099422914            1 
  468000    1.1755355   -2.8427009    544.00539  0.096867057  0.099418621            7 
  469000    1.1765073    -2.825227    546.33641    0.0970747  0.099412769            1 
  470000    1.1491401    -2.868822    546.27075  0.096856515  0.099408031            1 
  471000    1.1651389   -2.8416827     548.1933   0.09699103  0.099400813            4 
  472000    1.1734269   -2.8401941    547.55315  0.096672519  0.099391965            2 
  473000    1.1791893   -2.8244656    550.19106  0.096932885  0.099381944            2 
  474000    1.1838256   -2.8446731    548.11266  0.096362985  0.099371937            3 
  475000    1.1825397   -2.8388593    550.64718  0.096604768   0.09936185            1 
  476000    1.1844064   -2.8722774    550.07773  0.096302124  0.099350977            2 
  477000    1.1917461    -2.824016    552.60896  0.096542445  0.099339162            2 
  478000    1.1850524   -2.8518257    553.30523   0.09646186  0.099327466            1 
  479000    1.1655454    -2.830398    554.72184  0.096506931  0.099316685            3 
  480000    1.1570048   -2.8345429    556.38931  0.096595367  0.099306621            1 
  481000    1.1742771   -2.8232594    556.59389  0.096429988   0.09929347            1 
  482000    1.1771356   -2.8204475     557.1619  0.096328129  0.099281411            3 
  483000    1.1893127   -2.8234493      559.554  0.096541409  0.099269921            3 
  484000     1.165972   -2.8161981    560.44645    0.0964956  0.099256384            2 
  485000    1.2081409   -2.8137013    559.07537   0.09606106  0.099243813            3 
  486000    1.1852487   -2.8216031    562.28731  0.096414148  0.099229113            2 
  487000    1.1818692   -2.8223531    563.47713  0.096419769  0.099213479            2 
  488000    1.2079449   -2.8405399    564.09287  0.096327334  0.099198692            2 
  489000    1.1599225   -2.8408943    564.85338  0.096259949  0.099184865            2 
  490000    1.2101057   -2.8203337    566.45367  0.096335658  0.099167965            1 
  491000    1.1886505   -2.8355018    562.98274  0.095550363  0.099152769            1 
  492000    1.1755298   -2.8261786    567.01106  0.096038459  0.099135164            2 
  493000    1.1706341   -2.8362592    565.64202   0.09561224  0.099118136            1 
  494000    1.1789621   -2.8480107    568.14829  0.095841479  0.099100562            2 
  495000    1.1516078   -2.8477186    571.30852  0.096179885  0.099082265            2 
  496000    1.1732128   -2.8119244    570.11254  0.095785037  0.099064735            1 
  497000    1.1614647   -2.8336701    569.84428  0.095547331  0.099044852            1 
  498000    1.1644452   -2.8724122    569.23143  0.095252917   0.09902252            1 
  499000    1.1773393   -2.8588054    571.08311   0.09537126  0.098999193            1 
  500000    1.1780531   -2.8181137    570.86917  0.095144861  0.098974331            2 
  501000    1.1889856   -2.8287929    572.42671  0.095214024  0.098951664            1 
  502000    1.1738059   -2.8603419    570.35871   0.09468106  0.098926788            3 
  503000    1.1747135    -2.826496    575.23822  0.095301229  0.098899549            2 
  504000    1.1855435   -2.8141693    576.78018  0.095367093  0.098876319            1 
  505000    1.1370844   -2.8543882    578.29515  0.095428243  0.098854194            1 
  506000       1.1626   -2.8509959    579.88944  0.095502213  0.098831296            1 
  507000    1.1742658   -2.8781333    579.96534  0.095326321  0.098808391            3 
  508000    1.1748428   -2.8457872    582.01696  0.095475223  0.098785962            2 
  509000    1.1493579   -2.8479223     582.1968  0.095317093  0.098765007            1 
  510000    1.1772585   -2.8493756     583.3723  0.095322272  0.098743414            2 
  511000    1.1643139   -2.8485104     585.9326  0.095553262  0.098722462            3 
  512000     1.192717   -2.8568963    587.22801  0.095577476  0.098701281            2 
  513000     1.184642   -2.8184052    588.53792   0.09560395  0.098683543            2 
  514000    1.1521133   -2.8769616    588.00584  0.095331685  0.098664297            1 
  515000    1.1691545   -2.8301589    588.91555  0.095293779  0.098644932            1 
  516000    1.1661983   -2.8584545    591.46724  0.095521195  0.098625065            1 
  517000    1.1916794   -2.8445819      591.177  0.095289653   0.09860305            1 
  518000    1.1669072   -2.8293227     594.5349  0.095645898  0.098582565            2 
  519000    1.1754389   -2.8645299    592.12287   0.09507432  0.098560436            1 
  520000     1.175031   -2.8591571    593.90759  0.095177499  0.098537328            2 
  521000    1.1953005   -2.8045313    594.85981  0.095147122  0.098513881            2 
  522000    1.1702192   -2.8632866    594.83332   0.09496062  0.098491527            2 
  523000    1.1811662   -2.8735269    598.35009  0.095339403  0.098468655            1 
  524000     1.199609   -2.8633285    598.89662  0.095244374   0.09844563            3 
  525000    1.1609125   -2.8638202    600.34003  0.095292068  0.098423577            4 
  526000     1.159998   -2.8249481    603.47858   0.09560814  0.098402518            1 
  527000    1.1484637   -2.8405105    601.18893  0.095064663  0.098380007            1 
  528000    1.1641309    -2.852791    603.89531   0.09531176  0.098359124            1 
  529000    1.1533808   -2.8363195    607.19106  0.095650765  0.098337652            4 
  530000     1.151834    -2.842501    603.82428  0.094940924  0.098317183            1 
  531000    1.1584206   -2.8639694    603.82021  0.094761489  0.098297497            5 
  532000    1.1451847   -2.8410912    608.95726  0.095388042  0.098276565            2 
  533000    1.1787819   -2.8379415    609.84034  0.095347145  0.098258265            3 
  534000    1.1772958   -2.8674374    609.28726  0.095082281  0.098237337            1 
  535000    1.1481088    -2.841935    611.12057   0.09519012   0.09821817            1 
  536000    1.1840711   -2.8314947    614.45742  0.095531315  0.098200619            2 
  537000    1.1980046   -2.8484421    614.09904  0.095297803  0.098182927            3 
  538000    1.1628743   -2.8200028    617.27984  0.095613358  0.098166327            2 
  539000    1.1716334   -2.8467367    617.08023  0.095405106  0.098153549            3 
  540000    1.1620125   -2.8711741    618.03308  0.095375475  0.098137561            1 
  541000    1.1681838    -2.875584    622.17537  0.095837242  0.098124074            2 
  542000    1.1604122   -2.8494213    620.46715  0.095397778  0.098108863            5 
  543000    1.1518904   -2.8487644    622.14937   0.09548026  0.098094355            1 
  544000    1.1759399   -2.8635587    623.52732  0.095515828  0.098080471            1 
  545000    1.1783121   -2.8262482    626.02748  0.095722856  0.098067381            1 
  546000    1.1580991   -2.8570927    627.24854  0.095733904  0.098053302            5 
  547000    1.1813553   -2.8380414    629.01253  0.095827624  0.098040087            1 
  548000    1.1789818   -2.8434409    627.37323  0.095403471  0.098027278            3 
  549000    1.1565605   -2.8698019    626.82651  0.095146708  0.098012863            3 
  550000    1.1599299   -2.8331819    631.85794  0.095736052  0.097998358            2 
  551000    1.1592195   -2.8455656    633.20132  0.095765475  0.097986634            1 
  552000    1.1815519   -2.8269802    634.96921  0.095858878   0.09797457            1 
  553000    1.1392385   -2.8264107    634.98821  0.095688398  0.097962187            3 
  554000    1.1615901   -2.8464521    635.30204  0.095562882  0.097950792            1 
  555000    1.1728219   -2.8578675    638.34934   0.09584825  0.097938602            1 
  556000    1.1335743   -2.8622964    637.27481   0.09551481  0.097926515            1 
  557000    1.1881616   -2.8477744    637.98411  0.095449448  0.097914871            2 
  558000    1.1644478   -2.8575007    639.94831  0.095571731  0.097903839            2 
  559000    1.1493863   -2.8260598    642.99057  0.095854289  0.097892435            3 
  560000    1.1472778    -2.865794    641.23084  0.095421255  0.097880424            1 
  561000    1.1932044   -2.8457375    646.18456  0.095987011  0.097870236            2 
  562000     1.143503   -2.8201061    644.40363  0.095552139  0.097859417            1 
  563000    1.1559728   -2.8577204    646.81866  0.095739885  0.097845501            2 
  564000    1.1489678   -2.8343646    646.52656  0.095526974  0.097831965            2 
  565000    1.1416171   -2.8483957    646.05185  0.095287884  0.097818485            5 
  566000    1.1644047     -2.86003     647.4562  0.095326296  0.097804364            2 
  567000    1.1562293   -2.8524622    649.15085  0.095407238  0.097791544            2 
  568000    1.1565845   -2.8707155    647.60484  0.095012448  0.097776443            3 
  569000     1.162145   -2.8753905     650.3874  0.095252987  0.097761249            2 
  570000    1.1416733   -2.8568761    653.62958   0.09555988  0.097746413            1 
  571000    1.1511573   -2.8765187     650.7923  0.094978445  0.097732265            2 
  572000     1.182912   -2.8528747    653.37728  0.095188997  0.097718755            1 
  573000      1.17209   -2.8310946    656.60923  0.095492907   0.09770485            2 
  574000    1.1584458   -2.8585042     658.5822  0.095612979  0.097691259            1 
  575000    1.1478375   -2.8680041    657.01413  0.095219439  0.097676889            1 
  576000    1.1707772   -2.8842629    657.70682  0.095154343  0.097662632            2 
  577000    1.1529225    -2.872499    658.52233  0.095107211   0.09764805            2 
  578000    1.1554829   -2.8508961    659.55147  0.095091043  0.097633723            3 
  579000    1.1715392   -2.8435949    663.59423  0.095508669  0.097618841            4 
  580000    1.1707488   -2.8682895     662.1809  0.095140934  0.097604573            2 
  581000     1.141878    -2.815373    662.42171   0.09501172   0.09758676            2 
  582000    1.1713968    -2.856791    663.66853  0.095026995   0.09756965            2 
  583000    1.1726882   -2.8545882    665.18496  0.095080754  0.097553367            2 
  584000    1.1978509   -2.8625131    662.69422  0.094562531  0.097537313            2 
  585000    1.1588134   -2.8517839    664.92513  0.094718679  0.097521505            3 
  586000    1.1582693   -2.8430254    667.05571  0.094860026  0.097505112            1 
  587000     1.152988   -2.8473727     670.2017  0.095145045  0.097489525            2 
  588000    1.1561645   -2.8673716    669.71676  0.094914506  0.097474508            2 
  589000    1.1431409   -2.8547684    671.51515  0.095007802  0.097458777            2 
  590000    1.1815688   -2.8699214    675.67251   0.09543397   0.09744415            1 
  591000    1.1552626   -2.8539732     676.4601  0.095383545  0.097429971            1 
  592000    1.1695388   -2.8580312    677.28431  0.095338445  0.097418964            1 
  593000     1.155418   -2.8593862    677.71307  0.095237924  0.097407077            2 
  594000    1.1648162    -2.882017    677.36269  0.095028435  0.097393059            2 
  595000    1.1450665   -2.8421565     677.7325  0.094920518  0.097376801            3 
  596000    1.1420753   -2.8597842    678.70919  0.094897817  0.097360703            2 
  597000    1.1469225   -2.8681281    681.53519  0.095133332  0.097346031            1 
  598000    1.1710827   -2.8890351    683.54883  0.095254854  0.097332425            2 
  599000    1.1610718   -2.8455369    683.68694  0.095115045  0.097318552            2 
  600000    1.1796247    -2.869819    684.46531  0.095064627  0.097303034            2 
  601000    1.1622135   -2.8645211    686.42931  0.095178773  0.097288923            1 
  602000    1.1592254   -2.8626661    685.83058  0.094937788  0.097275251            1 
  603000    1.1596445   -2.8701058     688.2775  0.095118505  0.097260547            3 
  604000    1.1530543   -2.8886999    684.64967  0.094460495  0.097246009            1 
  605000    1.1221599   -2.8228495     688.4822  0.094832259  0.097229596            1 
  606000    1.1214547   -2.8199934    692.57359  0.095238392  0.097214215            3 
  607000     1.177299    -2.869938    689.90452  0.094715064    0.0971988            3 
  608000    1.1594124   -2.8574838    691.35801  0.094758499  0.097182624            1 
  609000    1.1480725    -2.883611    690.83345  0.094531123  0.097164051            1 
  610000    1.1448716   -2.8690793     691.9488  0.094528525  0.097145942            1 
  611000    1.1328099   -2.8612368    690.05306  0.094115256  0.097128092            1 
  612000    1.1475103   -2.8323695    692.11644  0.094242435  0.097109986            4 
  613000    1.1565481   -2.8809411    693.79718  0.094317181  0.097091625            4 
  614000     1.158811   -2.8621862    696.56462  0.094539172  0.097072308            2 
  615000    1.1405953   -2.8736688     692.3367  0.093812562   0.09705194            3 
  616000    1.1441875    -2.852601    699.42415  0.094619068  0.097030512            2 
  617000    1.1742994   -2.8457067    699.17977  0.094432708  0.097010605            2 
  618000    1.1471916   -2.8778058    697.07314  0.093995839  0.096990047            1 
  619000    1.1231747     -2.83659    698.57241  0.094045828  0.096967347            3 
  620000    1.1519788   -2.8566787    700.63702  0.094171642  0.096943955            1 
  621000    1.1653623    -2.858719     701.0963  0.094081629  0.096921453            2 
  622000    1.1214681   -2.8513004    700.79079  0.093889442  0.096897286            4 
  623000    1.1564767    -2.868362    701.23822  0.093798584  0.096874999            1 
  624000    1.1386217   -2.8784852    703.69656   0.09397657   0.09685159            2 
  625000    1.1702048    -2.880681     702.1019  0.093613586  0.096826948            1 
  626000    1.1478305   -2.8613107    704.51589  0.093785395  0.096802642            1 
  627000    1.1548446   -2.8490722    704.34365  0.093612926  0.096779476            3 
  628000    1.1727347   -2.8685453    706.71181  0.093778106  0.096755257            6 
  629000    1.1592403    -2.852485    708.08528   0.09381098  0.096732628            1 
  630000    1.1486424   -2.8715542    706.47898    0.0934496  0.096710419            1 
  631000     1.155746   -2.8564275    711.98281  0.094028368  0.096689167            1 
  632000    1.1739489   -2.8591853     708.6821   0.09344437  0.096668692            2 
  633000    1.1559428   -2.8504252    714.48735  0.094060999  0.096648452            2 
  634000    1.1522919   -2.8640446     711.6125  0.093534766  0.096628582            4 
  635000    1.1393195   -2.8631343     716.0503  0.093969856  0.096608963            1 
  636000    1.1593625   -2.8652065    717.44706  0.094005118   0.09659012            1 
  637000    1.1803115   -2.8826087    717.70445  0.093891216  0.096571386            1 
  638000    1.1554727   -2.8781541    720.44932  0.094102576  0.096553637            3 
  639000    1.1316454   -2.8805911     722.5298   0.09422663  0.096533327            2 
  640000    1.1431702   -2.8354296    725.04553  0.094406969  0.096514888            4 
  641000    1.1483912   -2.8535559    721.82785  0.093841374  0.096495505            2 
  642000    1.1413972    -2.853555    722.44196  0.093774917  0.096477379            3 
  643000     1.155397   -2.8551173    725.93594    0.0940819  0.096458481            4 
  644000    1.1512549   -2.8784696    725.71631   0.09390739  0.096440856            7 
  645000    1.1618598   -2.8613005    727.59188  0.094004118  0.096421711            2 
  646000    1.1869497   -2.8548082    731.12269  0.094314072  0.096403387            2 
  647000    1.1588158   -2.8735056    729.66209  0.093980177  0.096386935            3 
  648000    1.1253283   -2.8797311     733.2863  0.094301222  0.096368233            6 
  649000    1.1677244   -2.8619845    730.25119  0.093766203  0.096351432            2 
  650000    1.1444292   -2.8611765    735.27198  0.094265638  0.096334574            4 
  651000    1.1585362   -2.8865249    734.07506  0.093967622  0.096318181            2 
  652000    1.1503803   -2.8527451    737.62734  0.094277523   0.09630276            1 
  653000     1.144979     -2.88115    738.19299  0.094205332  0.096287881            1 
  654000    1.1436797   -2.8683662    738.53857  0.094105323  0.096271355            1 
  655000    1.1459054   -2.8638322    740.03514  0.094152054  0.096254255            3 
  656000    1.1353206    -2.876548    737.93238  0.093741411  0.096238115            2 
  657000    1.1660778   -2.8630314    740.28655  0.093897331  0.096222367            1 
  658000    1.1573785   -2.8426867    741.01694   0.09384713  0.096206414            1 
  659000    1.1063752   -2.8754886    743.49323   0.09401786  0.096191012            2 
  660000    1.1449886   -2.8831299    742.48145  0.093747657  0.096174204            3 
  661000    1.1304382   -2.8474185    745.81304   0.09402585  0.096158896            1 
  662000    1.1286894   -2.8508676    745.28974  0.093817943  0.096143232            5 
  663000     1.141277   -2.8824166    748.31481  0.094056663  0.096127948            2 
  664000    1.1520373    -2.881535    751.14953  0.094270774  0.096112862            3 
  665000    1.1345372   -2.8655323    748.39138  0.093783381  0.096098492            1 
  666000     1.130463    -2.854479    753.23744  0.094248929  0.096084483            1 
  667000    1.1373843   -2.8616859    753.03516  0.094082353  0.096070292            6 
  668000    1.1441231   -2.8410945    758.44395  0.094616262  0.096057556            4 
  669000    1.1398787   -2.8751913    757.58151  0.094367403  0.096044753            2 
  670000    1.1460458    -2.877986    760.54361  0.094594977   0.09603164            5 
  671000    1.1213524   -2.8729458    761.80865  0.094611109  0.096019428            2 
  672000    1.1641874   -2.8635685    758.93712  0.094114226  0.096006599            1 
  673000    1.1530158   -2.9017841    762.14621  0.094371744  0.095992943            1 
  674000    1.1699755   -2.8698121    763.27918  0.094371808  0.095979254            3 
  675000    1.1476043    -2.876445    758.98163  0.093701436  0.095964511            2 
  676000    1.1236598   -2.8813968    761.54236  0.093878496   0.09594867            3 
  677000    1.1751504   -2.8808956    763.56637  0.093988967  0.095933494            2 
  678000    1.1445758   -2.8796605    765.89244  0.094136239  0.095918452            4 
  679000    1.1880851   -2.8994633    763.04015  0.093647539   0.09590271            3 
  680000    1.1507187   -2.8689976     765.9188  0.093862598  0.095886907            2 
  681000    1.1360283   -2.8883036    764.05464  0.093496652  0.095869974            1 
  682000     1.133379   -2.8921286    765.26833   0.09350786  0.095854832            2 
  683000    1.1512378   -2.8628318    767.90788  0.093693006  0.095837226            3 
  684000    1.1310274   -2.8832357    770.27569  0.093844505  0.095819812            2 
  685000    1.1410299   -2.8730333    768.16271  0.093450451  0.095803662            2 
  686000    1.1525218   -2.8928544    768.61678  0.093369386  0.095786519            1 
  687000    1.1426239   -2.8696744    771.42516  0.093574133  0.095768565            3 
  688000    1.1091798   -2.8887192    771.08898  0.093397406  0.095750044            1 
  689000    1.1516893    -2.887521    772.21226   0.09339771   0.09573219            2 
  690000    1.1415746   -2.8938014    772.13601  0.093253142  0.095712771            5 
  691000    1.1400709   -2.8734568     774.0631   0.09335059  0.095692333            2 
  692000    1.1502605   -2.8648104    776.24433  0.093478363  0.095673345            2 
  693000    1.1411676   -2.8470341    774.45795  0.093128662  0.095652051            1 
  694000    1.1459205   -2.8791389    772.81979  0.092797765  0.095631439            2 
  695000    1.1425069   -2.8795887    776.01938  0.093047888  0.095609794            1 
  696000    1.1435143   -2.8955487    772.09754  0.092444629  0.095587212            5 
  697000    1.1263048   -2.8729847    777.83727  0.092998239  0.095564185            5 
  698000    1.1340548   -2.8921421    775.77715  0.092619048  0.095543258            2 
  699000     1.145062   -2.8854779    776.65849  0.092591618  0.095522181            3 
  700000    1.1453716   -2.8916078    779.98254  0.092855065  0.095501965            1 
  701000    1.1572435   -2.8920678    782.92983  0.093072971  0.095481582            1 
  702000    1.1518696   -2.8748868    781.40548  0.092759435  0.095459758            3 
  703000    1.1221746   -2.8765252    783.97189  0.092931708  0.095438391            3 
  704000    1.1612676   -2.9027294    782.71547  0.092650979  0.095415817            2 
  705000    1.1400648   -2.8991597    785.11568  0.092803272  0.095394857            3 
  706000     1.167786   -2.8758292    785.62821  0.092732319  0.095373226            1 
  707000    1.1230224    -2.864928    789.73065  0.093084707   0.09535094            2 
  708000    1.1387619   -2.8712463    787.84749  0.092731578  0.095328981            3 
  709000    1.1452608   -2.8913403    788.54332  0.092682572  0.095309071            1 
  710000    1.1351075   -2.8961297    790.17102  0.092743077  0.095289798            1 
  711000    1.1672666   -2.8846175    794.66269  0.093139087  0.095270254            3 
  712000    1.1419214    -2.883778    796.27098   0.09319651  0.095251249            3 
  713000    1.1515048   -2.8867378     795.3405  0.092957047  0.095231056            2 
  714000    1.1247819   -2.8776533    795.15877  0.092805645  0.095211671            2 
  715000    1.1159016   -2.8641672    797.88609  0.092993717  0.095193188            1 
  716000    1.1100824   -2.8865439    795.04336  0.092532979  0.095174306            3 
  717000    1.1235738   -2.8728306    802.26954  0.093243787   0.09515511            2 
  718000    1.1449235   -2.8758066     800.7691  0.092939775  0.095135449            3 
  719000    1.1359869   -2.8704215    798.85973  0.092589212  0.095114917            3 
  720000    1.1321916   -2.8805317    801.74515  0.092794578  0.095094225            2 
  721000    1.1364119    -2.866811    801.28693  0.092612914  0.095072239            2 
  722000    1.1362431   -2.8618327    802.74531  0.092652967  0.095052505            1 
  723000    1.1377774   -2.8511105    801.69346   0.09240358  0.095031755            1 
  724000    1.1125067    -2.854735     807.3661  0.092928879  0.095011775            1 
  725000    1.1303138   -2.8816116    804.97186  0.092525502  0.094991832            1 
  726000    1.1250919   -2.8558915    810.67552  0.093052745  0.094971398            1 
  727000    1.1320879   -2.9025924    811.89492  0.093064525  0.094952281            2 
  728000    1.1482123   -2.8799944    806.20975  0.092285915  0.094932727            1 
  729000    1.1229422   -2.9129619    807.79307  0.092340314  0.094911165            1 
  730000    1.1618045   -2.8791854    807.98192  0.092235379  0.094889478            3 
  731000    1.1265348   -2.8820995    810.46465  0.092392231  0.094868545            1 
  732000    1.1043736   -2.8710361    813.08808  0.092564672  0.094846461            1 
  733000    1.1091081   -2.8847088    809.07078  0.091981671  0.094824464            2 
  734000    1.1329739   -2.8756658    810.46966  0.092015175  0.094802142            2 
  735000    1.1441976   -2.9087489    808.59462  0.091677395  0.094780068            1 
  736000    1.1360745   -2.8621926    811.96001  0.091933878  0.094756821            3 
  737000    1.1321757   -2.9064475    816.79532  0.092355871  0.094735406            3 
  738000    1.1304659   -2.8884047    813.90789  0.091904685  0.094714253            1 
  739000    1.1131471   -2.9035159    816.32053  0.092052383  0.094694042            1 
  740000    1.1555041   -2.9248464    820.23134  0.092368394  0.094673267            2 
  741000    1.1249037   -2.9082587    821.21971  0.092354893  0.094653651            2 
  742000    1.1338384   -2.8551857    826.25826    0.0927963  0.094634915            1 
  743000     1.134724   -2.8751696    822.11363  0.092206554  0.094616236            2 
  744000    1.1342686   -2.8830053    824.91997   0.09239695  0.094596782            7 
  745000    1.1499775   -2.9118095    826.90221  0.092494654  0.094577686            3 
  746000    1.1399812   -2.8817825    829.11851  0.092618243  0.094559587            2 
  747000     1.162133   -2.8916643    830.50963  0.092649445  0.094541505            2 
  748000    1.1410275   -2.9000463      831.196   0.09260205  0.094523501            2 
  749000    1.1106195   -2.8891672    831.89269  0.092555929  0.094506455            2 
  750000    1.1366588   -2.9142281    831.47248  0.092385831  0.094489572            1 
  751000    1.1494722   -2.8939566    833.77939  0.092518795  0.094472735            1 
  752000    1.1255072   -2.8739071    836.79397  0.092729828   0.09445721            2 
  753000    1.1351311   -2.8885591    835.72985  0.092488916  0.094440135            2 
  754000    1.1242871   -2.9157732    839.48163  0.092780905  0.094423323            1 
  755000    1.1382124   -2.9085226    838.04202  0.092499119  0.094406454            2 
  756000    1.1145182   -2.8854152    839.91605  0.092583339  0.094390572            3 
  757000    1.1015843   -2.8871458    841.57227  0.092643359  0.094375244            2 
  758000    1.1488798   -2.9077448    843.08804   0.09268778  0.094359416            2 
  759000    1.1191453   -2.8737805    845.87638  0.092871802   0.09434424            2 
  760000    1.0959847   -2.8971467    842.82653  0.092415189  0.094329917            4 
  761000    1.1309348   -2.8699426    843.88516  0.092409675  0.094315083            2 
  762000    1.1040914   -2.8792394    849.02572  0.092850582  0.094300231            2 
  763000    1.1151093   -2.8868997    853.93456  0.093265024  0.094285508            2 
  764000    1.1273244    -2.930234    847.76045  0.092469508  0.094270831            1 
  765000    1.1438425    -2.897957     848.0607   0.09238134    0.0942558            2 
  766000    1.1505383   -2.8963667       850.62  0.092539165  0.094240631            1 
  767000    1.1199784   -2.8797886     853.9621  0.092781628   0.09422546            1 
  768000    1.1151668   -2.9109038    852.38442  0.092489629  0.094209927            2 
  769000    1.1099254   -2.9019107    857.34327  0.092906726  0.094193777            3 
  770000    1.1083085   -2.9025331    852.66305  0.092279551  0.094176825            1 
  771000    1.1265394   -2.8884257    850.16782  0.091890166  0.094159327            2 
  772000    1.1047318   -2.9016748    855.28918  0.092323962  0.094142537            2 
  773000    1.1323206   -2.8818009    858.77537  0.092580355  0.094124916            3 
  774000    1.1329046   -2.8937033    853.78832  0.091923807  0.094107855            3 
  775000    1.1550341   -2.8984156    858.80724  0.092344865   0.09409077            1 
  776000    1.1608341   -2.9139161      859.233  0.092271585  0.094074223            1 
  777000    1.1219145   -2.8748109    859.98837  0.092233845  0.094058309            1 
  778000    1.1510864   -2.8892466    862.43149  0.092376981  0.094042133            3 
  779000    1.1253185    -2.896874     860.6296   0.09206564   0.09402684            2 
  780000    1.1108038   -2.9004164    861.41104  0.092031094   0.09401028            1 
  781000    1.1501985   -2.9254853    865.63701  0.092364171  0.093994156            2 
  782000    1.1364404   -2.8745272    864.53662  0.092128796  0.093977605            2 
  783000    1.1215884   -2.8857618    862.94328  0.091841558  0.093960008            1 
  784000     1.108852   -2.8792332    867.80939  0.092241645   0.09394278            1 
  785000    1.1433139   -2.8977963    868.58078  0.092206027  0.093924766            2 
  786000    1.1295566   -2.8868832    864.78571  0.091686356  0.093906817            4 
  787000     1.119945   -2.9249223    867.51712  0.091859077  0.093888148            3 
  788000    1.1417453   -2.8776798    868.31867  0.091827271  0.093869896            1 
  789000    1.1565471   -2.8887686    869.55655  0.091841629  0.093851903            2 
  790000    1.1281933   -2.9067374    869.19613  0.091687355  0.093833485            4 
  791000    1.1055338    -2.870721    875.31738  0.092216327  0.093815162            1 
  792000    1.1075457    -2.905189    875.17111  0.092084502  0.093798107            1 
  793000    1.1157214   -2.8927066    876.42528  0.092100177  0.093781093            1 
  794000    1.1522091   -2.8881638    873.72758  0.091701047  0.093764815            2 
  795000    1.1144567   -2.8902844    879.65649   0.09220718  0.093747052            2 
  796000    1.1300301    -2.898685    880.23606  0.092152016  0.093730261            3 
  797000    1.1130756   -2.9196521    880.27772  0.092040748  0.093713346            2 
  798000    1.1171305   -2.8838216    881.07298  0.092008457  0.093695611            3 
  799000    1.1459063   -2.8851481    878.26471  0.091600408  0.093679245            1 
  800000    1.1222549   -2.8951328    886.07244  0.092299213  0.093663432            1 
  801000    1.1056041   -2.8780478    885.32892  0.092106629  0.093648053            2 
  802000    1.1136796   -2.8768592    888.44943  0.092316026  0.093632553            4 
  803000    1.1318378    -2.895113    887.27518    0.0920792    0.0936176            3 
  804000    1.0994733   -2.9010477    886.79692  0.091915104  0.093602227            4 
  805000     1.124128   -2.8969388    888.75771  0.092003903  0.093586989            2 
  806000     1.127408   -2.9201588    889.54618  0.091971275  0.093571048            1 
  807000     1.109811   -2.8902056    891.18692  0.092026737  0.093554521            2 
  808000    1.1375135   -2.9041674    888.99565  0.091686845  0.093538393            3 
  809000    1.1277911   -2.9167057    891.70687  0.091852789  0.093520927            1 
  810000    1.1118771   -2.8901124    891.83112  0.091752173  0.093503611            1 
  811000    1.1061024   -2.8841967    892.85153  0.091743889  0.093486252            5 
  812000    1.1240638   -2.9009338     893.2125  0.091667949  0.093468818            3 
  813000    1.1405706   -2.8644762    894.94009  0.091732277  0.093451904            2 
  814000    1.1297048   -2.8817593    894.74526  0.091599637  0.093434006            1 
  815000    1.1016768   -2.8977075    893.90925  0.091401763  0.093416627            2 
  816000    1.1273135   -2.9205952    894.22547  0.091322045  0.093399166            1 
  817000    1.1204459   -2.8929622    891.06816  0.090888225  0.093381173            1 
  818000    1.1039241   -2.9084284    897.09775  0.091391376  0.093362533            2 
  819000      1.11668   -2.9213862    898.82589  0.091455625  0.093345312            2 
  820000    1.1174802   -2.9047931     902.4943  0.091716901  0.093327641            1 
  821000    1.1332871   -2.9000362    900.79491  0.091432695  0.093310133            1 
  822000    1.1387175   -2.9058402     901.3243  0.091375132  0.093292444            3 
  823000    1.1071299   -2.8934957     904.9776  0.091634022   0.09327584            2 
  824000    1.1076566   -2.9099593    902.81029   0.09130363  0.093258774            1 
  825000    1.1252027   -2.8799078    905.68475  0.091483308  0.093243209            4 
  826000    1.1328829   -2.9158129    908.10132  0.091616356  0.093226609            1 
  827000    1.1454003   -2.9396687    909.00991  0.091597129  0.093211042            1 
  828000    1.1384796    -2.916328    907.48427  0.091332957  0.093195558            1 
  829000    1.1139182   -2.9004291    912.70748  0.091747836   0.09317994            3 
  830000    1.1045443   -2.9188066    913.54379  0.091721264  0.093163612            2 
  831000    1.1337515   -2.9262431    910.37081  0.091292701  0.093148241            3 
  832000    1.1040566   -2.9034859    915.29915  0.091676597  0.093132325            1 
  833000    1.1154077   -2.8724717     916.5444  0.091691116  0.093116473            3 
  834000    1.0853982    -2.906116    915.96178  0.091522959  0.093100252            3 
  835000    1.1274183   -2.8919933    915.11261  0.091328604  0.093083102            2 
  836000    1.1092352   -2.9147277    913.48889  0.091057505  0.093065907            3 
  837000    1.1209828   -2.9262114    918.01398  0.091399241   0.09304885            1 
  838000    1.1083331   -2.9392509    915.34763  0.091025023  0.093031693            1 
  839000    1.1124611   -2.8908616    919.73791  0.091352593  0.093014273            2 
  840000    1.1188932   -2.9219542    918.06501  0.091077878  0.092996207            1 
  841000    1.0926694   -2.9093001    920.55834   0.09121664  0.092977987            2 
  842000    1.1402625   -2.9227913    920.41863   0.09109448  0.092960429            2 
  843000    1.0960195   -2.8991196    921.29079  0.091072636  0.092943443            2 
  844000    1.1230855   -2.9264901    922.98533  0.091132043  0.092926091            2 
  845000    1.1499228   -2.9010327    924.64362  0.091187734  0.092908296            1 
  846000    1.1264794   -2.9395458    923.58687  0.090975854   0.09289014            2 
  847000    1.1227262   -2.9048723    930.77021  0.091575188  0.092871494            3 
  848000    1.1136542   -2.8923665    926.08445  0.091006727  0.092853638            1 
  849000    1.1149702   -2.8923178    928.17601   0.09110483  0.092835824            2 
  850000    1.1156564   -2.9025078    926.22961  0.090806824  0.092817164            3 
  851000    1.1264724   -2.8927377    925.59043  0.090637527  0.092797937            2 
  852000    1.1163507   -2.9165664    924.87597  0.090461264  0.092778629            2 
  853000     1.117555   -2.9148761    924.67288  0.090335373  0.092759156            2 
  854000     1.115307   -2.9253011    933.17492  0.091059224  0.092739449            2 
  855000    1.1020781   -2.8915011    934.01967  0.091035055    0.0927207            4 
  856000    1.0900151   -2.9287637    929.92172  0.090529762  0.092700904            1 
  857000    1.1134124   -2.8916452    936.51196  0.091064952  0.092681684            2 
  858000    1.1198316   -2.8694351    936.42264  0.090950139  0.092663227            1 
  859000    1.1037971   -2.9003513    936.14461  0.090817288  0.092644164            2 
  860000    1.0959617   -2.9467066    934.31412  0.090534314  0.092624844            1 
  861000     1.104392   -2.8870251     936.9623  0.090685472  0.092605717            1 
  862000    1.1178169   -2.8894896    940.23043  0.090896213   0.09258621            1 
  863000     1.128921    -2.886476    942.79572  0.091038598  0.092567345            1 
  864000    1.1031604   -2.9400156     939.1902  0.090585474  0.092548525            4 
  865000    1.1023796   -2.9114775    941.76525   0.09072883  0.092530768            2 
  866000    1.1125469    -2.893161    942.29297  0.090674843  0.092512677            2 
  867000    1.1036888   -2.8756659    946.71777  0.090995556  0.092494017            2 
  868000    1.1137321   -2.9328062     942.0207  0.090439775  0.092474965            5 
  869000    1.1133518   -2.9149425    946.99147  0.090812378  0.092457237            2 
  870000    1.1034002   -2.8998852    943.57147  0.090380409  0.092438885            1 
  871000    1.1297458   -2.9078073    949.10074  0.090805658  0.092421345            2 
  872000    1.0932699   -2.9116119    948.74115  0.090667159  0.092403919            3 
  873000    1.1251316   -2.8897862    946.57565  0.090356591  0.092385162            1 
  874000    1.1029308   -2.9408137    947.93806  0.090383111  0.092367724            2 
  875000    1.1064112   -2.8996886    950.65448  0.090538522  0.092348532            3 
  876000    1.1070727   -2.9038057    952.13636  0.090576138  0.092328172            1 
  877000    1.1259928   -2.9261023    948.29718  0.090108056  0.092309682            2 
  878000    1.1191788   -2.9191896    955.31231  0.090671252  0.092290645            2 
  879000    1.1193058   -2.9307975    955.46812  0.090582871   0.09227201            2 
  880000    1.1093802   -2.9054194    957.88668  0.090708966  0.092253052            1 
  881000    1.1076739   -2.9281265    954.07072  0.090245055  0.092233039            1 
  882000    1.1274635   -2.9100829    954.40775   0.09017458  0.092212709            3 
  883000    1.1145219   -2.8929683    958.15836  0.090426421  0.092193443            2 
  884000    1.1272833   -2.8805035    955.56523  0.090079678  0.092174561            1 
  885000    1.1224714   -2.9136012     954.7273  0.089898992  0.092155504            3 
  886000    1.1176297   -2.9112876    955.98885  0.089916182  0.092135604            2 
  887000    1.1048404   -2.8975664     959.3528  0.090130853  0.092117104            3 
  888000    1.0917743   -2.8818571    965.23192  0.090581074  0.092099054            1 
  889000    1.1300147   -2.9004211    963.90004  0.090354335  0.092080808            1 
  890000    1.1152314   -2.8790643    961.80912  0.090057033  0.092063177            1 
  891000    1.0909086   -2.8864786    964.62855  0.090219655  0.092044961            1 
  892000    1.1082567   -2.9335582    966.97749  0.090337957    0.0920262            2 
  893000    1.1025525   -2.9271623    966.05999  0.090151175  0.092007633            1 
  894000     1.116593   -2.9150264     964.6373   0.08991772  0.091988273            2 
  895000    1.1002013   -2.9130095    965.56901  0.089904004  0.091968536            3 
  896000    1.1147892   -2.9266034    964.85135  0.089736919   0.09194875            2 
  897000    1.1001133   -2.8979411     969.9793  0.090113276  0.091929148            1 
  898000    1.1311008   -2.9252454    966.52704  0.089692561  0.091908972            2 
  899000    1.0935698   -2.9197317    970.79296  0.089988224  0.091889805            2 
  900000    1.1076178   -2.9250094    969.22857  0.089743386  0.091869773            1 
  901000    1.1405758   -2.9029991     969.4996  0.089668849  0.091849218            3 
  902000    1.1129614   -2.9315636    969.88488  0.089605033  0.091828998            1 
  903000    1.1081078   -2.9033571    974.47298  0.089929216  0.091807994            1 
  904000    1.1058985   -2.9178455    973.85599  0.089772861  0.091788874            3 
  905000    1.0995897   -2.9296954    972.15018  0.089516591  0.091768506            2 
  906000    1.1079213    -2.900592    972.43533  0.089444014  0.091748039            3 
  907000    1.1093032    -2.922096    977.79236  0.089837593  0.091727077            2 
  908000    1.1172658   -2.9434798    976.64098  0.089632983  0.091705412            2 
  909000    1.1249025   -2.9360367    982.24936   0.09004853  0.091684559            1 
  910000    1.1049538   -2.9290141    980.39847  0.089780079  0.091664464            2 
  911000    1.0996684   -2.9210525    980.69583  0.089708729   0.09164347            2 
  912000     1.107453   -2.8994557    977.53454  0.089321504  0.091622037            1 
  913000    1.1366754   -2.9146967     981.0153  0.089541375  0.091599908            1 
  914000    1.1369278   -2.9192424    981.16223  0.089456804  0.091577106            2 
  915000    1.0841735   -2.9129506    983.46482  0.089568745  0.091554478            2 
  916000    1.1095237   -2.9300558    983.15711  0.089442969  0.091532603            4 
  917000    1.1197989   -2.9575431    982.01318  0.089241474  0.091511198            2 
  918000    1.0783806   -2.9282165    991.95295  0.090046564  0.091490122            3 
  919000    1.1302577   -2.9117252    987.77541  0.089569769  0.091469529            1 
  920000    1.1013902   -2.9316586     986.2421  0.089333524  0.091448256            1 
  921000     1.092298   -2.9328925    985.93483  0.089208725  0.091426808            2 
  922000    1.0991952   -2.9444371    986.63609  0.089175352  0.091405889            4 
  923000    1.1125578    -2.906659    991.36308  0.089505515  0.091385703            2 
  924000    1.1116074   -2.9518697    985.84025  0.088910557  0.091364263            4 
  925000    1.1050004    -2.921998    988.01139  0.089010035  0.091343956            2 
  926000    1.0974028   -2.9151084    994.09603  0.089461485  0.091322291            4 
  927000    1.0857012   -2.9020332    995.58372  0.089498716  0.091300975            1 
  928000    1.1115984   -2.9374813    991.39746  0.089026352  0.091280214            4 
  929000    1.0779738   -2.8952476    996.98937  0.089432128  0.091259068            3 
  930000    1.1100165   -2.9309922    993.39358  0.089013762  0.091239038            1 
  931000    1.0948002   -2.9157516    997.07442   0.08924762  0.091216979       -1e+20 
  932000    1.1137872   -2.9174632    1000.3183  0.089441909  0.091195274            1 
  933000    1.0910333   -2.9224512     996.0438  0.088964255  0.091174253            2 
  934000    1.1177302   -2.9165852    995.07043  0.088782159  0.091153046            2 
  935000    1.1308397   -2.9176025    996.91453  0.088851562  0.091130513            4 
  936000    1.0956314    -2.897878    998.53432  0.088900848  0.091108429            2 
  937000    1.1157183   -2.9153931    1000.9718  0.089022748  0.091087546            1 
  938000    1.0970113   -2.9326334    996.42286  0.088523708  0.091065926            2 
  939000    1.0773599    -2.908101    1001.5496  0.088884415  0.091044215            1 
  940000    1.0981351   -2.9222396    999.76308  0.088631479  0.091022307            1 
  941000    1.1100542   -2.9250387    998.81824  0.088453617  0.091000049            2 
  942000    1.0780117   -2.9329472    1005.3469  0.088937269  0.090979005            2 
  943000    1.1056483   -2.9537407    1004.8428  0.088798413  0.090958118            5 
  944000     1.092614   -2.9659293    1003.9269  0.088623492  0.090935715            2 
  945000    1.1000725     -2.90633    1011.0554  0.089158324  0.090914073            2 
  946000    1.1303549   -2.9063893    1005.9664   0.08861579  0.090892968            2 
  947000    1.0739452   -2.9346987    1009.8747  0.088866132   0.09087227            3 
  948000    1.1091613   -2.9499207    1019.1088   0.08958411  0.090851536            2 
  949000    1.0914072   -2.9073303    1012.8845  0.088943145  0.090831205            2 
  950000    1.0821808   -2.9172799    1017.3548  0.089241652  0.090810676            2 
  951000    1.0973999   -2.9023313    1014.9372  0.088935963  0.090789753            4 
  952000    1.1116939   -2.9102104     1011.253  0.088520043  0.090767766            2 
  953000    1.0868649   -2.9352222    1019.0262  0.089106874  0.090746118            3 
  954000    1.0974051   -2.9014152    1020.4418  0.089137125  0.090724536            3 
  955000    1.0824967   -2.9419584    1018.3258  0.088859143   0.09070366            1 
  956000    1.1015903   -2.9466693    1019.5183  0.088870143  0.090682952            4 
  957000    1.1087144   -2.9249616    1018.9672   0.08872929  0.090662563            1 
  958000    1.1181472   -2.9041563    1021.0807  0.088820519  0.090642443            3 
  959000    1.0809514   -2.9194843    1022.0146  0.088809055  0.090622428            2 
  960000    1.0994835   -2.9401241    1021.0826  0.088635638  0.090601477            1 
  961000    1.0995086   -2.9291661    1022.3117  0.088649992  0.090581685            2 
  962000    1.1088202   -2.9456919    1021.7682  0.088510759  0.090561245            2 
  963000    1.0826433   -2.9249677    1030.2633  0.089153969  0.090541405            1 
  964000    1.0805173    -2.932039    1026.9708   0.08877687   0.09052155            3 
  965000    1.1007406   -2.9275203    1031.5903  0.089083792  0.090503157            2 
  966000     1.072984   -2.9219816    1027.2712  0.088618977  0.090483461            4 
  967000    1.0893894   -2.9547526    1031.7956  0.088917239  0.090463444            3 
  968000    1.0967879   -2.9165695    1030.3245  0.088698736  0.090443028            1 
  969000    1.1070705   -2.9226039    1026.9293  0.088315215  0.090422164            2 
  970000    1.1158507   -2.9279194    1028.7128  0.088377385  0.090401846            3 
  971000    1.0880881   -2.9554804    1029.9505  0.088392591  0.090381473            2 
  972000    1.0961406   -2.9281296    1033.5784  0.088612692   0.09036162            2 
  973000    1.0752503   -2.9701274    1038.1821  0.088915906  0.090341781            2 
  974000    1.0486093    -2.935239    1033.9806  0.088465147  0.090321269            1 
  975000    1.1123539   -2.9319345    1036.0105   0.08854791  0.090300784            2 
  976000    1.1104426   -2.9247278    1035.8249  0.088441333   0.09028059            3 
  977000    1.1042952   -2.9535518    1038.0987  0.088544756  0.090260314            3 
  978000    1.0933303   -2.8874958     1038.126  0.088456543  0.090239924            2 
  979000      1.09374   -2.9140342     1040.949  0.088606485  0.090219451            3 
  980000    1.0852003   -2.9461104    1042.7372   0.08866813  0.090198915            2 
  981000    1.1022406   -2.9199212    1039.9561  0.088341494  0.090178465            3 
  982000    1.0871443   -2.9431661    1042.3176  0.088451938  0.090158459            3 
  983000    1.1008327   -2.9325746    1043.8654  0.088493165  0.090138422            2 
  984000     1.086748   -2.9256261    1043.4501   0.08836806  0.090117625            2 
  985000    1.0913331   -2.9030947    1046.6181  0.088546374   0.09009689            4 
  986000    1.1095159   -2.9330176    1040.0245  0.087899301  0.090076062            3 
  987000    1.0917906   -2.9505211    1040.4923  0.087849737  0.090055796            4 
  988000    1.0738873   -2.9240421     1044.279  0.088080216  0.090033826            3 
  989000    1.0948608   -2.9393589    1040.1126  0.087640089  0.090012209            2 
  990000    1.0858431   -2.9558872    1043.8259  0.087864131   0.08999022            3 
  991000    1.0818988   -2.9243178    1044.5671  0.087837795   0.08996825            4 
  992000    1.0914883   -2.9303607    1048.1244  0.088048083  0.089946691            2 
  993000     1.081796   -2.9061235    1050.5871  0.088166087  0.089924537            4 
  994000    1.1071765   -2.9573349    1045.3693  0.087639946  0.089903172            1 
  995000    1.0692548   -2.9251497    1051.5793  0.088071964  0.089881264            1 
  996000    1.0879401   -2.9545174    1054.4009  0.088219621  0.089859275            3 
  997000    1.1039835   -2.9274861    1050.3205  0.087790078  0.089838131            4 
  998000    1.0935941   -2.9263469    1056.4796  0.088216402  0.089817707            2 
  999000    1.0752795   -2.9203932     1057.686  0.088228732  0.089796233            3 
 1000000     1.127547    -2.924455    1054.1517  0.087845975  0.089775289            3 
 1001000    1.0901617   -2.9380991     1054.155  0.087758494  0.089753878            2 
 1002000    1.0701607   -2.9378791    1056.2164   0.08784235  0.089732622            2 
 1003000    1.0932002   -2.9535828    1055.1808  0.087668725  0.089710561            3 
 1004000    1.0809601   -2.9236051    1062.4985  0.088188788   0.08968858            1 
 1005000    1.0847337   -2.9070111    1057.4957  0.087686208  0.089666736            3 
 1006000    1.0719023   -2.9168437    1057.1548  0.087570811   0.08964479            3 
 1007000    1.0825053   -2.9468558    1060.0347  0.087722166  0.089623352            2 
 1008000    1.0916905   -2.9300371    1058.7288   0.08752718  0.089601243            2 
 1009000    1.0854344   -2.9634438    1054.7003  0.087107721  0.089579234            1 
 1010000    1.0816707    -2.944367    1059.7705   0.08743981  0.089557276            6 
 1011000    1.0702395    -2.945747    1064.6018  0.087751548  0.089536006            1 
 1012000    1.0751838    -2.903036    1059.4161  0.087237821  0.089515306            8 
 1013000    1.0656467   -2.9192338    1071.2957  0.088128965  0.089494005            3 
 1014000    1.0773671   -2.9341309    1065.0051  0.087525077  0.089473423            1 
 1015000    1.1145964   -2.9232213     1068.362  0.087714446  0.089452882            4 
 1016000    1.0908241   -2.9434923    1065.2988  0.087376869  0.089432854            1 
 1017000    1.0848398    -2.922249    1072.5146  0.087882218  0.089412264            6 
 1018000    1.0988441   -2.9305897    1074.0594  0.087922348    0.0893917            2 
 1019000    1.0662812   -2.9338071    1076.0328  0.087997451   0.08937152            3 
 1020000    1.0759136   -2.9307208    1074.2506  0.087765571  0.089351445            4 
 1021000    1.0983664    -2.940496    1075.1447  0.087752583  0.089332197            1 
 1022000    1.1014904   -2.9449182    1076.9567  0.087814477  0.089312077            2 
 1023000    1.0835376    -2.964113    1070.8622  0.087232176  0.089291377            4 
 1024000    1.0816248   -2.9793553    1068.2286  0.086932662  0.089271827            1 
 1025000    1.0838116   -2.9548462    1074.4018  0.087349737  0.089250631            1 
 1026000    1.0745763   -2.9395771    1076.0547  0.087398853  0.089230694            3 
 1027000    1.1007419    -2.968648    1076.6227   0.08735984   0.08920991            1 
 1028000    1.1046539   -2.9319484    1078.9561   0.08746402   0.08918928            8 
 1029000    1.0738236   -2.9246437    1083.5591  0.087751788  0.089168632            1 
 1030000    1.0946877   -2.9639692    1078.5621  0.087262307  0.089148127            3 
 1031000    1.0925766    -2.939585    1083.2608  0.087557454  0.089127715            3 
 1032000    1.0899464   -2.9523529    1086.5184  0.087735657  0.089107405            3 
 1033000    1.0855643   -2.9254184    1081.7581  0.087266705  0.089087316            2 
 1034000    1.0951866   -2.9471154    1082.0257  0.087203876  0.089066992            2 
 1035000    1.0970872    -2.943735    1085.8016  0.087423638  0.089047467            2 
 1036000    1.0615997    -2.962028    1085.8986  0.087347059  0.089026628            2 
 1037000    1.0924951    -2.953887    1087.5781  0.087397794  0.089006811            3 
 1038000    1.0508264   -2.9337954    1086.6302  0.087237493  0.088987416            4 
 1039000    1.0963189   -2.9452169    1086.9989  0.087183101   0.08896768            2 
 1040000    1.1010173   -2.9524121    1089.0995  0.087267586   0.08894835            2 
 1041000    1.0599232   -2.9401662    1087.7801  0.087078141  0.088928857            1 
 1042000    1.0875073   -2.9454998    1092.2104  0.087348883  0.088908911            1 
 1043000    1.0645599   -2.9281683    1091.6971   0.08722412  0.088888647            2 
 1044000    1.0894374   -2.9520753    1091.8223  0.087150567  0.088868306            2 
 1045000    1.0980055   -2.9415256    1095.0554  0.087324996  0.088848269            2 
 1046000    1.0981253   -2.9518453    1088.2356  0.086698187   0.08882788            2 
 1047000    1.0632594   -2.9665275    1092.6576  0.086967338  0.088806782            1 
 1048000    1.0995788   -2.9359577     1093.915  0.086984332    0.0887861            1 
 1049000    1.0720461   -2.9484191    1100.4452  0.087420176  0.088766644            1 
 1050000    1.0860489   -2.9632446    1093.4593  0.086782483  0.088746335            5 
 1051000    1.1019235   -2.9539771    1096.1503  0.086913279  0.088726627            1 
 1052000     1.109855   -2.9395765    1102.5917  0.087340916   0.08870581            2 
 1053000    1.0775171   -2.9492535    1098.0193  0.086896118  0.088684637            1 
 1054000    1.1025148   -2.9472247    1095.5309  0.086616926   0.08866369            8 
 1055000    1.0777509   -2.9209342    1102.1406  0.087056922  0.088642513            1 
 1056000    1.0921883   -2.9424818    1099.4698  0.086763717  0.088621335            2 
 1057000    1.0660683   -2.9536817    1097.5042  0.086526663  0.088599488            3 
 1058000    1.0886169   -2.9362541    1102.9605  0.086874642  0.088578901            3 
 1059000     1.080964   -2.9578823    1103.0066  0.086796239  0.088557332            1 
 1060000    1.0813891   -2.9592904    1104.8536  0.086859561  0.088535717            3 
 1061000    1.0988277   -2.9631908    1100.9559  0.086471561  0.088514408            1 
 1062000    1.0781335   -2.9296307     1108.632   0.08699247  0.088493841            1 
 1063000     1.093727   -2.9448095    1107.2697  0.086803835   0.08847381            3 
 1064000    1.0956947   -2.9464612    1108.8549  0.086846409  0.088453749            1 
 1065000      1.09015   -2.9444488    1115.5612  0.087289611  0.088434008            2 
 1066000    1.0693955   -2.9663517     1112.577  0.086974437  0.088413691            4 
 1067000    1.0657253   -2.9611718    1111.8712  0.086837804  0.088393683            1 
 1068000    1.0947002   -2.9669405    1112.4367  0.086800617  0.088374726            2 
 1069000    1.0769945    -2.947075    1108.3669  0.086402158  0.088354473            2 
 1070000    1.0763866   -2.9281947    1116.9367  0.086988842  0.088334954            1 
 1071000    1.0667276   -2.9392477    1114.1255  0.086688881  0.088315309            2 
 1072000    1.0618322   -2.9860889    1112.2984  0.086465985  0.088295486            3 
 1073000    1.0939827   -2.9516391    1112.8754  0.086430209  0.088275018            3 
 1074000    1.0776075   -2.9501049    1115.1104  0.086523157  0.088254359            1 
 1075000    1.0791829   -2.9290224    1114.2949  0.086379449  0.088233583            3 
 1076000    1.0830496   -2.9603593    1114.8073  0.086338854  0.088212819            3 
 1077000    1.0960052   -2.9576916     1120.541  0.086702334  0.088191418            4 
 1078000    1.0641513   -2.9350414    1118.9645  0.086500038  0.088169986            1 
 1079000    1.0867123   -2.9441229    1121.0564  0.086581432  0.088149378            2 
 1080000    1.0738562   -2.9796497    1119.7885  0.086403437  0.088128296            3 
 1081000     1.075212   -2.9676302     1119.584  0.086307739  0.088106543            1 
 1082000    1.0529089   -2.9792641    1118.6905  0.086159156  0.088084471            3 
 1083000    1.0971123   -2.9256635    1116.1727  0.085885864  0.088062275            1 
 1084000    1.0772889   -2.9676625    1120.9324  0.086172537   0.08804046            2 
 1085000    1.0978339   -2.9562824    1120.9859  0.086097226  0.088017931            1 
 1086000    1.0844005   -2.9524276    1119.7209  0.085920879  0.087995541            2 
 1087000     1.082445   -2.9737532    1120.0344  0.085865869  0.087974142            3 
 1088000    1.0661785   -2.9617113    1123.7797  0.086073811  0.087952425            6 
 1089000    1.0812214   -2.9523328    1123.8801  0.086002457  0.087930245            2 
 1090000    1.0979165   -2.9326547    1123.6047  0.085902501  0.087908508            1 
 1091000    1.0971457   -2.9359864     1127.963   0.08615666  0.087886127            1 
 1092000    1.0941765   -2.9700785    1125.9387   0.08592328  0.087864008            1 
 1093000    1.0745064    -2.982678    1125.6803   0.08582497  0.087842031            2 
 1094000    1.0943392   -2.9410972    1127.3813  0.085876087  0.087819603            1 
 1095000    1.0685558   -2.9448246    1129.2717  0.085941528  0.087796949            2 
 1096000    1.0830809    -2.947948    1126.8959  0.085682477  0.087774572            2 
 1097000    1.0849942   -2.9971122    1126.9666  0.085609741  0.087752008            2 
 1098000    1.0706334   -2.9754002    1133.1459  0.086000751   0.08772961            2 
 1099000     1.049976   -2.9425771    1132.5403   0.08587658  0.087707535            1 
 1100000    1.0492198   -2.9243412    1133.9953  0.085908735  0.087685105            1 
 1101000     1.094974   -2.9794517    1134.9543   0.08590329  0.087663376            1 
 1102000    1.0693879   -2.9728837    1136.2133  0.085920549  0.087641884            4 
 1103000    1.0567543    -2.931356    1137.9007  0.085970132  0.087620067            1 
 1104000    1.0851178    -2.939355    1135.5786  0.085716981  0.087598693            3 
 1105000    1.1062585   -2.9601776    1135.0612  0.085600395  0.087576824            3 
 1106000    1.0547783   -2.9868932    1134.8716   0.08550871  0.087554466            3 
 1107000    1.0954785   -2.9607618    1138.2772  0.085687833  0.087531789            1 
 1108000    1.0824148   -2.9495325    1136.1022  0.085446913   0.08750966            2 
 1109000    1.0841986   -2.9938796    1130.9438  0.084982251  0.087486493            3 
 1110000    1.0429682   -2.9631801    1138.2303  0.085452726  0.087463813            1 
 1111000    1.0823502   -2.9493698    1144.5666   0.08585108  0.087440999            1 
 1112000    1.0601034   -2.9751275     1136.508  0.085169961  0.087418337            4 
 1113000    1.0809789   -2.9406776    1140.8267  0.085416797  0.087396314            2 
 1114000    1.0784907   -2.9482166    1144.7236  0.085631627   0.08737356            4 
 1115000    1.0645882    -2.979359    1144.3328  0.085525619   0.08735144            2 
 1116000    1.0688104   -2.9606276    1144.6389  0.085471845  0.087329648            2 
 1117000    1.0659284   -2.9669601    1142.1493  0.085209586  0.087307208            3 
 1118000    1.0592058   -2.9546035    1141.4502   0.08508126   0.08728447            2 
 1119000    1.0893846   -2.9548292    1145.4789  0.085305249  0.087261441            1 
 1120000     1.062806   -2.9747542    1144.8745  0.085184114   0.08723899            2 
 1121000    1.0762639   -2.9274335    1154.5103  0.085824439  0.087216934            1 
 1122000    1.0691543   -2.9787178    1152.7981  0.085620774  0.087195475            1 
 1123000    1.0848375   -2.9362785    1148.8572  0.085252096  0.087173319            3 
 1124000    1.0653249   -2.9442774    1148.5849  0.085156054  0.087151345            3 
 1125000    1.0841748   -2.9696013    1153.5951  0.085451489  0.087129475            2 
 1126000    1.0712311   -2.9270556    1157.4786  0.085663009  0.087107377            2 
 1127000     1.066087   -2.9444311     1159.353  0.085725597  0.087085491            2 
 1128000    1.0744803   -2.9445525    1157.5612  0.085517225  0.087063545            1 
 1129000    1.0745735   -2.9776589    1153.6241   0.08515088  0.087041866            3 
 1130000    1.0667105   -2.9681366    1155.4509  0.085210244  0.087019761            2 
 1131000    1.0596774    -2.958141     1157.056  0.085253165  0.086998383            1 
 1132000    1.0780601   -2.9296806    1157.1901  0.085187731  0.086975949            3 
 1133000    1.0515982   -2.9722051    1162.3596  0.085492766  0.086953906            2 
 1134000    1.0981685   -2.9497751    1157.6139  0.085068629  0.086931475            2 
 1135000    1.0616307   -2.9704306    1157.9078  0.085015257  0.086909169            3 
 1136000    1.0538468   -3.0136816    1159.4714  0.085055121  0.086886895            2 
 1137000    1.0815584   -2.9882264    1154.4313  0.084610914  0.086864305            2 
 1138000    1.0900148   -2.9733263    1162.0177  0.085092096  0.086842245            2 
 1139000    1.0554836   -2.9546419    1163.3825  0.085117246  0.086820549            2 
 1140000    1.0587337   -2.9460925    1165.5154  0.085198493  0.086798379            3 
 1141000    1.0730513   -2.9614545    1162.9231  0.084934493  0.086777262            1 
 1142000    1.1026555    -2.942417    1165.4109  0.085041658  0.086756829            4 
 1143000    1.0670793   -2.9634878    1173.0679  0.085525511   0.08673629            1 
 1144000    1.0828935   -2.9758822    1162.9868  0.084716403  0.086715474            2 
 1145000    1.0481892   -2.9687912    1168.4923  0.085043111  0.086693887            2 
 1146000    1.0506459   -2.9537574    1173.3308  0.085320737  0.086672192            2 
 1147000     1.077152   -2.9520493    1168.4219  0.084889708  0.086651228            2 
 1148000    1.0710586   -2.9752544    1169.2965  0.084879249  0.086629648            3 
 1149000    1.0739623   -2.9531248     1173.438  0.085105743  0.086608437            1 
 1150000    1.0608494   -2.9930928    1173.4137  0.085029977  0.086587912            1 
 1151000    1.0766774   -2.9509158     1178.592  0.085331018    0.0865668            2 
 1152000    1.0466587   -2.9525838    1177.1183  0.085150338   0.08654612            1 
 1153000    1.0616471   -2.9816587    1175.4333  0.084954708  0.086525585            2 
 1154000    1.0752065   -2.9726268    1174.1903  0.084791327  0.086504492            1 
 1155000    1.0849026   -2.9511605    1179.3312  0.085088832   0.08648357            2 
 1156000     1.077322   -2.9866117    1180.3612  0.085089475  0.086463142            2 
 1157000    1.0641499   -2.9757986     1173.016  0.084486888  0.086441463            3 
 1158000    1.0642342   -2.9585813    1179.1476  0.084855184  0.086419574            4 
 1159000    1.0837573   -2.9644017    1179.1334  0.084780943  0.086398005            3 
 1160000    1.0732082   -2.9819835    1175.5028  0.084447039   0.08637626            2 
 1161000    1.0423372   -2.9622988    1176.2102  0.084425078  0.086354565            4 
 1162000    1.0715912   -2.9609232    1183.3268  0.084862796  0.086332509            2 
 1163000      1.06188    -2.979651    1180.2633  0.084570317   0.08631106            4 
 1164000    1.0712375   -2.9611179    1187.4649  0.085013239   0.08628925            2 
 1165000    1.0762071   -2.9696778    1179.8527   0.08439576  0.086267434            5 
 1166000    1.0873454   -2.9701809    1185.0038  0.084691525  0.086246321            2 
 1167000     1.079201   -2.9569492    1188.7346  0.084885362  0.086225297            6 
 1168000    1.0475552   -2.9568122    1189.7723  0.084886724  0.086204012            2 
 1169000    1.0664488   -2.9689669    1187.8768  0.084678986  0.086182859            3 
 1170000    1.0660889   -2.9607021    1191.7204  0.084880371  0.086162207            1 
 1171000    1.0794063   -2.9775425    1189.3428  0.084638682  0.086141602            1 
 1172000    1.0878375   -2.9770078    1190.3863  0.084640666  0.086121475            2 
 1173000    1.0207101   -2.9627724    1187.8858  0.084390867  0.086100552            2 
 1174000    1.0665382   -2.9738008    1188.0496  0.084330611  0.086078821            1 
 1175000    1.0444788   -2.9541452    1197.0832  0.084899516  0.086058523            3 
 1176000    1.0943135   -2.9789791    1194.0266  0.084610726  0.086038555            3 
 1177000    1.0732978   -2.9617077    1194.4871  0.084571449  0.086017735            1 
 1178000    1.0722751   -2.9841269    1199.2861  0.084839138  0.085997309            5 
 1179000    1.0641076   -3.0028012    1193.1081  0.084330511  0.085976863            1 
 1180000    1.0431567   -2.9649058    1197.5978  0.084576113  0.085956422            4 
 1181000    1.0595321   -2.9751692    1197.7163  0.084512862  0.085936125            1 
 1182000    1.0329945   -2.9706771    1201.2048  0.084687309  0.085915975            2 
 1183000    1.0615138   -2.9672175    1201.0453  0.084604488  0.085895397            2 
 1184000    1.0753629   -2.9456558    1199.7554  0.084442243  0.085874796            3 
 1185000    1.0595135   -2.9749914    1199.3688  0.084343798   0.08585389            2 
 1186000    1.0716229   -2.9889491    1199.4775  0.084280318  0.085832812            3 
 1187000    1.0586537   -2.9698204    1200.7524  0.084298823  0.085812338            2 
 1188000    1.0745267   -2.9937143    1202.4314  0.084345637  0.085791642            4 
 1189000    1.0729498   -2.9646833     1203.269  0.084333402  0.085771008            2 
 1190000    1.0368109   -2.9716125    1207.3657  0.084549419   0.08575047            3 
 1191000    1.0568817   -2.9688766    1205.3136  0.084334844  0.085729763            2 
 1192000    1.0703653   -2.9507754    1202.9932  0.084101873  0.085708413            6 
 1193000    1.0333641   -2.9673469    1201.0403  0.083894965  0.085686415            1 
 1194000    1.0814543   -2.9643832    1203.6496   0.08400681  0.085665204            1 
 1195000     1.050962   -2.9574666    1206.3965   0.08412807  0.085644678            2 
 1196000    1.0579515   -2.9711529    1206.9416  0.084095711   0.08562288            4 
 1197000    1.0634564   -2.9691506    1203.6699  0.083797685  0.085601582            3 
 1198000    1.0403237   -2.9803294    1210.8987  0.084230572  0.085580997            2 
 1199000    1.0655041   -2.9694156    1204.2237  0.083696395   0.08555978            2 
 1200000     1.058079   -2.9627852     1209.524  0.083994722  0.085538886            3 
 1201000    1.0465905   -2.9719012    1214.0429  0.084238337  0.085517624            2 
 1202000    1.0634716   -2.9612994    1215.4988  0.084269193  0.085496677            1 
 1203000    1.0684385   -2.9901304    1214.1051  0.084102597  0.085475461            2 
 1204000    1.0573668   -2.9894826    1215.1062  0.084102035  0.085455021            3 
 1205000    1.0454609    -2.975297    1213.8297   0.08394396  0.085434572            3 
 1206000    1.0610536   -3.0108505    1219.1241  0.084240197  0.085414182            2 
 1207000    1.0529947   -2.9840968    1216.7666  0.084007635   0.08539313            2 
 1208000    1.0544171   -2.9711792    1213.3884  0.083705051  0.085372717            1 
 1209000    1.0603061   -2.9736838    1222.1928   0.08424268  0.085352786            2 
 1210000    1.0388209   -2.9564482    1219.2275  0.083968833   0.08533276            2 
 1211000    1.0736314   -2.9883823    1220.9179  0.084015822  0.085313198            2 
 1212000    1.0518629   -2.9613141    1225.5781  0.084266918  0.085293618            2 
 1213000    1.0526062   -3.0013008     1224.078  0.084094391  0.085273784            3 
 1214000    1.0549407   -3.0030371    1222.8026  0.083937577  0.085253879            3 
 1215000    1.0771135   -2.9660181    1220.8695  0.083735906   0.08523375            1 
 1216000    1.0635064   -2.9579975    1223.7635  0.083865373  0.085213913            2 
 1217000    1.0318673   -2.9763535    1224.3679  0.083837848  0.085194205            2 
 1218000     1.042101   -2.9626567    1227.3783   0.08397498  0.085174295            2 
 1219000    1.0780491   -2.9567282    1230.2982  0.084105701  0.085155228            4 
 1220000    1.0640586    -2.968186    1226.0501  0.083746588  0.085135938            3 
 1221000    1.0239123   -2.9743783    1226.4793  0.083707298  0.085116205            3 
 1222000    1.0526825   -2.9929217    1231.9753  0.084013594  0.085096228            2 
 1223000    1.0633153   -2.9667397    1231.6703  0.083924115  0.085076439            1 
 1224000    1.0480236   -2.9886496    1227.8172  0.083593221  0.085056355            3 
 1225000    1.0735156   -2.9839344    1234.5033  0.083979818  0.085035978            2 
 1226000     1.038929   -3.0078674    1229.4699  0.083569192  0.085015392            2 
 1227000    1.0571106   -2.9747366    1232.4082  0.083700639  0.084995348            1 
 1228000    1.0369944     -2.95595    1238.1338  0.084021025  0.084975791            1 
 1229000    1.0648642   -2.9862923    1235.5975   0.08378068  0.084956231            6 
 1230000    1.0528445   -2.9407413    1239.1479   0.08395311  0.084936626            3 
 1231000    1.0555645   -2.9887197    1235.2218  0.083619132  0.084917286            5 
 1232000    1.0685473   -2.9842238    1236.4186  0.083632209  0.084897256            5 
 1233000     1.024976   -2.9872912    1237.7065  0.083651423   0.08487731            1 
 1234000    1.0692533   -3.0013956    1236.0604  0.083472472   0.08485787            2 
 1235000    1.0335616   -2.9926764    1236.4975  0.083434381  0.084837997            2 
 1236000    1.0856046    -2.975977    1238.7322  0.083517541  0.084818201            3 
 1237000    1.0588847   -3.0010651    1239.7785  0.083520513   0.08479839            5 
 1238000    1.0646541   -2.9869528    1239.9591  0.083465208  0.084779004            1 
 1239000     1.055314    -3.014266    1243.3472  0.083625721  0.084758737            1 
 1240000    1.0359842   -3.0029294    1243.8938  0.083595013  0.084739545            2 
 1241000    1.0335563   -2.9789144    1247.8648  0.083794305  0.084720203            2 
 1242000    1.0542625   -2.9936614    1248.1203   0.08374398  0.084700722            1 
 1243000    1.0395344   -2.9690442    1245.3329  0.083489736  0.084681354            2 
 1244000    1.0535145    -2.981349    1250.2246   0.08375031  0.084662611            3 
 1245000    1.0335177   -2.9763327    1249.1145  0.083608736  0.084643612            5 
 1246000    1.0527347    -2.985773    1252.0395  0.083737256  0.084624689            1 
 1247000    1.0495199   -2.9900632    1246.1874  0.083279026  0.084605699            4 
 1248000    1.0689217   -2.9892176    1248.5101  0.083367396  0.084586063            2 
 1249000    1.0753695   -2.9750638    1251.4876  0.083499307  0.084566641            2 
 1250000    1.0588947   -2.9417243    1251.6942  0.083446281  0.084548302            1 
 1251000    1.0269932   -2.9845954    1252.5879  0.083439106  0.084529058            2 
 1252000    1.0390035   -2.9839392    1254.0092  0.083467066  0.084510095            3 
 1253000    1.0568129   -3.0033176    1251.6553  0.083243904  0.084490927            2 
 1254000    1.0962484   -3.0190132    1253.2157  0.083281215  0.084471816            1 
 1255000    1.0507394   -2.9756989    1262.1947  0.083811068  0.084453353            2 
 1256000    1.0589712   -3.0087788    1255.3121  0.083287694  0.084434257            2 
 1257000    1.0325141   -2.9956019    1251.5454  0.082971715  0.084415245            1 
 1258000    1.0619525   -2.9935481     1255.268  0.083152361  0.084395945            2 
 1259000    1.0563465   -2.9627371    1260.9989  0.083465638  0.084376568            2 
 1260000    1.0611704   -2.9905462    1260.7544   0.08338323  0.084357789            1 
 1261000    1.0586958   -2.9754003    1260.0574  0.083271041  0.084338503            2 
 1262000    1.0664036   -2.9766287    1261.0099  0.083267954  0.084319446            6 
 1263000     1.073231    -3.016721    1258.8849  0.083061816  0.084300862            2 
 1264000    1.0763241   -2.9840185    1258.6803  0.082982612  0.084281285            4 
 1265000    1.0725572   -2.9949037    1258.5634  0.082909318  0.084261694            3 
 1266000    1.0377906   -3.0164769    1257.1867  0.082753208  0.084242011            1 
 1267000    1.0474136   -2.9967754    1261.6814  0.082983519  0.084221948            1 
 1268000     1.051063   -2.9905271    1265.7524  0.083185621   0.08420228            4 
 1269000    1.0496596   -2.9855911    1265.3608   0.08309435  0.084182842            7 
 1270000    1.0522109   -2.9857699     1268.133  0.083210825  0.084162828            3 
 1271000    1.0232409   -2.9802401    1267.5564  0.083107551  0.084143079            1 
 1272000    1.0480921   -3.0033514    1269.9837  0.083201237  0.084123179            4 
 1273000    1.0758303   -2.9684745    1262.4692  0.082643962  0.084103596            3 
 1274000    1.0424818   -2.9997625    1269.5918  0.083044988  0.084083664            3 
 1275000    1.0427082   -2.9692166    1272.4732  0.083168182  0.084064424            4 
 1276000    1.0389874   -3.0035469    1273.8633  0.083193788  0.084045476            2 
 1277000    1.0449132   -2.9725761     1270.413  0.082903484  0.084027276            4 
 1278000    1.0567032   -3.0051721    1273.8641   0.08306365  0.084008856            3 
 1279000    1.0498277   -2.9719231    1277.1897  0.083215383  0.083989747            3 
 1280000    1.0390098   -3.0061545    1271.0018   0.08274751  0.083970401            2 
 1281000    1.0539495    -2.999345    1276.1662  0.083018879  0.083951513            3 
 1282000      1.04841   -3.0251819    1271.6497  0.082660538  0.083932654            2 
 1283000    1.0286828   -2.9955781    1278.6077  0.083048047  0.083913959            2 
 1284000     1.043381   -3.0071993    1272.7832  0.082605347  0.083895546            2 
 1285000     1.052918    -3.015393    1275.8968  0.082742981  0.083876332            1 
 1286000    1.0490286    -2.994689    1283.5052   0.08317167  0.083857873            3 
 1287000    1.0689564   -3.0005674    1283.2305   0.08308926  0.083839245            3 
 1288000    1.0524557    -3.018862     1280.382  0.082840449  0.083820527            1 
 1289000    1.0328981   -2.9760723    1283.7914  0.082996601  0.083801159            2 
 1290000    1.0357306   -2.9963178    1282.2359  0.082831778  0.083782575            3 
 1291000    1.0185166   -2.9780441     1284.057  0.082885166  0.083763928            2 
 1292000    1.0436761   -3.0076202    1283.8662  0.082808707  0.083745401            3 
 1293000    1.0585731   -2.9868094    1290.0073  0.083140454  0.083727234            2 
 1294000    1.0301879   -2.9765665    1288.0647  0.082951099  0.083708968            2 
 1295000    1.0393255   -3.0039563    1287.5358  0.082853011  0.083690696            1 
 1296000    1.0621588   -3.0132343     1288.806  0.082870757  0.083673031            1 
 1297000    1.0392788   -3.0019716    1288.6273  0.082795383   0.08365545            1 
 1298000    1.0565843   -3.0097545    1289.9546   0.08281681  0.083637312            3 
 1299000    1.0406469   -2.9927274    1291.2925  0.082838882  0.083619616            1 
 1300000    1.0465712    -2.969349    1296.0707  0.083081458  0.083601591            2 
 1301000    1.0280359    -3.007894    1286.9982  0.082436474  0.083583623            3 
 1302000    1.0263288   -3.0101865    1292.5568  0.082728929  0.083565971            2 
 1303000    1.0447403   -2.9859019    1297.2485  0.082965499  0.083547983            1 
 1304000    1.0568933   -3.0025604    1298.5672  0.082986148  0.083530111            1 
 1305000    1.0595474    -2.991435    1295.1978  0.082707396  0.083512634            4 
 1306000     1.054026   -2.9712461    1300.7355  0.082997413  0.083495126            2 
 1307000    1.0252572   -3.0191313    1296.7313  0.082678608  0.083477083            5 
 1308000    1.0388618    -3.011879     1294.073  0.082446034  0.083458856            3 
 1309000    1.0337988    -3.022446    1300.0677  0.082764684  0.083440757            3 
 1310000    1.0530773   -2.9983891    1290.1503  0.082070631  0.083422772            4 
 1311000    1.0597776    -3.014567    1293.0985  0.082195431  0.083403923            3 
 1312000    1.0488754   -3.0116299     1304.473  0.082855249  0.083386263            2 
 1313000    1.0392632   -2.9944599    1304.1898  0.082774171  0.083368413            4 
 1314000    1.0550561   -2.9878153    1305.4027  0.082788094  0.083350619            1 
 1315000    1.0242113   -3.0002523     1304.423  0.082663057  0.083332832            2 
 1316000    1.0541653    -3.003862    1305.8039  0.082687686  0.083315025            3 
 1317000     1.041657   -2.9865871     1303.164  0.082457857  0.083297277            1 
 1318000     1.038769   -2.9799255    1307.3066  0.082657218  0.083279665            1 
 1319000    1.0487971   -2.9968647    1304.9668   0.08244673  0.083261848            2 
 1320000    1.0381198   -3.0216394    1307.5315  0.082546181  0.083243952            3 
 1321000     1.073849   -2.9845808    1305.2533  0.082339977  0.083226036            3 
 1322000    1.0637703   -3.0149379    1303.6293   0.08217532  0.083207845            2 
 1323000    1.0414414   -2.9571475    1313.2277  0.082717797  0.083190579            2 
 1324000    1.0472715    -3.007462    1310.6938  0.082495834  0.083172514            2 
 1325000     1.039738   -2.9909166    1308.6187  0.082303065  0.083154874            1 
 1326000    1.0316027   -2.9868358    1309.1078  0.082271732  0.083137127            2 
 1327000    1.0280268   -2.9924362    1308.7518   0.08218738   0.08311954            2 
 1328000     1.051925   -2.9880468    1309.5879  0.082177954  0.083101604            4 
 1329000    1.0303636   -2.9939126    1313.8864  0.082385653  0.083083625            2 
 1330000    1.0259704   -3.0144717    1306.7917  0.081879177  0.083064958            3 
 1331000    1.0071826   -3.0175499    1312.1041  0.082150271  0.083046317            3 
 1332000     1.034269   -3.0091169    1316.2903  0.082350496  0.083028483            4 
 1333000     1.044569    -3.004165    1313.4227  0.082109445  0.083010199            2 
 1334000    1.0365694   -2.9890616    1322.2832  0.082601402   0.08299222            1 
 1335000    1.0511257   -3.0097631    1316.2178   0.08216091  0.082974601            3 
 1336000    1.0430832   -3.0015434    1316.6467  0.082126163  0.082956836            2 
 1337000    1.0539189   -3.0168885    1320.3561  0.082295941  0.082939025            3 
 1338000    1.0300804   -2.9996855    1319.6471  0.082190279   0.08292144            2 
 1339000    1.0294217   -2.9920502     1322.449  0.082303277  0.082903861            1 
 1340000    1.0407372   -2.9931598     1324.889  0.082393593  0.082886369            2 
 1341000    1.0413276   -2.9795047    1323.1659  0.082225077  0.082868324            3 
 1342000    1.0360777   -2.9838257    1321.6059  0.082066932  0.082850399            2 
 1343000    1.0530847   -3.0048632    1322.2249  0.082044234  0.082832364            4 
 1344000     1.048874   -3.0297992    1324.0874  0.082098674  0.082813974            6 
 1345000    1.0355093   -2.9784358    1327.7318  0.082263434  0.082796141            3 
 1346000    1.0277507   -3.0228654    1326.3061  0.082114046  0.082778641            2 
 1347000    1.0254169   -3.0134457    1328.3909  0.082182065  0.082761053            4 
 1348000    1.0289688   -2.9930174    1332.9819  0.082404914  0.082744224            2 
 1349000    1.0356065   -3.0146902    1329.5874  0.082134138  0.082726627            2 
 1350000    1.0504988    -3.014485    1330.8849  0.082153386   0.08270877            3 
 1351000      1.03702   -3.0091331    1332.3485  0.082182859  0.082691635            1 
 1352000    1.0348762   -3.0074901    1333.4784  0.082191714  0.082674227            3 
 1353000    1.0270077   -2.9922794    1332.5668  0.082074822  0.082656737            2 
 1354000    1.0531928   -2.9859948    1335.3314  0.082184356  0.082639477            1 
 1355000     1.036041   -2.9780553     1337.659   0.08226685  0.082622227            3 
 1356000    1.0312627   -3.0178873    1337.5669  0.082200525  0.082605359            2 
 1357000    1.0291689   -3.0329979     1331.936  0.081794156  0.082588379            2 
 1358000    1.0484304   -3.0129844    1339.3437  0.082188496  0.082571138            3 
 1359000    1.0655048   -2.9869995    1341.9319  0.082286724  0.082553865            1 
 1360000    1.0378315    -3.022481    1337.2906  0.081941827  0.082537325            3 
 1361000    1.0304033    -3.023922    1342.6013  0.082206793  0.082520126            3 
 1362000    1.0475997   -3.0271953    1341.4581  0.082076485  0.082503301            2 
 1363000    1.0308098   -2.9865412    1338.6499  0.081844577   0.08248636            2 
 1364000    1.0364526   -2.9670083     1341.671  0.081969149  0.082469512            1 
 1365000    1.0513252   -3.0041835    1339.4402  0.081772909  0.082452373            5 
 1366000    1.0314371   -3.0160212    1338.6257  0.081663352  0.082435205            2 
 1367000    1.0505601   -2.9585046    1343.9148   0.08192604  0.082418244            2 
 1368000    1.0220199    -3.016808    1346.5784   0.08202841  0.082401372            1 
 1369000    1.0369722   -3.0124525    1341.6993  0.081671491   0.08238365            3 
 1370000    1.0330679   -3.0180807    1345.1997  0.081824801  0.082365802            1 
 1371000    1.0673294   -2.9825893    1340.3227  0.081468678  0.082347899            2 
 1372000    1.0316922   -3.0224577    1342.8424   0.08156234  0.082330216            1 
 1373000    1.0478491   -3.0124497     1345.101  0.081640023  0.082312129            2 
 1374000    1.0256809   -3.0220068    1343.2477  0.081468203  0.082294198            3 
 1375000    1.0282493   -3.0182316     1342.726  0.081377332  0.082276058            2 
 1376000    1.0364773   -3.0104835     1347.722  0.081620758  0.082257937            2 
 1377000     1.053321   -3.0095278    1350.5751  0.081734153  0.082239967            2 
 1378000    1.0453393   -3.0103045    1355.8321  0.081992749  0.082221908            3 
 1379000    1.0169842   -3.0057629    1352.3481  0.081722754   0.08220455            3 
 1380000    1.0329411   -3.0155547     1347.439  0.081367087  0.082186553            3 
 1381000    1.0381259   -2.9802726    1346.8384   0.08127193  0.082168433            2 
 1382000    1.0239376   -3.0075064    1347.1204  0.081230125  0.082150483            4 
 1383000    1.0278997   -3.0165147    1348.1386  0.081232744  0.082132063            1 
 1384000    1.0484061   -3.0055978    1344.5057  0.080955303  0.082113434            2 
 1385000    1.0154899    -3.031349     1350.025  0.081228942  0.082095137            2 
 1386000    1.0242933   -3.0436036    1348.5553  0.081081966  0.082076962            2 
 1387000    1.0355417    -3.020578    1348.2351   0.08100427  0.082058243            3 
 1388000    1.0434992    -3.024239    1352.0109  0.081172603  0.082039636            2 
 1389000    1.0461792   -3.0094241    1358.5608  0.081507127   0.08202155            1 
 1390000    1.0332285   -3.0335618    1344.6761  0.080616072  0.082003175            1 
 1391000    1.0628104   -3.0267753    1351.3572  0.080958378  0.081984263            1 
 1392000     1.036038   -3.0324483    1354.6055  0.081094679  0.081966108            2 
 1393000    1.0305546   -3.0336286    1358.0467  0.081242323  0.081946918            4 
 1394000      1.01869   -3.0205594    1354.5383  0.080974313  0.081927932            2 
 1395000    1.0438656   -3.0120533     1355.805  0.080991936  0.081909088            3 
 1396000    1.0459701   -3.0087825    1356.9295  0.081001043  0.081890131            2 
 1397000    1.0213315   -3.0243247    1358.6572   0.08104612  0.081870742            3 
 1398000    1.0369966   -3.0284485    1351.2019  0.080543746  0.081851786            2 
 1399000    1.0293505   -3.0345176    1355.1306  0.080720191   0.08183253            3 
 1400000    1.0117221   -3.0168555    1360.0022  0.080952512  0.081813142            3 
 1401000    1.0232581   -3.0140528    1361.6797  0.080994511  0.081793539            3 
 1402000    1.0259339   -3.0169913    1357.8818  0.080710998  0.081774319            3 
 1403000    1.0318313   -3.0255945    1363.6611  0.080996739  0.081755015            3 
 1404000    1.0172089   -3.0206625    1357.9796   0.08060183  0.081735978            6 
 1405000    1.0115483   -3.0105401    1356.9355  0.080482532  0.081716796            4 
 1406000    1.0386987   -3.0066627    1363.2922  0.080802049  0.081697484            1 
 1407000    1.0339729   -3.0075572     1369.448  0.081109217  0.081678535            3 
 1408000     1.028759    -3.017917    1363.5547  0.080702809  0.081659059            3 
 1409000    1.0408009   -3.0193364    1363.0585  0.080616188  0.081639806            1 
 1410000    1.0509573   -2.9865611    1368.7822  0.080897292  0.081620645            2 
 1411000    1.0566897   -3.0105242    1360.2309  0.080334921  0.081601631            4 
 1412000    1.0242225   -3.0146953    1363.3197  0.080460321  0.081582178            2 
 1413000    1.0235293   -3.0156796    1361.6604   0.08030552  0.081562859            3 
 1414000    1.0390557    -3.014657    1370.9936  0.080798772  0.081543352            3 
 1415000    1.0151959   -3.0260283    1366.5569  0.080480383  0.081524235            2 
 1416000    1.0276784   -2.9876485    1368.2891  0.080525489  0.081505316            4 
 1417000    1.0284671   -3.0292992    1372.0578  0.080690298  0.081485954            4 
 1418000    1.0180383   -3.0196622    1372.0072  0.080630418  0.081466745            3 
 1419000    1.0254942   -3.0470369    1367.7255  0.080322147  0.081447175            3 
 1420000    1.0223291   -3.0152599    1369.8711  0.080391495  0.081427674            2 
 1421000    1.0039893   -3.0168625    1373.5654  0.080551573  0.081408541            3 
 1422000    1.0436021   -3.0249696    1375.9927  0.080637175  0.081389723            1 
 1423000    1.0305219   -3.0291294    1374.7156  0.080505716    0.0813704            2 
 1424000     1.023059   -2.9932489    1377.4745  0.080610632  0.081351354            2 
 1425000    1.0162358   -3.0184726    1381.0484  0.080763065  0.081332551            2 
 1426000    1.0321987   -3.0413553    1376.5556  0.080443874  0.081313501            4 
 1427000    1.0534353   -3.0184216    1380.6828  0.080628522  0.081294853            3 
 1428000    1.0178936   -3.0080324    1376.6178   0.08033484  0.081276463            4 
 1429000    1.0197835   -3.0145408    1380.6159  0.080511774  0.081257849            3 
 1430000    1.0406491   -3.0277125    1379.9841  0.080418654  0.081239788            1 
 1431000    1.0308446   -2.9974966    1382.1973   0.08049134  0.081221833            2 
 1432000    1.0005007   -2.9838538    1384.6625  0.080578593  0.081203424            1 
 1433000    1.0436758   -3.0315452     1383.102  0.080431613  0.081185658            4 
 1434000     1.044943   -2.9975854    1389.0593  0.080721716   0.08116771            3 
 1435000    1.0275522   -3.0275857    1386.1674  0.080497528  0.081149953            2 
 1436000    1.0234363   -3.0224153     1384.411  0.080339544  0.081131626            2 
 1437000    1.0309749   -3.0132446    1384.5916  0.080294107  0.081113523            2 
 1438000    1.0262544   -3.0412803    1390.2855  0.080568239  0.081096092            1 
 1439000   0.99955879   -3.0064868    1393.7466   0.08071268  0.081078342            1 
 1440000    1.0325841   -3.0433375    1386.9125  0.080261139  0.081060053            1 
 1441000    1.0272652   -3.0392615    1394.5608  0.080647743  0.081042049            2 
 1442000     1.010308   -3.0256768    1393.3288  0.080520621  0.081024179            3 
 1443000    1.0145978    -3.014849    1388.5428  0.080188425  0.081006335            6 
 1444000    1.0514497   -3.0027261    1389.6935  0.080199301  0.080988729            1 
 1445000    1.0206577   -3.0327542    1392.9278  0.080330322   0.08097071            4 
 1446000    1.0315495   -3.0058464    1397.2479  0.080523735    0.0809529            3 
 1447000    1.0064223   -3.0242083    1391.1762   0.08011842  0.080934932            3 
 1448000     1.017536   -3.0067594    1389.0415  0.079940234  0.080916996            2 
 1449000    1.0360762    -3.023086    1398.2429  0.080414247  0.080898901            5 
 1450000    1.0243504   -3.0146656    1398.0782  0.080349319  0.080880447            4 
 1451000    1.0412574   -3.0244741    1391.4649  0.079914131  0.080862367            3 
 1452000    1.0385417   -2.9949963     1401.026  0.080407827  0.080844421            5 
 1453000    1.0008182   -3.0191291    1391.2217   0.07979019  0.080825849            1 
 1454000    1.0228659   -3.0409461    1390.9245  0.079718275  0.080807803            2 
 1455000    1.0262191   -3.0218972    1403.3064  0.080372647  0.080789386            3 
 1456000    1.0161306   -3.0213137    1399.6521  0.080108292  0.080771078            1 
 1457000     1.037243   -3.0139866    1392.8751  0.079665699  0.080752744            2 
 1458000    1.0209727   -3.0125087    1402.6621  0.080170447  0.080734579            1 
 1459000   0.99453714     -3.00233    1406.8294  0.080353517  0.080716685            2 
 1460000    1.0248055   -3.0235091     1406.114  0.080257649   0.08069901            2 
 1461000    1.0163062    -3.017296     1403.621  0.080060519  0.080681181            2 
 1462000     1.018258   -3.0202393    1400.6779  0.079838001  0.080662841            3 
 1463000    1.0119842   -3.0474688    1399.1659  0.079697307  0.080644686            3 
 1464000    1.0080974   -3.0274618    1405.1156  0.079981532  0.080626461            2 
 1465000    1.0157737   -3.0412201    1398.2568   0.07953679  0.080608182            5 
 1466000    1.0138902   -3.0122673     1406.662  0.079960321    0.0805892            3 
 1467000    1.0151702   -3.0449391    1405.5167   0.07984076  0.080571296            2 
 1468000    1.0299786   -3.0376645    1401.5101  0.079558932  0.080552506            3 
 1469000    1.0211748   -3.0368754    1405.2817  0.079718729  0.080533925            3 
 1470000   0.99794522   -3.0203121    1406.3432  0.079724673  0.080515902            2 
 1471000     1.022341   -3.0385877    1408.8282  0.079811249  0.080497615            1 
 1472000   0.99666961   -3.0206241    1413.0264    0.0799947  0.080478838            7 
 1473000    1.0271053   -3.0258731    1413.4647  0.079965188  0.080460308            8 
 1474000   0.99956859   -3.0334559    1409.6421  0.079694828  0.080441836            1 
 1475000    1.0228152   -3.0459698    1416.0171  0.080000968  0.080423322            4 
 1476000    1.0264981   -3.0191408    1417.7136  0.080042547  0.080405008            3 
 1477000    1.0145898   -3.0129214    1413.0919  0.079727595  0.080387097            3 
 1478000    1.0098956   -3.0461402    1415.8608   0.07982977  0.080369282            3 
 1479000    1.0398415   -3.0388057    1413.5035  0.079642972   0.08035146            1 
 1480000    1.0255312    -3.031453    1414.9961  0.079673202   0.08033328            1 
 1481000    1.0402858   -3.0371569    1414.5967  0.079596933  0.080315407            2 
 1482000    1.0090882   -3.0117288     1412.964  0.079451416  0.080297855            2 
 1483000    1.0193278   -3.0550057    1416.4118  0.079591582   0.08028002            6 
 1484000    1.0032807   -3.0472342    1417.7746  0.079614478  0.080262362            3 
 1485000   0.98483341   -3.0511684    1413.9109  0.079344048   0.08024463            4 
 1486000     1.019874   -3.0492711    1416.1188  0.079414467  0.080226634            2 
 1487000     1.013164   -3.0481968     1419.757   0.07956495  0.080209041            3 
 1488000    1.0044659   -3.0205303    1420.5771  0.079557409  0.080191469            1 
 1489000    1.0340766   -3.0346007    1423.7003   0.07967877  0.080173738            4 
 1490000    1.0019633   -3.0332083    1424.6946  0.079680906  0.080155961            4 
 1491000    1.0387053   -3.0070713     1420.373  0.079385926  0.080138328            7 
 1492000    1.0319802   -3.0531935    1419.8066  0.079301084  0.080120336            1 
 1493000    1.0089613   -3.0309779    1420.0924  0.079263922  0.080101996            5 
 1494000   0.99441305   -3.0585002    1423.7085  0.079412569  0.080083964            2 
 1495000    1.0061687   -3.0296323    1428.2526  0.079612742  0.080066124            1 
 1496000   0.99261528   -3.0023089    1427.0274  0.079491276  0.080048136            3 
 1497000   0.98783439   -3.0135374    1433.6432  0.079806459  0.080030173            1 
 1498000    1.0271551   -3.0212399    1429.0901  0.079499893  0.080012142            2 
 1499000     1.015114   -3.0238548    1431.3449   0.07957221  0.079994387            2 
 1500000    1.0039084   -3.0515783    1431.3498  0.079519433  0.079976723            4 
 1501000    1.0275607   -3.0502625    1429.4921  0.079363318  0.079958952            2 
 1502000    1.0410419   -3.0568522    1432.9904  0.079504569  0.079940997            5 
 1503000     1.011051   -3.0516515    1428.1817  0.079185058  0.079923618            3 
 1504000    1.0026235   -3.0289014    1428.0401  0.079124562   0.07990569            2 
 1505000    1.0142145   -3.0332759    1434.2897  0.079418033  0.079887731            1 
 1506000    1.0252548   -3.0187081     1433.033   0.07929576  0.079869752            4 
 1507000    1.0072397   -3.0509364    1436.7539  0.079448901  0.079851716            1 
 1508000    1.0276469   -3.0552279    1432.0053  0.079133804  0.079833705            3 
 1509000    1.0065323   -3.0378076    1434.7227   0.07923143  0.079815878            2 
 1510000    1.0033473   -3.0211755    1436.5019  0.079277146   0.07979814            6 
 1511000    1.0415236   -3.0307675     1439.112   0.07936863  0.079781017            1 
 1512000    1.0239449   -3.0356922    1437.0472  0.079202337  0.079763293            6 
 1513000    1.0170526   -3.0658072    1433.7344  0.078967524  0.079745662            3 
 1514000    1.0279774   -3.0399453    1440.7026  0.079298908  0.079727964            1 
 1515000    1.0266417   -3.0501406    1440.5528  0.079238329  0.079710012            3 
 1516000    1.0379057    -3.048684    1439.5077  0.079128613  0.079692052            3 
 1517000    1.0113227   -3.0334346    1439.8321   0.07909427  0.079674118            4 
 1518000    1.0206381   -3.0661377    1438.4016  0.078963638  0.079656457            2 
 1519000   0.97513301   -3.0550366    1434.3167   0.07868755  0.079638435            5 
 1520000    1.0182152    -3.034736     1445.401  0.079243478  0.079620899            3 
 1521000   0.98953782   -3.0465777    1440.1129  0.078901651  0.079603519            2 
 1522000   0.99313938   -3.0645778    1446.6833  0.079209553  0.079586239            1 
 1523000    1.0123815   -3.0315233    1442.3207  0.078918839  0.079569137            3 
 1524000   0.99776669   -3.0284219    1448.8726  0.079225317  0.079552135            2 
 1525000    1.0157852   -3.0453022    1449.6441  0.079215524  0.079534742            4 
 1526000    1.0444536   -3.0328018    1449.5215  0.079156921   0.07951726            1 
 1527000    1.0035533   -3.0545789    1449.9137  0.079126485  0.079499576            2 
 1528000    1.0216737   -3.0727918    1449.6041  0.079057815   0.07948213            2 
 1529000    1.0195889   -3.0219756    1444.9677  0.078753415  0.079465001            1 
 1530000   0.99172543   -3.0304711    1448.4838  0.078893454  0.079448033            2 
 1531000   0.99350712   -3.0431506    1452.6054  0.079066263  0.079431107            2 
 1532000    1.0090529   -3.0685367    1453.4266  0.079059325  0.079413721            3 
 1533000    1.0088673   -3.0431989    1450.5698  0.078852458  0.079396539            6 
 1534000    1.0097385   -3.0448787    1451.7649  0.078865979  0.079379453            3 
 1535000    1.0169774   -3.0495966    1450.4584  0.078743669  0.079362427            2 
 1536000    1.0266687   -3.0392577    1459.4251  0.079178878  0.079345508            2 
 1537000    1.0187052   -3.0224268    1458.4313  0.079073479  0.079329245            1 
 1538000    1.0191959   -3.0261511    1459.4773  0.079078743  0.079312644            1 
 1539000    1.0135117   -3.0167414    1458.5148  0.078975243  0.079295637            6 
 1540000   0.99724764   -3.0185099    1463.3742  0.079186916  0.079278915            1 
 1541000    1.0008816   -3.0467492    1458.4892  0.078871361  0.079262049            2 
 1542000   0.99131217   -3.0314521    1465.5597  0.079202319  0.079245032            2 
 1543000    1.0137811   -3.0499611    1456.1591  0.078643287  0.079228488            3 
 1544000    1.0297583   -3.0208541    1460.0994  0.078805017  0.079212233            2 
 1545000    1.0111812   -3.0421146    1464.7174  0.079003097  0.079195935            2 
 1546000    1.0002979    -3.072871    1465.2026  0.078978146  0.079179306            1 
 1547000    1.0098806   -3.0753862    1460.2545  0.078660555  0.079162699            1 
 1548000    0.9957538   -3.0413835    1463.0208  0.078758654  0.079146556            2 
 1549000   0.98400631   -3.0471061    1469.4538  0.079053893  0.079130071            8 
 1550000    1.0016805   -3.0493747     1467.561   0.07890113  0.079113838            2 
 1551000   0.98739417   -3.0576723    1464.8934  0.078706932  0.079097547            1 
 1552000    1.0302903   -3.0559663    1467.3722  0.078789315  0.079080942            2 
 1553000   0.99564463   -3.0557508    1464.6823  0.078594243  0.079064473            3 
 1554000    1.0181977   -3.0527067    1463.3739  0.078473502  0.079048273            5 
 1555000    1.0151244   -3.0393875    1470.5925  0.078809889  0.079031426            1 
 1556000     1.011785   -3.0569985    1472.9626  0.078886171  0.079015031            4 
 1557000    1.0156728    -3.058946    1470.6149  0.078709851   0.07899871            4 
 1558000    1.0048474   -3.0232262    1474.7704  0.078881603  0.078982202            5 
 1559000    1.0259804   -3.0337949    1477.9552  0.079001242  0.078965889            2 
 1560000    1.0086049   -3.0443431    1476.0348  0.078848012  0.078949479            1 
 1561000    1.0147966   -3.0695131    1471.2107  0.078539968  0.078933106            1 
 1562000     1.003017   -3.0408453    1471.6684  0.078514104  0.078916932            3 
 1563000    1.0094639    -3.038894    1481.0247  0.078962714   0.07890061            1 
 1564000      1.00278   -3.0502224    1478.1517  0.078759148  0.078884134            1 
 1565000    1.0128849     -3.06799    1471.5611  0.078357884   0.07886758            3 
 1566000   0.99237948   -3.0553618    1479.5998  0.078735624  0.078851042            4 
 1567000     1.002846   -3.0634823    1476.7107  0.078531731  0.078834424            3 
 1568000     1.003808   -3.0446634    1479.3273   0.07862071  0.078817673            4 
 1569000    1.0020881    -3.044105    1476.5672  0.078424009  0.078800923            1 
 1570000   0.98529613   -3.0573572    1478.2803  0.078464982  0.078784021            6 
 1571000    1.0170241    -3.056655    1477.7175  0.078385184  0.078767096            3 
 1572000   0.99229797    -3.044321    1477.9028  0.078345142  0.078749984            3 
 1573000   0.99318368   -3.0493863    1478.2596  0.078314241   0.07873281            1 
 1574000   0.97418915    -3.067719    1479.1122  0.078309626  0.078715591            1 
 1575000    1.0006198   -3.0547183    1475.9484  0.078092506  0.078698417            2 
 1576000   0.98364569   -3.0520129    1479.9195  0.078252933   0.07868158            2 
 1577000    1.0007253   -3.0350014    1478.6504  0.078136252  0.078664235            3 
 1578000   0.98371459   -3.0439919    1478.8557  0.078097577  0.078646694            2 
 1579000    1.0133197   -3.0612237    1477.2177  0.077961666  0.078629427            1 
 1580000   0.99324381   -3.0323339    1483.4811  0.078242675  0.078612463            4 
 1581000   0.99994249   -3.0608026    1484.4951  0.078246634  0.078595219            2 
 1582000    1.0079215   -3.0746523    1483.4309  0.078141115  0.078578257            2 
 1583000    1.0163659   -3.0379478    1492.6279  0.078575907  0.078561152            1 
 1584000   0.99439389   -3.0407859    1487.4466  0.078253716  0.078544509            2 
 1585000   0.99168971    -3.072395    1488.5494  0.078262322   0.07852781            2 
 1586000   0.97877956   -3.0723782    1486.7012  0.078115866   0.07851085            3 
 1587000   0.99989122   -3.0489748    1493.2915  0.078412704  0.078494068            2 
 1588000   0.98168384   -3.0425915    1490.3053  0.078206615  0.078477666            2 
 1589000   0.99425665   -3.0521556     1490.712  0.078178727  0.078461091            1 
 1590000   0.98940928    -3.074794    1488.7643  0.078027479   0.07844503            3 
 1591000    1.0131373   -3.0506409    1491.9625  0.078145953   0.07842834            3 
 1592000   0.98804606   -3.0555145    1490.6085  0.078025988  0.078412127            3 
 1593000   0.98600751   -3.0528045    1495.6325  0.078239823  0.078395843            5 
 1594000    1.0076546   -3.0791073    1495.2923  0.078172958  0.078379101            2 
 1595000    1.0086322   -3.0762607    1496.0739   0.07816478  0.078362787            2 
 1596000    1.0031248   -3.0617045    1495.3312  0.078077026  0.078346297            2 
 1597000   0.98423808   -3.0544922     1505.016  0.078533498  0.078329802            1 
 1598000   0.97679038   -3.0341747    1498.9368  0.078167333  0.078313911            2 
 1599000    1.0015481   -3.0626304    1501.0109  0.078226541  0.078297917            2 
 1600000    0.9803697   -3.0497666    1496.6526  0.077950655   0.07828171            1 
 1601000    1.0016499    -3.090416    1496.1149   0.07787398  0.078265298            2 
 1602000   0.99734885   -3.0564398    1497.3586  0.077890065  0.078249009            1 
 1603000    1.0127349   -3.0687876    1505.1259  0.078245264  0.078232523            3 
 1604000   0.98168954   -3.0497082    1506.1852  0.078251518  0.078216463            2 
 1605000   0.99744693   -3.0725921    1502.6092  0.078017095  0.078200095            2 
 1606000   0.99288863   -3.0830802    1501.6657  0.077919556  0.078183276            5 
 1607000   0.99381182   -3.0420641     1505.765  0.078083643   0.07816654            2 
 1608000   0.98689813   -3.0570503     1499.405  0.077705483  0.078149947            1 
 1609000   0.97118545   -3.0734407    1500.6639   0.07772239  0.078132962            2 
 1610000    1.0248582   -3.0576633    1510.2652  0.078171077   0.07811633            5 
 1611000   0.99656444   -3.0798782    1499.3987  0.077560455  0.078099601            2 
 1612000   0.98168233   -3.0660019    1507.6261   0.07793766  0.078082843            2 
 1613000    1.0041932   -3.0570342    1506.4905  0.077830674  0.078066181            3 
 1614000   0.99129165   -3.0620781    1505.9123  0.077752599  0.078049679            2 
 1615000   0.98786377   -3.0734992    1510.1347  0.077922328  0.078033022            5 
 1616000   0.99355974   -3.0381776    1512.9544  0.078019514  0.078016773            2 
 1617000   0.99060131   -3.0732731    1507.2514  0.077677353  0.078000276            7 
 1618000    0.9919276   -3.0554715    1509.9625  0.077768981  0.077983911            3 
 1619000    1.0119002   -3.0648545    1512.7517  0.077864511  0.077967784            3 
 1620000   0.97322834    -3.043716    1510.3195  0.077691333  0.077951788            1 
 1621000   0.98615087   -3.0467169    1514.0754  0.077836488  0.077935446            1 
 1622000   0.99830169   -3.0830965    1512.7112  0.077718415  0.077919367            4 
 1623000   0.99205413   -3.0700677    1509.5521  0.077508322  0.077902975            4 
 1624000   0.98601849   -3.0467053    1513.7619  0.077676615  0.077886751            2 
 1625000   0.98072162   -3.0598771    1512.8228  0.077580656  0.077870792            3 
 1626000    1.0050535   -3.0745896    1513.9871  0.077592613  0.077854312            2 
 1627000   0.98924957    -3.047782    1515.5366   0.07762429   0.07783806            3 
 1628000    1.0018105   -3.0722399    1518.7769  0.077742469  0.077821774            6 
 1629000   0.99427203   -3.0823415    1519.9156     0.077753  0.077805978            3 
 1630000    1.0037691    -3.084633    1512.4742  0.077324858  0.077789589            1 
 1631000   0.98836906   -3.0757843    1518.7089  0.077595998  0.077773729            2 
 1632000   0.98954659   -3.0811474    1526.5549  0.077949084   0.07775854            2 
 1633000   0.98956237    -3.092235    1521.6302  0.077650039  0.077742965            4 
 1634000   0.97882577   -3.0712754    1531.4547  0.078103563  0.077727213            3 
 1635000    0.9823053   -3.0635573    1525.3735  0.077745844  0.077712303            2 
 1636000   0.98068998   -3.0624096    1529.0618  0.077886194  0.077697031            2 
 1637000   0.99842783   -3.0677124    1522.0346  0.077480891  0.077681801            2 
 1638000    1.0060222   -3.0791103    1529.7271  0.077824944  0.077666314            2 
 1639000    0.9803461   -3.0543652    1529.3189  0.077756706  0.077651165            1 
 1640000    1.0013906   -3.0678912    1527.9211  0.077638267   0.07763587            3 
 1641000    0.9796742   -3.0509915    1535.8588  0.077994049  0.077621038            4 
 1642000   0.99904302   -3.0507107    1529.3379  0.077615607    0.0776062            1 
 1643000   0.97300364   -3.0588203    1529.0525   0.07755389  0.077591556            2 
 1644000   0.98056076   -3.0849745      1536.83  0.077900953  0.077576439            3 
 1645000   0.99540177   -3.0287933    1541.8462   0.07810771  0.077562179            4 
 1646000    0.9785292   -3.0623532    1534.6736  0.077697123  0.077547567            3 
 1647000    1.0062474   -3.0447033    1539.9477  0.077916802   0.07753315            3 
 1648000   0.98147328   -3.0782893    1539.1051  0.077826918  0.077518163            1 
 1649000    0.9972739   -3.0681264    1535.1762  0.077581173  0.077503491            6 
 1650000    1.0065676   -3.0788641    1541.7766  0.077867503  0.077488821            4 
 1651000   0.96127707   -3.0425099    1550.5437  0.078262857  0.077474363            3 
 1652000   0.96870871   -3.0655933    1538.0374  0.077584616  0.077460252            2 
 1653000   0.98158634   -3.0518232     1541.685  0.077721569  0.077445698            2 
 1654000   0.98263132   -3.0766063    1544.2022    0.0778014  0.077431497            2 
 1655000   0.98844868   -3.0922372    1542.4582  0.077666576  0.077417187            2 
 1656000    0.9823198   -3.0423752    1551.2307  0.078061125  0.077403007            5 
 1657000   0.97966423    -3.031507    1550.8255  0.077993637  0.077389269            1 
 1658000   0.98949844    -3.056062    1551.3845  0.077974693  0.077375382            4 
 1659000   0.98315662   -3.0931287    1546.4157  0.077678104  0.077361243            3 
 1660000    1.0098025   -3.0634329    1549.5881  0.077790566  0.077347253            3 
 1661000   0.96600648   -3.0579456    1548.4608  0.077687178  0.077332951            1 
 1662000   0.99291604    -3.068524      1550.87   0.07776123  0.077319108            7 
 1663000   0.98472195   -3.0734877    1551.1595  0.077728977  0.077305105            4 
 1664000   0.97827694   -3.0784626    1549.1088  0.077579569  0.077291084            3 
 1665000   0.97712993   -3.0491579    1561.4677  0.078151539  0.077277047            1 
 1666000   0.98866622   -3.0616347    1552.7362  0.077667875  0.077263104            3 
 1667000   0.98164827   -3.0493516    1551.0931  0.077539147  0.077248809            2 
 1668000   0.99609071   -3.0751625    1555.6138  0.077718515  0.077234675            3 
 1669000      1.00089   -3.0889385    1553.5933  0.077571067  0.077220265            3 
 1670000   0.99102443   -3.0944747    1551.6216  0.077426225  0.077205685            2 
 1671000   0.98370445   -3.0533276    1557.8236   0.07768919  0.077191451            3 
 1672000   0.98830447    -3.078622     1553.006  0.077402611  0.077176479            1 
 1673000   0.98641768   -3.0616659    1553.4973  0.077380818  0.077161576            2 
 1674000   0.99492634   -3.0603182    1553.5513  0.077337283  0.077146989            2 
 1675000   0.97478048   -3.0860145    1552.0306  0.077215452  0.077131804            2 
 1676000    0.9779028   -3.0745982    1552.6753  0.077201434  0.077116733            4 
 1677000   0.96955486   -3.1060024    1556.8388  0.077362292  0.077102148            2 
 1678000    1.0075748   -3.0751248    1556.1996  0.077284444  0.077087478            2 
 1679000   0.96205173   -3.0738998    1555.9911  0.077228067  0.077072644            2 
 1680000   0.97056744   -3.0769087    1558.4459  0.077303862  0.077057771            1 
 1681000   0.98892575   -3.0637063    1554.6958  0.077071972  0.077043102            1 
 1682000   0.98712931    -3.092387    1550.9891  0.076842503  0.077028074            1 
 1683000   0.98128003   -3.1093392    1559.3572  0.077211191  0.077013236            3 
 1684000   0.99077559   -3.0799764    1557.0699  0.077052153  0.076997732            1 
 1685000   0.99274545   -3.0671831    1557.5339  0.077029374  0.076982477            2 
 1686000   0.97869713   -3.0780507    1560.9811  0.077154066  0.076967242            3 
 1687000    1.0023885   -3.0930193     1560.852  0.077101955  0.076951679            2 
 1688000   0.98339181    -3.113761    1553.4676  0.076691724  0.076936141            3 
 1689000   0.98841883   -3.1057011    1555.1112   0.07672741  0.076920502            2 
 1690000   0.97283755   -3.0968967    1554.8639  0.076669816   0.07690525            5 
 1691000   0.96589481   -3.0911866    1557.5884   0.07675874  0.076889593            2 
 1692000   0.98273845   -3.0628812    1564.9439  0.077075643  0.076873941            3 
 1693000   0.95969465   -3.0661501    1561.1917  0.076845426  0.076858734            1 
 1694000    0.9938139   -3.0791089    1561.5593  0.076818148  0.076843339            1 
 1695000   0.99476038   -3.1209894    1562.7752  0.076832603  0.076827946            2 
 1696000   0.99437017    -3.068958    1565.5821   0.07692522  0.076812461            4 
 1697000   0.98956705    -3.088368    1564.4073    0.0768222  0.076796958            3 
 1698000   0.96899267   -3.0589942    1565.8757  0.076849021  0.076781468            3 
 1699000   0.95935696   -3.0732751    1572.5419  0.077130757   0.07676652            4 
 1700000    0.9844661   -3.0822717    1566.2657   0.07677773  0.076751146            3 
 1701000   0.98604413   -3.0840943    1571.0057  0.076964809  0.076735824            1 
 1702000   0.95851178   -3.0829357    1568.4816  0.076796005   0.07672091            3 
 1703000   0.97964669   -3.0768284     1567.241  0.076690204  0.076705609            2 
 1704000   0.98132425    -3.058582    1572.8002  0.076917069  0.076690391            2 
 1705000   0.97373389   -3.1041169    1575.6603  0.077011745  0.076674885            3 
 1706000   0.97121816   -3.0945948    1571.4625  0.076761554  0.076659706            2 
 1707000   0.97543479   -3.0682809    1570.7996   0.07668422  0.076644053            2 
 1708000   0.99936192   -3.0577608    1572.4311  0.076718928  0.076628534            3 
 1709000   0.99101431   -3.0769366    1580.8648  0.077085272  0.076613517            2 
 1710000   0.98531771   -3.0801675    1570.6693  0.076543338  0.076598115            6 
 1711000   0.98833421   -3.0642468    1578.2465  0.076867648  0.076582566            3 
 1712000   0.99247292   -3.0569935    1571.3857  0.076488789  0.076567352            2 
 1713000   0.98270475   -3.0940156    1573.8379  0.076563431  0.076551868            1 
 1714000   0.95941201   -3.1006547    1568.1734  0.076243357  0.076536063            4 
 1715000   0.99174828   -3.0813184    1575.0038  0.076530798  0.076520084            3 
 1716000   0.99411669   -3.0816618    1576.7566   0.07657132  0.076504599            2 
 1717000   0.97439442   -3.0849642    1579.2387  0.076647192  0.076488925            4 
 1718000    0.9926817   -3.0562575    1576.7747  0.076483058  0.076473173            2 
 1719000   0.98709315   -3.0716391    1573.7973  0.076294228  0.076457239            2 
 1720000   0.98721566    -3.070402    1579.1897  0.076511131  0.076441636            4 
 1721000    0.9674945   -3.0737958    1574.3585  0.076232738  0.076425962            3 
 1722000   0.97694971   -3.0773411    1578.0554  0.076367375  0.076410299            5 
 1723000   0.96820038   -3.0810747    1580.2885  0.076431055  0.076394755            3 
 1724000   0.99501405   -3.0734919    1575.6676   0.07616336  0.076379068            3 
 1725000    0.9838301   -3.0916201    1582.2749  0.076438401  0.076363078            3 
 1726000   0.98528548   -3.0847296    1580.4293  0.076305005  0.076347539            3 
 1727000   0.97459391   -3.0760997    1585.4334  0.076502289  0.076331656            3 
 1728000    0.9799521     -3.06453    1581.3997  0.076263487  0.076316139            2 
 1729000   0.96524773   -3.0890246    1582.0152  0.076249047  0.076300408            2 
 1730000   0.97115022   -3.0771433    1590.1437  0.076596515  0.076285133            4 
 1731000   0.95003699   -3.0989513    1581.9266  0.076156683  0.076269482            2 
 1732000   0.98388697   -3.0868451    1587.2808  0.076370323  0.076253743            3 
 1733000    1.0080879   -3.0620745    1588.1669  0.076368867  0.076238477            2 
 1734000   0.97186722   -3.0718676    1590.2324  0.076424089  0.076223271            6 
 1735000   0.97638387    -3.102688    1585.0373  0.076130513  0.076207931            2 
 1736000   0.97745668   -3.0803186    1591.5042   0.07639709  0.076192648            3 
 1737000   0.97793724   -3.0854611    1594.6337  0.076503248  0.076177624            3 
 1738000   0.98413734   -3.0765886    1593.1883  0.076389928  0.076162759            2 
 1739000   0.97546244   -3.0714028    1591.3137  0.076256166   0.07614772            2 
 1740000   0.97997374    -3.069325    1595.1581  0.076396462   0.07613291            2 
 1741000     0.986472   -3.0718155    1595.4551  0.076366797  0.076118167            2 
 1742000   0.95412244   -3.0697376    1597.4206  0.076416981  0.076103234            3 
 1743000    1.0043567   -3.1212996    1586.6151  0.075856525  0.076087776            2 
 1744000    0.9465417    -3.070831    1597.0127  0.076309859  0.076072253            2 
 1745000   0.99567351   -3.0745748    1596.8721  0.076259413   0.07605705            3 
 1746000   0.95267129   -3.0798223     1596.468  0.076196449  0.076042172            4 
 1747000   0.98801828   -3.0704924    1598.3429  0.076242265  0.076027477            3 
 1748000    0.9610302   -3.0951996    1600.4636  0.076299754  0.076012463            1 
 1749000   0.97869383   -3.0932461    1595.2008  0.076005374  0.075997606            4 
 1750000   0.95394882   -3.0924615    1597.7137  0.076081603  0.075982576            2 
 1751000    1.0055864   -3.1149898    1595.6949  0.075942078  0.075967463            3 
 1752000   0.96373628   -3.0944324    1600.9439  0.076148399  0.075952554            4 
 1753000   0.97863461   -3.0848881    1598.2666  0.075977686   0.07593763            2 
 1754000   0.96363545   -3.0769742    1597.7876  0.075911612  0.075922482            3 
 1755000   0.96032128    -3.119646    1603.4066  0.076135167  0.075907333            4 
 1756000   0.96886842   -3.0888936    1600.1732  0.075938364  0.075892516            2 
 1757000   0.99456936    -3.058557    1604.5607   0.07610324  0.075877698            3 
 1758000   0.95270065   -3.0842853    1609.5944  0.076298561  0.075862706            2 
 1759000   0.95211131   -3.0525947    1600.0508   0.07580305  0.075847912            2 
 1760000   0.95792346   -3.0946246     1605.173  0.076002509  0.075832961            2 
 1761000   0.96243793    -3.126346     1602.238   0.07582046   0.07581805            2 
 1762000   0.97860535   -3.0994447    1606.2149  0.075965519  0.075803385            4 
 1763000   0.96165344   -3.1005701    1610.1538  0.076108613   0.07578876            2 
 1764000   0.96320138   -3.1104842    1607.4642  0.075938408  0.075773972            7 
 1765000   0.98323519   -3.1178224    1603.3435  0.075700828  0.075759029            6 
 1766000   0.95450172   -3.0825401    1611.8501  0.076059365  0.075744489            2 
 1767000   0.97850903   -3.0859216     1611.512  0.076000375  0.075729573            1 
 1768000    0.9794365   -3.1244135    1609.2139  0.075849072   0.07571486            2 
 1769000   0.96817665   -3.1104006    1614.8379  0.076071129  0.075699926            2 
 1770000   0.95194704   -3.0905308     1608.708  0.075739549  0.075685126            3 
 1771000   0.95994913   -3.1027237    1612.9168  0.075894826  0.075670093            4 
 1772000    0.9593213   -3.0696121    1616.9778  0.076042976  0.075655626            3 
 1773000   0.96899037   -3.1018034     1618.724  0.076082161   0.07564127            2 
 1774000    0.9601575   -3.0860743    1611.9919  0.075723032  0.075626906            5 
 1775000   0.95274317   -3.0757741    1618.2614  0.075974714  0.075612239            6 
 1776000   0.97334165   -3.0890697    1615.2499  0.075790632  0.075597671            5 
 1777000   0.95250486   -3.1140177    1622.6671  0.076095813  0.075583433            6 
 1778000   0.96394438   -3.1070563    1616.2479  0.075752154  0.075569236            1 
 1779000   0.98404646   -3.0911347    1619.9271  0.075881915  0.075554926            1 
 1780000   0.96865468   -3.1053695     1622.674  0.075967883  0.075540733            3 
 1781000   0.97651974   -3.0904992    1616.9425  0.075657052  0.075526449            3 
 1782000   0.95443165   -3.0653517     1625.015  0.075992097  0.075512254            2 
 1783000   0.94820445   -3.0826877    1623.9341  0.075898958  0.075498401            3 
 1784000   0.99260284   -3.0926077    1623.6019  0.075840896  0.075484218            3 
 1785000   0.96553697   -3.0958724    1620.5513  0.075655989  0.075469979            2 
 1786000   0.97707176   -3.1166976    1629.0958  0.076012308   0.07545564            4 
 1787000    0.9641595   -3.1145766    1621.1819  0.075600721   0.07544139            4 
 1788000   0.95209054    -3.108879    1622.3009  0.075610594  0.075426974            3 
 1789000   0.95924086   -3.1139764    1631.8597  0.076013589  0.075413189            2 
 1790000   0.96314527   -3.0737829     1632.795  0.076014663  0.075399086            3 
 1791000   0.97738756   -3.0920498    1632.8004  0.075972472  0.075385236            2 
 1792000   0.97098833   -3.1027462     1636.291  0.076092401  0.075371394            3 
 1793000   0.96304203   -3.0838902     1633.227  0.075907557  0.075357787            6 
 1794000   0.96597802   -3.1022772    1626.4827  0.075551963  0.075343718            3 
 1795000   0.96836795    -3.068195    1637.5419  0.076023302  0.075330151            3 
 1796000   0.97983254   -3.0834483    1635.1999  0.075872303  0.075316376            2 
 1797000   0.97035924   -3.0736361    1639.0715  0.076009621  0.075302555            3 
 1798000   0.94202402   -3.1192071    1632.0356  0.075641251  0.075288759            3 
 1799000   0.96999515   -3.0813551    1637.8174  0.075867027  0.075274861            4 
 1800000   0.96221114   -3.1055678    1639.2131  0.075889497  0.075261109            2 
 1801000   0.96746875   -3.1022405    1634.0148   0.07560683  0.075247046            4 
 1802000   0.95736562   -3.0914409    1637.2425  0.075714138  0.075232973            3 
 1803000   0.96726912   -3.1282061    1640.5255  0.075823883   0.07521858            3 
 1804000   0.94743917   -3.1056918     1631.479  0.075363958   0.07520423            3 
 1805000   0.98522365   -3.1013021    1632.7422  0.075380528  0.075189792            2 
 1806000   0.96195379   -3.1010975     1639.289  0.075640875  0.075175612            4 
 1807000   0.94277725   -3.1170817    1638.6513  0.075569605  0.075161743            4 
 1808000   0.96649773   -3.1076403    1638.1112  0.075502912   0.07514756            2 
 1809000   0.94735781   -3.1236974     1642.469  0.075661922  0.075133616            3 
 1810000   0.96950002   -3.0981821    1642.0923  0.075602778  0.075120169            5 
 1811000   0.96342199   -3.0888594     1643.602  0.075630498  0.075106509            2 
 1812000   0.95689455   -3.0792216    1650.6818  0.075914359  0.075093044            2 
 1813000   0.97735942   -3.1161095    1648.5252  0.075773359  0.075079661            3 
 1814000   0.96197534   -3.0888841    1643.2022  0.075487055  0.075065855            3 
 1815000   0.96706327   -3.0994896    1652.7106  0.075882029  0.075052003            2 
 1816000   0.96416132   -3.0876021     1642.711  0.075381378  0.075038573            3 
 1817000   0.96419961   -3.1117963    1645.1608  0.075452249  0.075024716            2 
 1818000   0.94690603   -3.1191479    1650.1232  0.075638212  0.075011176            3 
 1819000   0.98635024   -3.1202834    1655.2801  0.075832878  0.074997398            3 
 1820000   0.95998569   -3.1257642    1652.6628  0.075671376  0.074983674            3 
 1821000   0.94928679   -3.0937838    1658.1963  0.075883044    0.0749701            3 
 1822000   0.98511661   -3.1139096    1653.7613  0.075638554  0.074956647            3 
 1823000   0.94883903   -3.1138939    1647.7368  0.075321667  0.074943029            5 
 1824000   0.96278412   -3.0923293    1657.9913  0.075748873  0.074929294            2 
 1825000   0.96940816   -3.0930552    1645.3629  0.075130728    0.0749154            4 
 1826000    1.0028483   -3.1160308    1648.2132  0.075219659  0.074901803            2 
 1827000   0.93158055   -3.1078972    1649.9779  0.075258982  0.074887949            1 
 1828000   0.94462616   -3.1146347    1652.4822  0.075331976  0.074873933            2 
 1829000    0.9708212   -3.1412228    1648.7446  0.075120494  0.074860047            3 
 1830000   0.96443459   -3.1200437    1658.9678  0.075544981   0.07484647            8 
 1831000   0.98862233   -3.0988549    1655.8602  0.075362288  0.074832998            3 
 1832000   0.93383467   -3.0985511    1653.6803  0.075221993  0.074819128            2 
 1833000   0.95178762   -3.0993789    1652.1186  0.075109958  0.074805329            6 
 1834000   0.95812873   -3.1178349    1653.0418  0.075110952  0.074791646            2 
 1835000   0.97594392   -3.1095447    1663.7525  0.075556428  0.074777972            3 
 1836000   0.96563159   -3.1122122    1650.9255  0.074933075  0.074763885            2 
 1837000   0.97215086   -3.1070329    1659.2121  0.075268197  0.074749671            1 
 1838000   0.93233025   -3.1153251    1661.1658  0.075315822  0.074735707            4 
 1839000   0.97147904   -3.1153847    1656.0083  0.075041158  0.074721445            4 
 1840000   0.94980776   -3.1215254    1653.0211  0.074865085  0.074707564            2 
 1841000   0.97704184    -3.101722    1659.1665  0.075102595  0.074693504            3 
 1842000   0.94569514   -3.0893015     1661.427  0.075164089  0.074679462            2 
 1843000   0.95196702   -3.1180201    1659.9601  0.075056979  0.074665374            3 
 1844000   0.94115595   -3.1192761    1663.1644  0.075161083  0.074651063            2 
 1845000   0.96024105   -3.1032139    1661.3207  0.075037067  0.074636847            2 
 1846000   0.97585103   -3.1102891    1661.0531  0.074984341  0.074622803            1 
 1847000   0.95949582   -3.0997779    1661.8167  0.074978196  0.074608254            4 
 1848000    0.9370148   -3.0953529    1671.0342  0.075353274  0.074593992            2 
 1849000   0.94927673   -3.1059602    1660.3148  0.074829402  0.074579837            2 
 1850000   0.94228553   -3.1040334    1669.4785  0.075201734  0.074565786            3 
 1851000   0.95552058   -3.0895188    1668.1473  0.075101173  0.074551679            4 
 1852000   0.94029224   -3.1064475    1664.6543  0.074903449  0.074537529            4 
 1853000   0.94070773   -3.0947367    1666.2771  0.074936011  0.074523141            2 
 1854000   0.93409813   -3.1030087    1660.7805  0.074648528  0.074508573           10 
 1855000   0.94733792   -3.1203709    1667.0784  0.074891212  0.074493761            2 
 1856000   0.96069249   -3.1121401    1660.1377  0.074539226  0.074479121            2 
 1857000   0.93337638   -3.1259768    1660.1269  0.074498604   0.07446472            2 
 1858000    0.9472789   -3.0979089    1667.3697  0.074783355  0.074450059            4 
 1859000   0.95559144   -3.1009887    1666.7846  0.074716899  0.074435611            2 
 1860000   0.97582631   -3.1292338    1659.2294  0.074338233  0.074421205            2 
 1861000   0.95328164   -3.1193851    1668.1346  0.074697053  0.074406764            2 
 1862000    0.9534622   -3.0919708    1674.5638  0.074944673  0.074392354            3 
 1863000     0.951768   -3.1173519     1671.914  0.074785917  0.074378178            6 
 1864000   0.95019045   -3.1220356    1664.3521  0.074407729   0.07436391            3 
 1865000   0.94842402    -3.078585    1675.1879  0.074852007  0.074349639            9 
 1866000   0.96066443   -3.0946585    1678.1717  0.074945145  0.074335611            3 
 1867000    0.9512914   -3.1367689     1666.807   0.07439774   0.07432114            3 
 1868000   0.96065439   -3.1123998    1673.3235  0.074648621  0.074306795            3 
 1869000   0.95885852   -3.1044022    1676.1186  0.074733307  0.074292716            2 
 1870000   0.95272837    -3.111806    1679.5764  0.074847433  0.074278302            3 
 1871000    0.9331082   -3.1074689    1676.5576  0.074672971  0.074264001            4 
 1872000   0.94575598   -3.1434658    1670.8908  0.074380821  0.074249567            4 
 1873000     0.964587   -3.1423555     1676.961  0.074611184  0.074235027            4 
 1874000   0.92291867   -3.1097368    1679.3575  0.074677939  0.074220461            3 
 1875000   0.96123741   -3.1105024    1673.2908  0.074368482   0.07420608            2 
 1876000   0.96165662    -3.133614    1678.2116  0.074547424  0.074191681            2 
 1877000   0.95688648   -3.1085823    1683.2227  0.074730185  0.074177317            3 
 1878000   0.94446513   -3.1255947    1668.9006  0.074054871  0.074162977            2 
 1879000   0.96568523   -3.1270046    1681.1239   0.07455756  0.074148207            3 
 1880000   0.94993479   -3.1120023    1686.0199  0.074734924  0.074133697            3 
 1881000   0.93521466   -3.1136166    1674.2329  0.074172997  0.074119479            2 
 1882000    0.9428734   -3.1239964    1680.5402  0.074412869  0.074105253            2 
 1883000   0.93183242   -3.1132604    1686.5221   0.07463808  0.074090835            2 
 1884000   0.97214701   -3.0927368    1681.8324  0.074391028  0.074076375            3 
 1885000   0.95343521   -3.1333952    1680.0791  0.074274052  0.074061888            3 
 1886000   0.95100986   -3.1170659    1684.0661  0.074410838  0.074047453            2 
 1887000   0.94940251   -3.1404833    1687.1958   0.07450962  0.074033003            3 
 1888000   0.93935537   -3.1096125     1685.486  0.074394688  0.074018615            5 
 1889000   0.94842901   -3.1423253    1684.0381  0.074291428  0.074004111            4 
 1890000   0.94314588   -3.1259015    1679.5997  0.074056424  0.073989731            3 
 1891000   0.95525776   -3.1068852    1687.5633  0.074368206  0.073975245            5 
 1892000    0.9626833   -3.1462978    1678.0003  0.073907694  0.073960695            6 
 1893000   0.93208155   -3.1122871    1692.5661  0.074509864   0.07394613            3 
 1894000   0.95609817   -3.1269794    1688.1298  0.074275332  0.073931483            3 
 1895000   0.94560369   -3.1246009    1688.6444   0.07425877  0.073917042            3 
 1896000   0.93665581   -3.1283528    1689.8713  0.074273528  0.073902575            3 
 1897000   0.95031636   -3.0985042    1693.0237  0.074372857  0.073887987            2 
 1898000   0.95096284    -3.125751    1687.7839  0.074103613  0.073873204            2 
 1899000   0.96993187   -3.0914727    1689.8224  0.074154045   0.07385858            3 
 1900000   0.92686258   -3.1526225    1691.0197  0.074167531  0.073843878            3 
 1901000   0.94807735   -3.1132472    1691.4839  0.074148866  0.073828963            4 
 1902000    0.9647115   -3.1265514    1695.2519  0.074274969  0.073814834            3 
 1903000   0.95158141   -3.1231261    1689.6239  0.073989485  0.073800254            3 
 1904000   0.96049474   -3.1031393    1695.4646  0.074206257  0.073785409            3 
 1905000   0.93614055   -3.1217171    1684.0362  0.073667377  0.073770469            8 
 1906000   0.95500624   -3.1430962    1690.4465  0.073908995  0.073755237            3 
 1907000   0.94474478   -3.1202177    1694.1277    0.0740311  0.073740085            4 
 1908000   0.94260408   -3.1257813    1687.7916  0.073715564  0.073725017            3 
 1909000   0.94317949   -3.1430069    1692.9665  0.073902852   0.07371017            3 
 1910000   0.93744468   -3.1287905    1693.6206  0.073892695  0.073695239            2 
 1911000   0.94530857   -3.1211459    1692.3577  0.073798958   0.07368021            2 
 1912000   0.93692472   -3.1136249    1690.4636  0.073677808   0.07366528            4 
 1913000    0.9499325   -3.1259935    1693.8197  0.073785491  0.073650382            2 
 1914000   0.95555336   -3.1531405    1694.9661  0.073796852  0.073635425            2 
 1915000   0.95193401   -3.0974236    1693.2478  0.073683542  0.073620393            4 
 1916000   0.93411597   -3.1281997    1693.8281  0.073670325   0.07360526            3 
 1917000   0.94243079   -3.1344223    1694.4699  0.073659793  0.073590103            2 
 1918000   0.94435572    -3.120925    1693.7233  0.073588949  0.073574818            3 
 1919000   0.94878591   -3.1176599      1689.24  0.073355915  0.073559381            2 
 1920000   0.94438004   -3.1223241    1692.4812  0.073458386   0.07354395            4 
 1921000   0.93420472   -3.1447324    1694.2406  0.073496469  0.073528723            2 
 1922000   0.93834243   -3.1139003    1695.2736  0.073503018  0.073513684            2 
 1923000   0.94577072   -3.1238697    1695.5512  0.073476826    0.0734985            2 
 1924000   0.94285325   -3.1166389    1702.2186  0.073727418  0.073483344            3 
 1925000   0.93528575   -3.1180844    1703.4866  0.073744008  0.073468081            2 
 1926000   0.94798531   -3.0849812    1699.2672  0.073523158  0.073452962            2 
 1927000   0.94901677   -3.1326528    1707.8861  0.073857726  0.073437938            3 
 1928000   0.94555447   -3.1409198    1698.2701  0.073403791  0.073422647            3 
 1929000   0.93759511   -3.1140598    1707.1667  0.073750075  0.073407312            3 
 1930000   0.93588124   -3.1564769    1694.3814  0.073159819  0.073391992            3 
 1931000   0.94501649   -3.1116626    1701.0861  0.073411276  0.073376706            2 
 1932000   0.95367637   -3.1020175    1701.4292  0.073388078  0.073361161            2 
 1933000   0.95250293   -3.1115934    1708.9011  0.073672231  0.073345799            1 
 1934000   0.93302098     -3.12639     1702.828  0.073372459  0.073330269            2 
 1935000   0.94843952   -3.1339403    1703.9458   0.07338268  0.073315095            2 
 1936000   0.93779854   -3.1237377    1706.1173  0.073438243  0.073299862            2 
 1937000   0.93357302   -3.1404082    1698.1655  0.073058232  0.073284572            2 
 1938000   0.95089923   -3.1382846    1701.1255  0.073147812  0.073269175            8 
 1939000   0.93419386   -3.1467427    1701.7578   0.07313726  0.073254015            5 
 1940000   0.95186404   -3.1622607    1698.4742  0.072958512  0.073238558            2 
 1941000   0.93234427   -3.1159049    1705.7062  0.073231419  0.073223235            2 
 1942000   0.93060949    -3.111981    1711.3416  0.073435531  0.073208048            2 
 1943000   0.94279152   -3.1525149    1702.6531  0.073025095  0.073192806            4 
 1944000   0.95792774   -3.1366122    1708.5418   0.07323996   0.07317739            2 
 1945000    0.9534637   -3.1380961    1710.9346  0.073304825  0.073162498            2 
 1946000   0.92887215   -3.1195144    1713.4149  0.073373369  0.073147518            2 
 1947000   0.95306892   -3.1287527    1710.2768  0.073201369  0.073132618            2 
 1948000   0.90629051   -3.1325766    1710.1994  0.073160481  0.073117369            2 
 1949000   0.92632319   -3.1482299    1706.3599  0.072958779  0.073102246            4 
 1950000   0.93687759   -3.1358558    1715.9369  0.073330635  0.073087013            3 
 1951000   0.93103868   -3.0926721    1712.7816  0.073158276  0.073071982            1 
 1952000   0.94693613   -3.1268064    1714.6777  0.073201747  0.073056954            3 
 1953000    0.9311137   -3.1427447    1710.5837  0.072989577  0.073042122            1 
 1954000    0.9482515    -3.127019    1714.8104   0.07313248  0.073026996            2 
 1955000    0.9261672   -3.1419801    1716.7124  0.073176147  0.073012137            3 
 1956000   0.94934237   -3.1310677    1716.2661  0.073119723  0.072997213            2 
 1957000   0.92936902   -3.1439785    1719.7394  0.073230257   0.07298227            2 
 1958000   0.93578353   -3.1360881    1720.6396  0.073231172  0.072967685            2 
 1959000   0.92754845   -3.1234656    1719.9032  0.073162464  0.072953036            2 
 1960000   0.93098312   -3.1330629    1718.0994  0.073048443  0.072938208            1 
 1961000   0.94809121   -3.1373558    1719.3399  0.073063909  0.072923658            4 
 1962000   0.94865015   -3.1298432    1727.0981   0.07335619  0.072908952            4 
 1963000   0.93716554   -3.1549483    1718.4246  0.072950612  0.072894732            2 
 1964000   0.93484273   -3.0980886    1731.8222  0.073481934  0.072880259            2 
 1965000    0.9345804   -3.1113926    1727.1077  0.073244601  0.072865585            3 
 1966000   0.93103442   -3.1558446    1717.7575  0.072811015  0.072850909            9 
 1967000   0.93999113    -3.118448    1723.2541  0.073006868  0.072836182            2 
 1968000   0.95067643   -3.1593208    1726.4224  0.073103928  0.072821747            2 
 1969000   0.92823747   -3.1273695    1723.7896  0.072955373  0.072807307            5 
 1970000   0.94043985   -3.1322174    1728.0446  0.073098335  0.072792699            6 
 1971000   0.93660532    -3.157496    1729.2197  0.073110927  0.072778113            6 
 1972000   0.94961903   -3.1357198    1724.6926  0.072882547  0.072763318            5 
 1973000    0.9400691   -3.1457736    1728.5113  0.073006897  0.072748481            2 
 1974000   0.92146555   -3.1164082    1734.8155  0.073236046  0.072733887            6 
 1975000   0.94227915   -3.1466096       1729.3  0.072966246  0.072719432            5 
 1976000   0.93723154   -3.1254069    1733.0825  0.073088837  0.072704725            1 
 1977000   0.95307722   -3.1397587    1733.6276  0.073074844  0.072689867            3 
 1978000   0.93462101   -3.1442126    1731.8817  0.072964345  0.072675251            6 
 1979000    0.9313959   -3.1557629    1735.2326  0.073068578  0.072660685            4 
 1980000   0.92997226   -3.1603746    1734.1177  0.072984753   0.07264589            5 
 1981000   0.92469173   -3.1437144    1734.3769  0.072958813  0.072631423            3 
 1982000   0.92671666   -3.1248797    1735.7343  0.072979074  0.072617036            2 
 1983000   0.93432369   -3.1444599    1738.5983  0.073062626  0.072602382            3 
 1984000    0.9297154    -3.131463    1732.6408  0.072775571  0.072588206            3 
 1985000   0.93944642   -3.1467179    1738.5523   0.07298708   0.07257419            5 
 1986000    0.9068481   -3.1468673     1729.089  0.072553247  0.072559918            7 
 1987000   0.95103274   -3.1388278    1741.4978  0.073037151  0.072545894            3 
 1988000   0.92224831   -3.1330003    1745.5984  0.073172302  0.072531871            3 
 1989000   0.95310722   -3.1546765    1736.4054  0.072750353  0.072517893            2 
 1990000   0.93240633   -3.1563039    1731.1949    0.0724956  0.072503904            3 
 1991000   0.92901998    -3.150083    1741.1211  0.072874649   0.07248958            2 
 1992000   0.93748727   -3.1484882    1749.7634  0.073199607  0.072475287            4 
 1993000   0.91254385    -3.122433     1741.172  0.072803646   0.07246112            4 
 1994000    0.9332801   -3.1492131    1745.0908  0.072930908  0.072446823            3 
 1995000   0.94091043   -3.1427466    1746.8477  0.072967741  0.072432648            1 
 1996000   0.94630987   -3.1200209    1746.2753  0.072907285  0.072418801            4 
 1997000   0.94201909   -3.1459239    1752.3208   0.07312305  0.072405073            2 
 1998000   0.92933546   -3.1521093    1751.2454  0.073041601  0.072391054            4 
 1999000    0.9511163   -3.1356613    1751.2838  0.073006663  0.072377148            3 
 2000000   0.93221592   -3.1128833    1751.5583  0.072981597   0.07236353            2 
 2001000   0.94619056   -3.1444845     1753.279  0.073016783  0.072349732            2 
 2002000   0.91810551    -3.139052    1748.8123  0.072794386   0.07233597           11 
 2003000    0.9096547   -3.1480361      1751.11  0.072853635  0.072321896            2 
 2004000   0.93557443   -3.1489576    1749.8041  0.072762977     0.072308            2 
 2005000   0.93279677   -3.1370498    1753.6907  0.072888227  0.072294266            2 
 2006000   0.90680836   -3.1449988    1746.2247  0.072541736  0.072280576            4 
 2007000   0.94223533   -3.1075877    1755.9165  0.072908011  0.072266839            3 
 2008000   0.91778285   -3.1340798    1758.9703  0.072998436  0.072252855            5 
 2009000   0.93670889   -3.1405169    1754.2599  0.072766711  0.072238922            5 
 2010000   0.92470406   -3.1356747    1755.7134  0.072790772  0.072225482            2 
 2011000   0.93927685   -3.1713147    1761.2224  0.072982862  0.072211655            2 
 2012000   0.92779689   -3.1765877    1748.2644  0.072409889  0.072197984            3 
 2013000   0.93472694   -3.1156754    1761.0488  0.072903163  0.072184346            3 
 2014000   0.92989757   -3.1379863     1759.109  0.072786703  0.072171205            4 
 2015000   0.91872421     -3.15194    1760.0531  0.072789625  0.072157448            2 
 2016000   0.92183366   -3.1297449    1759.4292  0.072727729  0.072143925            3 
 2017000   0.94592925   -3.1586228    1767.4948  0.073024903  0.072130516            5 
 2018000   0.92863267   -3.1505756    1760.2083  0.072687824  0.072117378            4 
 2019000   0.93033495   -3.1322713    1763.4008  0.072783589  0.072104064            2 
 2020000   0.94495088   -3.1466713    1762.4734  0.072709298  0.072090875            3 
 2021000   0.90789261    -3.156487    1765.3908  0.072793615   0.07207766            4 
 2022000   0.94389211   -3.1444206    1764.3526  0.072714829  0.072064093            4 
 2023000   0.92057715   -3.1606362    1764.1767  0.072671637   0.07205073            5 
 2024000   0.92090893   -3.1488966    1761.7351  0.072535206  0.072037554            2 
 2025000   0.92357371   -3.1457844    1766.1381  0.072680579  0.072024259            2 
 2026000   0.93894636   -3.1598838    1763.7599  0.072546884   0.07201095            4 
 2027000   0.91334951   -3.1511731    1765.4742  0.072581573  0.071997763            2 
 2028000   0.91599012   -3.1729984    1765.3903  0.072542336  0.071984437            4 
 2029000   0.92296379   -3.1560975     1768.492  0.072633974  0.071971108            4 
 2030000    0.9338149   -3.1461491    1773.2979  0.072795479   0.07195797            3 
 2031000   0.93957524   -3.1308873    1767.9753  0.072541248  0.071944838            4 
 2032000   0.92420385   -3.1254007     1776.658  0.072861629  0.071931453            5 
 2033000   0.93096633   -3.1340114    1771.6184  0.072619216  0.071918311            2 
 2034000   0.91718066   -3.1526121    1773.8533  0.072675078   0.07190507            1 
 2035000   0.90601995   -3.1376181    1776.3259  0.072740618  0.071891988            5 
 2036000   0.92057433   -3.1617892    1773.6947  0.072597196  0.071879005            3 
 2037000   0.91095045   -3.1767123    1769.6765  0.072397174  0.071865868            2 
 2038000   0.93842936    -3.163624    1773.7155  0.072526804  0.071852537            2 
 2039000   0.92568111   -3.1446653     1772.871   0.07245672  0.071839366            2 
 2040000   0.91929814   -3.1701982    1783.8619  0.072870176  0.071826096            2 
 2041000   0.91270404   -3.1618317    1776.9094  0.072550602  0.071813027            2 
 2042000   0.92460688   -3.1526186    1777.4894  0.072538743  0.071799787            2 
 2043000   0.91800448   -3.1670457    1784.4982  0.072789125  0.071786668            2 
 2044000   0.90584082   -3.1161382    1777.2134  0.072456513  0.071773703            8 
 2045000    0.9180295   -3.1737466    1778.3499  0.072467394  0.071760548            2 
 2046000   0.92126597   -3.1483629    1782.6535  0.072607263  0.071747325            3 
 2047000   0.92717354   -3.1441596    1777.7273  0.072371248  0.071734125            1 
 2048000   0.91760482   -3.1661901     1776.343  0.072279584  0.071720837            2 
 2049000   0.91713605   -3.1796394    1780.3077  0.072405551  0.071707609            2 
 2050000     0.942942   -3.1654062    1784.1909  0.072528084  0.071694473            2 
 2051000   0.92107625   -3.1308749    1782.8688  0.072439006  0.071681268            4 
 2052000   0.93074286   -3.1494302    1786.6098   0.07255563  0.071668254            3 
 2053000    0.9157921   -3.1565421    1788.9988  0.072617258   0.07165509            1 
 2054000   0.91011708   -3.1426529    1786.1588  0.072466681  0.071642085            2 
 2055000   0.92587198   -3.1381957    1789.6582  0.072573325  0.071629012            3 
 2056000   0.91279535   -3.1449597     1788.434  0.072488408  0.071616205            3 
 2057000   0.92093851   -3.1620646    1780.6746  0.072138817  0.071603048            3 
 2058000    0.9250629   -3.1472922    1780.0942  0.072080265  0.071589814            1 
 2059000   0.90819046   -3.1660615     1786.521  0.072305368  0.071576539            3 
 2060000   0.92466514   -3.1607873    1784.8534  0.072202807  0.071563224            3 
 2061000   0.93825188   -3.1703262    1790.5718  0.072398987  0.071549979            3 
 2062000   0.94025338   -3.1497749    1785.6602  0.072165383  0.071536724            2 
 2063000   0.91834498   -3.1308013    1789.6923  0.072293276  0.071523496            4 
 2064000   0.91837886   -3.1557326    1787.0779  0.072152694    0.0715104            2 
 2065000   0.92386525    -3.195896    1788.5705  0.072177986  0.071497296            2 
 2066000   0.92788542   -3.1467951    1790.5158  0.072221516  0.071484151            3 
 2067000   0.91009112   -3.1673691    1791.6746  0.072233291  0.071470993            3 
 2068000   0.92289232   -3.1722777    1792.9406  0.072249378  0.071457873            2 
 2069000   0.93807784   -3.1444522    1797.1248  0.072382987  0.071444899            2 
 2070000   0.90238586   -3.1563833    1790.4757   0.07208034  0.071431769            5 
 2071000   0.92024298   -3.1567323     1792.861  0.072141517  0.071418713            6 
 2072000   0.92180945   -3.1698155    1788.9235  0.071948339  0.071405571            2 
 2073000   0.92226123   -3.1623959    1799.8698  0.072353667  0.071392734            2 
 2074000   0.91750387   -3.1455218    1798.8559  0.072278042  0.071379852            3 
 2075000   0.90852795   -3.1487318    1794.0385   0.07204974   0.07136692            3 
 2076000   0.91637089   -3.1224823    1809.0606   0.07261804  0.071354133            4 
 2077000   0.91426062   -3.1417129    1793.4034   0.07195488   0.07134139            3 
 2078000   0.92410614   -3.1413804    1796.9179  0.072061193  0.071327923            4 
 2079000   0.93645089    -3.119561    1797.5499  0.072051864  0.071315085            2 
 2080000   0.91418892   -3.1673201     1797.352  0.072009296   0.07130214            2 
 2081000   0.90417925   -3.1658444    1796.5454  0.071942392  0.071288971            3 
 2082000   0.92660679   -3.1710163    1800.7751  0.072077132  0.071275957            3 
 2083000   0.88613452   -3.1559778    1797.7521  0.071921591  0.071262763            2 
 2084000   0.91834576   -3.1694118    1799.0875   0.07194048  0.071249358            4 
 2085000   0.91888581   -3.1253574    1805.2889  0.072153834  0.071236034            5 
 2086000   0.92559526   -3.1513329     1805.237  0.072117171  0.071222888            2 
 2087000   0.90576914   -3.1413485    1803.1994  0.072001254  0.071209687            5 
 2088000   0.92389941   -3.1435127    1804.8596  0.072033028   0.07119658            1 
 2089000   0.90774454    -3.146352    1801.7314  0.071873761  0.071183173            6 
 2090000   0.91834524   -3.1700878    1803.3381  0.071903434   0.07116975            4 
 2091000   0.91566825   -3.1587188    1802.1025  0.071819803  0.071156846            2 
 2092000   0.91206793   -3.1679832    1806.3706  0.071955487  0.071143882            2 
 2093000   0.92613719    -3.165021    1804.9581  0.071864873  0.071130853            2 
 2094000    0.9044508   -3.1498092    1811.3031  0.072083058  0.071117838            2 
 2095000   0.90848591   -3.1509133    1812.6384  0.072101768  0.071104923            2 
 2096000    0.9232762   -3.1792721    1806.2755  0.071814389  0.071092058            5 
 2097000   0.92582933    -3.140215    1814.6742    0.0721139  0.071079265            6 
 2098000   0.91813396   -3.1594241    1804.3998  0.071671425   0.07106636            3 
 2099000   0.91366403   -3.1599365    1804.0818  0.071624656   0.07105362            3 
 2100000   0.91286576   -3.1964632    1804.2371  0.071596712  0.071040721            3 
 2101000    0.9216171   -3.1865886    1802.9829  0.071512886  0.071027763            2 
 2102000   0.91415024   -3.1584122    1810.9311  0.071793968  0.071014703            3 
 2103000   0.91264435   -3.1630372    1822.3786  0.072213448  0.071001786            3 
 2104000   0.90810563   -3.1782665    1808.5028  0.071629545  0.070988854            5 
 2105000   0.91602754   -3.1557559    1815.8955  0.071888182  0.070975799            7 
 2106000   0.91545863   -3.1645694    1804.5553  0.071405323  0.070962637            3 
 2107000   0.91987305   -3.1687855    1819.8885   0.07197787  0.070949811            4 
 2108000   0.92403067   -3.1571696    1814.7808   0.07174181  0.070937074            2 
 2109000   0.93249732   -3.1569212    1818.2656  0.071845489  0.070924388            4 
 2110000    0.9360183   -3.1819091    1814.0656  0.071645562  0.070911558            3 
 2111000   0.90104103   -3.1823939    1816.4292  0.071704925  0.070898633            2 
 2112000    0.9090791    -3.176246    1810.3899  0.071432683   0.07088559            3 
 2113000   0.90681231    -3.150662    1812.4539  0.071480277  0.070872787            2 
 2114000   0.91867141   -3.1798786      1818.77  0.071695441  0.070860093            3 
 2115000   0.90804162   -3.1807392     1818.843  0.071664423  0.070847113            3 
 2116000   0.94140576   -3.1499465    1820.5698  0.071698559  0.070834362            2 
 2117000   0.90920502   -3.1522902    1822.8747  0.071755419  0.070821579            3 
 2118000    0.9147298   -3.1440305    1824.3253  0.071778615  0.070808966            3 
 2119000   0.91746788   -3.1679746     1824.335  0.071745124   0.07079634            2 
 2120000   0.91660759   -3.1543152    1823.3792  0.071673711  0.070783753            4 
 2121000   0.92113588    -3.161477    1820.9357  0.071543913  0.070771047            3 
 2122000    0.8986118    -3.141139    1826.0188  0.071709817  0.070758385            4 
 2123000   0.90423453   -3.1685848    1823.7339   0.07158635  0.070745962            4 
 2124000   0.92608366   -3.1645964    1829.5099  0.071779264  0.070733005            1 
 2125000   0.88922064   -3.1843779    1834.6569  0.071947331  0.070720508            4 
 2126000   0.90933365   -3.1745756    1824.6351  0.071520659  0.070707782            1 
 2127000   0.90661716   -3.1752628    1821.6142  0.071368682  0.070695053            2 
 2128000   0.92688903   -3.1425914    1830.4929  0.071682835  0.070682738            5 
 2129000   0.91726325   -3.1827068    1827.1213  0.071517196    0.0706701            1 
 2130000   0.90843193   -3.1358068    1828.0899  0.071521513   0.07065729            3 
 2131000   0.90936086   -3.1797302    1825.1494  0.071372963  0.070644621            3 
 2132000   0.92155723   -3.1772042    1828.1971  0.071458612  0.070631541            4 
 2133000   0.91434011   -3.1499953    1836.9352  0.071766495  0.070618851            2 
 2134000   0.91556709   -3.1653645    1828.4245  0.071400519  0.070606391            3 
 2135000   0.90440944   -3.1881136    1830.4615  0.071446585  0.070593773            3 
 2136000   0.90398569   -3.1875752    1828.3193   0.07132956  0.070581051            3 
 2137000   0.90162715   -3.1867453    1831.3523  0.071414457  0.070568252            3 
 2138000    0.9105064   -3.1821391    1832.5584  0.071428062  0.070555656            3 
 2139000   0.90895774   -3.1678936    1835.9159  0.071525474  0.070543282            6 
 2140000   0.91061118   -3.1740555    1831.3921   0.07131589  0.070530884            3 
 2141000   0.89370372   -3.1643533    1834.4398  0.071401207  0.070518146            2 
 2142000   0.90915278   -3.1819932    1829.3453  0.071169672  0.070505312            4 
 2143000   0.88701016   -3.2021471    1833.6274   0.07130298  0.070492252            3 
 2144000   0.91816028   -3.1847901    1834.1062  0.071288332  0.070479262            3 
 2145000   0.91720482   -3.1885656    1834.7017  0.071278234  0.070466282            4 
 2146000   0.90507021    -3.188914    1838.7737  0.071403142  0.070453543            4 
 2147000   0.91591302   -3.1879333    1833.5097  0.071165567  0.070440582            3 
 2148000   0.91069443   -3.1863669     1832.022  0.071074721  0.070427437            4 
 2149000   0.90851895   -3.1602464    1831.5033  0.071021534  0.070414621            1 
 2150000   0.91074252   -3.1657364    1845.1855  0.071518818  0.070401807            3 
 2151000   0.90143001   -3.1508075    1844.0235  0.071440552   0.07038904            4 
 2152000   0.89036793   -3.2122708     1831.246   0.07091256  0.070376006            6 
 2153000   0.88679626   -3.1793709    1839.2035  0.071187626  0.070363146            9 
 2154000   0.90981533   -3.1621119     1838.207  0.071116026  0.070350127            3 
 2155000    0.9021159   -3.1708124    1841.1057  0.071195117  0.070337323            3 
 2156000   0.90699059   -3.1785088    1835.3947  0.070941354  0.070324499            4 
 2157000   0.90697899   -3.1737701    1846.6886  0.071344794  0.070311821            5 
 2158000   0.89098586   -3.2012221    1835.9023  0.070895207  0.070298917            2 
 2159000   0.89566782   -3.1757984       1843.2  0.071144046  0.070286355            5 
 2160000   0.89739795   -3.1732685    1844.4558  0.071159562  0.070273616            4 
 2161000   0.88266898   -3.1768549    1847.6408  0.071249454  0.070260801            3 
 2162000   0.90066987   -3.1933493    1844.2097  0.071084245  0.070247823            7 
 2163000   0.88389429   -3.1702912    1849.7713  0.071265654  0.070235193            2 
 2164000   0.88818874    -3.178473    1844.7388  0.071038926   0.07022229            4 
 2165000   0.93278273   -3.1419079    1851.6535  0.071272267  0.070209512            5 
 2166000   0.91449695   -3.1830951    1843.0409  0.070908007  0.070196753            5 
 2167000    0.8893503   -3.1674706    1844.0004  0.070912184   0.07018378            2 
 2168000   0.89940268   -3.1764618    1852.1453  0.071192548  0.070171014            4 
 2169000   0.90785113   -3.1914085    1843.8881  0.070842483  0.070158367            4 
 2170000   0.89951387   -3.1858921    1840.9264  0.070696097  0.070145232            2 
 2171000   0.89521566    -3.147798    1855.0455  0.071205495  0.070132629            5 
 2172000   0.89913701    -3.172713    1859.2445  0.071333814  0.070120216            3 
 2173000   0.89998293   -3.1843308    1847.1679  0.070837853  0.070107779            2 
 2174000   0.89100484   -3.1929656    1852.0579  0.070992715  0.070095243            2 
 2175000   0.90768654   -3.1873215    1854.9612  0.071071311  0.070082539            3 
 2176000   0.89795191   -3.1892433    1849.6558   0.07083547  0.070070035            2 
 2177000   0.92840072   -3.1725717    1855.5707   0.07102935  0.070057371            7 
 2178000   0.90037892   -3.1819907    1858.3227  0.071102031  0.070044796            3 
 2179000   0.90379296   -3.2051429    1855.0595  0.070944605  0.070032078            2 
 2180000    0.9043349   -3.1631442     1860.274  0.071111393  0.070019454            5 
 2181000   0.89732044   -3.1665509      1852.56  0.070784045  0.070006906            6 
 2182000   0.89240319   -3.1721982    1855.7826  0.070874677  0.069994316            3 
 2183000   0.92791936   -3.1794586    1850.4717  0.070639475  0.069981554            9 
 2184000   0.91585831   -3.1918236    1852.2488  0.070674938   0.06996913            2 
 2185000   0.91059715   -3.2008647    1850.7169   0.07058417  0.069956712            2 
 2186000   0.90392498   -3.1941871    1854.9431  0.070712986  0.069944122            2 
 2187000   0.89837248   -3.2188353     1862.541  0.070970165  0.069931624            3 
 2188000   0.89956723    -3.180833    1859.8408  0.070834886  0.069919061            4 
 2189000   0.90598433    -3.166385     1860.274  0.070819019  0.069906549            3 
 2190000   0.90401979   -3.1622035    1860.6376  0.070800516  0.069894195            4 
 2191000   0.89704414   -3.2013399    1859.2578  0.070715722  0.069881678            4 
 2192000    0.9019344   -3.1972263    1864.1025  0.070867642  0.069868937            3 
 2193000   0.90852621   -3.1848077    1863.8647   0.07082629  0.069856526            2 
 2194000   0.91071422     -3.19432    1866.9094  0.070909655  0.069844106            5 
 2195000   0.89425326   -3.1816455    1868.1748  0.070925392  0.069831838            6 
 2196000   0.90036735   -3.1547391    1867.1585  0.070854526  0.069819582            3 
 2197000   0.89830319   -3.1527586    1869.4607  0.070909599  0.069807602            4 
 2198000   0.92122321   -3.1949828    1867.3131  0.070795918  0.069795603            2 
 2199000   0.90721166   -3.1853442    1865.9696  0.070712809  0.069783477            2 
 2200000   0.90074235   -3.1832614    1875.0421  0.071024324  0.069771367            2 
 2201000   0.89216539   -3.1482748     1869.085  0.070766507  0.069759324            3 
 2202000   0.89075406   -3.1454051    1869.3966  0.070746163  0.069747127            7 
 2203000   0.88975295   -3.1681681    1875.0102  0.070926395  0.069735125            3 
 2204000   0.90978488   -3.1735443    1872.2489  0.070789808  0.069722909            2 
 2205000   0.88938083   -3.1896314    1874.7151  0.070850912  0.069710644            3 
 2206000    0.9072302   -3.2056514    1865.9029  0.070485904  0.069698406            3 
 2207000   0.89462688   -3.1913014    1866.6533  0.070482303  0.069685852            2 
 2208000   0.89569253   -3.2032335    1866.3636  0.070439449  0.069673546            2 
 2209000   0.89294833    -3.202844    1870.4758  0.070562689  0.069661085            2 
 2210000   0.87941129   -3.1748764    1865.3944  0.070339156  0.069648747            8 
 2211000   0.88732067   -3.2051945    1876.1146   0.07071139  0.069636357            2 
 2212000   0.90792635   -3.1956581    1871.7045  0.070513281   0.06962406            2 
 2213000    0.9232201   -3.1762393     1878.928  0.070753427  0.069611825            3 
 2214000   0.91197048   -3.1914344    1872.9331  0.070495825  0.069599579            2 
 2215000   0.90721538   -3.1924679    1876.6301  0.070603088  0.069587297            3 
 2216000   0.88878601   -3.1960304    1878.1031  0.070626622  0.069575016            3 
 2217000   0.90790441   -3.1612355     1876.477  0.070533641  0.069562897            3 
 2218000   0.91345077   -3.2065652    1876.8346  0.070515275  0.069550644            4 
 2219000   0.90465396   -3.2006496    1872.0708  0.070304596  0.069538497            3 
 2220000   0.89218636   -3.1813774    1883.7368  0.070710843  0.069526453            2 
 2221000   0.90641794   -3.1855687    1880.6106  0.070561705  0.069514508            3 
 2222000    0.8978796    -3.202896    1887.0004  0.070769591  0.069502468            4 
 2223000   0.91007088   -3.1747184    1880.6855  0.070501031  0.069490448            4 
 2224000   0.90548138   -3.2102732    1883.2406  0.070565072   0.06947841            5 
 2225000   0.87197251    -3.212203    1876.4051  0.070277344  0.069466308            6 
 2226000   0.90181031   -3.2000681     1884.551  0.070550727  0.069454178            4 
 2227000   0.88566836    -3.203329    1884.8405  0.070529881  0.069442173            6 
 2228000   0.88907177    -3.184978     1885.519  0.070523601  0.069430359            3 
 2229000   0.89406488    -3.227249    1885.2752  0.070482847  0.069418262            2 
 2230000    0.8883991   -3.1992674    1890.6853  0.070653411    0.0694065            7 
 2231000   0.90864154   -3.2032882    1885.0026   0.07040948  0.069394641            3 
 2232000   0.90770121   -3.2169922    1885.8629  0.070410055  0.069382714            3 
 2233000   0.88416669   -3.2082362    1885.5425  0.070366566  0.069370762            3 
 2234000     0.905604   -3.2145591    1890.8124  0.070531647  0.069358613            2 
 2235000   0.88062479   -3.1903334    1894.7523   0.07064699  0.069346697            3 
 2236000   0.89360901   -3.1879344    1890.9704  0.070474447  0.069334736            4 
 2237000   0.88125177   -3.1958008    1887.7652  0.070323543  0.069322669            2 
 2238000   0.87651253   -3.1910807    1890.5255  0.070394902  0.069310846            4 
 2239000   0.91501318    -3.189934    1891.3336  0.070393538  0.069298857            4 
 2240000   0.92179137    -3.187744    1892.0518   0.07038883  0.069286765            4 
 2241000   0.89849036   -3.2035998    1894.5637  0.070450828  0.069274998            4 
 2242000   0.86983717   -3.1790284    1898.3847  0.070561429  0.069263029           10 
 2243000   0.89331773   -3.1765157    1891.5636  0.070276548  0.069251379            4 
 2244000   0.87685891   -3.1804591    1896.9042  0.070443561  0.069239592            2 
 2245000   0.87870989   -3.1702103    1899.8796  0.070522628  0.069227812            2 
 2246000    0.8779802   -3.1911756    1896.8964  0.070380542  0.069216005            3 
 2247000   0.88861715   -3.1954473    1896.1796  0.070322639  0.069204248            3 
 2248000   0.87041941   -3.1993131    1904.9955  0.070618162  0.069192457            1 
 2249000   0.88958281   -3.2223967    1896.9055  0.070286997  0.069180742            3 
 2250000   0.90586513   -3.2115828    1890.3286  0.070012172  0.069168483            3 
 2251000   0.89670033   -3.1913696    1900.4106   0.07035431  0.069156464            3 
 2252000   0.91950595    -3.191987    1905.1301   0.07049771  0.069144799            2 
 2253000   0.88742231   -3.2062015    1900.7081  0.070302859  0.069132985            3 
 2254000   0.89282717   -3.1687793    1902.2536  0.070328807  0.069121318            3 
 2255000   0.87320368   -3.1912987    1902.3974  0.070302933  0.069109489            5 
 2256000   0.88531874   -3.1930477    1904.8184  0.070361201  0.069097654            3 
 2257000   0.90180907   -3.1832051    1903.4877  0.070280892  0.069085706            6 
 2258000   0.88586858   -3.1989599    1902.8466  0.070226106  0.069073732            3 
 2259000   0.89060645   -3.1842257    1903.1601  0.070206585  0.069062027            5 
 2260000   0.88266082   -3.2151483     1904.274  0.070216594  0.069049884            2 
 2261000   0.89935952   -3.2236725    1901.9671  0.070100514  0.069038007            5 
 2262000   0.89569238   -3.1632596    1906.3893  0.070232437  0.069026247            3 
 2263000   0.89890942   -3.2069612    1896.6904  0.069844246  0.069014632            3 
 2264000   0.88519488   -3.1703029    1903.2076  0.070053282  0.069002748            6 
 2265000   0.90375408   -3.2083875    1901.7749  0.069969644   0.06899079           11 
 2266000   0.90138347   -3.1864947    1911.8689  0.070309978  0.068978782            5 
 2267000    0.8962881   -3.2124174    1900.8787  0.069874971  0.068966805            6 
 2268000   0.91029783   -3.2201773    1900.3365  0.069824241  0.068954589            8 
 2269000   0.88291088   -3.2125631    1904.4175  0.069943347  0.068942305            3 
 2270000   0.89602575   -3.2066404    1902.4872  0.069841675  0.068930224            2 
 2271000   0.87747671    -3.187938    1908.5567  0.070033637  0.068918214            3 
 2272000   0.89061597   -3.2226423    1909.5567  0.070039493  0.068906221            3 
 2273000   0.89442125   -3.1743377     1912.375  0.070112004  0.068894214            2 
 2274000   0.90771088   -3.2082804    1914.6159  0.070163291  0.068882148            3 
 2275000   0.88198515     -3.21573     1912.009  0.070036958  0.068870208            3 
 2276000   0.88633822   -3.1830468    1909.2243   0.06990423  0.068858198            2 
 2277000    0.8735269   -3.1832759    1913.0223  0.070012526  0.068846277            5 
 2278000   0.87075935    -3.196288    1907.6558  0.069785476  0.068834314            5 
 2279000   0.87410494   -3.2020418    1915.7706  0.070051581  0.068822392            4 
 2280000   0.88806405   -3.1884581    1908.0072  0.069737107  0.068810481            3 
 2281000   0.89769963   -3.1966698     1912.804  0.069881775  0.068798507            5 
 2282000   0.88847619   -3.1801012    1911.5132  0.069804016  0.068786616            4 
 2283000    0.8971176    -3.183409    1916.1566  0.069942933  0.068774799            2 
 2284000   0.89074366   -3.1797584    1919.8373  0.070046602  0.068763238            2 
 2285000   0.88452453   -3.2170933    1918.0622  0.069951211  0.068751608            3 
 2286000   0.87851627   -3.2135658    1922.0199  0.070064884   0.06873986            5 
 2287000   0.89872133   -3.2031226    1920.8566  0.069991859  0.068728258            3 
 2288000   0.87388466   -3.2241566    1914.3129  0.069722935  0.068716464            5 
 2289000    0.8800828   -3.1868091     1916.506  0.069772316  0.068704608            2 
 2290000   0.87486666   -3.2191742    1915.5022  0.069705321   0.06869289            2 
 2291000   0.86989302   -3.2252234    1915.5321  0.069675983  0.068681129            2 
 2292000   0.88054871   -3.2272622    1915.6121  0.069648493  0.068669412            3 
 2293000   0.89525201   -3.2122034    1926.4567  0.070012237  0.068657732            3 
 2294000   0.88315097   -3.2102358    1917.1613  0.069644046  0.068646034            2 
 2295000   0.87999334   -3.1952136    1919.6711  0.069704832   0.06863415            3 
 2296000   0.88142371   -3.2003816    1931.2581  0.070095025  0.068622657            2 
 2297000   0.89766493   -3.1912548    1926.3826  0.069887629   0.06861126            2 
 2298000   0.90456657   -3.2240802    1919.7433  0.069616454   0.06859948            3 
 2299000   0.88668997   -3.2154121    1930.1399  0.069963024  0.068587998            3 
 2300000   0.87646842   -3.2208727    1923.1414  0.069679035   0.06857634            2 
 2301000   0.88461914   -3.1695296    1927.8417   0.06981898  0.068564449            8 
 2302000   0.90047456   -3.2233016    1922.5525   0.06959718  0.068552754            3 
 2303000   0.89186628    -3.192086    1925.0165  0.069656117  0.068540898            5 
 2304000   0.90986089   -3.2114447    1924.1668  0.069595152  0.068528903            7 
 2305000   0.89360853   -3.2339372    1920.8426   0.06944478  0.068517352            7 
 2306000   0.91624035    -3.200756    1926.2329  0.069609457  0.068505691            4 
 2307000   0.88296881   -3.2103466    1938.2679  0.070014013  0.068494232            4 
 2308000   0.86847904   -3.2230691    1927.7793   0.06960497  0.068482741            5 
 2309000   0.88897692   -3.2252613    1931.3708  0.069704445   0.06847129            3 
 2310000   0.88822224   -3.2250889    1931.8083  0.069690054  0.068459773            4 
 2311000    0.8890722   -3.2216305     1928.313   0.06953386  0.068448399            5 
 2312000   0.88088718   -3.2070248    1936.2795  0.069790926  0.068436788            5 
 2313000   0.92026049   -3.2051801    1933.0583  0.069644701  0.068425391            5 
 2314000   0.87688423   -3.2069523    1935.7045    0.0697099  0.068413594            4 
 2315000   0.89276099   -3.2144518    1933.7041  0.069607778   0.06840195            3 
 2316000   0.87258706   -3.2070596    1926.3332  0.069312509  0.068390158            3 
 2317000   0.88262667   -3.2068435    1941.7267  0.069836235  0.068378482            3 
 2318000   0.87787801   -3.2207703    1931.7719  0.069448229  0.068366823            5 
 2319000   0.87032824   -3.2104918    1933.5009  0.069480412  0.068355147            3 
 2320000   0.87159474   -3.2412235    1937.0843  0.069579178  0.068343432            3 
 2321000   0.87276088   -3.2026296    1936.9757  0.069545301  0.068331773            2 
 2322000   0.86655071   -3.2269312    1933.9915   0.06940825   0.06832005            4 
 2323000   0.88327147   -3.2096268    1932.7185  0.069332706  0.068308431            2 
 2324000   0.87342833   -3.2160133    1941.0488  0.069601578  0.068296867            6 
 2325000   0.86858934    -3.238375      1937.12  0.069430825  0.068285267            3 
 2326000   0.89090503   -3.2066041    1936.1161  0.069365009  0.068273672            3 
 2327000   0.88062692   -3.2329321    1934.5042  0.069277473  0.068262098            4 
 2328000   0.86004484   -3.2026672    1942.1043  0.069519771  0.068250363            3 
 2329000   0.88220458   -3.2023576    1944.2464  0.069566565  0.068238578            3 
 2330000   0.86710605   -3.2153675    1935.3634  0.069219005  0.068226583            3 
 2331000   0.86858601   -3.2052954    1937.6717  0.069271833  0.068214994            2 
 2332000   0.88893314   -3.2021395    1941.4122  0.069375794  0.068203168            2 
 2333000   0.86859738   -3.2178545    1943.8034   0.06943147  0.068191387            3 
 2334000   0.88950498   -3.2012978    1942.6018  0.069358818  0.068179624            4 
 2335000   0.88736162   -3.1976696    1949.8693  0.069588484  0.068167988            5 
 2336000   0.87982935   -3.2206321    1945.1104  0.069388926  0.068156215            3 
 2337000   0.87111446   -3.2128486    1947.0159  0.069427183  0.068144589            3 
 2338000    0.8678318   -3.2056663    1948.9913  0.069467897  0.068132862            4 
 2339000   0.86897082   -3.2050879    1949.4549  0.069454713  0.068121331            3 
 2340000   0.86129458   -3.2137555    1945.2173  0.069274119  0.068109811            4 
 2341000   0.86440392   -3.2211232    1943.6695   0.06918943  0.068098394            8 
 2342000   0.87397997   -3.1967836    1948.2063  0.069321316  0.068086787            2 
 2343000   0.86997707   -3.1985166    1949.3189  0.069331303  0.068075263            4 
 2344000   0.88436847    -3.223682    1940.1865  0.068977052  0.068063771            4 
 2345000   0.89050455   -3.2308877    1945.5652  0.069138779  0.068052239            3 
 2346000   0.85338179   -3.2224852    1949.7361  0.069257462  0.068040531            6 
 2347000   0.86062548   -3.2147083    1949.7455  0.069228287  0.068028738            5 
 2348000   0.88784096   -3.2456493    1943.2536  0.068968397  0.068017237            3 
 2349000    0.8911841   -3.1939494    1953.0419  0.069286289    0.0680058            3 
 2350000   0.86789228   -3.2116449    1957.4242  0.069412207  0.067994591            4 
 2351000   0.86056336   -3.2136598    1956.3185   0.06934349  0.067983148            2 
 2352000   0.87687671   -3.1785254     1951.865  0.069156214  0.067971792            4 
 2353000   0.87599759   -3.2212991    1952.0181  0.069132247  0.067960298            5 
 2354000   0.86642427   -3.2253443     1951.996  0.069102097  0.067948857            3 
 2355000    0.8591074   -3.2193464    1956.8127  0.069243195  0.067937587            4 
 2356000   0.86196806   -3.2098067    1956.5328  0.069203904  0.067926209            2 
 2357000   0.88221814   -3.2070335    1950.4568  0.068959721  0.067914631            3 
 2358000   0.88503746   -3.2309182    1960.3994  0.069281856  0.067903186            5 
 2359000   0.86167274   -3.2060155    1961.7432  0.069299957  0.067891543            2 
 2360000   0.85598446   -3.2183035    1952.4324  0.068941822  0.067879953            3 
 2361000   0.86694039   -3.2232753    1957.6969  0.069098436  0.067868396            4 
 2362000   0.87946683   -3.2370861    1957.1513  0.069049934  0.067856843            3 
 2363000   0.86034809   -3.2046914    1955.5746  0.068965106  0.067845359            6 
 2364000   0.87898257   -3.2445113    1958.1668  0.069027311  0.067833677            2 
 2365000   0.88860775   -3.2378114    1957.9907  0.068991921  0.067821938            8 
 2366000   0.88452117   -3.2311068    1960.4932    0.0690509  0.067810246            1 
 2367000   0.87114454   -3.2130271    1968.0875  0.069289096  0.067798691            3 
 2368000   0.87479018   -3.2228212    1955.4409  0.068814785  0.067787281            1 
 2369000   0.86218389   -3.2297311    1959.4902  0.068928176  0.067775644            5 
 2370000   0.88378698   -3.2229403    1960.7989  0.068945111  0.067763895            2 
 2371000   0.85831859   -3.2397186    1953.6593  0.068665096  0.067752111            3 
 2372000   0.88880631   -3.2191127    1958.3653  0.068801479  0.067740595            3 
 2373000   0.84962348   -3.2450404     1960.371  0.068842919  0.067728948            4 
 2374000    0.8655458   -3.2318368    1971.4684  0.069203467  0.067717431            4 
 2375000   0.89033763   -3.2281239    1960.3969  0.068785855  0.067705925            3 
 2376000   0.87281534   -3.2285886    1961.4994  0.068795575  0.067694251            5 
 2377000   0.88755939   -3.2152307    1967.4584  0.068975544  0.067682438            3 
 2378000   0.86721818   -3.2414002    1964.6153  0.068846907   0.06767073            2 
 2379000   0.87065068   -3.2303233    1963.1439  0.068766426  0.067658906            4 
 2380000   0.88361618   -3.2269105    1958.2497  0.068566166  0.067646859            2 
 2381000   0.86700483   -3.2246935    1968.9606  0.068912243  0.067634982            3 
 2382000   0.86661215   -3.2414034     1963.547  0.068693921  0.067623193            3 
 2383000   0.86482817   -3.2279731    1967.5649  0.068805599  0.067611571            3 
 2384000   0.86897937   -3.2509861    1966.8155  0.068750542   0.06759981            2 
 2385000   0.86367258   -3.2307207    1969.6983  0.068822442  0.067588175            6 
 2386000    0.8788096   -3.2243623    1966.5531  0.068683748  0.067576737            1 
 2387000   0.86534986   -3.2070784    1972.1489  0.068850332  0.067565274            4 
 2388000   0.86156007   -3.2382581    1973.6606  0.068874252  0.067553739            6 
 2389000    0.8892707   -3.2163068    1970.9088  0.068749434  0.067542361            9 
 2390000   0.87229623   -3.2054426     1970.315  0.068699964  0.067530842            5 
 2391000   0.85953748   -3.2362584    1979.3878  0.068987445   0.06751959            5 
 2392000   0.87465267   -3.2364556    1967.9596  0.068560467  0.067507959            4 
 2393000   0.85379232   -3.2368281    1971.8847  0.068668501    0.0674964            3 
 2394000   0.86194549   -3.2385407     1975.074  0.068750837  0.067484949            3 
 2395000    0.8615871   -3.2331631    1975.9834  0.068753772  0.067473445            6 
 2396000   0.86000665   -3.2283802    1978.2379   0.06880349  0.067462042            3 
 2397000    0.8732946   -3.2315874    1978.8726  0.068796852  0.067450504            8 
 2398000   0.86754549   -3.1985111    1968.4267  0.068405154  0.067438884            6 
 2399000   0.87897237   -3.2310357    1976.6609  0.068662667  0.067427269            3 
 2400000   0.86325212   -3.2406473    1975.8538  0.068606036   0.06741567            3 
 2401000   0.86077493   -3.2321442    1971.1224  0.068413245  0.067403993            3 
 2402000    0.8504898    -3.209721    1974.6651  0.068507672   0.06739236            4 
 2403000   0.86585725   -3.2131088    1970.3036   0.06832791  0.067380691            5 
 2404000   0.86470582     -3.23229    1974.8921  0.068458546  0.067368896            4 
 2405000   0.85467572   -3.2369385    1979.9158  0.068604151  0.067357284            2 
 2406000   0.86886452   -3.2498135    1973.3647  0.068348735   0.06734569            4 
 2407000   0.86287958    -3.210791    1984.4092  0.068702715  0.067334224            6 
 2408000   0.86596772   -3.2588366    1975.5953  0.068369162  0.067322732            2 
 2409000   0.85772971   -3.2277967    1975.0324   0.06832131  0.067311317            3 
 2410000   0.88085847   -3.2620526    1974.6466  0.068279621  0.067299779            2 
 2411000   0.86565183   -3.2449299    1976.6867  0.068321812  0.067288243            2 
 2412000   0.87844858   -3.2284133    1986.1501  0.068620443  0.067276615            3 
 2413000   0.87906825   -3.2440843    1975.3687  0.068219668  0.067265076            3 
 2414000    0.8793711   -3.2312486    1974.5955  0.068164715  0.067253642            4 
 2415000   0.87050553   -3.2409236    1975.2423   0.06815881  0.067242101            4 
 2416000   0.86304412   -3.2466558    1986.4325  0.068516573  0.067230398            4 
 2417000   0.88371977    -3.219836    1989.7206  0.068601592  0.067218881            4 
 2418000   0.89235188   -3.2552626     1986.038  0.068446306   0.06720764            8 
 2419000   0.85985071   -3.2331894    1983.8844  0.068343819  0.067196177            4 
 2420000   0.86544447    -3.242794    1988.4967  0.068474404   0.06718468            3 
 2421000   0.85604749   -3.2539333     1985.655  0.068348307  0.067173474            3 
 2422000   0.84534119   -3.2256303    1983.5405  0.068247332  0.067162095            2 
 2423000   0.86794977   -3.2714992    1989.3292  0.068418257  0.067150664            5 
 2424000   0.86228835   -3.2340657    1993.0837  0.068519104  0.067139619            3 
 2425000   0.85567431   -3.2149067    2001.3828  0.068776042  0.067128467            2 
 2426000   0.87566746   -3.2485898     1989.989  0.068356315  0.067117361            6 
 2427000    0.8606902   -3.2185801    1995.1503  0.068505368   0.06710637            2 
 2428000   0.86396176   -3.2170097    1997.4736  0.068556893  0.067095445            4 
 2429000   0.87033258   -3.2211381    1993.9409  0.068407468   0.06708445            2 
 2430000   0.83607831    -3.261747     1997.419  0.068498595  0.067073366            3 
 2431000   0.86743733   -3.2673843    1997.2453  0.068464464  0.067062352            4 
 2432000   0.89042115   -3.2462461    1999.3085  0.068507006  0.067051285            2 
 2433000   0.86004198   -3.2719458    2003.8441  0.068634201  0.067040332            4 
 2434000   0.85411506   -3.2067922    2001.2176  0.068516079  0.067029335            2 
 2435000   0.86237813   -3.2141161    2000.8281  0.068474609  0.067018339            5 
 2436000   0.87328403   -3.2126482    1996.9213  0.068312854  0.067007287            2 
 2437000   0.88255279   -3.2455961    1993.0691  0.068153094  0.066996222            3 
 2438000   0.85916584   -3.2641273    1994.3077  0.068167477  0.066984943            1 
 2439000   0.86405463   -3.2398618    1995.4618  0.068178959  0.066973774            6 
 2440000   0.85457352   -3.2459355    1999.5472  0.068290548   0.06696252            2 
 2441000   0.85926454   -3.2230624    2006.3902  0.068496183  0.066951407            3 
 2442000   0.85322618   -3.2357195    2000.9363   0.06828202   0.06694027            6 
 2443000   0.86240417   -3.2491721    1998.3629  0.068166287  0.066929043            4 
 2444000   0.85591616   -3.2247361    2009.1227  0.068505273  0.066917933            5 
 2445000   0.86094657   -3.2536982    2004.3318  0.068313967  0.066906954            3 
 2446000   0.85082391   -3.2408505    2003.8221  0.068268674  0.066895574            6 
 2447000   0.86071747   -3.2741706     1999.255  0.068085239  0.066884106            4 
 2448000   0.85468775    -3.263116    2003.4855  0.068201441  0.066872694            9 
 2449000   0.85682711   -3.2590207    2001.6675  0.068111729  0.066861318            3 
 2450000   0.85809773   -3.2321683     2002.283  0.068104866  0.066850044            5 
 2451000   0.86406567   -3.2401763     1997.627  0.067918773  0.066838636            3 
 2452000   0.85995125   -3.2311081    2002.6926  0.068063233   0.06682734            2 
 2453000     0.874543   -3.2179461    1996.7714  0.067834334  0.066815945            3 
 2454000   0.84035454   -3.2374107     2003.947  0.068050362  0.066804673            3 
 2455000   0.87789571   -3.2550513    2007.0996  0.068129654  0.066793386            2 
 2456000    0.8443505   -3.2608134    2006.8488  0.068093403  0.066781918            2 
 2457000   0.86162825   -3.2415114    1999.7328  0.067824338  0.066770595            4 
 2458000   0.85502702   -3.2503303     2006.682  0.068032342  0.066759218            3 
 2459000   0.85200463    -3.242773    1998.3755  0.067723177  0.066747803            3 
 2460000   0.84702884   -3.2466589    2006.8123  0.067981448   0.06673624            2 
 2461000   0.85804402   -3.2404599    2006.4734  0.067942346  0.066724626            3 
 2462000   0.84642873   -3.2181728    2013.3755  0.068148373  0.066713154            4 
 2463000   0.87221844   -3.2510115    2008.1822  0.067944993   0.06670173            2 
 2464000   0.85146906   -3.2150612    2016.0381  0.068183107  0.066690211            1 
 2465000   0.87063977   -3.2263326    2011.4836  0.068001475  0.066679001            3 
 2466000   0.86680465   -3.2887102    2005.1802  0.067760889  0.066667582            4 
 2467000    0.8397179   -3.2427387    2012.6231  0.067984836  0.066656012            4 
 2468000   0.84441867   -3.2504708    2010.9385  0.067900407  0.066644441            2 
 2469000   0.86306434    -3.226585    2004.7038  0.067662476  0.066633048            3 
 2470000   0.85994014    -3.244855    2009.7118   0.06780404  0.066621793            5 
 2471000   0.84347475   -3.2522853    2011.5498  0.067838586  0.066610244            3 
 2472000   0.84589078   -3.2239175    2012.1964  0.067832942  0.066598812            3 
 2473000   0.84871816   -3.2634056    2007.8479   0.06765898  0.066587297            3 
 2474000   0.86599849   -3.2516392    2004.9395  0.067533667  0.066575811            3 
 2475000   0.85961115    -3.236359     2008.925  0.067640572  0.066564272            2 
 2476000   0.85327182   -3.2509253    2018.3716  0.067931191    0.0665528            2 
 2477000   0.87165507   -3.2516809    2015.5164  0.067807712  0.066541478            3 
 2478000   0.84881588   -3.2359155    2008.6721  0.067550177  0.066530098            4 
 2479000   0.87515587   -3.2572212    2011.1714  0.067606945  0.066518821            4 
 2480000   0.86198317   -3.2517568    2020.6914  0.067899576  0.066507578            5 
 2481000   0.85561457   -3.2724218    2009.5821  0.067499061  0.066496208            3 
 2482000    0.8486319   -3.2586458    2010.5151  0.067503194  0.066484661            7 
 2483000    0.8592828   -3.2757511    2013.7399  0.067584237  0.066473204            7 
 2484000   0.85496949   -3.2510842    2014.9137  0.067596408  0.066461901            5 
 2485000   0.86033453   -3.2826304    2018.5137  0.067689931  0.066450586            5 
 2486000   0.83773938   -3.2687287    2016.3023  0.067588571  0.066439059            3 
 2487000    0.8451074   -3.2527553    2021.6115  0.067739295    0.0664277            4 
 2488000   0.83296053    -3.255819    2015.8628  0.067519519  0.066416333            5 
 2489000   0.82468657   -3.2499534    2021.6519  0.067686216  0.066404925            3 
 2490000   0.84940082   -3.2530085    2016.1035  0.067473343  0.066393325            2 
 2491000   0.85690338   -3.2500115     2023.052   0.06767871  0.066381964            4 
 2492000   0.85716169   -3.2297011    2019.6657  0.067538314  0.066370525            2 
 2493000   0.86094393   -3.2906209    2014.3607  0.067333892  0.066358924            3 
 2494000    0.8558169   -3.2577297    2020.6181  0.067515975  0.066347576            3 
 2495000    0.8552133   -3.2479278    2020.4599  0.067483629  0.066336158            2 
 2496000   0.83370158   -3.2487339    2023.4787  0.067557381  0.066324516            4 
 2497000    0.8773926   -3.2497259    2016.7706  0.067306456  0.066313019            3 
 2498000    0.8616076   -3.2761333     2021.723  0.067444721  0.066301546            3 
 2499000   0.84933916   -3.2727018    2023.4554  0.067475505  0.066290062            4 
 2500000   0.83885183   -3.2630881    2023.0036  0.067433455  0.066278575            2 
 2501000     0.851855   -3.2403799     2027.678  0.067562241  0.066267336            3 
 2502000   0.85394692   -3.2572816    2032.6957  0.067702362  0.066256127            5 
 2503000   0.85958377   -3.2639822    2028.3423  0.067530374  0.066244946            4 
 2504000   0.85429338   -3.2763014    2030.4423  0.067573293  0.066233713            3 
 2505000   0.86019872   -3.2704965     2019.319  0.067176282  0.066222158            5 
 2506000   0.85783991   -3.2524751    2029.0747  0.067473886  0.066210658            5 
 2507000    0.8494403   -3.2394827    2028.8698  0.067440162  0.066199333            1 
 2508000   0.84395056   -3.2696528    2023.3294   0.06722918  0.066187597            3 
 2509000   0.83264944   -3.2415556     2034.398  0.067570015  0.066176045            2 
 2510000   0.85182872    -3.261073    2028.3355  0.067341816  0.066164818            3 
 2511000   0.85598576   -3.2688184     2029.036  0.067338245   0.06615343            3 
 2512000   0.84074718   -3.2559344    2040.2704  0.067684129   0.06614214            3 
 2513000   0.85671898    -3.252207    2029.8046   0.06731014   0.06613097            5 
 2514000    0.8435163   -3.2542306    2034.7223  0.067446378  0.066119758            4 
 2515000   0.83907537   -3.2606845    2036.8363  0.067489605  0.066108499            3 
 2516000   0.86381476    -3.260343    2041.9712  0.067632856  0.066097341            2 
 2517000   0.85439342   -3.2575467     2034.355  0.067353827  0.066086304            2 
 2518000   0.87971351   -3.2536375    2042.1214  0.067584109  0.066075213            4 
 2519000   0.84451688   -3.2713546    2033.7584  0.067280613  0.066064059            6 
 2520000   0.86686852   -3.2707868    2037.2876  0.067370623  0.066052998            4 
 2521000   0.84140421   -3.2817219    2040.9352  0.067464473  0.066041821            6 
 2522000   0.84888376   -3.2359165    2047.0556  0.067639956  0.066030907            2 
 2523000   0.87389907   -3.2677474    2032.6404  0.067137018  0.066019935            6 
 2524000   0.84559537    -3.264127    2038.5626  0.067305949  0.066008949            1 
 2525000   0.84846511   -3.2591024    2042.8926  0.067422199  0.065997924            4 
 2526000    0.8431781   -3.2693124    2041.3361  0.067344158  0.065986946            2 
 2527000   0.86467735   -3.2521802    2045.6992  0.067461392  0.065976044            3 
 2528000   0.84074096   -3.2662635    2047.7349  0.067501811  0.065965251            7 
 2529000   0.85727552    -3.249965    2039.2933  0.067196959   0.06595436            2 
 2530000   0.82860803   -3.2604927    2037.7702   0.06712023  0.065943197            4 
 2531000   0.84393169   -3.2671772    2039.5389  0.067151946  0.065931998            8 
 2532000   0.84432536   -3.2586796    2039.5132   0.06712458  0.065921013            3 
 2533000   0.84057129    -3.255604    2048.6772  0.067399566  0.065909984            2 
 2534000   0.84694831   -3.2683431    2041.0623  0.067122543  0.065898862            5 
 2535000   0.86329664   -3.2681492    2041.3147  0.067104363  0.065887818            5 
 2536000   0.84015688    -3.278068     2048.259  0.067306093  0.065876663            4 
 2537000   0.83709432   -3.2449719     2047.583  0.067257357  0.065865844            6 
 2538000   0.85213794   -3.2546606    2042.8475  0.067075372  0.065854725            4 
 2539000   0.83588868   -3.2776035    2048.6037  0.067237879  0.065843658            4 
 2540000   0.83139468   -3.2704802    2044.6907  0.067083029  0.065832544            2 
 2541000   0.84932648   -3.2623432    2040.3253  0.066913464  0.065821331            3 
 2542000   0.85948197    -3.265598      2050.21  0.067211184  0.065810181            3 
 2543000   0.84760766    -3.244862    2047.6279  0.067100139  0.065798953            4 
 2544000   0.83977593   -3.2560608    2047.3161  0.067063552  0.065787977            6 
 2545000   0.84290837    -3.243917    2047.8653  0.067055185  0.065776609            2 
 2546000   0.84822817   -3.2703485    2049.1745  0.067071697  0.065765422            4 
 2547000   0.84517308   -3.2649664    2054.4848  0.067219107  0.065754354            3 
 2548000   0.83336013   -3.2728355    2047.8195  0.066974736  0.065743228            8 
 2549000   0.84315161   -3.2774697    2049.3102  0.066997195  0.065732143            5 
 2550000   0.83268598   -3.2673398     2049.661  0.066982387  0.065721096            3 
 2551000   0.83749107   -3.2729809    2051.4584  0.067014845  0.065710062            4 
 2552000   0.83665831   -3.2702625    2050.8917  0.066970078  0.065699095            3 
 2553000   0.83644262   -3.2435008    2058.3497  0.067187285  0.065688253            2 
 2554000   0.84204857   -3.2704986    2052.0927  0.066956823  0.065677399            6 
 2555000   0.84412524   -3.2882681    2053.1831   0.06696618  0.065666326            4 
 2556000   0.84667249   -3.2685195     2054.263   0.06697519  0.065655205            2 
 2557000   0.82682244   -3.2502886    2048.6976  0.066767619  0.065644335            3 
 2558000   0.85478947   -3.2864287    2051.1533  0.066821517  0.065633366            5 
 2559000    0.8480797    -3.281083    2049.2053  0.066731968  0.065622336            5 
 2560000   0.83292339   -3.2464845    2059.3957  0.067037621  0.065611169            5 
 2561000   0.83410762   -3.2927405    2049.7943   0.06669902  0.065600029            4 
 2562000   0.85641848   -3.2689734    2051.3012     0.066722  0.065588859            6 
 2563000   0.83819177   -3.2529963    2058.8604  0.066941747  0.065577773            2 
 2564000   0.83974857   -3.2701192    2054.6052  0.066777341  0.065566788            3 
 2565000   0.84290819   -3.2830655    2056.1118  0.066800254  0.065555605            4 
 2566000   0.85079713   -3.2782144    2049.8999  0.066572482  0.065544495            2 
 2567000   0.86140246    -3.286937    2053.6946  0.066669737  0.065533454            4 
 2568000   0.84877775   -3.2880823     2060.144  0.066853064  0.065522311            4 
 2569000    0.8445032    -3.259529    2059.7646  0.066814732  0.065511245            5 
 2570000    0.8461098    -3.272547    2066.4854   0.06700666   0.06550025            4 
 2571000    0.8617958   -3.2811123    2061.2439  0.066810706  0.065489095            5 
 2572000   0.83178297   -3.2820505    2061.4699  0.066792051  0.065477922            2 
 2573000   0.85024531   -3.2631875    2058.1081  0.066657213  0.065466882            2 
 2574000   0.84827151   -3.2662071    2058.1099  0.066631375  0.065455603            4 
 2575000   0.84801887   -3.2849068    2060.6461  0.066687577  0.065444254            4 
 2576000   0.84924201   -3.2627591    2063.6459  0.066758732  0.065433032            3 
 2577000   0.84084521   -3.2586274    2064.9043  0.066773518  0.065421798            4 
 2578000   0.82598155   -3.2757515    2058.5413  0.066541934  0.065410505            2 
 2579000   0.83029745   -3.2862396    2053.4317   0.06635103  0.065399077            3 
 2580000   0.83638391   -3.3058129     2062.941   0.06663246  0.065387875            5 
 2581000   0.83105511   -3.2773173    2062.3751  0.066588375  0.065376511            2 
 2582000    0.8493882   -3.2831107    2065.4442  0.066661639  0.065365431            6 
 2583000   0.81608373    -3.267644    2063.1612  0.066562176  0.065354176            3 
 2584000   0.84905505   -3.2697064    2057.3959  0.066350487  0.065343099            3 
 2585000   0.84738375   -3.2710123    2068.9508  0.066697317  0.065331942            3 
 2586000   0.87092009   -3.2630056    2061.6329  0.066435709  0.065320863            3 
 2587000   0.83819248   -3.2701092    2069.9322  0.066677368  0.065309771            2 
 2588000   0.82982677   -3.2678618    2074.9826  0.066814226  0.065298624            3 
 2589000   0.84900663   -3.2729831    2069.4724  0.066611058  0.065287524            3 
 2590000   0.84451598    -3.275316    2065.0721  0.066443762  0.065276539            6 
 2591000   0.84091698   -3.2714223     2063.972  0.066382736  0.065265555           10 
 2592000   0.82183867   -3.2877924    2072.5811  0.066633908  0.065254448            5 
 2593000   0.82975962   -3.2650905     2075.024  0.066686722  0.065243457            5 
 2594000   0.84225868    -3.270887    2072.9184  0.066593369  0.065232455            3 
 2595000   0.83755133   -3.2798486    2073.9358   0.06660038  0.065221398            3 
 2596000   0.83111038   -3.2765189    2074.5984  0.066595992  0.065210446            3 
 2597000   0.82715551   -3.2826267    2071.6902   0.06647703  0.065199704            2 
 2598000   0.83635837   -3.2961098    2067.9192  0.066330485  0.065188661            4 
 2599000   0.82490281   -3.2796642    2069.4339  0.066353531  0.065177803            3 
 2600000   0.85616919   -3.2817258    2071.0703  0.066380458  0.065166682            5 
 2601000   0.84144046   -3.2790242    2072.5178  0.066401315  0.065155663            2 
 2602000   0.81187793   -3.2685711    2074.0825  0.066425906  0.065144644            2 
 2603000   0.83953595   -3.2825334     2079.698  0.066580164  0.065133723            4 
 2604000   0.83926586   -3.2795182    2076.3602  0.066447778  0.065122815            3 
 2605000   0.82915419   -3.2632674    2077.4047  0.066455684  0.065111892            2 
 2606000   0.84198006   -3.2683045    2076.9908  0.066416948  0.065101056            5 
 2607000   0.82300077   -3.2788696    2077.4596  0.066406457  0.065090113            7 
 2608000   0.82203086   -3.3019513    2070.6143  0.066162266  0.065078891            3 
 2609000   0.84472955   -3.3006548    2074.2234  0.066252184  0.065067829            5 
 2610000   0.82744827   -3.2597024    2082.6512  0.066495886  0.065056859            3 
 2611000   0.83676252   -3.3006016    2079.5694   0.06637206  0.065045775            5 
 2612000   0.81795088   -3.2946066    2074.1195  0.066172778  0.065034845            6 
 2613000   0.84561356   -3.2863925    2081.5911  0.066385736  0.065023904            5 
 2614000   0.83589925   -3.2695054    2085.9967  0.066500788  0.065013005            4 
 2615000   0.84157458   -3.2918942    2080.6309  0.066304362  0.065002172            4 
 2616000   0.83428391   -3.2739546    2085.3685  0.066429936  0.064991235            1 
 2617000   0.83646851   -3.3043276    2079.9107  0.066230756  0.064980253            3 
 2618000   0.81871148   -3.2914761    2080.6125  0.066227798  0.064969346            2 
 2619000   0.83337062   -3.2913391    2089.6575  0.066490312   0.06495841            2 
 2620000    0.8193079   -3.2984005    2083.7067   0.06627566  0.064947449            4 
 2621000    0.8340682   -3.2913833    2077.6576  0.066058045  0.064936531            3 
 2622000   0.81994037   -3.2867844     2087.585  0.066348365  0.064925406            2 
 2623000   0.82081026   -3.2906521     2080.073  0.066084413  0.064914459            2 
 2624000   0.83011714   -3.3145954    2087.6226  0.066298989  0.064903518            4 
 2625000   0.83256055   -3.2868787     2097.677   0.06659292  0.064892547            3 
 2626000   0.83856425   -3.2744808    2085.9883  0.066196633  0.064881705            5 
 2627000    0.8441691   -3.2675655    2085.2154  0.066146918  0.064870972            3 
 2628000   0.83190759   -3.2790523     2094.275  0.066409023      0.06486            3 
 2629000    0.8427235   -3.2864513    2080.3102  0.065941111  0.064849148            5 
 2630000   0.83937567   -3.2905187    2085.9554  0.066094911  0.064838259            3 
 2631000   0.83040834    -3.296058    2089.9242  0.066195496  0.064827272            5 
 2632000   0.84511901   -3.2890655    2088.1253   0.06611339  0.064816468            8 
 2633000   0.83221376   -3.2822901    2094.6927  0.066296136   0.06480543            5 
 2634000   0.83569512   -3.2926529    2084.4508  0.065946937  0.064794569            6 
 2635000   0.83320603   -3.3080001    2095.4392  0.066269423   0.06478377            4 
 2636000   0.84390524   -3.3004821    2088.2717  0.066017694  0.064772972            6 
 2637000    0.8274323    -3.300295    2098.0803  0.066302627  0.064762088            2 
 2638000   0.82543805   -3.3063519    2093.3733  0.066128802  0.064751396            2 
 2639000   0.82579015   -3.2706544    2094.3776  0.066135455  0.064740411            9 
 2640000   0.83639726   -3.2718887    2097.7023  0.066215352  0.064729603            4 
 2641000    0.8277679   -3.2582102     2088.777  0.065908653  0.064718798            3 
 2642000   0.82790072   -3.2917212    2096.6791  0.066132951  0.064708042            4 
 2643000   0.81049837   -3.2872142    2105.0564  0.066372063   0.06469719            2 
 2644000   0.83834917   -3.2938234    2098.5681  0.066142463  0.064686331            2 
 2645000   0.82646379   -3.2909662    2088.9956  0.065815866  0.064675372            3 
 2646000   0.81416775   -3.2750064    2107.7295  0.066380998  0.064664533            8 
 2647000    0.8064415   -3.2862027    2097.7846  0.066042834  0.064653706            5 
 2648000   0.82087093   -3.2967689    2096.4279  0.065975197  0.064642937            3 
 2649000   0.81404067   -3.2715606     2101.897  0.066122341  0.064632236            5 
 2650000   0.84209244   -3.2984677    2101.5564  0.066086679  0.064621548            2 
 2651000   0.84448738   -3.3020711    2106.7144  0.066223891  0.064610836            4 
 2652000   0.82959837   -3.2926137    2102.5299  0.066067429  0.064600214            4 
 2653000    0.8283225   -3.2663208    2103.4726  0.066072139  0.064589634            7 
 2654000   0.82661208   -3.2846908    2107.7928  0.066182895  0.064579007            5 
 2655000   0.83143684   -3.2736033    2105.6041  0.066089269  0.064568417            3 
 2656000    0.8117346   -3.3042942     2103.768  0.066006777  0.064557882            4 
 2657000   0.84059401   -3.3044899    2104.3995   0.06600174   0.06454732            5 
 2658000   0.81889904   -3.2737916    2108.9511  0.066119611  0.064536625            6 
 2659000   0.82910681   -3.2904377    2098.0588  0.065753378  0.064526147            3 
 2660000   0.82672626   -3.2659066    2112.0966  0.066168441  0.064515681            4 
 2661000   0.82155892   -3.3112876    2104.3812  0.065901953  0.064505198            7 
 2662000   0.82798291   -3.2965084    2109.2609  0.066029955  0.064494588            3 
 2663000   0.80716011   -3.2971552    2113.1349   0.06612639  0.064484049            5 
 2664000   0.81339391   -3.2847943    2111.8415  0.066061107  0.064473673            4 
 2665000   0.81861363   -3.2977591    2115.4805  0.066150109    0.0644633            6 
 2666000   0.83919457   -3.2916663    2109.2972  0.065932019  0.064452801            4 
 2667000   0.80926395   -3.3201079    2111.6015    0.0659793  0.064442099            4 
 2668000    0.8208644     -3.29014    2109.8935   0.06590122  0.064431286            8 
 2669000   0.81663516   -3.2918447    2104.2019  0.065698824  0.064420568            6 
 2670000   0.82406265    -3.296935     2105.158  0.065704057  0.064409772            2 
 2671000   0.82061738   -3.3293943    2100.6178  0.065537809  0.064398947            4 
 2672000   0.82265027   -3.2720338    2116.3439   0.06600374  0.064388089            2 
 2673000   0.81740413   -3.3026748    2097.0032  0.065376081  0.064377176            3 
 2674000   0.81874453   -3.3054913    2110.4305  0.065770086   0.06436612            6 
 2675000   0.82054042   -3.3088212    2115.9826  0.065918461  0.064355192            2 
 2676000   0.82518612   -3.2656105    2110.0014  0.065707569  0.064344483            5 
 2677000   0.80287826   -3.3134558    2104.0965  0.065499207  0.064333491            4 
 2678000   0.83531859   -3.3003635    2115.8399  0.065840175  0.064322708            7 
 2679000   0.81902834   -3.2685364     2117.318  0.065861577  0.064311963            2 
 2680000   0.83654413   -3.2959184    2103.1912  0.065397736  0.064301196            5 
 2681000   0.80664736   -3.3183251    2110.9814  0.065615486  0.064290386            3 
 2682000   0.82589648   -3.3064569    2106.4367  0.065449809  0.064279345            4 
 2683000   0.82150761    -3.281076    2108.9966  0.065504925  0.064268363            4 
 2684000   0.80990984   -3.2996807    2108.3838  0.065461493  0.064257507            3 
 2685000   0.83511751   -3.2993198    2111.2635  0.065526489    0.0642463            6 
 2686000    0.8343741   -3.3157354    2109.3075  0.065441409  0.064235153            5 
 2687000    0.8277439   -3.3073951    2109.2972  0.065416736  0.064223929            3 
 2688000   0.83005758    -3.316614    2105.4778   0.06527399  0.064212776            6 
 2689000   0.82127478   -3.3201772    2113.7182  0.065505089  0.064201707            4 
 2690000   0.80524204    -3.281525    2115.7204  0.065542763  0.064190799            3 
 2691000   0.81222928   -3.3162385      2109.14  0.065314628   0.06417974            3 
 2692000   0.80656749   -3.3001818    2107.0485  0.065225622  0.064168523            6 
 2693000   0.81770471   -3.3258682    2109.8854  0.065289189  0.064157283            2 
 2694000   0.81650936    -3.294322    2116.1984  0.065460233  0.064145984            3 
 2695000   0.80937352   -3.3144136    2112.2909  0.065315116  0.064134773            3 
 2696000    0.8238131   -3.3197078    2101.6522   0.06496205   0.06412353            3 
 2697000   0.81153269   -3.3178502    2110.2622  0.065203999  0.064112262            3 
 2698000    0.8393031   -3.2844246    2124.1018  0.065607295  0.064101243            4 
 2699000   0.80208805   -3.3245563    2112.1636  0.065214388  0.064090035            2 
 2700000   0.81716272   -3.3120612    2108.7868  0.065086013  0.064078796            3 
 2701000   0.82078163    -3.308802    2116.5336  0.065300925  0.064067551            3 
 2702000   0.82177615   -3.3199132    2113.7162  0.065189866  0.064056448            4 
 2703000   0.81190111   -3.3072377    2116.4084  0.065248749  0.064045289            8 
 2704000   0.82499947   -3.3095673    2109.9325  0.065025041  0.064034222            4 
 2705000   0.81870379   -3.2965617    2115.5048  0.065172668  0.064023027            5 
 2706000   0.81828274   -3.2743689    2118.6106  0.065244229  0.064011902            3 
 2707000   0.83541865   -3.3170828    2115.1149  0.065112514   0.06400074            5 
 2708000   0.81687602   -3.2856647    2122.2255  0.065307284  0.063989712            2 
 2709000   0.81981424   -3.3062743     2119.176   0.06518937  0.063978508            3 
 2710000    0.8095672   -3.2906643    2128.0723  0.065438877   0.06396746            5 
 2711000   0.81776948   -3.3069311    2120.0013  0.065166645  0.063956385            5 
 2712000   0.81823478   -3.2973521     2123.144  0.065239185  0.063945268            9 
 2713000   0.82483223   -3.3029988    2121.2588   0.06515723  0.063934128            3 
 2714000   0.81279335   -3.2930126    2118.1845  0.065038826   0.06392292            7 
 2715000   0.81989931   -3.3270749    2116.3597  0.064958862  0.063911584            4 
 2716000    0.8212511   -3.2864185    2120.6011  0.065065081  0.063900252            5 
 2717000    0.8167873   -3.3135859    2109.8309  0.064710799  0.063888983            6 
 2718000   0.80505953   -3.3032839    2122.5512  0.065076992  0.063877664            4 
 2719000   0.80159255   -3.3040573    2122.4826  0.065050955    0.0638664            5 
 2720000   0.80145937   -3.3003963     2128.389  0.065207996  0.063855224            6 
 2721000   0.81393413   -3.2782371    2121.2325  0.064964856  0.063843836            6 
 2722000   0.82972067   -3.2988191    2120.4825   0.06491803  0.063832507            3 
 2723000   0.80884844   -3.2957174    2125.3296  0.065042528   0.06382111            3 
 2724000   0.81954883   -3.2845945    2118.1656  0.064799487  0.063809897            2 
 2725000   0.85032143   -3.2985758    2128.4499  0.065090211   0.06379858            2 
 2726000   0.80988355    -3.291356    2131.5891  0.065162297  0.063787166            3 
 2727000   0.80974512   -3.3295406    2122.5649  0.064862636  0.063775677            5 
 2728000   0.81092102    -3.315973    2123.9336  0.064880669   0.06376417            2 
 2729000   0.81051532   -3.3105956    2118.3756  0.064687174  0.063752616            4 
 2730000   0.79539306   -3.3026673     2123.868  0.064831136  0.063741239            4 
 2731000   0.80733086   -3.3155831    2117.3312  0.064607934  0.063729782            2 
 2732000   0.81794369    -3.321884    2127.1715   0.06488444  0.063718392            3 
 2733000   0.80114262   -3.2903112    2123.2089  0.064739873  0.063706805            2 
 2734000   0.82442214    -3.322881    2117.1655  0.064531988  0.063695192            4 
 2735000   0.79075685   -3.3142041    2123.2058  0.064692439  0.063683621            3 
 2736000   0.82518424    -3.317801    2120.6746  0.064591697  0.063672249            3 
 2737000   0.82530284   -3.2879175    2135.4768  0.065018778  0.063660784            3 
 2738000   0.82375609   -3.2931225    2130.9866  0.064858369  0.063649699            5 
 2739000   0.81355068   -3.3086548    2125.5628  0.064669674  0.063638434            3 
 2740000   0.81990251   -3.3322287    2133.2165  0.064878846  0.063627124            2 
 2741000   0.82206625   -3.3119057    2126.3081  0.064645145  0.063615879            4 
 2742000   0.78933299   -3.3076942    2132.1275  0.064798429  0.063604748            3 
 2743000   0.81347834   -3.3083212    2119.2346  0.064383115  0.063593392            5 
 2744000   0.80796024   -3.3165773    2133.1121  0.064781102  0.063582174            3 
 2745000   0.83490747   -3.2987533    2125.7758  0.064534784  0.063570863            3 
 2746000   0.80699195     -3.29575    2127.8939  0.064575561  0.063559649            4 
 2747000   0.82824959   -3.3184793    2137.9657  0.064857592  0.063548485            6 
 2748000   0.80058958   -3.2932065    2135.9077  0.064771584  0.063537285            4 
 2749000    0.8063522   -3.3261853    2130.3892  0.064580734  0.063526144            3 
 2750000   0.81078465   -3.3064671    2139.3261  0.064828063  0.063515068            3 
 2751000   0.81872222   -3.3222678     2141.615  0.064873835  0.063503979            5 
 2752000   0.81527512   -3.3364618    2135.2736  0.064658237  0.063492977            3 
 2753000   0.81031455   -3.3240647    2129.6961  0.064465919  0.063481776            5 
 2754000   0.80917947   -3.3087007    2133.3617   0.06455343   0.06347068            4 
 2755000   0.81105061   -3.2998538    2138.1158  0.064673798  0.063459672            5 
 2756000   0.79774269   -3.3101914    2139.9031  0.064704375  0.063448697            9 
 2757000    0.8188467   -3.3307485    2140.4527  0.064697519  0.063437673            6 
 2758000    0.8151139   -3.3131461    2149.3427  0.064942673  0.063426645            2 
 2759000   0.81992123    -3.304051    2134.8505   0.06448141  0.063415613            4 
 2760000    0.8207857   -3.3023857    2140.6296  0.064632535  0.063404527            4 
 2761000   0.81171372   -3.3453349    2137.1228  0.064503285  0.063393482            4 
 2762000   0.80321535   -3.2960359    2141.2798  0.064605353  0.063382588            4 
 2763000   0.79247349   -3.3072914    2148.5694  0.064801826   0.06337165            4 
 2764000   0.80417649   -3.3023596    2149.0427  0.064792653  0.063360656            3 
 2765000   0.80644477   -3.3236029    2140.5215  0.064512401  0.063349493            3 
 2766000   0.79790553   -3.3001063    2143.2775   0.06457211  0.063338476            9 
 2767000   0.80336018   -3.3157953    2150.4895  0.064765978  0.063327483            4 
 2768000   0.80482175   -3.3239295    2137.0372  0.064337586  0.063316285            4 
 2769000   0.80750051   -3.3055311     2143.277  0.064502137  0.063305204            5 
 2770000   0.79928758   -3.3070619    2143.3728  0.064481734  0.063294264            5 
 2771000   0.81114097   -3.3136011    2144.7695  0.064500466  0.063283194            6 
 2772000   0.81271536   -3.3000681    2149.2894  0.064613077  0.063272086            3 
 2773000   0.80894657   -3.3064484    2144.5138  0.064446262  0.063261055            6 
 2774000   0.81378555   -3.3475778     2137.759   0.06422011  0.063249967            3 
 2775000   0.78362854   -3.3221603    2155.4125  0.064727101  0.063238858            3 
 2776000   0.81909032   -3.3405029    2149.0833  0.064513788  0.063227852            3 
 2777000   0.81392357   -3.3217409    2144.9908  0.064367746   0.06321667            5 
 2778000   0.80627351   -3.3056866    2148.9311  0.064462777  0.063205495            5 
 2779000   0.82065916   -3.3364006    2143.4504   0.06427523  0.063194414            5 
 2780000    0.8248431   -3.3237144    2152.9351  0.064536424  0.063183205            8 
 2781000   0.82516724   -3.3445289    2154.3126  0.064554496  0.063171938            6 
 2782000   0.79586026   -3.3287053     2142.742  0.064184699  0.063160662            3 
 2783000   0.82355781   -3.3067532    2148.7183   0.06434059  0.063149652            4 
 2784000   0.80991404   -3.3124193    2146.6884  0.064256716  0.063138597            4 
 2785000   0.79640345    -3.334821    2151.3058  0.064371807  0.063127514            3 
 2786000   0.80781208   -3.3121515    2154.4149  0.064441701  0.063116404            7 
 2787000   0.82251316    -3.325541    2156.4942  0.064480749  0.063105352            4 
 2788000   0.78152455   -3.3134343    2155.5147  0.064428345  0.063094321            7 
 2789000   0.79934718   -3.3364487    2154.2804  0.064368363  0.063083118            3 
 2790000   0.78451769   -3.3091807    2157.8236  0.064451124  0.063072027            1 
 2791000   0.79341676    -3.316712    2152.3397  0.064264294  0.063060949            4 
 2792000   0.79091404   -3.3489411    2149.0115  0.064141938  0.063049803            7 
 2793000   0.82207056   -3.3385322    2147.5968  0.064076763  0.063038582            4 
 2794000    0.8112934   -3.3302456    2144.2574  0.063954229  0.063027388            6 
 2795000   0.79392266   -3.3246748    2152.7819  0.064185507  0.063016327            3 
 2796000   0.80701533   -3.3265793    2154.2121  0.064205178  0.063005246            3 
 2797000   0.80611969   -3.3345155    2160.6514  0.064374072  0.062994178            3 
 2798000   0.80481574    -3.323028    2152.6701  0.064113358  0.062983116            5 
 2799000   0.79746996   -3.3004766    2155.3445  0.064170076  0.062972113            4 
 2800000    0.7911691   -3.3264481    2147.3951  0.063910569  0.062961019            4 
 2801000   0.80072901   -3.3342373    2150.3322  0.063975135  0.062949765            4 
 2802000   0.77682583   -3.3143688    2158.7528  0.064202736  0.062938532            3 
 2803000   0.80200353   -3.3109845    2156.5873  0.064115451  0.062927344            4 
 2804000   0.79080516   -3.2984781    2151.7918  0.063950066   0.06291625            4 
 2805000   0.79762675   -3.3014771    2148.2592  0.063822319  0.062905027            3 
 2806000   0.79090278   -3.3400371    2156.1118  0.064032781  0.062893753            4 
 2807000   0.81882504   -3.3058557    2157.0247  0.064037071  0.062882547            4 
 2808000   0.79623584   -3.3168181    2157.4395  0.064026575  0.062871414            1 
 2809000    0.7918084   -3.3243291     2162.133  0.064143022  0.062860222            4 
 2810000   0.78121422   -3.3437678    2155.6425  0.063927715  0.062849115            8 
 2811000   0.80551043   -3.3336014    2165.4624  0.064196086   0.06283789            4 
 2812000    0.8104548   -3.3497782     2156.483  0.063907155  0.062826742            4 
 2813000   0.78245217    -3.318214    2154.8338  0.063835579  0.062815603            3 
 2814000   0.80197477   -3.3328843      2161.46  0.064009122   0.06280448            5 
 2815000   0.81970388   -3.3204691    2161.4268    0.0639854  0.062793249            4 
 2816000   0.79511801   -3.3476028    2158.5882  0.063878674  0.062782138            6 
 2817000   0.80106461   -3.3398811     2163.145  0.063990801  0.062771028            5 
 2818000   0.80456668   -3.3409531    2160.7003  0.063895798  0.062759587            3 
 2819000   0.79258085   -3.2980447     2154.897  0.063701578  0.062748377            5 
 2820000   0.79345938   -3.3450635    2154.0971  0.063655352  0.062737144            3 
 2821000   0.79944133   -3.3128259     2165.646  0.063973946  0.062725922            3 
 2822000   0.78310376     -3.33007    2162.6669  0.063863302  0.062714697            4 
 2823000   0.79486808   -3.3140819     2164.038  0.063881155  0.062703607            2 
 2824000   0.81488823   -3.3335798    2163.3449  0.063838081  0.062692416            4 
 2825000   0.79844119   -3.3307273    2164.2481  0.063842128  0.062681227            3 
 2826000   0.79659546   -3.3560631    2161.1972  0.063729571  0.062670007            4 
 2827000   0.79645464   -3.3122266    2164.3575  0.063800187  0.062658766            7 
 2828000   0.79071499   -3.3339977    2158.6404  0.063609158  0.062647594            6 
 2829000    0.8076704   -3.3397517    2161.1085  0.063659375  0.062636283            2 
 2830000   0.79531419   -3.2977451    2168.5296  0.063855405  0.062625129            3 
 2831000   0.81390561   -3.3241511    2157.5841   0.06351066  0.062613862            4 
 2832000   0.79640498   -3.3145742    2163.4688  0.063661393  0.062602649            6 
 2833000   0.79232471   -3.3507214    2164.1525  0.063659034  0.062591441            5 
 2834000   0.81710113     -3.34232    2167.8949  0.063746616  0.062579947            8 
 2835000   0.80452399   -3.3398686     2152.302  0.063265786  0.062568654            3 
 2836000   0.81211655   -3.3429183    2164.3409  0.063597229  0.062557234            4 
 2837000   0.78495366   -3.3490466    2161.1277  0.063480427  0.062545929            6 
 2838000   0.80371862   -3.3330598    2166.5055  0.063615971  0.062534598            4 
 2839000   0.79041982   -3.3388734    2168.4031  0.063649263  0.062523332            4 
 2840000   0.78796919   -3.3278007    2167.0537  0.063587256  0.062511937            3 
 2841000   0.82774092   -3.3173041    2161.4765  0.063401282  0.062500694            3 
 2842000   0.79743604    -3.352935    2170.3288  0.063638542  0.062489339            2 
 2843000   0.79802889   -3.3307694    2169.1803  0.063582491  0.062478015            8 
 2844000   0.79770775   -3.3183848    2171.9346  0.063640842  0.062466852            4 
 2845000   0.81058382   -3.3501734    2170.7894  0.063584928   0.06245554            3 
 2846000   0.77048087   -3.3331351    2170.0085   0.06353972  0.062444213            4 
 2847000   0.78697837   -3.3128745    2173.9026  0.063631383  0.062432936            1 
 2848000   0.80270206   -3.3558294    2170.0494  0.063496295  0.062421851            8 
 2849000   0.78231164   -3.3540861    2166.6386  0.063374242  0.062410657            4 
 2850000   0.77177168   -3.3536573    2177.5494  0.063671036  0.062399455            3 
 2851000   0.78528375    -3.345796    2179.8913  0.063717156  0.062388299            3 
 2852000   0.78155848   -3.3385357    2174.7126  0.063543495  0.062377126            6 
 2853000    0.7912121   -3.3452471    2171.7137  0.063433629  0.062366067            2 
 2854000    0.7861722   -3.3474565    2180.3275  0.063662915   0.06235484            5 
 2855000   0.79918088   -3.3414281    2174.8403  0.063480454  0.062343618           14 
 2856000   0.80846798   -3.3248451    2181.6346  0.063656473  0.062332479            4 
 2857000   0.78971572   -3.3412956    2175.5112  0.063455583  0.062321461            5 
 2858000    0.8116752   -3.3329485    2173.5591  0.063376461  0.062310189            5 
 2859000   0.79817921   -3.3467155    2178.7087  0.063504393  0.062299003            5 
 2860000   0.80018141   -3.3617096    2174.3404  0.063354906  0.062287769            5 
 2861000   0.80702457   -3.3248261     2178.179  0.063444572  0.062276585            5 
 2862000   0.79819557   -3.3230955    2182.4199  0.063545886  0.062265481            3 
 2863000   0.80260029   -3.3620015    2176.4562  0.063350104  0.062254412            5 
 2864000    0.8061939   -3.3271698    2172.3497    0.0632085  0.062243227            2 
 2865000   0.77435792     -3.32078    2180.3315    0.0634186  0.062232094           11 
 2866000   0.79377135   -3.3596186    2171.6823  0.063144985  0.062220967            3 
 2867000   0.80284096   -3.3508018    2177.5054  0.063292217  0.062209828            3 
 2868000   0.80683837   -3.3199911    2182.7338  0.063422065  0.062198689            2 
 2869000   0.79857905    -3.336559    2188.7983  0.063576109  0.062187713            6 
 2870000   0.79218025   -3.3346033    2179.4105  0.063281373  0.062176746            5 
 2871000   0.78324614   -3.3268391    2189.2915  0.063546137  0.062165778            4 
 2872000   0.81458941   -3.3486956    2181.6469  0.063302198  0.062154915            4 
 2873000   0.80344956   -3.3052703    2185.1308  0.063381216  0.062143843            2 
 2874000   0.78353814   -3.3472599    2183.5189  0.063312424  0.062132778            7 
 2875000   0.76408491   -3.3478395    2186.5857  0.063379295  0.062121607            8 
 2876000   0.78456257      -3.3555    2181.5851  0.063212363  0.062110626            4 
 2877000   0.77980734   -3.3385597    2183.6252  0.063249484  0.062099465            7 
 2878000   0.78203989   -3.3663336    2184.5072  0.063253046  0.062088331            6 
 2879000   0.79691619   -3.3458507    2186.0967  0.063277085  0.062077185            4 
 2880000   0.79159548    -3.336449    2177.5005  0.063006381  0.062065896            5 
 2881000   0.78267243   -3.3331939    2184.2566  0.063179932  0.062054911            4 
 2882000   0.78255874   -3.3517706    2185.0713  0.063181565  0.062043889            2 
 2883000    0.8034098   -3.3537673    2183.1256  0.063103412  0.062032658            5 
 2884000   0.78670752    -3.333032    2186.5256  0.063179772  0.062021464            6 
 2885000   0.80302102   -3.3400409    2186.8856  0.063168273  0.062010451            6 
 2886000   0.77527341   -3.3513713    2189.2579  0.063214884  0.061999505            4 
 2887000   0.80651185   -3.3392243     2186.145  0.063103134  0.061988368            7 
 2888000   0.78455482   -3.3228721    2187.6158  0.063123726  0.061977289            3 
 2889000   0.77277544   -3.3372431    2188.2394  0.063119863   0.06196607            7 
 2890000   0.77177742    -3.353798    2185.7395  0.063025938  0.061954822            3 
 2891000   0.78452164   -3.3389017    2184.0746  0.062956144  0.061943636            3 
 2892000   0.77818436   -3.3499227    2189.7421  0.063097685  0.061932508            5 
 2893000   0.77998332   -3.3670555    2198.3342  0.063323372  0.061921287            4 
 2894000   0.78111463   -3.3214733    2185.4336  0.062930017    0.0619102            2 
 2895000   0.80300239   -3.3439702    2194.7472  0.063176372  0.061899041            3 
 2896000   0.78125465   -3.3428787    2185.7894  0.062896795   0.06188786            6 
 2897000   0.77081799   -3.3524778    2188.6586  0.062957617  0.061876524            4 
 2898000   0.77094533     -3.33229    2194.9133  0.063115749  0.061865408            3 
 2899000   0.79502147   -3.3498134    2193.7066   0.06305929  0.061854173            3 
 2900000   0.79258315   -3.3559176     2191.405  0.062971407  0.061842988            3 
 2901000   0.78873172   -3.3631482    2193.8853   0.06302095  0.061831665            5 
 2902000   0.79406119   -3.3508929    2182.3488  0.062667953  0.061820278            4 
 2903000   0.78352922   -3.3343371    2199.2911  0.063132709  0.061808919            3 
 2904000   0.79246287   -3.3493426    2193.1241  0.062934003  0.061797612            4 
 2905000   0.78068288   -3.3644894    2189.6147  0.062811668  0.061786305            4 
 2906000   0.78445255   -3.3773918    2193.5057   0.06290163  0.061774984            6 
 2907000   0.79179623   -3.3567401    2199.0768  0.063039698   0.06176381            4 
 2908000   0.78793702   -3.3319379    2197.4685  0.062971931   0.06175255            5 
 2909000   0.77693314   -3.3614303     2192.432  0.062806005   0.06174143            3 
 2910000   0.78258659   -3.3707373    2190.3034  0.062723465  0.061730164            6 
 2911000    0.7848614    -3.336182    2190.1548  0.062697663  0.061718862            3 
 2912000   0.78261112   -3.3539558    2190.6017  0.062688923  0.061707638            6 
 2913000   0.77148076   -3.3770086      2194.11  0.062767765  0.061696402            3 
 2914000   0.78680144   -3.3642073    2188.2121  0.062577559  0.061685095            7 
 2915000   0.76982985   -3.3479324    2191.0933   0.06263846  0.061673646           10 
 2916000   0.79331709   -3.3476449    2191.5224   0.06262924  0.061662378            9 
 2917000   0.78021432   -3.3205467    2201.3865  0.062889569  0.061651141            3 
 2918000   0.76674123   -3.3701712    2190.7125  0.062563186    0.0616399            5 
 2919000   0.80030962   -3.3458658    2195.8674  0.062688918  0.061628547            3 
 2920000   0.78278605   -3.3631619    2192.9517  0.062584238  0.061617162            4 
 2921000   0.78593165   -3.3457858    2191.6651  0.062526106  0.061606039            4 
 2922000   0.80909636    -3.341864    2201.8513   0.06279521  0.061594744            5 
 2923000   0.78441863     -3.33225    2200.0575  0.062722588   0.06158356            9 
 2924000   0.78654474   -3.3660357     2199.973  0.062698728  0.061572191            3 
 2925000   0.77514725   -3.3483493    2200.6058  0.062695322   0.06156095            3 
 2926000   0.77248033   -3.3720495    2203.6308  0.062760048  0.061549664            3 
 2927000   0.78374286   -3.3578609       2194.5  0.062478646  0.061538311            3 
 2928000   0.79676728    -3.373006    2202.7884  0.062693205  0.061526926            3 
 2929000   0.78406829   -3.3688726    2202.0096  0.062649642  0.061515674            7 
 2930000   0.78309972   -3.3758159    2197.1107  0.062488928  0.061504378            5 
 2931000    0.7924313    -3.346433    2203.8073  0.062658004   0.06149314            4 
 2932000   0.78224209   -3.3517108    2206.7661  0.062720728     0.061482            3 
 2933000   0.78450808   -3.3833916    2204.5868  0.062637425  0.061470805            6 
 2934000   0.79193817    -3.346622    2204.4215  0.062611381  0.061459724            5 
 2935000   0.78768193   -3.3659725     2201.642   0.06251113  0.061448695            8 
 2936000   0.80579886   -3.3672987     2212.531  0.062798904  0.061437784            3 
 2937000   0.76335917   -3.3616369     2212.346  0.062772272  0.061426837            4 
 2938000   0.77824744    -3.334973    2216.7207   0.06287499  0.061415999            3 
 2939000   0.78261409   -3.3431277    2207.7075  0.062598036  0.061405256            2 
 2940000   0.80106013    -3.353006    2213.7662  0.062748476  0.061394497            4 
 2941000   0.78249027   -3.3613239    2216.2579  0.062797742  0.061383744            3 
 2942000   0.76499611   -3.3510645    2215.5697  0.062756902  0.061372897            4 
 2943000   0.78080938    -3.366096    2210.9518  0.062604821   0.06136194            6 
 2944000   0.77225036   -3.3531211    2207.9142  0.062497571  0.061351183            3 
 2945000    0.7907411   -3.3658769     2215.181  0.062681975  0.061340339            5 
 2946000   0.77329894   -3.3596749    2205.9918  0.062400764  0.061329564            7 
 2947000   0.76875082   -3.3593523    2212.1306   0.06255318  0.061318724            3 
 2948000   0.79211737   -3.3662685    2211.6802  0.062519228  0.061307898            8 
 2949000   0.78844471   -3.3517305    2214.3899  0.062574598  0.061296923            3 
 2950000   0.76894369   -3.3500901    2213.0746  0.062516232  0.061286072            7 
 2951000   0.76431195   -3.3673319    2215.2442  0.062556315  0.061275238            2 
 2952000     0.782567   -3.3770759    2220.3487  0.062679219   0.06126447            6 
 2953000   0.78800205   -3.3555199    2219.3011  0.062628432  0.061253528            2 
 2954000   0.78029189   -3.3391974    2218.2663  0.062578038  0.061242658            3 
 2955000   0.77743828   -3.3561599     2211.867  0.062376396  0.061231672            3 
 2956000   0.75870514   -3.3553183    2212.6268  0.062376713  0.061220746            7 
 2957000   0.77872966   -3.3580707    2209.8074  0.062276165  0.061209739            4 
 2958000   0.77993251   -3.3858946    2217.3407  0.062467341  0.061198859            6 
 2959000   0.78628959   -3.3556313    2218.5885  0.062481371  0.061188032            4 
 2960000   0.75339326   -3.3850154    2224.3961  0.062623764  0.061177235            4 
 2961000   0.77921745   -3.3460543    2209.3052  0.062177901   0.06116644            6 
 2962000    0.7744487   -3.3605255    2220.0272  0.062458563  0.061155581            4 
 2963000   0.77358901   -3.3696796    2226.4041  0.062616833   0.06114477            3 
 2964000   0.77523929   -3.3373001    2226.0899  0.062586873   0.06113403            3 
 2965000   0.77213895   -3.3663315    2214.6979  0.062245584  0.061123337            3 
 2966000   0.77852313   -3.3720429    2218.3815  0.062328093  0.061112577            9 
 2967000   0.77579589   -3.3696823    2225.7139  0.062513029  0.061101866            3 
 2968000   0.77552316    -3.346022    2223.0127  0.062416124  0.061091318            4 
 2969000   0.77530251   -3.3776729    2220.9887  0.062338292  0.061080673            5 
 2970000   0.76521998   -3.3849292    2219.0092  0.062261761  0.061069904            2 
 2971000   0.76963743   -3.3764257    2219.9136  0.062266172  0.061059191            5 
 2972000   0.77747409   -3.3738366    2227.7628  0.062465311  0.061048632            7 
 2973000   0.77233317   -3.3796448    2225.6769  0.062385831  0.061037923           15 
 2974000   0.77862225   -3.3708171    2225.3026  0.062354365   0.06102718            2 
 2975000   0.76641511   -3.3354677    2221.5972  0.062229615  0.061016442            5 
 2976000   0.78430216   -3.3824872     2224.848  0.062299731  0.061005742            4 
 2977000   0.76426865   -3.3704153    2229.7896  0.062417132  0.060995024            3 
 2978000   0.76112395   -3.3562411     2231.084  0.062432393  0.060984291            3 
 2979000   0.77328356   -3.3551723     2220.743  0.062122162  0.060973619            7 
 2980000   0.77538374   -3.3826973    2227.5914  0.062292824  0.060962903            5 
 2981000   0.75716257   -3.3543042    2231.8183  0.062390089  0.060952229            2 
 2982000   0.77414183   -3.3761919    2219.0268  0.062011704  0.060941601            6 
 2983000   0.77572099   -3.3544055    2229.3389  0.062278996   0.06093098            5 
 2984000    0.7737824   -3.3528041    2227.9704  0.062219906  0.060920461            4 
 2985000   0.77107072   -3.3659552    2236.2137  0.062429194  0.060909882            5 
 2986000   0.78094488   -3.3772101    2224.6757  0.062086282  0.060899238            7 
 2987000   0.78991776   -3.3528123    2238.8062  0.062459721   0.06088862            4 
 2988000   0.76059018   -3.3493317    2233.4113  0.062288357  0.060878148            2 
 2989000   0.79294218   -3.3761142    2223.7072  0.061996966  0.060867326            2 
 2990000   0.75042927    -3.390746    2225.6448  0.062030234  0.060856614            4 
 2991000    0.7705361   -3.3676259    2239.2891  0.062389643  0.060845952            7 
 2992000   0.76528383   -3.3800243    2231.5506  0.062153258  0.060835307            6 
 2993000   0.78736624   -3.3568975    2232.9896  0.062172557   0.06082481            6 
 2994000   0.76858904   -3.3730318    2232.5657  0.062139993   0.06081413            4 
 2995000   0.77304933   -3.3844127     2220.091  0.061772149   0.06080346            3 
 2996000   0.76795425   -3.3795992    2239.8349  0.062300704   0.06079275            7 
 2997000   0.77019384   -3.3461202    2236.8722  0.062197536  0.060781975            3 
 2998000   0.78538871   -3.3723035    2238.5517  0.062223475   0.06077145            6 
 2999000   0.77278171   -3.3798867    2229.1863  0.061942489  0.060760784            3 
 3000000    0.7658213   -3.3565089    2229.3497  0.061926381  0.060750241           11 
 3001000   0.76051413   -3.3702428    2233.3663  0.062017279  0.060739667            6 
 3002000   0.77271567   -3.3863447    2236.7667  0.062091013  0.060729067            7 
 3003000   0.76825102   -3.3702677    2235.4987  0.062035152  0.060718542            4 
 3004000   0.76288836   -3.3874968    2237.8663   0.06208018  0.060707895            6 
 3005000   0.78155695   -3.3906966    2222.3943  0.061630456  0.060697111           11 
 3006000   0.77452624   -3.3771675    2241.9856  0.062153071  0.060686382            4 
 3007000   0.78027288    -3.408772    2235.4794  0.061952094  0.060675665            7 
 3008000   0.77462307   -3.3833203    2237.3603  0.061983607  0.060664916            5 
 3009000   0.77219387   -3.3766296    2243.1697  0.062123899  0.060654263            6 
 3010000   0.78394455   -3.3805858    2237.4031  0.061943609  0.060643597            7 
 3011000   0.76715068   -3.3748247    2237.0773  0.061914019  0.060632874            5 
 3012000   0.74321656   -3.3628976     2242.269  0.062037102  0.060622302            7 
 3013000   0.76945426   -3.3823965    2235.4341  0.061827472  0.060611624            2 
 3014000   0.77339335   -3.3637847    2249.9192  0.062207454  0.060600958            2 
 3015000   0.78356224   -3.3706715    2243.5859  0.062011771  0.060590312            8 
 3016000    0.7628971   -3.3590036     2239.638   0.06188213  0.060579638            5 
 3017000   0.76519871   -3.3813732    2242.0519  0.061928294  0.060568901            8 
 3018000   0.76464414   -3.3842169      2238.94  0.061821847  0.060558085            8 
 3019000   0.77999336   -3.3964239    2234.0318  0.061665887  0.060547326            5 
 3020000   0.77487116   -3.3817749    2240.6685  0.061828602  0.060536541           13 
 3021000    0.7702768   -3.3896058    2235.7156  0.061671511  0.060525685            6 
 3022000   0.78287133   -3.3917097    2238.2596  0.061721256  0.060514836            8 
 3023000   0.78124376   -3.3723141    2244.6392  0.061876702  0.060503995            2 
 3024000   0.76501843   -3.3719353    2238.9757  0.061700169  0.060493082            5 
 3025000   0.76307766   -3.3748068    2248.4854  0.061941747  0.060482193            2 
 3026000   0.77269866   -3.3754878    2238.9676  0.061659165  0.060471212            5 
 3027000   0.77681966   -3.3739558    2241.9135  0.061719895  0.060460144            4 
 3028000   0.76675838   -3.3613896    2247.2544  0.061846499  0.060449273            3 
 3029000   0.76501211   -3.3731773    2236.1178  0.061519694  0.060438394            4 
 3030000   0.77788329   -3.3809572    2237.9169  0.061548871  0.060427535            3 
 3031000   0.77153242   -3.3798708    2247.1001  0.061781043  0.060416669            4 
 3032000   0.77837494   -3.3813147    2243.6019  0.061664521  0.060405733            3 
 3033000   0.77309838   -3.3868249    2237.9134  0.061487895  0.060394698            5 
 3034000   0.76299984     -3.39774    2239.4466  0.061509739  0.060383471            3 
 3035000   0.76029157   -3.3786954    2234.8559  0.061363425  0.060372419            3 
 3036000   0.76479221   -3.3752534    2243.6534  0.061584689  0.060361483            6 
 3037000    0.7726747   -3.3606822    2239.7793  0.061458108  0.060350392            6 
 3038000    0.7614655   -3.3971015    2235.5552   0.06132201  0.060339287            4 
 3039000   0.74993541   -3.3616439    2235.4984  0.061300273  0.060328152            2 
 3040000   0.75242999   -3.3748208    2248.0024  0.061622872  0.060317079            5 
 3041000   0.76465607   -3.3807445     2242.736  0.061458292  0.060306029            5 
 3042000   0.78383788   -3.3843415     2232.636  0.061161406  0.060294964            3 
 3043000   0.77617004   -3.3853545    2234.4098  0.061189883   0.06028388            5 
 3044000   0.78310729   -3.3804365    2242.6931  0.061396547  0.060272892            3 
 3045000   0.77128711    -3.380759    2246.2436  0.061473553  0.060262001            5 
 3046000   0.75600285   -3.4067612    2243.0594  0.061366256  0.060251035            4 
 3047000   0.75847052   -3.3746673    2254.2265  0.061651528  0.060240089            5 
 3048000   0.75981629   -3.3819001    2249.2892  0.061496314  0.060229026            5 
 3049000   0.76689689   -3.3942494    2245.6952  0.061377917  0.060217957            4 
 3050000   0.76236651   -3.3803087    2246.1327  0.061369745  0.060206902            6 
 3051000   0.74982264   -3.3845814    2240.7948  0.061203836  0.060195926            3 
 3052000   0.76322273   -3.4022584    2243.9225  0.061269181  0.060184913            3 
 3053000   0.76187577   -3.3682839    2244.3169  0.061259878  0.060173874            7 
 3054000   0.76361416   -3.4099105    2242.6679  0.061194825  0.060162662            5 
 3055000   0.77641228   -3.3866637    2243.9316  0.061209262  0.060151515            5 
 3056000   0.75962844   -3.4311244    2240.3841  0.061092499  0.060140251            2 
 3057000   0.75693864   -3.3711473    2240.9252  0.061087264  0.060128939            5 
 3058000   0.76596767   -3.3866163    2244.1981  0.061156477  0.060117751            3 
 3059000   0.77406856   -3.3947088    2241.9405  0.061074985  0.060106387            2 
 3060000   0.75121401   -3.3903502    2241.4402    0.0610414  0.060095125            5 
 3061000   0.75483415   -3.3879876    2243.4598  0.061076441  0.060083816            3 
 3062000   0.77602788   -3.3846485    2243.6874  0.061062688  0.060072536            3 
 3063000   0.75761476   -3.4043445    2249.0492  0.061188627  0.060061242            5 
 3064000   0.77113167   -3.3734753    2248.2772   0.06114766  0.060050042            9 
 3065000   0.77495547   -3.3903716    2245.6679  0.061056766   0.06003876            5 
 3066000   0.75728184    -3.389909    2237.7607  0.060821936  0.060027285            4 
 3067000   0.77580893   -3.4024493    2239.6109  0.060852377  0.060015917            5 
 3068000   0.77150659   -3.4228797    2247.2385  0.061039724  0.060004413            4 
 3069000   0.76715546   -3.3996766    2249.8635  0.061091112  0.059992979            4 
 3070000   0.74562866   -3.3920397    2243.2678  0.060892177  0.059981633            5 
 3071000   0.77475752   -3.3768976    2251.2913  0.061090071  0.059970284            5 
 3072000   0.75818665   -3.3872885    2248.1051  0.060983754  0.059958885            7 
 3073000   0.75301585   -3.3821162    2250.3715  0.061025369   0.05994749            3 
 3074000   0.75423165    -3.384029    2249.7532  0.060988756  0.059936219            5 
 3075000   0.75047344   -3.3879809    2249.7039  0.060967585  0.059925014            6 
 3076000   0.77150387   -3.4183268    2243.6473  0.060783684  0.059913627           10 
 3077000   0.76585131   -3.3792279    2239.5234  0.060652241  0.059902218            3 
 3078000   0.76441342   -3.4008326    2248.8897   0.06088612  0.059890847            7 
 3079000   0.76713964   -3.4033429    2246.9728  0.060814463  0.059879413            4 
 3080000   0.77873914   -3.3857458    2251.2892  0.060911504  0.059868125            7 
 3081000   0.74211479   -3.3944118    2252.8023  0.060932661   0.05985673            5 
 3082000   0.75492089   -3.3804335    2252.7305  0.060910948  0.059845591            2 
 3083000   0.75675222   -3.3733415    2250.9309  0.060842547  0.059834237            3 
 3084000   0.76995216   -3.3687267    2254.7985  0.060927328  0.059822778            3 
 3085000   0.76934518   -3.3925872    2244.5934  0.060631913   0.05981142            4 
 3086000   0.75874202   -3.3942469     2241.133  0.060518821  0.059800081            4 
 3087000   0.75240357   -3.3768436    2246.1709  0.060635214  0.059788593            2 
 3088000   0.76430491   -3.3777545    2249.6406  0.060709213  0.059777183            2 
 3089000   0.73862889   -3.3850728    2250.1972  0.060704575   0.05976581            2 
 3090000   0.76993432    -3.396894    2248.2174  0.060631537  0.059754481            3 
 3091000   0.74817946   -3.3834788    2251.9091   0.06071145   0.05974306            2 
 3092000   0.74594601   -3.4102182    2246.5438  0.060547213  0.059731645            5 
 3093000   0.73965144   -3.3923602    2250.9258  0.060645701  0.059720166            5 
 3094000   0.74966974    -3.397351    2242.3745   0.06039578  0.059708779            3 
 3095000   0.76742885   -3.3832917    2254.2105  0.060694952  0.059697269            6 
 3096000   0.74446648    -3.388284    2250.8498  0.060584889  0.059685845           10 
 3097000   0.76027179   -3.3848488    2251.3965  0.060580038  0.059674298            7 
 3098000   0.75342585   -3.4069754    2259.2041    0.0607705   0.05966299            5 
 3099000   0.76958661    -3.365104    2245.7586  0.060389336  0.059651651            6 
 3100000    0.7521175    -3.382857     2260.308  0.060760967   0.05964031            3 
 3101000   0.74615554   -3.3803198    2259.9621  0.060732079  0.059628946            3 
 3102000   0.75876249   -3.4044714    2249.5034  0.060431533  0.059617544            5 
 3103000   0.73960617   -3.4176093    2247.6596   0.06036254  0.059606176            8 
 3104000   0.77765495   -3.4164769    2261.7665  0.060721825  0.059594761            5 
 3105000   0.74981314   -3.3934678    2262.9258  0.060733381  0.059583489            4 
 3106000   0.75029262   -3.3910117    2259.0263  0.060609205  0.059572073            5 
 3107000   0.74994539   -3.4176006     2250.163  0.060351973  0.059560634            6 
 3108000   0.76029036   -3.3931571    2252.8917   0.06040572  0.059549264            3 
 3109000   0.75543196   -3.4020898     2253.681  0.060407445  0.059538025            8 
 3110000   0.73598517   -3.4139575    2257.0643  0.060478679  0.059526672            6 
 3111000   0.75618112   -3.4158201    2257.2679  0.060464693  0.059515305            7 
 3112000   0.74992305   -3.4144466    2260.3225  0.060527058  0.059504053            6 
 3113000   0.74557683   -3.3739924     2259.912  0.060496627  0.059492803            5 
 3114000   0.73191333   -3.4056777    2254.1108  0.060321954  0.059481517            6 
 3115000   0.76453373   -3.3841873    2268.4242  0.060685506  0.059470283            3 
 3116000   0.76217799   -3.3960046    2261.6328  0.060484404  0.059458997            8 
 3117000    0.7531212   -3.3925099    2265.0931   0.06055751  0.059447729            7 
 3118000   0.73807093   -3.3986243    2261.4176  0.060439855  0.059436419            6 
 3119000   0.75565792   -3.4181786    2259.5566  0.060370755  0.059425104            6 
 3120000   0.75351291   -3.3964135    2273.1967  0.060715724  0.059414066            5 
 3121000   0.73843067   -3.3884605    2261.0925  0.060373076  0.059402935            5 
 3122000   0.75459802   -3.3914621    2268.4917  0.060551242  0.059391733            3 
 3123000   0.75704417   -3.3967967    2264.5087  0.060425572  0.059380679            5 
 3124000   0.74858441    -3.427365    2256.2337   0.06018549  0.059369502            7 
 3125000   0.75587657   -3.3992696    2267.7865  0.060474307  0.059358323            4 
 3126000   0.75160999   -3.4051583     2257.071  0.060169306  0.059347132            5 
 3127000   0.75752909   -3.3997787    2264.4393  0.060346426  0.059335891            6 
 3128000    0.7571028   -3.4285503    2265.6989  0.060360692   0.05932475            9 
 3129000   0.74245256   -3.4192889    2270.4041  0.060466712  0.059313634            2 
 3130000    0.7483088   -3.4148404    2262.5303  0.060237761  0.059302514            6 
 3131000   0.74310381   -3.4082408    2263.2105  0.060236627  0.059291352            6 
 3132000   0.73061497   -3.4011788    2268.2886  0.060352507  0.059280201            2 
 3133000   0.74920794   -3.4198569    2261.5578  0.060154212  0.059268919            5 
 3134000   0.75466244   -3.4057452    2264.7761  0.060220595   0.05925772            4 
 3135000   0.74988339   -3.4183424    2261.0804  0.060103148  0.059246503            3 
 3136000   0.74669838   -3.4072114    2268.9248  0.060292433  0.059235345           10 
 3137000   0.76624482   -3.4036055    2268.0016  0.060248688   0.05922431            3 
 3138000    0.7507686   -3.4061664    2267.9375  0.060227786  0.059213143            4 
 3139000   0.74917038   -3.4117658    2273.9695  0.060368736  0.059202057            4 
 3140000   0.74854719    -3.401894     2273.398  0.060334343  0.059191085            2 
 3141000    0.7303652   -3.4138817    2265.4242  0.060103581  0.059179924            3 
 3142000   0.75220547   -3.4047536    2270.2946  0.060213628  0.059168714            4 
 3143000   0.73373955     -3.40569    2271.6828  0.060231275  0.059157657            5 
 3144000   0.75770999   -3.4309525    2267.3434    0.0600971  0.059146486            7 
 3145000   0.74402282   -3.4065899     2275.909  0.060304955  0.059135352            6 
 3146000   0.76105971   -3.4358947    2277.4219  0.060325862   0.05912421            4 
 3147000    0.7404781   -3.4394061    2275.5065  0.060255972  0.059113084            8 
 3148000   0.76530774   -3.4055635    2276.5665   0.06026489  0.059101914            3 
 3149000    0.7463981   -3.4005348    2275.5179  0.060218002  0.059090904            4 
 3150000   0.75731338   -3.3953824    2278.0558  0.060266025  0.059079909            3 
 3151000   0.74769211   -3.3996911    2281.4429  0.060336477  0.059068844            5 
 3152000   0.74646784   -3.4203105    2273.3923  0.060104492  0.059057753            4 
 3153000    0.7496518   -3.3884569    2282.0035  0.060313023   0.05904687            1 
 3154000   0.74761166   -3.4054763    2276.0966   0.06013783  0.059035868            3 
 3155000   0.73418059   -3.3972218    2277.2964   0.06015046  0.059024832            6 
 3156000   0.72522212   -3.4165812    2273.6032  0.060033882  0.059013795            5 
 3157000    0.7459998    -3.377318     2280.497  0.060196837  0.059002771            3 
 3158000   0.73366971   -3.4206311    2282.4004  0.060228003  0.058991725            6 
 3159000   0.74357725   -3.4366349    2279.5482  0.060133697  0.058980826            7 
 3160000   0.72657196   -3.4142004    2283.9809  0.060231564  0.058969813            6 
 3161000   0.73739994   -3.4201915    2278.1912  0.060059876   0.05895881            4 
 3162000   0.75423431   -3.4198812    2276.1359  0.059986714  0.058947703            4 
 3163000   0.74890072   -3.4095085    2280.6809  0.060087494  0.058936739            6 
 3164000    0.7425401   -3.4075648     2280.315  0.060058865  0.058925561            6 
 3165000   0.76038128   -3.4155841    2279.3076  0.060013366  0.058914636            4 
 3166000   0.75292035   -3.4373323    2277.7175  0.059952555  0.058903626            3 
 3167000   0.72760408   -3.4273985    2281.5153  0.060033556  0.058892555            3 
 3168000   0.73704413   -3.4172093    2279.5182  0.059962074  0.058881413            2 
 3169000   0.74876722   -3.4232776    2276.5859  0.059866045  0.058870443            6 
 3170000   0.73533657   -3.4346656    2280.4506  0.059948755  0.058859299            5 
 3171000   0.75216948   -3.4289931     2275.344  0.059795649   0.05884822            9 
 3172000   0.75240515   -3.4221298    2276.3171  0.059802362  0.058837248            4 
 3173000   0.74355586   -3.4067501    2284.3311  0.059993988  0.058826177            5 
 3174000    0.7501372   -3.4231816    2287.2543  0.060051836  0.058815052            5 
 3175000   0.73545429   -3.4244085    2275.5694  0.059726231  0.058804012            6 
 3176000   0.71854743   -3.4193877    2288.5257  0.060047379   0.05879303            6 
 3177000   0.76726875   -3.4113069    2287.5921  0.060003989  0.058782088            6 
 3178000   0.73373225     -3.43384    2279.9476  0.059784656  0.058771065            4 
 3179000   0.73950882   -3.4109292    2283.5231  0.059859575  0.058759986            5 
 3180000   0.73226112   -3.4364847    2282.7969  0.059821723  0.058749047            5 
 3181000   0.74491938   -3.4035919    2284.0807  0.059836548  0.058738012            8 
 3182000   0.73111371   -3.4135992    2284.8798  0.059838671  0.058726973            3 
 3183000   0.73828963   -3.4199415    2285.7492  0.059842633  0.058715917            7 
 3184000    0.7324143   -3.4217797    2286.3495  0.059839549  0.058704928            2 
 3185000   0.74941833   -3.3999598    2282.4094  0.059717671  0.058693912            5 
 3186000   0.73680807   -3.4125838     2278.417  0.059594502    0.0586828            8 
 3187000    0.7499636   -3.4180769    2292.6255  0.059947326   0.05867175            4 
 3188000   0.74769128   -3.4251317    2284.1816  0.059707799   0.05866078            3 
 3189000    0.7357538   -3.4051939    2284.2965  0.059692079  0.058649866            3 
 3190000   0.73877653   -3.4019837     2283.797  0.059660317  0.058638996            3 
 3191000   0.74255377   -3.4261348    2286.7645  0.059719118  0.058627913            3 
 3192000   0.75290039   -3.4378529    2288.1501  0.059736583  0.058616785            2 
 3193000    0.7416875   -3.4300202    2285.8973  0.059659079  0.058605709            5 
 3194000   0.74445765   -3.4224515    2287.7209  0.059687981  0.058594669            3 
 3195000   0.73954251    -3.414013    2285.2339   0.05960443  0.058583674            4 
 3196000   0.73313363   -3.4488409    2280.9415   0.05947386  0.058572627            8 
 3197000   0.74729951   -3.4296406    2290.4288  0.059702554  0.058561597            6 
 3198000   0.72943032   -3.4288761    2284.2215  0.059522136  0.058550559            5 
 3199000   0.74681679   -3.4298976    2289.0433  0.059629138  0.058539408            6 
 3200000   0.73803586    -3.424267    2291.2697  0.059668482  0.058528333            4 
 3201000   0.74728624   -3.4161816    2293.3662   0.05970442  0.058517238            3 
 3202000   0.73887409   -3.4333424    2288.0803  0.059548207  0.058506069            5 
 3203000   0.74406868    -3.439662    2284.5558  0.059437919  0.058494965            6 
 3204000   0.73654338   -3.4528583    2284.4068  0.059415491  0.058483765            3 
 3205000   0.73684904   -3.4467267    2289.9083  0.059539998  0.058472607            6 
 3206000   0.73130618   -3.4155817    2292.2558  0.059582445  0.058461552            5 
 3207000   0.74280181   -3.4381661    2289.7133  0.059497799  0.058450373            3 
 3208000    0.7211941   -3.4265652    2292.3947  0.059548906  0.058439212            3 
 3209000   0.74760531   -3.4648687    2284.2763  0.059319526  0.058428174            4 
 3210000   0.75901428    -3.422558    2292.0578  0.059503057  0.058417158            3 
 3211000   0.73510307   -3.4189491    2295.3562  0.059570128  0.058406165            4 
 3212000   0.72757471   -3.4290235    2292.7325  0.059483513  0.058395178            5 
 3213000   0.73650757   -3.4207392    2290.6932  0.059412108  0.058384156            3 
 3214000   0.72933746   -3.4255279    2292.3314  0.059436098  0.058373084           10 
 3215000   0.74260054   -3.4366899    2295.9259   0.05951078  0.058361972            8 
 3216000     0.740115   -3.4378715    2292.4472  0.059402135  0.058350779            3 
 3217000   0.72589687   -3.4377925    2290.9254   0.05934425  0.058339675            2 
 3218000   0.73862552   -3.4289094    2288.9996  0.059275938  0.058328542            5 
 3219000   0.74465331   -3.4295964    2295.4537  0.059424606   0.05831759            9 
 3220000   0.72953193   -3.4405062    2297.4667  0.059458249  0.058306495            2 
 3221000    0.7282973   -3.4285012    2294.6142  0.059365989   0.05829543            8 
 3222000   0.74620512   -3.4381894    2296.3782  0.059393188  0.058284344            7 
 3223000   0.72952016   -3.4166494    2299.4914  0.059455253  0.058273222            4 
 3224000   0.73975567   -3.4125275    2293.9133   0.05929263  0.058262061            3 
 3225000   0.74522067   -3.4400408    2296.2642  0.059334991  0.058250854            2 
 3226000    0.7318806   -3.4548411    2294.7899  0.059278515  0.058239818            7 
 3227000   0.72889808   -3.4341079    2293.8506  0.059235891  0.058228541            5 
 3228000   0.74259995   -3.4320149    2292.8831  0.059192562  0.058217252            5 
 3229000   0.72536497    -3.415626    2295.7914  0.059249287  0.058206165            7 
 3230000   0.73035394   -3.4173729    2295.2244  0.059216315  0.058194967            6 
 3231000   0.72223032   -3.4409597    2290.1607  0.059067387  0.058183744            9 
 3232000   0.73697571   -3.4422418    2292.8423  0.059118253  0.058172554            3 
 3233000   0.74611932    -3.440947    2295.4479  0.059167128  0.058161352            8 
 3234000   0.74338242   -3.4230326    2297.8966  0.059211932  0.058150205            2 
 3235000    0.7426699   -3.4336474    2298.3529  0.059205381  0.058139194            5 
 3236000   0.75435106   -3.4444849    2292.4954  0.059036243  0.058128085            2 
 3237000   0.73904741   -3.4426437    2297.2368  0.059140069  0.058116907            6 
 3238000   0.73687199   -3.4570863    2296.2766  0.059097091   0.05810575            4 
 3239000   0.73829436    -3.444221    2295.3283  0.059054447   0.05809447           14 
 3240000   0.73132547   -3.4607859    2294.4079  0.059012548  0.058083213            4 
 3241000   0.72121296    -3.440962    2301.5499  0.059177978  0.058071987            5 
 3242000   0.73440371   -3.3989034    2298.9329  0.059092457  0.058060858            3 
 3243000   0.74655349   -3.4281957    2294.6018  0.058962941   0.05804978            2 
 3244000   0.71711868   -3.4295401    2307.9684  0.059288132  0.058038644            3 
 3245000   0.72589873   -3.4151897    2296.3161  0.058970623  0.058027512            3 
 3246000   0.74281385   -3.4374215     2293.503  0.058880237  0.058016276            5 
 3247000   0.72895553   -3.4264805    2302.4263  0.059091118  0.058005055            4 
 3248000   0.74151337   -3.4408092    2299.5894  0.059000138  0.057993817            3 
 3249000   0.74350561   -3.4500884     2299.146  0.058970607  0.057982622            6 
 3250000   0.72325167   -3.4496024    2305.0997  0.059105122  0.057971479           11 
 3251000    0.7254126   -3.4210299    2302.7191  0.059025918  0.057960346            7 
 3252000   0.73009198   -3.4276363    2301.4259  0.058974628  0.057949165            5 
 3253000   0.73118646   -3.4515008     2295.684  0.058809407  0.057938019            7 
 3254000    0.7262294   -3.4380697    2298.5786  0.058865464  0.057926826            4 
 3255000   0.74353761   -3.4087997    2299.4977  0.058870909  0.057915671            3 
 3256000    0.7339743   -3.4240836    2307.9173  0.059068318   0.05790458            4 
 3257000   0.72004344   -3.4277892    2304.8433   0.05897153  0.057893568            3 
 3258000   0.72795076   -3.4202098    2301.2779  0.058862234  0.057882465            5 
 3259000   0.73078553   -3.4599583    2306.7214  0.058983364  0.057871321           12 
 3260000   0.73129464   -3.4291755     2306.951   0.05897114  0.057860205            3 
 3261000   0.72853951   -3.4269983    2303.5688  0.058866627  0.057849034            7 
 3262000   0.74365257   -3.4202007    2306.9677   0.05893541  0.057837869            5 
 3263000   0.72188227   -3.4263894    2298.8893  0.058711036  0.057826728            6 
 3264000   0.72733773   -3.4515201    2302.1884  0.058777279  0.057815584            2 
 3265000    0.7276424   -3.4312499    2295.3974  0.058585948  0.057804352            5 
 3266000   0.72670951   -3.4415011    2301.8765  0.058733325  0.057793164            5 
 3267000   0.73739826   -3.4409502    2304.5973  0.058784749  0.057782017            3 
 3268000   0.72945656   -3.4309068    2303.2778  0.058733113  0.057770792            6 
 3269000    0.7067457   -3.4376896    2306.5217  0.058797842  0.057759715            7 
 3270000   0.71902905   -3.4646857     2301.868  0.058661264  0.057748525            5 
 3271000   0.71265309   -3.4347699     2306.747  0.058767628  0.057737337            6 
 3272000   0.72677732   -3.4614974    2296.4601  0.058487676  0.057726098            4 
 3273000   0.74407998   -3.4515187    2304.9716  0.058686516  0.057714963            7 
 3274000   0.72895711   -3.4335309    2301.8918  0.058590201  0.057703795            6 
 3275000   0.72965568   -3.4535644    2304.4871   0.05863835  0.057692622            4 
 3276000   0.73160221   -3.4189058    2311.4801  0.058798335  0.057681441            4 
 3277000   0.73161554   -3.4336729    2300.8252  0.058509439  0.057670377            4 
 3278000    0.7253049   -3.4332159    2307.1517  0.058652422  0.057659293            3 
 3279000   0.72699012   -3.4705441    2303.1856   0.05853374   0.05764815            4 
 3280000   0.72526659   -3.4413225    2305.8835  0.058584439  0.057637124            4 
 3281000   0.72208674   -3.4361357    2305.1473  0.058547884  0.057626082            5 
 3282000   0.72874405   -3.4459365    2312.8957  0.058726784  0.057614948            5 
 3283000   0.72415018   -3.4635915    2311.7318  0.058679354  0.057603812            3 
 3284000   0.72372066   -3.4520107    2305.3253  0.058498916  0.057592579            7 
 3285000   0.72521533   -3.4383701     2315.517  0.058739649  0.057581435            7 
 3286000   0.73512084   -3.4690321    2308.5607  0.058545363  0.057570235            3 
 3287000   0.71217127   -3.4313889    2311.7596  0.058608651  0.057559142            5 
 3288000   0.75456463   -3.4424929    2315.1949  0.058677892  0.057548078            3 
 3289000   0.73388876   -3.4638313    2304.0429  0.058377492  0.057536951            3 
 3290000   0.72512243   -3.4410389    2318.5915  0.058728256  0.057525839            4 
 3291000   0.72830752   -3.4537725    2308.1365  0.058445674  0.057514634            8 
 3292000   0.71813282   -3.4445035     2318.798  0.058697803   0.05750339            6 
 3293000   0.72423662   -3.4536304    2308.8868  0.058429163  0.057492173            9 
 3294000   0.71064794   -3.4440462    2299.0493  0.058162549  0.057480906            9 
 3295000   0.70849423    -3.442057    2311.4752   0.05845916  0.057469663            8 
 3296000   0.70738027   -3.4530033    2313.2931  0.058487386  0.057458482            6 
 3297000   0.73705567   -3.4469048    2305.6683  0.058276927  0.057447261            5 
 3298000   0.72496229   -3.4677075    2309.2975  0.058350958  0.057435972            4 
 3299000   0.72511452   -3.4674422    2312.7531  0.058420558  0.057424718            6 
 3300000   0.73030427   -3.4629619    2307.3725  0.058266983  0.057413383            4 
 3301000   0.71090483   -3.4542177    2303.8637  0.058160753  0.057402162            3 
 3302000   0.73143547    -3.460366    2305.5242  0.058185045  0.057390961            5 
 3303000   0.73550378   -3.4596925    2312.1789  0.058335325  0.057379644            7 
 3304000   0.71993724   -3.4326294    2315.5673  0.058403131  0.057368408            3 
 3305000   0.72424422   -3.4389702    2311.1035  0.058272908   0.05735723            3 
 3306000    0.7228418   -3.4486683    2320.2949  0.058486965  0.057345947            4 
 3307000   0.73005385   -3.4453087    2315.8976  0.058358472   0.05733478            3 
 3308000   0.71917515   -3.4609054    2309.1515  0.058170886   0.05732357            4 
 3309000   0.73678041   -3.4563802    2310.0184  0.058175137  0.057312262            4 
 3310000   0.72124862   -3.4312944    2314.0416  0.058258853  0.057300994           11 
 3311000   0.72184108   -3.4673741    2311.3183  0.058172714  0.057289607            9 
 3312000   0.71955161   -3.4514451    2311.4337  0.058158053  0.057278283            6 
 3313000   0.73949256   -3.4332691    2313.4989  0.058192447  0.057266996            7 
 3314000    0.7192961   -3.4556594    2317.8752  0.058284934  0.057255733            5 
 3315000   0.72217688   -3.4739766    2314.7752  0.058189421   0.05724444            4 
 3316000   0.70329078   -3.4779584    2319.6995  0.058295624  0.057233052            3 
 3317000   0.71620568   -3.4670189    2310.3392   0.05804289   0.05722168            9 
 3318000   0.73522972   -3.4448199    2308.9991   0.05799174  0.057210271            7 
 3319000   0.72359035   -3.4488924     2312.437  0.058060584  0.057198906            4 
 3320000   0.73295971   -3.4360769       2319.8  0.058227912  0.057187552            4 
 3321000   0.71404041   -3.4522064    2307.6985  0.057906718  0.057176293            5 
 3322000   0.71393582   -3.4637849    2325.0477  0.058324496  0.057165026            3 
 3323000   0.72244108   -3.4721589    2318.0965  0.058132623  0.057153725            5 
 3324000   0.70750163   -3.4408841    2316.4286   0.05807332  0.057142453            7 
 3325000   0.73665983   -3.4382444    2307.8939  0.057841952  0.057131184            4 
 3326000   0.72165037   -3.4709457    2307.9377  0.057825658  0.057119796            7 
 3327000   0.72724946   -3.4662188    2309.6983  0.057852378  0.057108334            5 
 3328000   0.70661379   -3.4249789    2317.4252  0.058028476  0.057096872            6 
 3329000   0.71486789   -3.4361526    2320.8906  0.058097793   0.05708552            4 
 3330000   0.73236433    -3.456211    2318.4329  0.058018841   0.05707408            2 
 3331000   0.71887077   -3.4627845    2317.3703  0.057974839  0.057062555            8 
 3332000   0.70951534   -3.4369766    2313.6447  0.057864264  0.057051023            4 
 3333000   0.74351477   -3.4846856    2314.2111  0.057861063  0.057039474            4 
 3334000   0.71959908   -3.4456607    2314.6808  0.057855448  0.057027971            4 
 3335000   0.71138605   -3.4521678    2313.7309  0.057814366  0.057016562           10 
 3336000   0.71694983   -3.4400292    2318.6024  0.057918726  0.057005205            4 
 3337000    0.7044719   -3.4443257    2320.6581  0.057952704  0.056993774            6 
 3338000   0.71424174   -3.4849906    2316.6557  0.057835423  0.056982302            4 
 3339000   0.72677156    -3.471502    2317.4108  0.057836946  0.056970816            7 
 3340000   0.72650985   -3.4556215    2313.2062  0.057714725  0.056959267            5 
 3341000   0.70889568   -3.4634789    2319.8377  0.057862857   0.05694779            7 
 3342000   0.70623291   -3.4483807    2315.2639  0.057731496   0.05693629            6 
 3343000   0.71002424   -3.4550708    2317.5277  0.057770659  0.056924821            7 
 3344000   0.72416922    -3.471215    2317.9215  0.057763195  0.056913295            7 
 3345000   0.71740282   -3.4844625    2310.8528  0.057569825   0.05690182            4 
 3346000   0.72055911   -3.4578037    2311.1723  0.057560577  0.056890342            8 
 3347000   0.71897068   -3.4502407    2322.4588  0.057824391  0.056878812            5 
 3348000   0.72209208   -3.4747148    2314.3703  0.057605792  0.056867315            5 
 3349000   0.72404475    -3.485642    2321.8695  0.057775194  0.056855823            7 
 3350000   0.71762417   -3.4539975    2322.2156  0.057766557  0.056844456            5 
 3351000   0.71796817   -3.4521006    2324.0067  0.057793859  0.056833127            4 
 3352000   0.71689534   -3.4644753    2324.1241  0.057779537  0.056821765            6 
 3353000   0.71960128   -3.4794367    2321.0673  0.057686334  0.056810375            4 
 3354000   0.71228296    -3.476218    2326.5201  0.057804614  0.056799044            4 
 3355000   0.72672834   -3.4509178    2324.7932   0.05774449  0.056787651            5 
 3356000    0.7206943   -3.4718486    2317.8296  0.057554371  0.056776232            3 
 3357000   0.72222042   -3.4772451    2321.8416  0.057636818  0.056764748            7 
 3358000   0.72172709    -3.476418    2322.6062  0.057638629  0.056753374            4 
 3359000   0.70804942   -3.4630889    2321.4056  0.057591684  0.056742097            6 
 3360000   0.70549211   -3.4577272    2328.0728  0.057739902  0.056730852            7 
 3361000   0.72184172   -3.4936504    2318.3068   0.05748058  0.056719472            6 
 3362000   0.71145338   -3.4636317    2321.7261  0.057548238   0.05670814            5 
 3363000   0.70390701   -3.4715534    2320.1351  0.057491701  0.056696741            4 
 3364000   0.70693992   -3.4984435    2317.8561  0.057418155   0.05668533            9 
 3365000   0.73796053   -3.4804353    2321.2478  0.057485087  0.056673901            5 
 3366000    0.7055322   -3.4560387    2323.5362  0.057524664  0.056662497            7 
 3367000   0.71916371   -3.4889629    2322.7107  0.057487146  0.056651037            3 
 3368000   0.70538366   -3.4482281    2322.9921  0.057477041  0.056639618            4 
 3369000   0.71141139   -3.4529166     2331.135  0.057661397  0.056628258            6 
 3370000   0.71026397   -3.4761534    2323.4887   0.05745521  0.056616838            4 
 3371000   0.71959882   -3.4680451    2322.5283  0.057414424  0.056605473            7 
 3372000   0.71839065   -3.4520565    2330.9418  0.057605323  0.056594115           10 
 3373000   0.70894036   -3.4809852    2328.2754  0.057522369  0.056582619            7 
 3374000   0.71048472   -3.4845524    2319.1404  0.057279699  0.056571115            9 
 3375000   0.71243375   -3.4780104    2323.3374  0.057366355  0.056559656            4 
 3376000   0.69967421   -3.4683703    2327.8417  0.057460549  0.056548219            5 
 3377000   0.71397139   -3.4742073    2326.3135   0.05740582  0.056536821            4 
 3378000   0.70582407   -3.4704237    2324.3832  0.057341207  0.056525481           12 
 3379000   0.73020732   -3.4678425    2321.5655  0.057254747  0.056514124            8 
 3380000   0.69446545   -3.4577248    2329.4525  0.057432261  0.056502713            3 
 3381000   0.71129402   -3.4593798    2327.4861  0.057366808  0.056491348            3 
 3382000   0.70083445   -3.4827173    2328.6762   0.05737917  0.056480064            3 
 3383000   0.70554554    -3.472236    2324.1227  0.057250043  0.056468687            5 
 3384000   0.71325435   -3.4650744    2328.3984  0.057338416  0.056457304            5 
 3385000   0.71629933   -3.4535052    2329.8554  0.057357347  0.056445974            9 
 3386000   0.71939415   -3.4548772    2332.1657  0.057397265  0.056434674            3 
 3387000   0.71658311   -3.4742016    2322.3027  0.057137651  0.056423342            9 
 3388000   0.71804855   -3.4705119    2329.9311   0.05730842  0.056411972            4 
 3389000    0.7073255   -3.4798033    2338.2628   0.05749638  0.056400669            7 
 3390000   0.68936825   -3.4786634    2330.8083  0.057296173  0.056389356            4 
 3391000   0.70733821   -3.4569168    2332.5516  0.057322117  0.056378065            4 
 3392000   0.70752915   -3.4859975    2323.5549   0.05708419  0.056366784            4 
 3393000   0.70495233   -3.4804854    2324.3875  0.057087815  0.056355417            4 
 3394000    0.6945768   -3.4737771    2335.0901  0.057333778  0.056344188            3 
 3395000   0.71918308   -3.4704143    2335.5575  0.057328364  0.056332945            5 
 3396000   0.71531737   -3.4763883    2334.6054  0.057288117  0.056321687            5 
 3397000   0.71030607    -3.451439    2337.1525  0.057333738  0.056310357            6 
 3398000   0.69406164   -3.4830429    2330.1954  0.057146248   0.05629904            5 
 3399000   0.71000138   -3.4607852    2328.0205  0.057076114  0.056287611            4 
 3400000   0.70562857   -3.4722842    2336.8595  0.057275968  0.056276221            5 
 3401000   0.69761233   -3.4907092    2330.4295  0.057101576   0.05626484           10 
 3402000   0.72389745   -3.4651929    2331.3417  0.057107136  0.056253373            5 
 3403000   0.71960021   -3.4541259    2330.2667  0.057064029  0.056241947            6 
 3404000   0.69925692   -3.4459374     2332.456  0.057100861  0.056230556            5 
 3405000   0.69281271   -3.4778158    2327.7071  0.056967869  0.056219097            2 
 3406000   0.71496006   -3.4844842    2318.5648  0.056727461  0.056207623            5 
 3407000   0.70877451   -3.4630195    2330.1398  0.056993929  0.056196077            5 
 3408000   0.72401352   -3.4907326    2327.5983   0.05691506  0.056184514            5 
 3409000   0.69982403   -3.4756927    2329.5355  0.056945719  0.056173036            4 
 3410000   0.70674472   -3.4789883    2330.6571  0.056956429   0.05616148           10 
 3411000   0.69465963   -3.4843546    2335.9314  0.057068586  0.056149966            8 
 3412000   0.70663679   -3.4549065     2335.634  0.057044596   0.05613856            6 
 3413000   0.68767122   -3.4553019    2334.8314  0.057008287  0.056127124            8 
 3414000   0.71491013   -3.4805417    2338.0113  0.057069208  0.056115718            7 
 3415000   0.68689909   -3.4557636    2338.7117  0.057069587  0.056104257            3 
 3416000   0.69849512   -3.4803302    2329.6671  0.056832239  0.056092918            6 
 3417000   0.69446465   -3.4726647    2336.7564  0.056988498  0.056081505           13 
 3418000   0.69679631   -3.4650649    2331.3458  0.056839912  0.056070038            6 
 3419000   0.71265809    -3.480979     2331.493  0.056826875   0.05605857           11 
 3420000   0.68625197   -3.4786678    2331.8985   0.05682014  0.056047121            3 
 3421000   0.71184087   -3.4776928    2330.8467  0.056777907  0.056035708            6 
 3422000   0.70401486   -3.4467035    2337.7182  0.056928653  0.056024347            4 
 3423000    0.7060906    -3.510965      2328.16  0.056679326   0.05601286            5 
 3424000   0.71036085   -3.5051757    2333.9858  0.056804562   0.05600124            3 
 3425000   0.70010444   -3.4824447    2336.5193  0.056849619  0.055989766            5 
 3426000   0.70028042    -3.479824    2335.0727  0.056797838  0.055978338            9 
 3427000   0.70495488   -3.4995975    2331.7261  0.056699885   0.05596692            4 
 3428000    0.7066244   -3.4998395    2334.7532  0.056756934    0.0559555            6 
 3429000   0.71782644   -3.4743316     2331.356  0.056657821  0.055944113            6 
 3430000   0.70905387   -3.4784904     2332.098   0.05665933  0.055932677            6 
 3431000   0.71776041   -3.4786283    2328.4629  0.056554526  0.055921155            3 
 3432000   0.71519859   -3.4921651    2334.4669  0.056683832  0.055909683            8 
 3433000   0.71439068    -3.504038    2336.9908  0.056728586  0.055898207           10 
 3434000   0.70338894   -3.5007351    2337.8328  0.056732498  0.055886732            4 
 3435000   0.69320803   -3.4875726     2332.838  0.056594808  0.055875175            9 
 3436000   0.69623923   -3.4782362    2333.1261  0.056585324  0.055863551            3 
 3437000   0.69936804   -3.4986574    2330.0988  0.056495462  0.055851932            5 
 3438000    0.6904422   -3.4793965    2330.1115  0.056479336  0.055840359            6 
 3439000   0.71905662   -3.4588572     2342.981  0.056774765  0.055828803            5 
 3440000    0.6910028   -3.4763248     2338.691  0.056654336  0.055817286            2 
 3441000   0.70666312   -3.4793641    2334.4479  0.056535113  0.055805726            4 
 3442000   0.70221192   -3.4921282    2337.8524  0.056601113  0.055794207            7 
 3443000   0.68722725   -3.5177076    2328.2307  0.056351794  0.055782621            4 
 3444000   0.69973555    -3.492989    2337.8762  0.056568821  0.055771098           14 
 3445000   0.69700747   -3.4923777    2333.4038  0.056444214  0.055759649            3 
 3446000   0.70205473   -3.4897526     2329.744   0.05633933  0.055748109            6 
 3447000   0.68365325   -3.4694691    2335.0201  0.056450539   0.05573658            4 
 3448000   0.70655903   -3.4912548    2340.6842   0.05657106  0.055725164            3 
 3449000   0.70542701    -3.473758    2340.5235  0.056550777  0.055713677            2 
 3450000    0.7081491   -3.4833667    2342.8021  0.056589423  0.055702182            4 
 3451000   0.70287358   -3.4767368    2342.3901  0.056563075  0.055690698            6 
 3452000   0.71557433   -3.4948996    2338.5454  0.056453876  0.055679148            5 
 3453000   0.70521262   -3.5010305    2342.2279  0.056526399  0.055667579            6 
 3454000   0.69562691   -3.4800257    2336.1205  0.056362684  0.055656082            4 
 3455000   0.70470861    -3.483174     2338.578  0.056405644  0.055644598            5 
 3456000   0.69351874   -3.4969439    2337.9708  0.056374682   0.05563317            6 
 3457000   0.69704131   -3.4866391    2339.5288   0.05639593  0.055621602            6 
 3458000   0.68173998   -3.5039884    2348.8552  0.056604377  0.055610081            3 
 3459000     0.693591   -3.4770794    2336.2102  0.056283372  0.055598533            8 
 3460000   0.69230026   -3.4764352    2340.0733  0.056360147  0.055586928            9 
 3461000   0.69891706   -3.4886532    2339.6317   0.05633323   0.05557544            5 
 3462000   0.68923116   -3.4942211    2343.0698  0.056399716  0.055563833            9 
 3463000   0.69930314   -3.4979205    2341.4621  0.056344743  0.055552318            5 
 3464000   0.70108998    -3.517657    2338.0303  0.056245918  0.055540849            5 
 3465000   0.70131972   -3.4900392    2334.8102  0.056152243  0.055529376            4 
 3466000   0.68957622   -3.5164114    2338.3089  0.056220159  0.055517764           17 
 3467000   0.68729222   -3.4664048    2349.9015  0.056482586  0.055506241            4 
 3468000   0.70209901   -3.4969337    2349.2058  0.056449583  0.055494777            5 
 3469000   0.71578032   -3.4917773    2346.3584  0.056364908  0.055483359            7 
 3470000   0.70985675   -3.4835849    2339.3837  0.056181164  0.055471818            4 
 3471000   0.69380828   -3.4996392    2341.9838  0.056227404  0.055460318            4 
 3472000   0.70099103   -3.4859987    2348.6697  0.056371681  0.055448875            3 
 3473000   0.69657541   -3.4637725    2337.6169  0.056090241  0.055437544            5 
 3474000   0.69910872   -3.4878323    2341.9329  0.056177625  0.055426121            4 
 3475000   0.68992845   -3.4726917    2345.6473  0.056250535  0.055414713            3 
 3476000   0.69523385    -3.476399    2350.0494  0.056339889  0.055403341            5 
 3477000   0.69827982   -3.5049513    2343.9134  0.056176623  0.055391865            7 
 3478000    0.6975852    -3.482782    2342.6173  0.056129416  0.055380363            6 
 3479000    0.7033403   -3.4735429    2339.9425  0.056049212  0.055368893            8 
 3480000   0.69790568   -3.4997819    2345.2397  0.056159955   0.05535742            5 
 3481000   0.68536323   -3.5071466    2349.2996  0.056241012  0.055346002            4 
 3482000   0.69913542   -3.4894754    2348.4075   0.05620351  0.055334577            6 
 3483000    0.6980309   -3.5075562    2340.3809  0.055995332  0.055323015            3 
 3484000   0.69851542   -3.5172721    2344.0037  0.056065913  0.055311517            7 
 3485000   0.69911042   -3.4730065    2349.3988  0.056178834  0.055300051           12 
 3486000   0.70357195   -3.4898994    2343.3146  0.056017274  0.055288492            9 
 3487000   0.68709612   -3.4975397    2350.2949  0.056168025   0.05527698            4 
 3488000   0.69431363   -3.4907623    2349.2826  0.056127739  0.055265448            5 
 3489000   0.69674768   -3.4938366    2355.0758   0.05625002  0.055254035            5 
 3490000    0.6925253   -3.4833422    2355.9405  0.056254549  0.055242695            3 
 3491000    0.7140794   -3.4825135     2354.996  0.056215888   0.05523126            3 
 3492000   0.69267261   -3.5069072    2348.0963  0.056035135  0.055219818            8 
 3493000   0.69618106   -3.4885828    2347.0853  0.055994974  0.055208449            4 
 3494000   0.68256856   -3.5071864    2353.5936  0.056134173  0.055197177            4 
 3495000   0.70768502   -3.4992507    2356.2907   0.05618242  0.055185818            6 
 3496000   0.68866314   -3.5059602    2344.4367  0.055883788  0.055174541            7 
 3497000   0.69898508   -3.5154459    2346.9573  0.055927875  0.055163215            4 
 3498000   0.68764891   -3.5035021     2351.828  0.056027921  0.055151845            4 
 3499000   0.69500794   -3.4993514    2349.1247  0.055947526  0.055140547            3 
 3500000    0.6883018   -3.4935285     2348.398  0.055914238  0.055129292            6 
 3501000    0.7016109   -3.5032875    2354.7344  0.056049092  0.055117974            8 
 3502000   0.68685115   -3.5011518    2360.4404  0.056168864   0.05510683            3 
 3503000   0.68707456   -3.5016552    2359.7114  0.056135489  0.055095633            6 
 3504000   0.68683522   -3.4986036    2364.7934  0.056240329  0.055084397            2 
 3505000   0.69311978   -3.4847592     2357.335  0.056046958  0.055073196            7 
 3506000   0.68752313   -3.4997011    2346.6434  0.055776846   0.05506194            4 
 3507000   0.69401966   -3.4964623    2357.0203  0.056007515  0.055050722            5 
 3508000   0.69187796   -3.5166167    2351.8568   0.05586889  0.055039542           10 
 3509000   0.69386475   -3.5031208    2353.6737  0.055896118  0.055028193            3 
 3510000   0.70053271   -3.5288942    2357.1683  0.055963159  0.055016916            9 
 3511000    0.6793473   -3.4947668    2357.9292  0.055965281  0.055005708            4 
 3512000   0.68805304   -3.5042687    2359.2748  0.055981275  0.054994461            3 
 3513000   0.69718469   -3.5204453     2354.801  0.055859214  0.054983277            4 
 3514000   0.68869283    -3.496086    2361.5591  0.056003582  0.054972027            9 
 3515000   0.68148899   -3.5056445    2357.1326  0.055882708  0.054960835            7 
 3516000   0.70310982   -3.4929041    2354.7219  0.055809678  0.054949615            6 
 3517000     0.683451   -3.5273523    2355.1521  0.055804001  0.054938286           10 
 3518000   0.69154409   -3.5053729    2359.6327  0.055894275  0.054926973            4 
 3519000   0.71103353   -3.5229765    2355.7622  0.055786735  0.054915654            3 
 3520000   0.69723909   -3.4979017    2355.3212  0.055760444  0.054904362            7 
 3521000   0.69758233   -3.4996495    2361.4529  0.055889731  0.054893133            6 
 3522000   0.69598424   -3.5238173    2358.2097  0.055797126  0.054881976           13 
 3523000   0.68556115   -3.4994616     2356.862  0.055749408   0.05487082            6 
 3524000   0.69326407   -3.4844276     2367.677  0.055989335  0.054859723            8 
 3525000   0.68087375   -3.4784844    2366.2434  0.055939561  0.054848542            6 
 3526000   0.67931425   -3.5117026    2354.9905  0.055657744  0.054837427            3 
 3527000   0.69748227   -3.5044925    2352.3831  0.055580358  0.054826353           10 
 3528000   0.68573252   -3.4926577    2363.1383  0.055818648  0.054815282            6 
 3529000   0.67147011   -3.4891219    2362.5427  0.055788767  0.054804167           10 
 3530000   0.68409665   -3.5294547    2356.1367  0.055621735  0.054792943            7 
 3531000   0.68087878   -3.5208695    2345.7187  0.055360114  0.054781641           10 
 3532000   0.68841718    -3.536469    2361.1051  0.055707462  0.054770391            8 
 3533000   0.69157386   -3.5115313    2362.0822  0.055714741  0.054759227            6 
 3534000   0.69186337   -3.4999607    2356.8325  0.055575187  0.054748048            3 
 3535000    0.6916894   -3.5129843    2362.0584   0.05568266  0.054736898            4 
 3536000   0.67798134   -3.5288889    2362.5844  0.055679307  0.054725672            9 
 3537000   0.69046301   -3.5135613    2365.1582  0.055724207  0.054714488            2 
 3538000   0.66079547   -3.4946258    2351.2554  0.055380992  0.054703302            6 
 3539000   0.69300099   -3.5084826    2360.0549  0.055572545  0.054692137            8 
 3540000   0.68509002   -3.5271644    2358.9003  0.055529668  0.054681017            9 
 3541000   0.68144264   -3.5045833    2368.4423  0.055738547  0.054669866            7 
 3542000   0.68143851   -3.5391681    2364.9144  0.055639807  0.054658709            4 
 3543000   0.68386516   -3.5192137    2367.8569  0.055693312   0.05464759            4 
 3544000   0.68271414   -3.5386555     2363.315  0.055570799  0.054636395            6 
 3545000   0.68243607   -3.5021648    2366.6201  0.055632817  0.054625145            4 
 3546000     0.688907   -3.5050231    2363.9533  0.055554457  0.054613997            7 
 3547000   0.69754864   -3.5228871    2358.5088  0.055410883  0.054602876            4 
 3548000   0.67544856   -3.4967762     2364.297  0.055531215  0.054591698            5 
 3549000   0.67147292   -3.5027371    2366.5613  0.055568735    0.0545805            3 
 3550000   0.68739096   -3.5238863    2368.3567  0.055595228  0.054569317            4 
 3551000   0.69941239   -3.5127702     2363.597  0.055467873  0.054558124            4 
 3552000    0.6757122   -3.5098412    2359.4236  0.055354345  0.054546934            6 
 3553000   0.68713115   -3.5123554     2368.359  0.055548339  0.054535711           13 
 3554000   0.67257578   -3.5269875    2360.4178  0.055346507   0.05452459            7 
 3555000    0.6834106    -3.500202    2362.5916  0.055381895  0.054513305            8 
 3556000   0.66978074    -3.522509    2361.4332  0.055339173  0.054502053            5 
 3557000   0.68116173   -3.5336378    2366.8683  0.055450949  0.054490781            6 
 3558000   0.68881186   -3.5138186    2364.0211  0.055368679  0.054479616            6 
 3559000   0.68248166   -3.5341151    2369.8685  0.055490038  0.054468375            4 
 3560000   0.69460175   -3.5165136    2374.2486   0.05557698  0.054457245            4 
 3561000   0.67228601   -3.5186907    2367.6384  0.055406683  0.054446098            5 
 3562000   0.69059794   -3.5159999    2369.7999  0.055441696  0.054434821            9 
 3563000   0.68061002   -3.5093508    2366.2716  0.055343614   0.05442363            4 
 3564000   0.69388138   -3.5258579    2368.4309  0.055378575  0.054412475           15 
 3565000   0.66117516   -3.5110268    2367.4819  0.055340857  0.054401374            3 
 3566000   0.68147975   -3.5347803    2365.8142  0.055286366  0.054390269            7 
 3567000   0.67355587   -3.5475057    2366.0593  0.055276594  0.054379037            5 
 3568000   0.67953544   -3.5303251    2368.4607  0.055317187  0.054367848           12 
 3569000   0.67385793   -3.5368928    2362.5063  0.055162658  0.054356654            5 
 3570000    0.6987772   -3.5275537    2367.8921  0.055272925  0.054345586            9 
 3571000   0.68703154   -3.5407726    2371.3466  0.055338062  0.054334415            4 
 3572000   0.68527979   -3.5332288    2368.8248  0.055263736  0.054323303            6 
 3573000   0.68575565   -3.5116391    2364.5701  0.055149037  0.054312186            3 
 3574000   0.67168351   -3.5345215    2367.0744  0.055191998  0.054301001           10 
 3575000   0.69027239   -3.5242748    2371.7604   0.05528579  0.054289831            8 
 3576000   0.68167566   -3.5235197    2371.0095  0.055252831  0.054278635            6 
 3577000   0.67685948   -3.5109797    2367.9105  0.055165188  0.054267469            8 
 3578000    0.6736675   -3.5168675    2371.9552  0.055243973  0.054256289           10 
 3579000   0.66975525    -3.510541    2368.0249  0.055137023    0.0542451            6 
 3580000   0.67939269   -3.5252166    2366.7711  0.055092437   0.05423391            9 
 3581000   0.66812432   -3.5397705    2361.8129  0.054961671  0.054222734            7 
 3582000   0.67629255   -3.5441344    2374.2935   0.05523668  0.054211589            6 
 3583000   0.67680713    -3.518199    2375.1996  0.055242339   0.05420052            5 
 3584000   0.67360363   -3.5211865    2379.0688   0.05531689  0.054189428            5 
 3585000   0.69024094    -3.519117    2374.0996   0.05518595  0.054178307            8 
 3586000   0.67308885   -3.4971188    2375.8755  0.055211832  0.054167176            9 
 3587000    0.6781208   -3.5207372    2369.8961  0.055057525  0.054156006            5 
 3588000    0.6734811   -3.5224968    2366.8152  0.054970625  0.054144777            6 
 3589000   0.66964452   -3.5405251    2376.1992  0.055173197  0.054133609            5 
 3590000   0.66053271   -3.5254294    2372.5237   0.05507251  0.054122414            7 
 3591000   0.67953628   -3.5180403    2366.3548  0.054914017  0.054111281            6 
 3592000   0.68491201   -3.5457156    2366.7881  0.054908781  0.054100049            7 
 3593000   0.68584494   -3.5383841    2366.1772   0.05487933  0.054088914            3 
 3594000    0.6643367   -3.5419936    2358.8343  0.054693801  0.054077774            7 
 3595000   0.66561908   -3.5221988    2373.6059  0.055020998  0.054066533            7 
 3596000   0.67543656   -3.5279454    2368.2771   0.05488221  0.054055341            7 
 3597000   0.67585432    -3.533132    2374.7184   0.05501618  0.054044161           10 
 3598000   0.67930443   -3.5395636    2367.1276  0.054825078  0.054032955           13 
 3599000   0.67916935   -3.5286906    2375.0085  0.054992324  0.054021783            7 
 3600000   0.67659435   -3.5401667    2378.2662  0.055052459  0.054010722            4 
 3601000   0.66755153   -3.5109721    2376.8597  0.055004621  0.053999578            5 
 3602000    0.6799843   -3.5284644    2369.9802  0.054830191  0.053988434           12 
 3603000   0.67525638   -3.5347722    2375.4399  0.054941251  0.053977363            5 
 3604000   0.68215433   -3.5276008    2372.8603  0.054866359  0.053966258            8 
 3605000   0.65882479   -3.5484698    2380.1361  0.055019326   0.05395519            7 
 3606000   0.67740205    -3.531646    2375.2709  0.054891636  0.053944081            4 
 3607000   0.68364902   -3.5221832    2373.4444   0.05483422  0.053932924            5 
 3608000   0.68406597   -3.5291303    2379.4794  0.054958411  0.053921795            6 
 3609000   0.69525763   -3.5179204    2379.1081  0.054934611  0.053910643            5 
 3610000   0.67841598   -3.5296879    2376.7522  0.054865008  0.053899477           11 
 3611000    0.6689493    -3.527132    2375.8954  0.054830043  0.053888294           13 
 3612000   0.66957756    -3.527522    2379.0857  0.054888466  0.053877145            5 
 3613000   0.67101532   -3.5215651    2376.8621  0.054821988  0.053866039           11 
 3614000   0.67335566   -3.5170321    2387.6647  0.055055911  0.053854976            4 
 3615000   0.66612078   -3.5441543    2377.9334  0.054816354  0.053843795            4 
 3616000   0.68396672   -3.5330501      2377.58  0.054793049  0.053832741           10 
 3617000   0.66964504   -3.5282264    2378.4724  0.054798461  0.053821601           22 
 3618000   0.67606953   -3.5306424    2373.4123  0.054666766  0.053810419           15 
 3619000   0.67329013   -3.5530726    2373.1922  0.054646591  0.053799275            7 
 3620000   0.67349709   -3.5147034    2379.6127  0.054779298  0.053788122            6 
 3621000   0.66440764   -3.5495151    2373.9764  0.054634457  0.053776919            6 
 3622000   0.65905168   -3.5374483    2378.8534  0.054731581  0.053765745           10 
 3623000    0.6832199   -3.5310459    2385.3806  0.054866608  0.053754579            6 
 3624000   0.67404177   -3.5438113    2381.2093  0.054755548  0.053743421            7 
 3625000    0.6611012   -3.5336874    2383.4196  0.054791255  0.053732332            4 
 3626000   0.66626456   -3.5331784      2379.38  0.054683307  0.053721262            8 
 3627000    0.6763404   -3.5396093    2378.7145  0.054652939  0.053710063            3 
 3628000    0.6751318   -3.5550558    2370.2337  0.054443075   0.05369885           10 
 3629000   0.68744044   -3.5475952    2375.8911  0.054557984  0.053687603            5 
 3630000   0.67023145   -3.5388062    2373.1845  0.054480819  0.053676287            5 
 3631000    0.6614683   -3.5188522    2378.8455  0.054595738  0.053665025            8 
 3632000   0.66724024   -3.5230209    2372.2867  0.054430219  0.053653794            5 
 3633000   0.66748879    -3.534403    2381.3602  0.054623365  0.053642567            7 
 3634000   0.67569776   -3.5584672    2374.3943  0.054448594   0.05363125            2 
 3635000   0.66241437   -3.5303427     2375.989  0.054470175  0.053620021            9 
 3636000   0.67329093   -3.5318333    2374.8442  0.054428955  0.053608902            5 
 3637000   0.66941494   -3.5420949    2377.5512  0.054476015  0.053597693            7 
 3638000   0.64667166   -3.5194002      2379.47  0.054504994  0.053586376            5 
 3639000   0.65872543   -3.5269903    2380.3031  0.054509093  0.053575151            6 
 3640000   0.66392157   -3.5329995    2371.7064  0.054297308  0.053563798            4 
 3641000   0.68663099    -3.558127    2375.2171  0.054362746  0.053552633            7 
 3642000    0.6789992   -3.5219758    2379.7193  0.054450835  0.053541519           11 
 3643000   0.68017607   -3.5478955    2374.3713  0.054313553  0.053530334            6 
 3644000   0.68159107   -3.5590997    2378.9492  0.054403338  0.053519097            6 
 3645000   0.67063272   -3.5599915    2388.9791  0.054617722  0.053507949            8 
 3646000    0.6548598   -3.5401468    2379.5342  0.054386866  0.053496681            5 
 3647000   0.67430971   -3.5427452    2377.1383  0.054317208  0.053485454            6 
 3648000   0.67804412   -3.5262068    2380.2738  0.054373945  0.053474269           13 
 3649000   0.66979491   -3.5192188    2385.3123  0.054474108  0.053463134            4 
 3650000   0.66632508    -3.552942    2380.6047  0.054351706  0.053451924           11 
 3651000    0.6693404   -3.5070103    2388.9364  0.054526987  0.053440764            3 
 3652000   0.67765131   -3.5444524    2381.7265  0.054347537  0.053429619            8 
 3653000   0.67590087   -3.5446093    2377.8847   0.05424502  0.053418383            7 
 3654000   0.67870405   -3.5419354    2379.0812  0.054257462  0.053407089            7 
 3655000   0.67498651   -3.5464562    2382.0986  0.054311414  0.053395865            5 
 3656000   0.66870299   -3.5370497    2378.2624  0.054209117  0.053384674            4 
 3657000   0.67133066   -3.5629695    2375.5015  0.054131381   0.05337351           10 
 3658000   0.66665103   -3.5282919    2384.3794   0.05431883   0.05336228            4 
 3659000   0.67397622   -3.5492625    2386.3614  0.054349125  0.053351102            7 
 3660000   0.67709139   -3.5545509     2381.405  0.054221424  0.053339939            4 
 3661000   0.67342597   -3.5402176    2387.3362  0.054341624  0.053328783            2 
 3662000    0.6622718   -3.5285821    2383.2277  0.054233289  0.053317686            7 
 3663000   0.67315771   -3.5441742    2377.7624  0.054094149  0.053306464            3 
 3664000   0.66533422    -3.540686    2376.4574  0.054049705  0.053295199            8 
 3665000   0.69508299   -3.5617173    2377.9573  0.054069061  0.053284011            5 
 3666000   0.66097467   -3.5499518    2383.3597  0.054177116  0.053272694            7 
 3667000   0.66438225   -3.5438472    2388.8642  0.054287433  0.053261531            8 
 3668000   0.65389317   -3.5426647    2386.5202  0.054219379  0.053250373            6 
 3669000   0.65856542   -3.5626363    2377.9267  0.054009419   0.05323919            4 
 3670000   0.67432896   -3.5443094    2386.2398  0.054183466  0.053227974            3 
 3671000   0.66293152    -3.548811    2379.5864  0.054017671  0.053216826            5 
 3672000   0.66012048   -3.5260925    2384.8907  0.054123338  0.053205557            5 
 3673000   0.67328185   -3.5370973    2383.3007  0.054072527  0.053194355            5 
 3674000   0.65897832   -3.5554739    2383.9945  0.054073545  0.053183117            5 
 3675000   0.66581255   -3.5344781    2386.3731  0.054112769  0.053171951            6 
 3676000   0.66498734   -3.5273385     2386.345  0.054097412  0.053160774            9 
 3677000   0.66817933   -3.5465283    2382.9627  0.054006044  0.053149567            9 
 3678000   0.65455444    -3.543994    2389.0844  0.054130061  0.053138306            4 
 3679000   0.65849352     -3.55281    2389.2322  0.054118696  0.053127055            4 
 3680000   0.66405222    -3.562266    2392.4307  0.054176419  0.053115824            6 
 3681000   0.65477198   -3.5291696    2388.1446   0.05406467  0.053104685            9 
 3682000   0.67240573   -3.5556163    2384.3061   0.05396311  0.053093377            6 
 3683000   0.66761476   -3.5512153    2385.1989   0.05396866  0.053082064           14 
 3684000   0.65675376   -3.5117414    2387.3965  0.054003721  0.053070868            3 
 3685000   0.66714542   -3.5452795    2383.7818  0.053907322   0.05305968            8 
 3686000   0.66909817   -3.5543905     2392.143  0.054081728  0.053048459            8 
 3687000   0.65366093   -3.5370494    2383.0877  0.053862393  0.053037142            8 
 3688000   0.67121705   -3.5513153    2379.4324  0.053765195  0.053025948            3 
 3689000   0.65282868   -3.5342762    2388.2778  0.053950434  0.053014744            3 
 3690000   0.66539518   -3.5534428    2382.5701  0.053806913  0.053003452            5 
 3691000   0.66270972   -3.5459294    2388.5896   0.05392824  0.052992117           12 
 3692000   0.65364279   -3.5676749    2380.7491  0.053736663  0.052980856            7 
 3693000   0.67266191   -3.5815624    2383.0694   0.05377447  0.052969589            5 
 3694000   0.66772595   -3.5655822    2383.2162  0.053763225  0.052958272            7 
 3695000   0.64825769   -3.5596925    2389.4976  0.053890339   0.05294705            4 
 3696000   0.64932163   -3.5441273    2391.9912  0.053931979  0.052935929            6 
 3697000   0.65889743   -3.5737694    2385.8333  0.053778588  0.052924731            3 
 3698000   0.66178486   -3.5654093    2383.1581  0.053703762  0.052913441            5 
 3699000   0.66436833   -3.5526968    2385.8681  0.053750295  0.052902226            5 
 3700000   0.66273923   -3.5513696     2384.971  0.053715562  0.052891096            7 
 3701000   0.65793109   -3.5398755    2386.1813    0.0537283   0.05287984            4 
 3702000   0.66407543   -3.5381127    2386.2833  0.053716083  0.052868546            9 
 3703000   0.66729626   -3.5601345    2386.0141  0.053695519  0.052857299            7 
 3704000   0.65440156   -3.5268882    2394.0246  0.053861244  0.052846048            5 
 3705000   0.63816798   -3.5644353    2388.3304  0.053718633  0.052834798            4 
 3706000   0.66456086   -3.5692986    2388.0863  0.053698648   0.05282366            4 
 3707000   0.65794516   -3.5604047    2391.1657  0.053753389  0.052812342            9 
 3708000   0.67477283   -3.5847814    2393.1628  0.053783775  0.052801162            9 
 3709000   0.66018158   -3.5871434    2383.2083  0.053545617  0.052789877            5 
 3710000   0.66244495   -3.5694849    2385.6407  0.053585819  0.052778615            6 
 3711000   0.65401043   -3.5546014    2390.7738  0.053686648  0.052767373            8 
 3712000   0.66334538   -3.5609591    2388.3104  0.053616881  0.052756201           10 
 3713000    0.6447171   -3.5547637    2387.2679  0.053579044  0.052744933            4 
 3714000   0.66203822   -3.5556671     2389.346  0.053611247  0.052733712            7 
 3715000    0.6561275   -3.5534226    2390.6331  0.053625687  0.052722601            8 
 3716000   0.65082756   -3.5775732    2388.1407  0.053555361  0.052711413            7 
 3717000   0.64092679   -3.5618345    2390.9449  0.053603821  0.052700185            6 
 3718000   0.66564353   -3.5982105    2390.4043  0.053577289  0.052689008            7 
 3719000   0.65769871   -3.5624914    2386.5232  0.053475916  0.052677734            6 
 3720000   0.65132663   -3.5699078    2389.0197  0.053517467  0.052666449            9 
 3721000   0.66260328   -3.5404614    2398.1929  0.053708521  0.052655205            5 
 3722000   0.64436045   -3.5522925    2387.4071  0.053452604  0.052644072            6 
 3723000   0.64740007    -3.562478    2390.0005  0.053496296  0.052632842            8 
 3724000   0.65242609   -3.5631447    2390.3022   0.05348868  0.052621539            7 
 3725000      0.64961   -3.5617987     2391.499  0.053501097  0.052610331            4 
 3726000   0.65495597    -3.563031    2394.5646  0.053555301  0.052599075            6 
 3727000   0.64853616   -3.5847828    2386.1315  0.053352371  0.052587835            6 
 3728000   0.65690676   -3.5618355    2387.8424  0.053376306  0.052576707            6 
 3729000   0.66187306     -3.57202    2391.2987   0.05343923  0.052565549            8 
 3730000   0.65784272   -3.5804285    2393.9172  0.053483405  0.052554275            6 
 3731000   0.65387154   -3.5626343    2391.3011  0.053410639  0.052543116            9 
 3732000   0.65775846   -3.5554048    2390.6835  0.053382536  0.052531992            6 
 3733000   0.66848822   -3.5718984    2395.9269  0.053485287   0.05252086            9 
 3734000   0.65784155   -3.5707415     2395.703  0.053465967  0.052509624            8 
 3735000   0.64082575    -3.557863     2397.169   0.05348436  0.052498442            3 
 3736000   0.64971708   -3.5566876    2390.8342  0.053328744  0.052487306            8 
 3737000   0.64173563   -3.5652686    2394.8027  0.053402968   0.05247609            5 
 3738000    0.6607751   -3.5725209    2394.2803  0.053377036  0.052464972            8 
 3739000   0.65893222    -3.570475    2400.2636  0.053496113  0.052453772            9 
 3740000   0.65625905    -3.578604    2390.8104  0.053271176  0.052442648            5 
 3741000   0.63584222   -3.5826318    2392.5073  0.053294737   0.05243144            6 
 3742000   0.65496341   -3.5456115    2403.4376  0.053523909  0.052420255           17 
 3743000   0.66058384   -3.5516977    2394.3328  0.053306902  0.052409134            9 
 3744000   0.64578088   -3.5665817    2399.1221  0.053399262  0.052398067           10 
 3745000   0.65246595   -3.5541173    2401.1163  0.053429379   0.05238698            7 
 3746000    0.6544519   -3.5521866    2398.1174  0.053348403  0.052375904            6 
 3747000   0.66930386   -3.5652452    2395.1366  0.053267871  0.052364877           11 
 3748000   0.65750753   -3.5771674    2398.3043  0.053324091  0.052353771            5 
 3749000   0.65713709   -3.5675585    2398.8579  0.053322173  0.052342683            4 
 3750000   0.65567351   -3.5702809    2402.6448  0.053392107  0.052331599           13 
 3751000   0.65267327   -3.5744516    2400.7481  0.053335736  0.052320503            6 
 3752000    0.6456611   -3.5747555     2394.986  0.053193541  0.052309412            3 
 3753000   0.66720963    -3.563143    2402.6864  0.053350351  0.052298379           30 
 3754000   0.64675665   -3.5766837    2400.4081  0.053285563   0.05228728            5 
 3755000   0.64296175   -3.5513767     2398.872  0.053237283  0.052276181            6 
 3756000   0.65050635   -3.5537061    2399.2171  0.053230766  0.052265079            7 
 3757000   0.66344119   -3.5745448    2401.3015  0.053262831  0.052253936            7 
 3758000   0.64734127   -3.5822837    2392.0803   0.05304418  0.052242801            7 
 3759000   0.64941082   -3.5789506    2395.3636  0.053102855  0.052231678            5 
 3760000   0.62736242   -3.5565677    2393.3794  0.053044756  0.052220503            9 
 3761000   0.65230228   -3.5689283    2397.4511  0.053120871   0.05220933           12 
 3762000   0.64430347   -3.5677453    2397.6418  0.053110973  0.052198164            5 
 3763000   0.64901847   -3.5993066    2393.7883  0.053011522  0.052186879            7 
 3764000   0.64645641   -3.5839552    2387.9037  0.052867156  0.052175587            6 
 3765000   0.63623238   -3.5848301    2404.5566  0.053221703  0.052164409            4 
 3766000   0.64531264   -3.6009008    2395.1219  0.052998803  0.052153292           11 
 3767000   0.64231327   -3.5427919    2398.3762  0.053056726  0.052142121            6 
 3768000   0.64882826   -3.5808951    2395.6272  0.052981848  0.052130955            5 
 3769000   0.65080935   -3.5886549    2397.6103  0.053011638  0.052119728            5 
 3770000   0.64232071   -3.5802193    2397.0251   0.05298464  0.052108521            7 
 3771000   0.65776634   -3.5839056    2395.5054  0.052937007  0.052097335            5 
 3772000   0.64417503   -3.5546225     2403.609  0.053102001  0.052086167            5 
 3773000   0.65413785   -3.5554863    2394.0984  0.052877869  0.052075057            5 
 3774000   0.65144293    -3.570305      2402.04  0.053039215  0.052063939           11 
 3775000   0.64183341    -3.570895    2394.6822  0.052862742   0.05205283           10 
 3776000   0.65375003   -3.5811778    2399.8057  0.052961814  0.052041711            3 
 3777000   0.63679478   -3.5849417    2400.0597  0.052953395  0.052030664            4 
 3778000   0.65096339   -3.5886143    2401.1546  0.052963531  0.052019516            6 
 3779000   0.66368483   -3.5847661    2394.6003   0.05280498  0.052008338            5 
 3780000   0.63380734   -3.5760076     2401.102  0.052934348  0.051997129            5 
 3781000   0.64035993    -3.589724    2391.4733  0.052708131  0.051986047            9 
 3782000   0.65749202   -3.5727363    2402.0677  0.052927633  0.051974931            6 
 3783000   0.63845381   -3.5658218    2401.1848  0.052894193  0.051963752            5 
 3784000   0.63340368   -3.5869781    2403.9783  0.052941736  0.051952578            6 
 3785000   0.64566201   -3.5748628    2402.3811  0.052892583  0.051941454           12 
 3786000   0.66041577   -3.5660531    2401.8243  0.052866356  0.051930334            6 
 3787000   0.64735944    -3.574955    2403.2899  0.052884646  0.051919201           11 
 3788000   0.65328136   -3.5955228    2401.6292  0.052834152  0.051908145           12 
 3789000   0.65342035   -3.5884181    2404.1296    0.0528752   0.05189698           12 
 3790000   0.64680119   -3.5869618    2397.3238  0.052711606  0.051885881           10 
 3791000    0.6362093   -3.5881878    2396.6836  0.052683628  0.051874638            5 
 3792000   0.65524544   -3.5977848    2397.7011  0.052692096  0.051863486           16 
 3793000   0.64413684   -3.5799325    2396.0196   0.05264126   0.05185229            5 
 3794000   0.62887998   -3.5778408    2405.3193   0.05283165  0.051841206           10 
 3795000   0.63436194   -3.5869857    2401.6319  0.052736758   0.05183014            7 
 3796000   0.64056817   -3.5726494    2408.0338  0.052863405  0.051819087            8 
 3797000   0.64558779   -3.5778535     2403.587  0.052751888  0.051808097            5 
 3798000    0.6346541   -3.5861304    2405.4091  0.052777977  0.051797034            6 
 3799000   0.62962575   -3.5828554      2406.62  0.052790647  0.051786043            8 
 3800000   0.64099577   -3.5743186    2419.4326  0.053057732  0.051775032            8 
 3801000   0.64183188   -3.5709243    2410.8882  0.052856445  0.051764067            7 
 3802000   0.64957001   -3.5878089    2407.6492   0.05277155  0.051753104           11 
 3803000   0.64365918   -3.5993107    2404.6199  0.052691293  0.051742106            9 
 3804000   0.64319193   -3.6118492    2408.4073  0.052760413  0.051731078           12 
 3805000   0.65726213   -3.5620424    2411.4261  0.052812661  0.051720147           13 
 3806000   0.66490582   -3.5892026    2409.5692  0.052758127   0.05170927           10 
 3807000   0.64541199   -3.5698314    2409.2102  0.052736411  0.051698349            4 
 3808000    0.6480572   -3.5956185     2417.644  0.052907126  0.051687311            7 
 3809000   0.64552784   -3.5809989    2407.9214  0.052680525  0.051676456            7 
 3810000   0.63566366   -3.5924304    2410.8102  0.052729882  0.051665522           13 
 3811000   0.65293108   -3.5922789     2409.769  0.052693279  0.051654614           10 
 3812000   0.64080769   -3.5946501    2405.6812  0.052590092  0.051643697            3 
 3813000   0.64720024   -3.5795351    2407.7417  0.052621333  0.051632751            8 
 3814000   0.65450165   -3.6047786    2402.1322  0.052484972  0.051621775            5 
 3815000   0.64772755   -3.5756805    2408.9952  0.052621127   0.05161081            4 
 3816000   0.63348114   -3.5732949    2412.3774  0.052681198  0.051599843            5 
 3817000   0.62297536   -3.5838234    2411.8698  0.052656315  0.051588872            5 
 3818000   0.64874673   -3.5871747    2413.6991  0.052682449  0.051577926            4 
 3819000   0.63559508   -3.5821137    2418.3385  0.052769889   0.05156697            8 
 3820000    0.6467524    -3.573705    2410.4869  0.052584793  0.051555995            7 
 3821000   0.63801522   -3.5722167    2413.4818  0.052636347  0.051545096           13 
 3822000   0.64171276   -3.5819216    2406.9002  0.052479074  0.051534121            6 
 3823000   0.64979607   -3.5890986    2408.5889  0.052502157  0.051523159            8 
 3824000    0.6282369   -3.5883366    2410.1787  0.052523072   0.05151216           14 
 3825000   0.63975329   -3.5821916    2407.9682  0.052461181  0.051501144            7 
 3826000   0.64935229   -3.5950336     2408.008  0.052448335  0.051490242            6 
 3827000   0.64193032   -3.5986128    2409.6988  0.052471449  0.051479277            8 
 3828000   0.64220043   -3.5881564     2406.775  0.052394092  0.051468245           16 
 3829000   0.63844312   -3.5876071     2406.316   0.05237042  0.051457123            6 
 3830000   0.63409659   -3.6182584    2408.2691   0.05239924  0.051446076            5 
 3831000   0.62534816   -3.5917586    2412.7302  0.052482601  0.051435044           15 
 3832000   0.64523993   -3.5855565     2413.989  0.052496282  0.051424081            8 
 3833000   0.63428898   -3.5957414    2410.2504  0.052401304  0.051413126            5 
 3834000   0.65547186   -3.5791361    2407.4155   0.05232602  0.051402164            3 
 3835000    0.6308837   -3.5983407    2404.5907  0.052250993  0.051391239            6 
 3836000   0.64336328   -3.5849677    2410.8421  0.052373178  0.051380286            6 
 3837000   0.62786435   -3.6000438    2409.2183  0.052324262  0.051369349            4 
 3838000   0.64007923   -3.5816534    2421.3726  0.052574532  0.051358384           10 
 3839000    0.6306388   -3.6021088    2412.0987  0.052359526  0.051347465            7 
 3840000   0.64189275   -3.5805586    2419.4071  0.052504494  0.051336571            7 
 3841000   0.62799949    -3.605956    2410.0342  0.052287472   0.05132573            7 
 3842000   0.62090375   -3.5845689    2414.0547  0.052361069  0.051314807           10 
 3843000   0.62254254   -3.6191739     2409.168  0.052241478  0.051303831            8 
 3844000   0.62597118   -3.5980418     2412.696  0.052304371  0.051292802            7 
 3845000   0.63520575   -3.6004732    2421.4362  0.052480194  0.051281892            6 
 3846000   0.64028281   -3.6019109    2417.8229  0.052388259  0.051271034            8 
 3847000   0.65494026   -3.6145392    2409.4423    0.0521931  0.051260111            7 
 3848000   0.64764206   -3.5890173    2413.1387  0.052259587  0.051249203            8 
 3849000   0.62836863   -3.5946513    2413.9281  0.052263102  0.051238249            9 
 3850000   0.64543107   -3.5763934    2416.0196  0.052294796  0.051227342           13 
 3851000   0.64029842   -3.6231337    2407.5495   0.05209793  0.051216332            8 
 3852000   0.63564428   -3.5748131    2413.0661   0.05220375  0.051205446           13 
 3853000   0.62918347   -3.5979218    2415.4257  0.052241233  0.051194572            6 
 3854000   0.63935987   -3.5801907    2421.2965  0.052354621  0.051183654            6 
 3855000   0.63738317   -3.5895384    2422.2286   0.05236119  0.051172731           10 
 3856000   0.61932733   -3.5982487    2413.7508  0.052164394  0.051161884            9 
 3857000    0.6361518   -3.6033158     2415.313  0.052184621  0.051150964           11 
 3858000   0.63862866   -3.5950311    2417.2539  0.052213018  0.051140075           24 
 3859000   0.62079059    -3.597016    2415.6464  0.052164776  0.051129104            8 
 3860000   0.64833958   -3.6109849    2416.1456  0.052162038  0.051118183            7 
 3861000   0.64306361   -3.6046053    2411.3549  0.052045128  0.051107202            9 
 3862000   0.62316398   -3.5906599    2416.8067  0.052149291   0.05109625           12 
 3863000   0.62428611   -3.5482617    2420.2945   0.05221103  0.051085387            6 
 3864000   0.62765783   -3.6112786    2417.2395  0.052131632  0.051074511            5 
 3865000   0.63972778   -3.5999139    2407.6725   0.05191187  0.051063639            8 
 3866000   0.63077536   -3.5795597    2422.5061  0.052218187  0.051052752            4 
 3867000   0.63684289   -3.6080682    2416.1362  0.052067413  0.051041858           15 
 3868000   0.63713284   -3.5873401    2413.9672  0.052007221  0.051031011            8 
 3869000   0.63108038   -3.6021432    2426.8593  0.052271458  0.051020134           10 
 3870000   0.64013734   -3.5996045    2416.8479  0.052042374  0.051009281            8 
 3871000   0.62384532   -3.6191527    2413.0179   0.05194648  0.050998373           10 
 3872000   0.63509232   -3.6227617    2417.5103   0.05202975  0.050987394           13 
 3873000   0.63537708   -3.6074072    2422.7568  0.052129201  0.050976438            6 
 3874000   0.62371847   -3.6212031    2423.1624  0.052124472  0.050965576            7 
 3875000    0.6318005   -3.6202693     2418.013  0.052000279  0.050954682            4 
 3876000   0.62527197   -3.6280122    2417.7779   0.05198181  0.050943787            5 
 3877000   0.61734185   -3.5989484    2421.5887  0.052050311  0.050932852            5 
 3878000   0.63319676   -3.6345743    2411.2519  0.051814766  0.050921907            5 
 3879000   0.63690947    -3.602028    2415.7132  0.051897251  0.050910963            6 
 3880000    0.6417962   -3.6037746    2418.1303  0.051935788  0.050900093            6 
 3881000   0.63101356   -3.6030266    2414.6708  0.051848123  0.050889229            5 
 3882000   0.61882482   -3.6058652    2418.2344  0.051911265  0.050878258            5 
 3883000   0.61604777   -3.5986066    2420.4088  0.051944563  0.050867388            4 
 3884000   0.63720235   -3.6114507    2416.0747  0.051838197  0.050856517            5 
 3885000   0.63486728   -3.6143071    2417.3566  0.051852351  0.050845546            9 
 3886000   0.62815324   -3.5767642    2436.1478  0.052241976  0.050834725            6 
 3887000   0.62241279   -3.6081033    2422.0747  0.051926822  0.050823887            3 
 3888000   0.62537081   -3.6148428    2418.0033  0.051826203  0.050813028            8 
 3889000   0.62808723   -3.6061642     2419.877  0.051853025  0.050802163            8 
 3890000   0.62575852   -3.6014234    2421.9108  0.051883264  0.050791334           10 
 3891000   0.62434133   -3.6247446    2423.3023  0.051899731  0.050780468            7 
 3892000   0.62834269   -3.6038866    2424.8603  0.051919757  0.050769638           10 
 3893000   0.61475436   -3.5994799    2426.4172  0.051939747  0.050758841           10 
 3894000   0.63214441   -3.6156919    2429.8279  0.051999399   0.05074796            6 
 3895000   0.63633833   -3.6010498    2425.5893  0.051895363  0.050737158           11 
 3896000   0.64239246   -3.6147255    2420.2605  0.051768064  0.050726395            7 
 3897000   0.62562013   -3.6055289    2415.1911  0.051646375  0.050715628            8 
 3898000    0.6349434   -3.6098567    2416.5405  0.051661973  0.050704796            7 
 3899000   0.61462035   -3.5963982    2420.3665  0.051730496  0.050693917            5 
 3900000   0.62081797   -3.5989759    2419.1522  0.051691287  0.050683096           10 
 3901000   0.63464874   -3.6237596    2419.8825  0.051693636  0.050672288            4 
 3902000   0.62616211   -3.6085017      2427.15  0.051835596  0.050661502            7 
 3903000    0.6295339   -3.6028579    2421.3231  0.051697906  0.050650709            8 
 3904000   0.63144043   -3.5894399    2420.8935  0.051675492  0.050639882            6 
 3905000   0.63398458   -3.6220912    2415.7875  0.051553297  0.050629105            8 
 3906000   0.62600634    -3.624364     2417.022  0.051566435  0.050618253           11 
 3907000   0.60744473   -3.5862056    2421.1072  0.051640372  0.050607433           15 
 3908000   0.63673263   -3.6228398    2428.4234  0.051783167  0.050596675            4 
 3909000   0.62542483    -3.609887    2430.3701  0.051811421  0.050585847            6 
 3910000   0.64217208   -3.6114575    2426.2923  0.051711259   0.05057506            5 
 3911000   0.61869302   -3.6246046     2426.402  0.051700375   0.05056427            3 
 3912000   0.63055692   -3.6158438    2418.3512  0.051515661  0.050553451           11 
 3913000   0.62561646   -3.6355974    2426.6231  0.051678658  0.050542678           12 
 3914000   0.62208819   -3.5999035     2425.426  0.051639969  0.050531925           11 
 3915000    0.6154982   -3.6041859    2426.7413  0.051654775  0.050521128            6 
 3916000   0.62636801   -3.5916915    2420.0863  0.051499963  0.050510332           12 
 3917000   0.62589172   -3.6126332    2429.6407  0.051690084  0.050499517            9 
 3918000   0.63671089   -3.6191077    2432.8354   0.05174484  0.050488775            4 
 3919000   0.62503291   -3.6232138    2424.5717  0.051555918  0.050478046            8 
 3920000   0.62269897   -3.6024778    2429.4925  0.051647374  0.050467266            6 
 3921000   0.64046422   -3.6191725    2433.3976  0.051717199   0.05045655            3 
 3922000   0.61393669    -3.628082    2425.0077  0.051525745  0.050445745            4 
 3923000   0.62466818   -3.5930082    2422.8729  0.051467263  0.050435079            9 
 3924000   0.62348635   -3.6060679    2429.7896  0.051601036  0.050424463            5 
 3925000   0.61206333   -3.6308182    2421.8812  0.051419983  0.050413695            8 
 3926000   0.62313021   -3.6247164    2426.9343  0.051514144  0.050402967            9 
 3927000   0.62697576   -3.5947222    2430.9695  0.051586655  0.050392248            8 
 3928000   0.62355217   -3.6096315    2434.0846  0.051639608  0.050381572            7 
 3929000   0.62414043   -3.6065529     2427.394  0.051484558  0.050370832            8 
 3930000    0.6100866   -3.6244303     2426.179  0.051445695  0.050360074           11 
 3931000   0.62675587    -3.633379    2436.9819  0.051661619  0.050349293            2 
 3932000   0.61652745   -3.5999078    2434.6167  0.051598354  0.050338552            8 
 3933000   0.63246065    -3.611047    2435.8712  0.051611815  0.050327917            4 
 3934000   0.61830337   -3.6174567    2428.1206  0.051434515  0.050317239            7 
 3935000   0.63068242    -3.623224    2426.5987  0.051389215  0.050306539            7 
 3936000    0.6209238   -3.6227355     2431.261   0.05147487  0.050295832            5 
 3937000   0.62397827   -3.6183826    2426.8266  0.051367932  0.050285141            4 
 3938000   0.62245965    -3.609796    2431.9629   0.05146358  0.050274448            7 
 3939000   0.62262705   -3.6112831     2430.404  0.051417535  0.050263725           11 
 3940000   0.63514988   -3.6219211    2425.1823  0.051294042  0.050253003            7 
 3941000   0.62374323   -3.6367242    2427.6552  0.051333316   0.05024223            8 
 3942000   0.61813495   -3.6235695    2427.3795  0.051314466  0.050231517            4 
 3943000   0.63241806    -3.624368    2428.7558  0.051330538   0.05022083           12 
 3944000   0.61926387   -3.6233028    2433.0762  0.051408812  0.050210153           12 
 3945000   0.63606511    -3.619915    2429.8728  0.051328111  0.050199409            6 
 3946000   0.61810867   -3.6377373    2423.2128  0.051174454  0.050188628           13 
 3947000    0.6263522   -3.6299868     2433.357  0.051375664  0.050177877           13 
 3948000   0.62975176   -3.6333933    2425.2506  0.051191544   0.05016716           12 
 3949000   0.62751865   -3.6167908    2438.6105  0.051460506  0.050156455            7 
 3950000   0.62582319    -3.636977    2430.7677   0.05128202  0.050145742            6 
 3951000   0.61459299   -3.6314988    2431.4136  0.051282662  0.050135022           12 
 3952000   0.62040996   -3.6188083    2433.2248  0.051307877  0.050124374            5 
 3953000   0.61205103   -3.6124826    2434.0218    0.0513117  0.050113666            7 
 3954000   0.62381842   -3.6351179    2431.4491  0.051244501  0.050102974           15 
 3955000   0.61021554   -3.5896901    2438.4139  0.051378295  0.050092329            7 
 3956000   0.61360366   -3.6160026    2432.7989  0.051247027  0.050081709           11 
 3957000   0.62646522   -3.6246149    2431.9908  0.051217059  0.050070945            4 
 3958000   0.62276919   -3.6473501    2421.5774   0.05098487  0.050060166           10 
 3959000   0.61904012   -3.6277349    2433.0493  0.051213465  0.050049384           14 
 3960000   0.61129886   -3.6482067    2429.0448  0.051116263  0.050038632            7 
 3961000   0.61917204   -3.6028948    2432.5357  0.051176801  0.050027887           12 
 3962000   0.61677337   -3.6342985    2433.2579  0.051179074  0.050017198            8 
 3963000   0.62978072   -3.6293721    2431.0128  0.051118951  0.050006442            3 
 3964000   0.62733672    -3.624461     2429.904  0.051082745  0.049995765            8 
 3965000   0.60083136   -3.6369266    2433.2711  0.051140629   0.04998508            7 
 3966000   0.61307911   -3.6270846    2431.2349  0.051084949  0.049974338            5 
 3967000   0.62196087   -3.6373316    2437.6184  0.051206167  0.049963621            7 
 3968000   0.60223713   -3.6296464    2432.4415  0.051084541  0.049952902            9 
 3969000    0.6171945   -3.6309745    2425.8842  0.050933993  0.049942251            9 
 3970000   0.62429125   -3.6346637    2432.2543  0.051054876  0.049931544           17 
 3971000   0.62643987   -3.6309816    2436.2974  0.051126866  0.049920872            5 
 3972000   0.61604759   -3.6126539    2438.0368  0.051150486  0.049910265            3 
 3973000   0.63204511   -3.6279581    2439.4159  0.051166539  0.049899658           10 
 3974000   0.61878736   -3.6508637    2439.5818  0.051157142  0.049888936            4 
 3975000    0.6146778   -3.6126712    2434.1928  0.051031296  0.049878325            7 
 3976000     0.620598   -3.6500565    2434.2956  0.051020615  0.049867634            4 
 3977000   0.61892199   -3.6261588    2431.5659  0.050950588  0.049856897            7 
 3978000   0.61956724   -3.6342239    2437.7496  0.051067321  0.049846169            9 
 3979000   0.61365368    -3.651939    2427.0977  0.050831401  0.049835415           12 
 3980000   0.62123862   -3.6313542      2432.46  0.050930905  0.049824648           10 
 3981000   0.61539709   -3.6132951    2432.9848  0.050929097  0.049813957            6 
 3982000    0.6328119   -3.6365247    2441.0998  0.051086134   0.04980326            6 
 3983000   0.59733418   -3.6137792    2436.2993  0.050972871  0.049792576            5 
 3984000   0.61439367   -3.6280018    2437.4085  0.050983277  0.049781877            5 
 3985000   0.61087582   -3.6273709    2434.2542  0.050904521  0.049771168            5 
 3986000   0.61765578   -3.6241251    2437.8845  0.050967647  0.049760489            8 
 3987000   0.61414292   -3.6498505    2431.6228  0.050823987  0.049749764            6 
 3988000   0.61652076   -3.6404608    2429.1588  0.050759754   0.04973905            8 
 3989000   0.61670818   -3.6208607     2439.803  0.050969396  0.049728292            8 
 3990000   0.62058308   -3.6341337    2434.0989  0.050837488  0.049717683           11 
 3991000   0.60701195   -3.6393006     2435.983  0.050864091  0.049707008            8 
 3992000   0.62256106   -3.6586551    2436.0486  0.050852717  0.049696314            7 
 3993000    0.5980536    -3.622573    2440.4246   0.05093131  0.049685591            6 
 3994000   0.60780362   -3.6474639    2433.2116   0.05076806   0.04967483            4 
 3995000   0.60440885    -3.630938    2436.3621  0.050821069  0.049664048            6 
 3996000   0.60296227   -3.6451466    2434.9662  0.050779241  0.049653242            8 
 3997000   0.60311571   -3.6200018    2439.7798  0.050866897  0.049642543            7 
 3998000   0.61111428   -3.6482514    2435.0975  0.050756576  0.049631823           21 
 3999000    0.6072052   -3.6417533    2434.9782  0.050741399  0.049621006            9 
 4000000   0.60082619   -3.6725711     2427.188  0.050566418  0.049610235           12 
 4001000   0.61402193    -3.648698    2436.7165   0.05075224  0.049599441            5 
 4002000   0.61155082   -3.6448408    2426.7482  0.050531988  0.049588699            9 
 4003000   0.60451898   -3.6531468    2432.3482  0.050635943  0.049577881            6 
 4004000   0.61371682   -3.6353483     2445.758   0.05090239  0.049567106            7 
 4005000   0.60371882   -3.6347432    2432.1447  0.050606423  0.049556411            5 
 4006000   0.61424265   -3.6404871    2435.4851  0.050663279  0.049545617           26 
 4007000   0.61629257   -3.6380205    2435.3188  0.050647176  0.049534785            4 
 4008000   0.61267068   -3.6373738    2433.3646  0.050593908  0.049524024           12 
 4009000   0.59634844   -3.6464583    2436.7466  0.050651589  0.049513304           10 
 4010000   0.59840128   -3.6395664    2438.3247  0.050671751  0.049502595            8 
 4011000    0.5999086   -3.6512289     2433.401  0.050556824  0.049491835            3 
 4012000   0.60647591   -3.6449888    2434.8014  0.050573309  0.049481107            8 
 4013000   0.60538408   -3.6290834    2444.9286  0.050771007  0.049470378            8 
 4014000    0.6004343   -3.6359005    2434.4718  0.050541267  0.049459617           10 
 4015000   0.60974139    -3.633957    2433.6443  0.050511504  0.049448847           13 
 4016000   0.62209593   -3.6410732    2437.1259  0.050571172  0.049438064           12 
 4017000   0.59662954   -3.6582146    2432.9992  0.050472973  0.049427261            6 
 4018000   0.61283008   -3.6540408     2438.574  0.050576033   0.04941645            6 
 4019000   0.60951193   -3.6532303     2427.836  0.050340798  0.049405593           16 
 4020000   0.61032503   -3.6349908    2440.6599   0.05059411  0.049394823            6 
 4021000   0.60774684   -3.6419908    2436.4226  0.050493713  0.049384057           10 
 4022000   0.60796393   -3.6567057    2435.7883  0.050468015  0.049373226           14 
 4023000   0.59975317   -3.6487507    2435.2981  0.050445316  0.049362462           11 
 4024000   0.60712249   -3.6448762    2434.0284  0.050406486  0.049351726            6 
 4025000   0.59913226   -3.6517306    2440.2237  0.050522229  0.049340913            8 
 4026000   0.61949645   -3.6278313    2437.5347  0.050454022  0.049330095           10 
 4027000   0.61665357   -3.6489553    2436.8967  0.050428291  0.049319299            8 
 4028000   0.58499834   -3.6511073    2431.3217  0.050300433   0.04930841            7 
 4029000     0.616631    -3.645176    2436.7817   0.05040088  0.049297474            7 
 4030000   0.61551876   -3.6613616    2431.6858  0.050282998  0.049286609           20 
 4031000   0.59994944   -3.6632015    2434.7117   0.05033308  0.049275831           17 
 4032000   0.60554951   -3.6634404    2427.3775  0.050169012  0.049264967            6 
 4033000   0.59757294   -3.6385841    2439.8389  0.050414061  0.049254197            6 
 4034000   0.62206638   -3.6573433    2443.2435  0.050471896  0.049243375            3 
 4035000   0.59979741   -3.6503393    2431.9656  0.050226469  0.049232601            9 
 4036000   0.59806564   -3.6489171    2431.5413  0.050205264  0.049221848            9 
 4037000    0.6109339   -3.6356878    2434.3147  0.050250076  0.049211132           12 
 4038000   0.59552566   -3.6334671    2436.3673  0.050279992  0.049200374            4 
 4039000    0.6069539   -3.6394539    2435.3638  0.050246839  0.049189589            9 
 4040000   0.60492953   -3.6348891    2438.9296  0.050307954  0.049178831           13 
 4041000   0.59715636    -3.669995    2437.8881  0.050274027  0.049168064           12 
 4042000   0.61427793   -3.6383236    2445.6107  0.050420805  0.049157329           15 
 4043000   0.59896185   -3.6426062    2442.8187  0.050350785  0.049146654            9 
 4044000   0.60463744   -3.6594533    2439.7106  0.050274287  0.049135945            5 
 4045000   0.60168667    -3.639971    2440.4402  0.050276889  0.049125221            9 
 4046000   0.60890417   -3.6497646     2428.054   0.05000935  0.049114422           14 
 4047000   0.59662166   -3.6573568    2429.2993  0.050022637  0.049103568            5 
 4048000   0.61055832   -3.6334459    2438.0378  0.050190172  0.049092709            8 
 4049000    0.5990453   -3.6485881    2438.5437  0.050188189  0.049081907            7 
 4050000   0.60726442   -3.6486193    2439.9131  0.050203973  0.049071125            8 
 4051000    0.5968684   -3.6598653    2439.8545  0.050190376  0.049060273            4 
 4052000   0.61485008   -3.6455122    2436.9152  0.050117539  0.049049457            6 
 4053000   0.60178363   -3.6474462    2433.4829  0.050034602  0.049038632            9 
 4054000   0.60122408   -3.6416586     2443.102  0.050219989  0.049027893            6 
 4055000   0.59860451   -3.6390592    2437.3862   0.05009014  0.049017193            8 
 4056000   0.61951578   -3.6698908    2435.0614  0.050030026  0.049006416           11 
 4057000   0.59852092   -3.6530635      2442.71    0.0501748  0.048995607            8 
 4058000   0.60743048    -3.644272    2441.0841  0.050129048  0.048984767            7 
 4059000   0.60185093   -3.6448306    2439.0573  0.050075087  0.048973964            6 
 4060000   0.60270784   -3.6432478    2441.5898  0.050114734  0.048963175            7 
 4061000   0.58683413   -3.6429932    2436.9149  0.050006462  0.048952366           11 
 4062000   0.60274885   -3.6434126    2438.9673  0.050036257  0.048941586            6 
 4063000   0.61046628   -3.6604468    2437.7752  0.049999492  0.048930813           14 
 4064000   0.59542075   -3.6535353    2435.3659  0.049937785  0.048919948            6 
 4065000   0.61785441   -3.6514867      2437.42  0.049967609  0.048909143           11 
 4066000   0.59711564   -3.6549013    2435.9316  0.049924816   0.04889834           23 
 4067000   0.59974315   -3.6364048    2443.0078  0.050057532  0.048887621            9 
 4068000   0.59823312   -3.6475161    2439.4218  0.049971767  0.048876866           10 
 4069000   0.60964117    -3.662356    2445.2597  0.050079047  0.048866122            7 
 4070000   0.59969844   -3.6661665    2435.2382  0.049861551  0.048855324            8 
 4071000   0.59707371   -3.6492493    2440.4866   0.04995674  0.048844552           10 
 4072000   0.59414917   -3.6373192    2441.2453  0.049959997    0.0488338           14 
 4073000   0.60329116   -3.6663026    2441.8603  0.049960313  0.048823044           11 
 4074000   0.59516707   -3.6641622    2446.5054  0.050043065  0.048812289           21 
 4075000   0.59961009   -3.6702493    2438.8101  0.049873416    0.0488015            6 
 4076000   0.60516273   -3.6681704    2436.4086  0.049812083  0.048790677           15 
 4077000   0.59905047   -3.6617778    2440.4049  0.049881549  0.048779958           15 
 4078000   0.59794542   -3.6582671    2435.0719  0.049760338  0.048769188           11 
 4079000   0.58786739    -3.657116    2441.5932  0.049881368  0.048758363           18 
 4080000   0.58730362   -3.6943549    2439.3015  0.049822334    0.0487476            4 
 4081000   0.60057393   -3.6764455    2434.4391  0.049710838   0.04873683            8 
 4082000   0.58321124   -3.6637633    2438.3437  0.049778371  0.048726012           16 
 4083000   0.61030639   -3.6652883    2442.0587  0.049842001  0.048715273            6 
 4084000   0.60310992     -3.64836    2441.9452  0.049827482  0.048704581           16 
 4085000   0.60357579   -3.6644776    2433.8177  0.049649484  0.048693827            9 
 4086000   0.60412045   -3.6524821    2435.0972  0.049663428  0.048683077           11 
 4087000   0.58788666   -3.6707109    2439.0705  0.049732292  0.048672273           10 
 4088000   0.59248869   -3.6491696    2433.0919  0.049598252  0.048661516           12 
 4089000    0.5926528   -3.6636144    2434.6895  0.049618683   0.04865077            3 
 4090000   0.59666765   -3.6815856    2439.7161  0.049708967  0.048640024            7 
 4091000   0.60274774   -3.6584003    2439.2783  0.049687899  0.048629285           24 
 4092000   0.60364614   -3.6569037    2438.0954  0.049651666  0.048618549           19 
 4093000   0.58839621   -3.6578618    2441.4124  0.049707069  0.048607788            7 
 4094000   0.60034529   -3.6577699    2437.6229  0.049617793  0.048597091            5 
 4095000    0.5900107     -3.66145    2445.1414  0.049758678  0.048586435            8 
 4096000   0.60901669   -3.6826202    2444.9993  0.049743639  0.048575774           10 
 4097000    0.5913916   -3.6630021    2442.0746  0.049672008  0.048565052            9 
 4098000   0.59528205   -3.6551211    2446.7034  0.049754013  0.048554409            7 
 4099000   0.59508921   -3.6749406    2437.2465  0.049549615  0.048543773            8 
 4100000    0.6019334   -3.6620888    2440.9354  0.049612509  0.048533174           13 
 4101000   0.59025945   -3.6691243    2443.5849  0.049654249   0.04852249            9 
 4102000   0.60376944   -3.6602947    2446.5297  0.049701969  0.048511862            9 
 4103000   0.59012568   -3.6610519    2441.5453  0.049588621  0.048501155           20 
 4104000   0.59667399   -3.6748458    2450.7542  0.049763528  0.048490533            6 
 4105000   0.58782223   -3.6376771    2446.3724  0.049662451  0.048479903           13 
 4106000   0.60941433   -3.6581204    2447.5444  0.049674143  0.048469317           17 
 4107000   0.59025619   -3.6823195    2441.4235  0.049537853  0.048458643           13 
 4108000   0.60136078    -3.669971     2433.735  0.049369827  0.048447978           10 
 4109000   0.59338509   -3.6881365    2440.9562  0.049504264  0.048437317            6 
 4110000   0.58967621   -3.6765957    2446.6775  0.049608221  0.048426666            3 
 4111000   0.59253192   -3.6801649    2448.6751  0.049636648  0.048415994            5 
 4112000   0.58550491   -3.6642358    2448.4087  0.049619178  0.048405377            6 
 4113000   0.60542548   -3.6592819     2447.713  0.049593017  0.048394807           12 
 4114000   0.59616975   -3.6725751    2451.1216  0.049650008  0.048384184           12 
 4115000   0.57807092   -3.6701186    2448.0443  0.049575624  0.048373586            8 
 4116000   0.59108208   -3.6824288    2445.7407   0.04951694  0.048362985           10 
 4117000    0.5836943   -3.6500617    2449.3776  0.049578528   0.04835239            9 
 4118000   0.57725073   -3.6685537    2451.9992   0.04961954  0.048341815            6 
 4119000   0.59224038   -3.6921686    2449.9094  0.049565214  0.048331232           22 
 4120000   0.60172645   -3.6870811    2440.3971  0.049360783  0.048320559            5 
 4121000   0.59158602   -3.6550439    2445.8757  0.049459591  0.048309913            6 
 4122000   0.59312285   -3.6702757     2447.495   0.04948033   0.04829936           11 
 4123000   0.59300327   -3.6778678    2445.5635   0.04942929  0.048288774            7 
 4124000   0.59397817   -3.6735831    2449.7868  0.049502642  0.048278139            6 
 4125000   0.58810377   -3.6689587     2449.693  0.049488748  0.048267555            4 
 4126000   0.58619788   -3.6368518    2442.9949   0.04934147  0.048257026           12 
 4127000   0.60656062   -3.6806664    2449.5538  0.049461954  0.048246507            6 
 4128000   0.59662271   -3.6712454     2452.043  0.049500222  0.048235946           12 
 4129000   0.58211933   -3.6538732    2448.5516  0.049417768   0.04822534            6 
 4130000   0.58748224   -3.6886052      2445.55  0.049345238  0.048214728           14 
 4131000   0.59742543   -3.6891212    2448.4291  0.049391372  0.048204071           10 
 4132000   0.57899492   -3.6817361    2447.8043  0.049366818    0.0481935            7 
 4133000   0.60362683   -3.6520098    2450.7266  0.049413795  0.048182961           13 
 4134000   0.59044219   -3.6718734    2449.0426  0.049367895  0.048172373           14 
 4135000   0.59437444   -3.6853041    2444.3003  0.049260386  0.048161745           14 
 4136000   0.60168732   -3.6821001    2445.6986  0.049276648  0.048151101            8 
 4137000   0.57803369   -3.6953477    2440.9784  0.049169656  0.048140404            9 
 4138000    0.5846001   -3.6802378    2445.6223  0.049251295  0.048129769           11 
 4139000   0.58797752   -3.6926801    2446.6163  0.049259409  0.048119111           12 
 4140000   0.59214937   -3.6665645     2444.284  0.049200564  0.048108535           10 
 4141000    0.5719202   -3.6930058    2453.8948   0.04938209  0.048098007            5 
 4142000   0.60329253   -3.6645629    2453.4339  0.049360895  0.048087454           11 
 4143000   0.59150267   -3.7083601    2451.5019   0.04931012  0.048076904            7 
 4144000   0.59047346   -3.6692167    2448.9994  0.049247897  0.048066254           13 
 4145000   0.58012903   -3.6800387    2445.1482  0.049158589  0.048055671            9 
 4146000   0.58705472   -3.6776885    2447.9517   0.04920308  0.048045121            6 
 4147000   0.58480694   -3.6908224    2449.5814  0.049223966  0.048034591           16 
 4148000   0.58860478   -3.6679734    2448.7983  0.049196365  0.048024023           11 
 4149000   0.59042416   -3.6884226    2448.9336  0.049187226  0.048013515            7 
 4150000   0.58072473   -3.6866094    2449.7485  0.049191737  0.048002946            8 
 4151000   0.59222244   -3.6730903    2447.7565  0.049139897  0.047992419           21 
 4152000   0.59517301   -3.6632079    2457.4321  0.049322256  0.047981903           11 
 4153000   0.58914056   -3.6688653    2451.9163    0.0491997  0.047971415           12 
 4154000   0.58773727   -3.6794242    2445.1262  0.049051641  0.047960858           12 
 4155000   0.60432936   -3.7004835    2445.9189  0.049055734  0.047950289            6 
 4156000   0.58331411   -3.6803941    2444.9905  0.049025314  0.047939681           20 
 4157000   0.58780635   -3.6737534    2447.4243   0.04906231  0.047929156            6 
 4158000   0.59230279    -3.668562    2458.9261  0.049281028  0.047918688           12 
 4159000    0.5865544   -3.7034862    2456.8308  0.049227194  0.047908153           25 
 4160000   0.58145429   -3.6688781    2453.9702  0.049158056  0.047897603            6 
 4161000   0.60133065    -3.698948     2449.781  0.049062344  0.047887109            8 
 4162000   0.58848338   -3.6904105    2449.9018  0.049052975  0.047876602           15 
 4163000    0.5693583   -3.6840175    2452.8238  0.049099683  0.047866129            7 
 4164000   0.57226908    -3.682787    2456.7079  0.049165625  0.047855679           14 
 4165000   0.59473607   -3.6944078    2453.0821  0.049081275  0.047845187           12 
 4166000   0.58958279   -3.6854859    2448.8378  0.048984593  0.047834656           10 
 4167000   0.57466853   -3.7006545    2454.0763    0.0490776  0.047824162           11 
 4168000   0.59164326   -3.6997378    2450.4434  0.048993191  0.047813663            4 
 4169000   0.59710079   -3.6818781    2454.3161  0.049058848  0.047803175            7 
 4170000   0.59078565   -3.6906267    2456.2526  0.049085783  0.047792671            9 
 4171000   0.57541845   -3.6686165    2457.0042  0.049089032  0.047782214            7 
 4172000   0.58291933   -3.6915301    2451.5682  0.048968684  0.047771675           13 
 4173000   0.58012155   -3.6865043    2450.8034  0.048941676  0.047761179            9 
 4174000   0.57980539   -3.6837986    2461.0346  0.049134216  0.047750708            6 
 4175000   0.58359736   -3.6740454    2455.9623  0.049021204  0.047740297            8 
 4176000   0.58994551   -3.6790784     2453.561  0.048961547  0.047729815           12 
 4177000   0.59243228   -3.6848035    2451.5351  0.048909406  0.047719352           13 
 4178000   0.58532191   -3.6744102    2449.5064  0.048857237  0.047708882            6 
 4179000   0.58059163   -3.6893746    2453.0154  0.048915519  0.047698424            9 
 4180000   0.56986944   -3.6895791    2454.3432  0.048930287  0.047687924            9 
 4181000   0.58719323   -3.6821257    2457.1524  0.048974575  0.047677478           12 
 4182000   0.57512827   -3.6771238    2456.4204  0.048948278  0.047667035           12 
 4183000   0.58044764   -3.6985816    2451.4321  0.048837199  0.047656564            9 
 4184000   0.59229505   -3.6870517    2454.5992  0.048888607  0.047646123            7 
 4185000   0.59014247   -3.6927823    2459.4193  0.048972905  0.047635691           13 
 4186000   0.57597336   -3.6848486    2450.7851  0.048789319  0.047625221           19 
 4187000   0.59327491   -3.7010077    2448.1168   0.04872456  0.047614674           16 
 4188000   0.57814698   -3.6867072    2449.9184  0.048748775  0.047604171           13 
 4189000   0.58207142   -3.6929631    2456.3345  0.048864774  0.047593653            9 
 4190000   0.58259232   -3.7221872    2459.0433  0.048906988  0.047583186            5 
 4191000   0.58972839   -3.7011741    2453.1374  0.048777884  0.047572707           15 
 4192000   0.57964983   -3.6898587    2453.1062  0.048765629  0.047562251           11 
 4193000   0.57414885   -3.6910677    2465.6394  0.049003089  0.047551817           14 
 4194000   0.58064596   -3.6821973    2457.5184  0.048830043  0.047541385            6 
 4195000   0.58428187   -3.6904334    2451.2983  0.048694842  0.047531006           10 
 4196000   0.58176271   -3.7038546    2454.2847  0.048742547  0.047520538            7 
 4197000   0.59113847   -3.6920885    2455.9979   0.04876495  0.047510124            5 
 4198000    0.5690471   -3.7048974     2457.017  0.048773564  0.047499697            9 
 4199000   0.57858576   -3.7014925     2453.949   0.04870106  0.047489224           10 
 4200000   0.58150944   -3.6880067    2456.4901  0.048739883   0.04747876           12 
 4201000   0.57984983   -3.6855464    2455.0723  0.048700156  0.047468298           18 
 4202000   0.57903587   -3.6888405    2458.6951  0.048760413  0.047457796            8 
 4203000   0.57824838   -3.6963401    2460.0289  0.048775257  0.047447342           10 
 4204000   0.58405927   -3.6967881    2462.1781  0.048806258  0.047436894            6 
 4205000   0.57789698   -3.6784054    2456.5241  0.048682603  0.047426462            6 
 4206000    0.5742969   -3.6904162    2460.1662  0.048743189  0.047416051           11 
 4207000   0.57553997   -3.7019057    2460.4547  0.048737317  0.047405594            4 
 4208000   0.56929845   -3.7061932    2454.4594  0.048607007  0.047395109           15 
 4209000   0.57971924   -3.7062521    2458.4355   0.04867418  0.047384729            4 
 4210000   0.58750241    -3.717196    2460.2465  0.048698466  0.047374252            5 
 4211000   0.57176289   -3.6991389    2458.4396  0.048651144  0.047363796           23 
 4212000   0.58652404   -3.6801909    2456.0842  0.048592993  0.047353381            6 
 4213000   0.55989695   -3.7011041    2454.4804  0.048549736  0.047342979           12 
 4214000   0.57339301   -3.6960174    2455.9596  0.048567466  0.047332534           11 
 4215000   0.57726233   -3.7053267    2458.0177  0.048596634  0.047322091            7 
 4216000    0.5724002   -3.7105483    2451.1505  0.048449369  0.047311676           11 
 4217000   0.56549322   -3.6990509    2464.6858  0.048705356   0.04730123            7 
 4218000   0.58194732   -3.7320344    2454.4725  0.048492028  0.047290795           25 
 4219000   0.58248465   -3.7043483    2461.8823  0.048626892  0.047280381           23 
 4220000   0.57427704   -3.7154079    2457.1253  0.048521431  0.047269939           33 
 4221000    0.5863793   -3.6907446    2461.8003  0.048602232  0.047259534           13 
 4222000   0.58388954   -3.6965911    2457.4871  0.048505587  0.047249089           10 
 4223000   0.58198151   -3.6852194    2459.0051  0.048524056  0.047238667            8 
 4224000   0.58742889   -3.7107697    2457.7242  0.048487298  0.047228254            5 
 4225000   0.57302997   -3.6955321    2459.6364  0.048513539  0.047217814           10 
 4226000   0.57144085   -3.6799277      2462.28  0.048554189  0.047207469           11 
 4227000   0.57401924   -3.6999589    2460.8712  0.048514928  0.047197161            8 
 4228000   0.58157039   -3.6952314    2462.3569  0.048532737  0.047186785           22 
 4229000   0.56489558   -3.7190316    2458.8658  0.048452468  0.047176409            9 
 4230000   0.58147004   -3.7277598    2458.5827  0.048435434  0.047166044            8 
 4231000   0.57428179   -3.7069303    2458.1157  0.048414789   0.04715564            9 
 4232000   0.57230774   -3.7003549    2458.2683  0.048406354  0.047145196            6 
 4233000    0.5815443   -3.6940731    2465.0538  0.048528503  0.047134813            8 
 4234000   0.57414387   -3.6936343    2463.4025   0.04848454  0.047124407           10 
 4235000   0.58458741   -3.7032436    2470.0382  0.048603664  0.047114057           14 
 4236000   0.55572841   -3.7039169    2461.6382  0.048426939  0.047103719           17 
 4237000   0.56352826   -3.6918245    2463.4098  0.048450355    0.0470934            5 
 4238000   0.57224046   -3.6874364    2464.8097  0.048466449  0.047083092           14 
 4239000   0.57438996   -3.7179613    2454.9163  0.048260523   0.04707272           12 
 4240000   0.56170321   -3.6966539    2461.8513  0.048385442  0.047062282           10 
 4241000     0.573752   -3.6846673    2461.7882  0.048372793  0.047051872            9 
 4242000   0.58401694   -3.7058812    2460.0799   0.04832783  0.047041441           17 
 4243000   0.56923538   -3.7089852    2461.4979  0.048344291   0.04703107            9 
 4244000   0.58027012   -3.6998587    2460.8744  0.048320656  0.047020625            8 
 4245000   0.57392681   -3.7058569    2456.9911   0.04823304  0.047010209           12 
 4246000   0.57452107   -3.6933484    2451.4747  0.048113414  0.046999774           11 
 4247000   0.56639761    -3.682713    2462.1689  0.048311923  0.046989402            6 
 4248000   0.57575773   -3.7134944    2463.4755  0.048326183  0.046978999            9 
 4249000   0.57862373   -3.6963194    2465.2634  0.048349875  0.046968577           15 
 4250000   0.57450907   -3.7033151     2462.321  0.048280804  0.046958198           23 
 4251000   0.57145546   -3.7141716    2460.2443  0.048228737   0.04694783            7 
 4252000   0.56513065   -3.7137023    2460.7156  0.048226631  0.046937432           12 
 4253000   0.57231079   -3.6951246    2463.1353  0.048262704  0.046927034            4 
 4254000   0.57903097   -3.7000477    2470.7283    0.0484001  0.046916728           16 
 4255000   0.56882796    -3.722748    2459.4146  0.048167149  0.046906393           24 
 4256000   0.56324804   -3.7072557    2460.5157  0.048177391  0.046895984           10 
 4257000   0.58447245   -3.7114975    2461.7805  0.048190833  0.046885591            8 
 4258000   0.56762021    -3.694973    2456.1464  0.048069249  0.046875213            9 
 4259000    0.5723047    -3.696852    2462.6794  0.048185791  0.046864827            6 
 4260000   0.57475227   -3.7228909    2452.5408  0.047976149  0.046854442            5 
 4261000   0.55863841   -3.7127861    2464.3093  0.048195051  0.046844028            8 
 4262000    0.5783028   -3.6907321    2458.4103  0.048068401  0.046833676           20 
 4263000     0.560927   -3.7160419      2452.76  0.047946673  0.046823294            9 
 4264000   0.56690788   -3.7081684     2462.524   0.04812625  0.046812919            9 
 4265000   0.57878294   -3.7096982    2462.8095  0.048120545  0.046802571            9 
 4266000   0.55625485   -3.7073142     2466.369  0.048178798  0.046792174            7 
 4267000   0.56839243   -3.6983477    2461.1192  0.048064978  0.046781839            8 
 4268000    0.5729026   -3.6831936     2471.085  0.048248301   0.04677156            8 
 4269000   0.57190159   -3.7072576    2459.8922   0.04801851  0.046761279           19 
 4270000   0.57286423   -3.7302614     2462.195  0.048052205  0.046750952           12 
 4271000   0.56782529   -3.6981798    2467.5821  0.048146066  0.046740659           11 
 4272000   0.56608038   -3.7329848    2464.0319   0.04806554  0.046730388            6 
 4273000    0.5630365     -3.71166    2468.5247  0.048141913  0.046720131            5 
 4274000   0.57192321   -3.7296588    2470.8472  0.048175933  0.046709856            7 
 4275000   0.55782903   -3.7082218    2466.1328  0.048072765  0.046699565           14 
 4276000   0.56025218   -3.7308725    2460.7244   0.04795612  0.046689252           10 
 4277000    0.5562187   -3.7212064    2461.1981  0.047954137  0.046678917           16 
 4278000   0.56093555   -3.7207269    2462.5568  0.047969393  0.046668608           17 
 4279000   0.55012101   -3.7216078    2460.1137  0.047910604  0.046658255            6 
 4280000   0.57389524   -3.7278259    2464.4403   0.04798365  0.046647959            7 
 4281000   0.57940883   -3.7124943     2462.909  0.047942635  0.046637601           12 
 4282000   0.55869653   -3.7287034    2462.9206  0.047931664  0.046627252           18 
 4283000   0.55375783    -3.721343    2464.5501  0.047952178  0.046616902            8 
 4284000   0.56224709    -3.704906    2462.4193  0.047899534  0.046606553           11 
 4285000   0.56222417    -3.726753    2458.7469  0.047816936  0.046596182            7 
 4286000    0.5620299   -3.7220347    2460.9887  0.047849367  0.046585822            6 
 4287000   0.57317667   -3.7268739    2463.5954  0.047888878  0.046575449            6 
 4288000   0.57301694   -3.7039439    2468.2852  0.047968852  0.046565102           14 
 4289000   0.57308771   -3.7070942    2464.1743  0.047877794  0.046554784           10 
 4290000   0.56246798   -3.7127985    2460.4374  0.047794044  0.046544431            5 
 4291000   0.57004494   -3.6995984    2469.3577  0.047956144  0.046534135            7 
 4292000     0.570336   -3.7127748    2468.9979  0.047937984  0.046523845            7 
 4293000   0.56060464   -3.7168858    2462.9837  0.047810073  0.046513544           10 
 4294000   0.55856177    -3.733376    2461.8831  0.047777579  0.046503192           19 
 4295000   0.54866987   -3.7353143    2459.3258  0.047716838  0.046492855           13 
 4296000   0.56277178   -3.7072388    2462.8424  0.047773945  0.046482485           15 
 4297000   0.57310574   -3.7144925    2468.7388  0.047877178  0.046472158           12 
 4298000   0.56649735   -3.7088527    2466.3857  0.047820415  0.046461867            6 
 4299000   0.57489385   -3.7194566    2463.4134  0.047751674  0.046451558           14 
 4300000   0.55525974   -3.7050753    2468.3188  0.047835635  0.046441254            8 
 4301000   0.56733256   -3.7426455    2467.7108  0.047812734  0.046430956           31 
 4302000   0.56550421   -3.7098728    2474.2076  0.047927468  0.046420667            4 
 4303000   0.55811968   -3.7366084    2465.0372  0.047738732  0.046410396           12 
 4304000   0.55708007   -3.7079653    2460.7234  0.047644118  0.046400039           11 
 4305000   0.55513551   -3.7262115    2468.0832  0.047775518  0.046389754            8 
 4306000   0.56712346   -3.7244776     2471.367  0.047827972  0.046379457            9 
 4307000   0.56456486    -3.738412    2468.0493  0.047752675  0.046369125           18 
 4308000   0.54774751   -3.7310813    2465.6321  0.047694832  0.046358737            9 
 4309000   0.55944653    -3.719778    2465.7551  0.047686143  0.046348442            8 
 4310000   0.55594591   -3.7213533     2470.272  0.047762414  0.046338197            8 
 4311000   0.56169553   -3.7291534    2461.9074  0.047589643  0.046327904            7 
 4312000   0.55911155   -3.7256727    2463.0648  0.047600974  0.046317582            7 
 4313000   0.56868763   -3.7380289    2468.5801    0.0476965  0.046307282           30 
 4314000   0.55695907   -3.7316126    2467.4417  0.047663453  0.046296941            8 
 4315000   0.56103094   -3.7246037    2467.3855  0.047651322  0.046286667           15 
 4316000   0.55646986   -3.7410709    2468.4078   0.04766002  0.046276353           13 
 4317000   0.55507226   -3.7538719    2469.1903  0.047664086  0.046265999           26 
 4318000   0.56012439   -3.7225125    2468.3124  0.047636105  0.046255681           12 
 4319000   0.55942225   -3.7300421    2466.3665  0.047587531   0.04624535           16 
 4320000   0.56467291    -3.731101    2465.1767  0.047553562  0.046235023           10 
 4321000   0.56979602   -3.7306874    2459.7688  0.047438263  0.046224673           10 
 4322000   0.54899141   -3.7322262    2467.5265  0.047576865  0.046214301           11 
 4323000   0.56636647   -3.7306321    2462.8109  0.047474957  0.046203954           15 
 4324000   0.55160803   -3.7432691    2465.4741  0.047515304  0.046193591            9 
 4325000   0.55484362   -3.7410156     2462.576  0.047448478  0.046183236           19 
 4326000   0.57246157   -3.7262147    2460.5743   0.04739895  0.046172813           10 
 4327000   0.55682995   -3.7342521    2462.5481  0.047426009  0.046162423           11 
 4328000    0.5565543   -3.7371533    2465.7448  0.047476602  0.046152043            6 
 4329000   0.54568178   -3.7464462    2464.5197  0.047442051  0.046141679           16 
 4330000   0.54922195   -3.7438119    2460.6527  0.047356673  0.046131298           13 
 4331000   0.55765787   -3.7140993    2463.1392  0.047393582   0.04612091            9 
 4332000   0.57884457   -3.7139264    2465.2606   0.04742345  0.046110526           12 
 4333000   0.56599817   -3.7291408    2465.0303  0.047408075  0.046100177           23 
 4334000   0.55141695   -3.7280258    2470.7639  0.047507382  0.046089821           11 
 4335000   0.55315069   -3.7288699    2460.1346  0.047292092  0.046079529            6 
 4336000   0.55511079   -3.7342574    2460.4998  0.047288204  0.046069141            9 
 4337000   0.55601855   -3.7150737    2463.3927  0.047332885  0.046058812           19 
 4338000   0.56206564    -3.730578    2463.3613   0.04732137  0.046048499           20 
 4339000   0.55264833   -3.7281377    2462.7464  0.047298656  0.046038099           23 
 4340000   0.56155522   -3.7235298    2458.0096  0.047196805   0.04602777           14 
 4341000   0.56708488   -3.7382433    2464.0283  0.047301473  0.046017406            9 
 4342000   0.56388936   -3.7413959    2467.8577  0.047364074  0.046007064            9 
 4343000   0.56175802   -3.7181788    2468.5275   0.04736602  0.045996728           12 
 4344000   0.54008882   -3.7480803    2463.5126  0.047258912  0.045986405            7 
 4345000   0.55663045   -3.7244446    2469.1744  0.047356625  0.045976091           16 
 4346000   0.54840872   -3.7184581    2462.7772  0.047223064   0.04596581           11 
 4347000    0.5681683   -3.7147088    2464.8318  0.047251588  0.045955459            7 
 4348000   0.56441404   -3.7304788     2465.946  0.047262075   0.04594515           10 
 4349000    0.5554668    -3.729549    2465.1791  0.047236512  0.045934851            8 
 4350000    0.5511349   -3.7519821     2471.483  0.047346418  0.045924531           12 
 4351000    0.5653133   -3.7646246    2466.3329  0.047236897  0.045914206            9 
 4352000   0.56109549   -3.7453589    2463.5496  0.047172747  0.045903869            6 
 4353000   0.54501934   -3.7303068    2461.1072  0.047115155  0.045893569            8 
 4354000    0.5573214    -3.744677    2466.5171  0.047207875  0.045883242           10 
 4355000   0.54681461   -3.7442656    2466.3173  0.047193213  0.045872942           12 
 4356000    0.5502692   -3.7406103    2468.9985  0.047233673  0.045862638           14 
 4357000   0.54573915   -3.7302352    2467.3178  0.047190685  0.045852329           11 
 4358000   0.56230201   -3.7586877    2464.6054  0.047127991  0.045842029           13 
 4359000   0.55723123   -3.7447862    2464.1759  0.047108968  0.045831705           33 
 4360000   0.55812441   -3.7504152    2464.5536  0.047105383  0.045821384            4 
 4361000   0.56451818   -3.7503578    2461.3448  0.047033265  0.045811051           12 
 4362000   0.54252905   -3.7395436    2468.4057  0.047157376  0.045800722            5 
 4363000   0.55542517   -3.7388981    2473.0841  0.047235924  0.045790376            7 
 4364000   0.56013126   -3.7472763    2466.6527  0.047102289  0.045780073           10 
 4365000    0.5432557   -3.7368322    2470.3214   0.04716154  0.045769808           12 
 4366000   0.54733403   -3.7301328    2464.1804  0.047033525  0.045759562            6 
 4367000   0.55019374   -3.7503612    2468.7274  0.047109521   0.04574933           12 
 4368000   0.55938124   -3.7482279    2468.8894  0.047101827  0.045739059           20 
 4369000    0.5732845    -3.756476    2465.6718  0.047029675  0.045728768           21 
 4370000    0.5550146   -3.7514838    2468.0037  0.047063381  0.045718507           14 
 4371000   0.53905328   -3.7433276    2467.1638  0.047036601  0.045708229            5 
 4372000   0.56022586     -3.74268    2463.1807  0.046949923  0.045697968           12 
 4373000   0.54400472   -3.7591328    2466.2493  0.046997661  0.045687667            7 
 4374000   0.54057389   -3.7622193    2465.4849  0.046972354  0.045677318            9 
 4375000   0.53401149   -3.7364582    2472.3483  0.047092349  0.045667023           27 
 4376000    0.5564462   -3.7544601    2464.7553  0.046936992  0.045656744            5 
 4377000   0.54202304   -3.7383796    2466.9187  0.046967457  0.045646455           18 
 4378000    0.5489329   -3.7515271    2462.9354  0.046880908  0.045636166           14 
 4379000    0.5451399   -3.7625762    2471.6632  0.047036294   0.04562586           13 
 4380000   0.55701013   -3.7508487    2481.7022  0.047216556  0.045615606            8 
 4381000   0.55810601   -3.7459851    2467.6811  0.046939075  0.045605361           14 
 4382000   0.55000406   -3.7487085    2467.4204  0.046923406  0.045595098           19 
 4383000    0.5533481   -3.7480681    2465.3037  0.046872456  0.045584832           11 
 4384000   0.57088119   -3.7399514    2468.5847  0.046924131    0.0455746           20 
 4385000   0.55601962   -3.7538582    2471.3962  0.046966861  0.045564333           14 
 4386000   0.54600062   -3.7390329    2470.9125  0.046946962  0.045554125           16 
 4387000   0.55501055   -3.7400534    2467.5153  0.046871729  0.045543891            6 
 4388000   0.56248947   -3.7428487    2466.3464  0.046838849  0.045533596            8 
 4389000   0.55604636   -3.7471299    2467.3372   0.04684699  0.045523375           23 
 4390000   0.54921796   -3.7359796    2474.4423  0.046971191   0.04551317           26 
 4391000   0.54293463   -3.7532038    2466.8091  0.046815628  0.045502946            8 
 4392000   0.54892844   -3.7408385    2472.9174  0.046920868  0.045492694            7 
 4393000    0.5511951   -3.7463214    2464.7238  0.046754757  0.045482467           17 
 4394000   0.54176241   -3.7333188    2473.8894  0.046917946  0.045472252           11 
 4395000   0.54738297   -3.7534109    2468.1838  0.046799087     0.045462            7 
 4396000   0.54840496   -3.7446872    2467.5519  0.046776462  0.045451757            7 
 4397000   0.55518647   -3.7427466    2464.5068  0.046708112  0.045441539           10 
 4398000   0.54778815   -3.7497185    2465.8731  0.046723379  0.045431258            9 
 4399000   0.54146852   -3.7402977    2469.4139  0.046779835  0.045420975           23 
 4400000   0.52818159   -3.7289588    2473.2473  0.046841804  0.045410761            7 
 4401000   0.54790819   -3.7501814    2463.7754  0.046651811  0.045400486           11 
 4402000   0.54419073   -3.7463733     2468.477  0.046730217   0.04539023            8 
 4403000   0.54842851   -3.7496759    2464.8882  0.046651681   0.04537997            9 
 4404000   0.55434577   -3.7478844    2470.4146  0.046745658  0.045369645           24 
 4405000   0.55353145   -3.7555986    2474.3431  0.046809366  0.045359416           27 
 4406000   0.55307357   -3.7628108    2472.3903  0.046761807  0.045349156           11 
 4407000   0.54624376   -3.7508446    2471.0779  0.046726381  0.045338912            5 
 4408000   0.54304356   -3.7737995    2468.1521  0.046660467  0.045328668            7 
 4409000   0.54840721   -3.7630334    2468.1912  0.046650623  0.045318414           21 
 4410000   0.54299324    -3.766843    2465.1861   0.04658326  0.045308059           12 
 4411000   0.54738497   -3.7543963    2463.4912  0.046540679  0.045297701           13 
 4412000   0.53763274   -3.7391085    2461.5266  0.046493023  0.045287345           18 
 4413000   0.56148091   -3.7504452     2465.155  0.046551004  0.045277024           16 
 4414000   0.54966576   -3.7505689    2470.1883  0.046635484  0.045266736           13 
 4415000   0.54841085   -3.7446806    2474.9272  0.046714367  0.045256475           13 
 4416000   0.54350715   -3.7564223    2474.7529    0.0467005  0.045246228            9 
 4417000   0.53939309   -3.7649694    2464.1374  0.046489649  0.045235933           20 
 4418000   0.53971437    -3.773997    2469.4214  0.046578794  0.045225663           14 
 4419000   0.54062306   -3.7783711    2473.0004  0.046635748  0.045215421           13 
 4420000   0.55937325   -3.7687417    2467.0262   0.04651256  0.045205137           27 
 4421000   0.53476414   -3.7575002    2468.6613   0.04653286  0.045194865           15 
 4422000   0.55230957   -3.7489721     2469.718   0.04654225  0.045184586           11 
 4423000    0.5350081   -3.7606681    2465.2642  0.046447815  0.045174318           11 
 4424000   0.53277023   -3.7443344     2471.769  0.046559844  0.045164051           10 
 4425000   0.54442188   -3.7649527    2472.6988  0.046566833  0.045153847           12 
 4426000   0.55016321   -3.7721675    2468.6493  0.046480067  0.045143606           21 
 4427000   0.53567944   -3.7589453    2470.5626  0.046505583  0.045133308            8 
 4428000   0.54939463   -3.7647411    2469.2328  0.046470055     0.045123            9 
 4429000   0.53273601   -3.7684809    2466.0736   0.04640012  0.045112719            8 
 4430000   0.54136408   -3.7618284    2463.1764  0.046335147  0.045102467            5 
 4431000   0.54566885   -3.7724529    2461.2729   0.04628889  0.045092155           10 
 4432000   0.53714616   -3.7565473    2474.5579  0.046528239  0.045081881           15 
 4433000   0.54252103   -3.7580228    2475.8954  0.046542887  0.045071617            8 
 4434000   0.55203583   -3.7536346    2471.5751  0.046451194  0.045061431           25 
 4435000   0.54800436   -3.7762205     2473.293  0.046472999  0.045051171           12 
 4436000   0.55029101   -3.7576158    2466.2231  0.046329709  0.045040885            7 
 4437000   0.54543037   -3.7665905    2464.3364  0.046283833  0.045030581            6 
 4438000    0.5474297   -3.7644024    2467.4784  0.046332403  0.045020329            7 
 4439000    0.5436407   -3.7513567    2473.6437  0.046437705  0.045010079           15 
 4440000   0.53520517   -3.7409638     2473.856   0.04643123  0.044999895            8 
 4441000   0.55289126   -3.7583259     2471.621  0.046378838  0.044989714           13 
 4442000   0.53897052   -3.7670331    2463.4336  0.046214799  0.044979496            9 
 4443000   0.54359342   -3.7399165    2469.4742  0.046317695  0.044969267           26 
 4444000   0.53872428   -3.7545847    2467.3817  0.046268034  0.044959066           23 
 4445000    0.5458026   -3.7515515    2473.7271  0.046376587  0.044948898           11 
 4446000   0.53777346    -3.756865    2466.6106  0.046232768  0.044938692           19 
 4447000   0.53536112   -3.7649062    2469.0015  0.046267175  0.044928485            7 
 4448000   0.54514567   -3.7701287    2471.6011  0.046305477  0.044918268           22 
 4449000   0.53773127   -3.7773089    2466.5545  0.046200541  0.044908022           10 
 4450000   0.52779649    -3.767072    2470.3633  0.046261486  0.044897807            8 
 4451000   0.52795508   -3.7872451    2471.7592  0.046277226  0.044887573            8 
 4452000   0.54061714   -3.7614063    2472.0227  0.046271763  0.044877368            7 
 4453000   0.53826143   -3.7535747    2469.4639  0.046213488  0.044867237           27 
 4454000   0.54399665   -3.7742454    2468.2922  0.046181188  0.044857103           14 
 4455000   0.53931217   -3.7525567    2471.8947  0.046238211  0.044846944           15 
 4456000   0.55285179   -3.7589437    2469.8819   0.04619019  0.044836792           20 
 4457000   0.53566716    -3.760124    2465.5498  0.046098829  0.044826638            5 
 4458000   0.53657158    -3.768858    2471.2585  0.046195202  0.044816469            8 
 4459000   0.52353624   -3.7767561    2470.0194  0.046161684  0.044806249            7 
 4460000   0.51982259   -3.7557027    2475.0378  0.046245101  0.044796077            7 
 4461000   0.52819867   -3.7687773    2473.4964  0.046205941  0.044785904           11 
 4462000   0.54668814    -3.774951    2477.9022   0.04627787  0.044775704           17 
 4463000   0.53379662   -3.7663596    2465.4495  0.046034982  0.044765473           19 
 4464000   0.54084913    -3.786657    2468.0286  0.046072816  0.044755232           15 
 4465000   0.53430477   -3.7818514    2469.1853  0.046084086  0.044745063           15 
 4466000   0.54806855   -3.7553693    2469.9282  0.046087629  0.044734884           19 
 4467000   0.53761503   -3.7685116    2478.2115   0.04623184  0.044724738            9 
 4468000   0.52874801   -3.7716234    2471.8396  0.046102649  0.044714557            9 
 4469000   0.54644476   -3.7826836    2474.3154  0.046138498  0.044704385           11 
 4470000   0.53409209   -3.7716167    2471.8459  0.046082139  0.044694204            6 
 4471000     0.527306   -3.7955491    2470.6369  0.046049297  0.044683988            8 
 4472000    0.5349143   -3.7830528    2472.6989  0.046077424  0.044673724           12 
 4473000   0.53309049   -3.7513266    2472.8542  0.046070016  0.044663557           13 
 4474000   0.54662296   -3.7600742    2471.0918  0.046026892  0.044653363            8 
 4475000   0.54247636   -3.7714874    2469.1458  0.045980368  0.044643192           11 
 4476000   0.54425527    -3.773694    2467.4624  0.045938756  0.044632964            8 
 4477000    0.5320044   -3.7450455    2479.6648  0.046155625  0.044622776           11 
 4478000   0.54099505   -3.7939199    2468.8661   0.04594436  0.044612612           12 
 4479000   0.55199938    -3.775785    2475.1229  0.046050511  0.044602395           11 
 4480000   0.53800775   -3.7619292    2469.9636  0.045944264  0.044592205            7 
 4481000   0.54238632   -3.7594429    2474.9645  0.046027012  0.044582045            7 
 4482000   0.54493785   -3.7938252    2463.2828  0.045799546  0.044571787           19 
 4483000   0.53536959   -3.7714679    2471.3378  0.045939062  0.044561512            5 
 4484000   0.54117371   -3.7846694    2470.4041  0.045911465  0.044551211           16 
 4485000   0.54985903   -3.7885837    2467.7263  0.045851474   0.04454093           17 
 4486000   0.53346032   -3.7832039    2467.1394   0.04583035  0.044530664           18 
 4487000   0.53846594   -3.7796191    2463.8164   0.04575842    0.0445204           11 
 4488000   0.52844612   -3.7853336     2464.061  0.045752766  0.044510186           29 
 4489000   0.53287313   -3.7809998    2467.8967   0.04581378  0.044499962           12 
 4490000   0.52703309   -3.7694682    2471.5929  0.045872177  0.044489737           11 
 4491000   0.53987448   -3.7847743    2469.6509  0.045825928  0.044479509           13 
 4492000   0.53175266   -3.7652632    2470.9553  0.045839925  0.044469352           19 
 4493000   0.53107039   -3.7690623    2464.7708  0.045715017  0.044459216           17 
 4494000   0.54024049   -3.7943826    2469.1835  0.045786669  0.044449025           16 
 4495000   0.52345682    -3.761444    2468.6431  0.045766465  0.044438861            9 
 4496000   0.54024197   -3.7666609    2476.3461   0.04589906  0.044428724           13 
 4497000    0.5446698   -3.7956111       2472.6  0.045819435  0.044418558            9 
 4498000   0.52511505   -3.7844178     2473.452  0.045825033  0.044408352            7 
 4499000    0.5306498   -3.7700739    2467.9364  0.045712684  0.044398116           15 
 4500000   0.52685526    -3.797433    2471.8104  0.045774268  0.044387875           17 
 4501000    0.5358112   -3.7580662    2478.6741  0.045891173  0.044377748            6 
 4502000   0.53436304   -3.7802773    2475.0224  0.045813387  0.044367668            7 
 4503000   0.53025274   -3.7903744    2465.8341  0.045633173  0.044357492           10 
 4504000   0.53738593   -3.7857814    2470.0606   0.04570124  0.044347252           13 
 4505000   0.52149709     -3.78526    2472.5191  0.045736572  0.044337022           14 
 4506000   0.52678724   -3.8003852    2473.5721  0.045745896   0.04432686           15 
 4507000   0.53039203   -3.8093063    2469.2079  0.045655054  0.044316661           17 
 4508000   0.52495274      -3.7838    2475.4674  0.045760636  0.044306426           16 
 4509000   0.52789273   -3.7962629    2468.8763  0.045628674  0.044296203           16 
 4510000   0.53175935   -3.7702982    2472.7569   0.04569026  0.044286034           22 
 4511000   0.53326456   -3.7746409    2467.7738  0.045588076  0.044275878           31 
 4512000     0.521255   -3.7837121    2471.6357  0.045649301  0.044265694           13 
 4513000   0.52686272   -3.7744069    2473.7102  0.045677492  0.044255487            9 
 4514000   0.52672232   -3.7598058    2477.8479  0.045743759  0.044245339            9 
 4515000   0.52286969   -3.7686799    2465.7722  0.045510745  0.044235205           13 
 4516000   0.51842195   -3.7716786    2482.1919  0.045803659    0.0442251            9 
 4517000   0.52143815   -3.7782593    2476.7004  0.045692208   0.04421499            8 
 4518000   0.51976817   -3.7855378     2472.893  0.045611868   0.04420486           17 
 4519000   0.52561393   -3.7765072    2480.0564  0.045733871  0.044194734            5 
 4520000   0.52568799   -3.8000768    2469.7915  0.045534504  0.044184614           10 
 4521000   0.52583894   -3.7805152    2476.5203  0.045648461  0.044174479            8 
 4522000   0.52418944   -3.7785564    2468.7011  0.045494271   0.04416439           11 
 4523000   0.51400149   -3.7837143    2471.1364  0.045529081  0.044154255            8 
 4524000   0.53176979   -3.7879318    2473.3668  0.045560101  0.044144083            6 
 4525000   0.53457012   -3.7791606    2472.3075  0.045530524  0.044133935           12 
 4526000   0.53152142   -3.7860118    2468.7162  0.045454341  0.044123789           12 
 4527000   0.52359395   -3.7856619    2471.4113  0.045493913  0.044113667           17 
 4528000   0.52440653   -3.7957089    2475.0528  0.045550884  0.044103535           18 
 4529000   0.52331235   -3.7984908     2469.454  0.045437808  0.044093333           32 
 4530000   0.51889929   -3.8162426    2467.5765   0.04539324  0.044083145           13 
 4531000    0.5427427   -3.8047988    2465.5448  0.045345854  0.044072956           22 
 4532000    0.5170682   -3.8006538    2467.8139  0.045377572  0.044062734           13 
 4533000   0.53298741   -3.7923562    2468.1532    0.0453738  0.044052533           25 
 4534000     0.536795   -3.8097413    2476.4281  0.045515882  0.044042361           17 
 4535000   0.53127032   -3.7939316    2475.1184  0.045481779  0.044032192           21 
 4536000   0.52992373    -3.790558    2471.9377  0.045413317  0.044022031           11 
 4537000   0.53208516   -3.8096866    2473.6147  0.045434109  0.044011847           10 
 4538000   0.53182985   -3.8141833    2469.9358  0.045356542  0.044001652           29 
 4539000   0.53054341   -3.7999934    2474.2955  0.045426589  0.043991454           11 
 4540000   0.52575817   -3.7858966    2473.9759  0.045410718  0.043981302           37 
 4541000   0.51590297   -3.7949701    2467.4215  0.045280436   0.04397108           15 
 4542000    0.5212234   -3.7885667    2473.2784  0.045377924  0.043960897           10 
 4543000   0.52915269   -3.8046847    2469.1773  0.045292708  0.043950703           10 
 4544000   0.52218102   -3.8085909    2461.0416  0.045133539  0.043940502           11 
 4545000   0.52360741   -3.7913959    2466.6777  0.045226947  0.043930252           18 
 4546000   0.51891093   -3.7917849    2468.6927  0.045253936  0.043920014           24 
 4547000   0.51668944   -3.7835742    2464.9888  0.045176101  0.043909824           15 
 4548000   0.53842356   -3.8117066    2473.1452  0.045315619  0.043899652           23 
 4549000   0.52667178     -3.78646    2467.6309   0.04520464  0.043889477            7 
 4550000   0.52151819   -3.7882373    2472.8178  0.045289703  0.043879322            9 
 4551000   0.51503363   -3.7867547    2473.6287    0.0452946  0.043869191           11 
 4552000   0.52750941   -3.8045869    2470.3801  0.045225178  0.043859044            8 
 4553000   0.51740333   -3.8085527    2471.6371  0.045238252  0.043848814           15 
 4554000   0.51989896     -3.81108    2468.9679  0.045179474  0.043838632           14 
 4555000   0.52511007   -3.8002403    2470.0538  0.045189422  0.043828405           20 
 4556000   0.51722583   -3.8057847    2469.5856   0.04517094  0.043818223            9 
 4557000   0.51450645   -3.7935688    2464.4083   0.04506635  0.043808039           14 
 4558000   0.52305801   -3.8022942    2468.5376  0.045131959  0.043797818           41 
 4559000   0.53154536   -3.7890668    2472.6926  0.045198008  0.043787612           16 
 4560000   0.52764122   -3.8008134    2471.8976  0.045173567  0.043777392           24 
 4561000   0.51799775   -3.8012063    2470.7242  0.045142224  0.043767218           13 
 4562000   0.52596598   -3.7843966    2473.3016   0.04517941  0.043757008           15 
 4563000   0.51645182   -3.7915612    2473.4945  0.045173032  0.043746794           12 
 4564000   0.51919546   -3.7949913    2468.3492  0.045069187  0.043736581           21 
 4565000   0.52916138   -3.8013704    2466.2022  0.045020121  0.043726348           15 
 4566000   0.53653278   -3.8179352    2477.9433  0.045224546  0.043716131           12 
 4567000    0.5144162   -3.7919004    2467.3594   0.04502152   0.04370591           19 
 4568000   0.52180223   -3.7961198    2468.2663  0.045028208  0.043695647           14 
 4569000   0.50724715   -3.8040554    2470.3513  0.045056382  0.043685398           10 
 4570000    0.5190603    -3.796798    2468.5226  0.045013177  0.043675151           17 
 4571000   0.52795042   -3.7989076    2463.5575  0.044912811  0.043664925           11 
 4572000   0.53023388   -3.8002564    2466.5209     0.044957  0.043654677           14 
 4573000   0.51487243   -3.8243841     2464.521  0.044910727  0.043644436           12 
 4574000   0.52339418   -3.8097414    2474.1367  0.045076094  0.043634185           11 
 4575000   0.51399056   -3.8032951    2468.8656  0.044970229  0.043623957           15 
 4576000   0.51685086   -3.8085895    2472.8373   0.04503273  0.043613741           16 
 4577000   0.52461744   -3.8046302    2469.1006  0.044954858  0.043603556           12 
 4578000   0.51636126   -3.8136473    2473.9136  0.045032649  0.043593366           12 
 4579000    0.5186812   -3.8040704    2470.1899  0.044955046  0.043583114            8 
 4580000   0.52744815   -3.8296237    2460.9883  0.044777807  0.043572813           18 
 4581000   0.51834756   -3.8102483    2465.4314  0.044848858  0.043562557           15 
 4582000   0.52972972   -3.7928339    2467.6562  0.044879532  0.043552337           12 
 4583000    0.5219433   -3.8018942    2464.1486   0.04480596  0.043542141            8 
 4584000   0.51821991   -3.8052343    2465.6242  0.044823012  0.043531939            9 
 4585000    0.5152658   -3.8081027    2468.6337  0.044867933   0.04352169           44 
 4586000   0.50756377   -3.8157419    2463.0374  0.044756458  0.043511412           32 
 4587000   0.52008405   -3.8026395    2470.7468  0.044886759  0.043501215           20 
 4588000   0.51909873   -3.8165303    2468.7663  0.044841004  0.043491013           13 
 4589000   0.51500623   -3.8028683    2467.4481  0.044807294   0.04348078           12 
 4590000   0.52666291   -3.8027341    2469.0661  0.044826908  0.043470552           23 
 4591000   0.51354812   -3.8210265    2468.6023  0.044808726  0.043460338           22 
 4592000   0.51427953   -3.7973828    2464.6576   0.04472738  0.043450111           13 
 4593000   0.52660399   -3.8218684    2465.8125  0.044738597  0.043439912           13 
 4594000   0.51229999   -3.8129412    2464.0066  0.044696099  0.043429699           10 
 4595000   0.52067408   -3.8287657    2467.8826  0.044756666   0.04341949           38 
 4596000   0.52600385   -3.8148857    2467.8898  0.044747059  0.043409274           17 
 4597000   0.51259716   -3.8059269    2468.6944  0.044751911  0.043399095           16 
 4598000   0.51321052   -3.8064953    2467.6073  0.044722476  0.043388886           14 
 4599000   0.51166665   -3.8287576     2472.086  0.044793904  0.043378645           17 
 4600000    0.5194673   -3.7955554    2465.4888  0.044664652  0.043368456           19 
 4601000   0.51915931   -3.7944571    2465.1668  0.044649112  0.043358228           27 
 4602000   0.51699433   -3.8185769    2470.3914  0.044734018  0.043348016           16 
 4603000    0.5189339   -3.8160754    2468.3161  0.044686727  0.043337855           20 
 4604000   0.51288679   -3.8045278    2466.7275  0.044648267  0.043327663            7 
 4605000   0.51970872   -3.8206152    2468.3919  0.044668691  0.043317496           13 
 4606000   0.51331377   -3.8264813     2467.417  0.044641356  0.043307291           20 
 4607000   0.52791351   -3.8218881    2470.2357  0.044682651  0.043297105           14 
 4608000   0.51550531   -3.8144214    2467.1739  0.044617584  0.043286949           12 
 4609000   0.51701458   -3.8071124    2468.3739  0.044629599  0.043276781           16 
 4610000   0.51688731   -3.8210439     2468.567  0.044623409  0.043266621           19 
 4611000   0.52235192   -3.8070563     2465.704   0.04456199  0.043256455           14 
 4612000   0.50498054   -3.8138097    2465.1454  0.044542234   0.04324625           12 
 4613000   0.50457764    -3.798737    2474.3885  0.044699553  0.043236107           17 
 4614000   0.51784032   -3.8184965    2470.1144  0.044612671  0.043225967           21 
 4615000   0.51129399   -3.8078544      2469.22  0.044586855  0.043215809           15 
 4616000   0.52472791   -3.7998732    2471.8059  0.044623879  0.043205659           10 
 4617000   0.51526583   -3.8060673    2463.1802  0.044458526  0.043195519           17 
 4618000   0.51579328   -3.8123585    2469.7549  0.044567543  0.043185358           20 
 4619000   0.51586437    -3.814369    2468.7769  0.044540249   0.04317523           11 
 4620000   0.51682757   -3.8206178    2468.7391  0.044529926   0.04316511           12 
 4621000   0.52143924   -3.8214816    2467.4764  0.044497519  0.043154976           14 
 4622000   0.52390341   -3.8227937    2468.2308  0.044501493  0.043144792           11 
 4623000   0.51343165   -3.8082571    2472.8061  0.044574341  0.043134647           13 
 4624000   0.49527056   -3.8232645    2464.6635  0.044417956  0.043124469           23 
 4625000   0.50913046   -3.8001988    2465.7884  0.044428619  0.043114316           19 
 4626000   0.51508837    -3.832392    2470.6549  0.044506682  0.043104198           17 
 4627000     0.507764   -3.8172497     2467.026  0.044431705  0.043094051            9 
 4628000   0.50916782   -3.8107958    2470.4088  0.044483016  0.043083883           11 
 4629000   0.51342648   -3.8224917    2470.5431  0.044475824  0.043073757           10 
 4630000   0.50944841   -3.8053395    2467.1724  0.044405551  0.043063681            6 
 4631000   0.50661569       -3.816    2468.4087  0.044418209  0.043053551            9 
 4632000   0.51116159   -3.8152956     2470.224  0.044441278  0.043043382           20 
 4633000   0.49974092   -3.8171073    2469.4294  0.044417394  0.043033262           11 
 4634000   0.50442377   -3.8315846    2465.6974  0.044340695  0.043023153           19 
 4635000   0.51001865   -3.8350371    2470.2939   0.04441377  0.043013014           11 
 4636000   0.51658584   -3.8226162     2472.006  0.044434965  0.043002847           21 
 4637000   0.50214678   -3.8464283    2465.8734  0.044315171  0.042992695           40 
 4638000   0.51281401   -3.8447627    2470.7657   0.04439352  0.042982547            9 
 4639000   0.49129983    -3.827329    2471.0987  0.044389932  0.042972464            7 
 4640000   0.50925147   -3.8194604    2473.5791  0.044424912   0.04296238           11 
 4641000   0.51236765   -3.8241288     2472.364  0.044393522  0.042952309           15 
 4642000   0.50190179   -3.8139556    2470.3069   0.04434703  0.042942284           12 
 4643000   0.50401301   -3.8053391    2470.8444  0.044347125  0.042932223           16 
 4644000   0.52429156   -3.8253254    2476.2199  0.044434036  0.042922199           12 
 4645000   0.50143922   -3.8258944    2471.1022  0.044332656  0.042912127           29 
 4646000   0.50313837   -3.8289284    2467.5067  0.044258622  0.042902034           42 
 4647000   0.50838671   -3.8055226    2468.4574  0.044266147  0.042891953           12 
 4648000   0.51014208   -3.8361336    2465.8282  0.044209484   0.04288188           10 
 4649000   0.51443704   -3.8412465    2469.2464  0.044261246   0.04287178            9 
 4650000   0.52541719   -3.8154843    2473.2564  0.044323591  0.042861718           17 
 4651000   0.48603204   -3.8132612    2468.4666  0.044228241  0.042851705           25 
 4652000   0.51721696   -3.8181911     2473.204  0.044303598  0.042841684           16 
 4653000   0.51190504   -3.8383961    2468.3782  0.044207648   0.04283164           11 
 4654000   0.51401073   -3.8283815    2471.6497  0.044256727  0.042821602            8 
 4655000   0.50337698   -3.8277843    2474.6603  0.044301115  0.042811544            6 
 4656000   0.50365103   -3.8255584    2470.3334  0.044214157  0.042801521           19 
 4657000   0.52024209   -3.8137468    2472.2439   0.04423885  0.042791481           17 
 4658000   0.50474799   -3.8410499    2476.2719  0.044301415  0.042781438           22 
 4659000   0.50632782   -3.8210842    2474.0623  0.044252385  0.042771434           12 
 4660000   0.51934276   -3.8346899    2476.1585  0.044280374  0.042761411            8 
 4661000    0.5049252   -3.8263751    2474.1997  0.044235852  0.042751379           16 
 4662000   0.51220591   -3.8285656    2470.7654  0.044164976  0.042741368           50 
 4663000   0.49611118   -3.8406647    2465.2676  0.044057253  0.042731338           19 
 4664000   0.51037818   -3.8252072    2472.3056  0.044173556  0.042721262           13 
 4665000   0.50566631   -3.8429035    2467.2453  0.044073693  0.042711206           15 
 4666000   0.51065855   -3.8280435    2474.5313  0.044194373  0.042701168           22 
 4667000   0.49246619   -3.8112466    2473.9997   0.04417541  0.042691147           16 
 4668000   0.51341435    -3.833825    2469.6596  0.044088467  0.042681101           27 
 4669000   0.50381233   -3.8487286    2468.1771  0.044052565  0.042671079           29 
 4670000    0.5051398   -3.8346701    2477.8542  0.044215814  0.042661057           58 
 4671000   0.50530914   -3.8439859    2472.3452  0.044108064  0.042651021           33 
 4672000   0.50307118   -3.8389515    2473.6014  0.044121029  0.042640965           27 
 4673000    0.4973017   -3.8196803    2468.1751   0.04401482  0.042630896           20 
 4674000   0.50511664    -3.843835    2474.3514  0.044115522  0.042620928           16 
 4675000   0.49973192   -3.8200368    2475.9177  0.044134005   0.04261092            6 
 4676000   0.50536618   -3.8388561    2468.7278  0.043996432  0.042600922           19 
 4677000   0.50414884   -3.8294734    2473.0171   0.04406345  0.042590905           10 
 4678000   0.50308096   -3.8116931    2474.6393  0.044082929  0.042580909           14 
 4679000   0.49712361   -3.8262573    2473.8106  0.044058747  0.042570929            8 
 4680000   0.50427976   -3.8396343    2471.6016  0.044009999  0.042560915           30 
 4681000   0.50092739   -3.8279658    2475.1927  0.044064529  0.042550893            8 
 4682000   0.49544695   -3.8404692    2478.5779  0.044115369  0.042540863            6 
 4683000   0.49906037   -3.8520368    2475.2674  0.044047039  0.042530826            6 
 4684000   0.50648518   -3.8095001    2476.4793  0.044059196  0.042520822           14 
 4685000   0.51474539   -3.8319044    2478.5685  0.044086953  0.042510823           17 
 4686000   0.49823594   -3.8170825    2469.9928  0.043925039   0.04250087           18 
 4687000    0.4974168   -3.8384073    2470.9399  0.043932507  0.042490866            9 
 4688000   0.49891782   -3.8431312    2471.9266  0.043940675   0.04248086           11 
 4689000   0.49290425   -3.8332615     2474.348  0.043974338  0.042470837           28 
 4690000   0.50484707    -3.870683    2474.6478  0.043970287   0.04246079           12 
 4691000   0.49455909   -3.8332392    2469.8611  0.043875882  0.042450773            7 
 4692000   0.49357044   -3.8532164    2470.4981  0.043877843  0.042440752           21 
 4693000   0.49914072   -3.8502857    2469.4888  0.043850572  0.042430719           30 
 4694000   0.51084307   -3.8524096    2470.4744  0.043858727  0.042420674           17 
 4695000    0.5077195   -3.8407859    2472.8614  0.043891754  0.042410633           12 
 4696000   0.49908554   -3.8249205    2474.7605  0.043916108  0.042400691            8 
 4697000   0.49230876   -3.8209539    2472.6199  0.043868781  0.042390748            9 
 4698000   0.50434282   -3.8377877     2476.957  0.043936373  0.042380772           18 
 4699000   0.50570875   -3.8409198    2469.3562   0.04379223  0.042370805           13 
 4700000   0.49147582   -3.8350802     2474.023  0.043865657  0.042360816           14 
 4701000   0.49081736    -3.816707    2474.2318  0.043860027  0.042350799           15 
 4702000   0.50274485   -3.8343401    2469.0688  0.043759195  0.042340786           16 
 4703000   0.49646236   -3.8441287    2468.4052  0.043738132  0.042330801           15 
 4704000   0.50578417   -3.8446986    2471.7421  0.043787948  0.042320812           21 
 4705000   0.49039318   -3.8398148    2476.0935  0.043855713   0.04231089           18 
 4706000   0.49374857   -3.8317883    2479.7737  0.043911561  0.042300969           16 
 4707000   0.50200913   -3.8389001    2469.5992  0.043722101  0.042291018           36 
 4708000   0.48457207     -3.83506    2475.6406   0.04381975  0.042281025           23 
 4709000   0.49926236   -3.8579226    2471.8203  0.043742838  0.042271029           12 
 4710000    0.4956745   -3.8475371    2465.1518  0.043615566  0.042261024           10 
 4711000   0.47942144   -3.8241617    2472.2548  0.043731954  0.042251011            7 
 4712000    0.4984202   -3.8398329    2470.8774  0.043698313  0.042241012           10 
 4713000   0.49227744   -3.8427547    2474.2706  0.043749037  0.042231041           22 
 4714000   0.49147793   -3.8257912    2477.4883  0.043796639  0.042221093           32 
 4715000   0.48618043   -3.8479805    2479.5523   0.04382383  0.042211126           19 
 4716000   0.50511702   -3.8309621    2470.6268   0.04365682   0.04220117           12 
 4717000   0.49996338   -3.8524486    2471.2674  0.043658883  0.042191208           21 
 4718000   0.50858546   -3.8367366    2461.6675  0.043480067  0.042181223            9 
 4719000   0.49277767   -3.8466528    2473.2101  0.043674686  0.042171234           25 
 4720000   0.49509232   -3.8500065    2471.1325  0.043628752  0.042161268           23 
 4721000   0.49933419   -3.8509963    2469.3265  0.043587631  0.042151251           11 
 4722000   0.49449139   -3.8600197    2471.1077  0.043609835  0.042141286           21 
 4723000   0.49374652   -3.8536712    2466.7536  0.043523777  0.042131331           13 
 4724000   0.48806034   -3.8348496    2480.6422  0.043759564  0.042121423           12 
 4725000   0.48534267   -3.8283562     2478.118  0.043705785  0.042111567           14 
 4726000   0.48965338   -3.8298763     2476.252  0.043663633  0.042101709           14 
 4727000   0.49941345   -3.8444826    2475.7846  0.043646157  0.042091802           11 
 4728000   0.49468989   -3.8401779    2469.9261  0.043533667  0.042081895           13 
 4729000   0.49710811   -3.8455772    2478.1802  0.043669913  0.042071983           18 
 4730000    0.5096947   -3.8442119    2471.1495  0.043536813  0.042062095            7 
 4731000   0.49645338   -3.8417128    2476.8411  0.043627864  0.042052179           10 
 4732000   0.50439965   -3.8400663    2471.1405  0.043518253  0.042042268           13 
 4733000   0.49324149    -3.848446    2472.8954  0.043539957  0.042032348           16 
 4734000   0.49385931   -3.8619305    2476.3006  0.043590702  0.042022427           17 
 4735000   0.48857727   -3.8530746     2473.122  0.043525555  0.042012487           12 
 4736000   0.48914682   -3.8679611    2469.1276   0.04344608  0.042002553            8 
 4737000   0.49317426   -3.8553857    2477.4186  0.043582763  0.041992637           19 
 4738000   0.49457404   -3.8763268    2471.6109  0.043471417  0.041982708           22 
 4739000   0.49898589   -3.8504274    2466.8815   0.04337908  0.041972786           13 
 4740000   0.49493319    -3.841886    2473.2704   0.04348225  0.041962847           35 
 4741000   0.49490803   -3.8584179    2471.0706  0.043434413  0.041952936           16 
 4742000   0.49608091   -3.8487855    2467.5206  0.043362868  0.041942976           25 
 4743000   0.48867295   -3.8538584    2466.6777  0.043338915  0.041933003           21 
 4744000   0.49565448   -3.8616543    2469.5568  0.043380354   0.04192305           18 
 4745000   0.50354633   -3.8585843    2473.6004  0.043442227  0.041913122           22 
 4746000   0.49823912   -3.8341356      2479.92  0.043544037   0.04190322            8 
 4747000   0.49038874   -3.8560178    2470.4459  0.043368547  0.041893332           17 
 4748000   0.50270398   -3.8437931    2472.0727  0.043387965  0.041883416           15 
 4749000   0.48737313   -3.8560575    2478.1475  0.043485427  0.041873486            6 
 4750000   0.48938034   -3.8458549    2469.3295  0.043321571  0.041863553           20 
 4751000   0.49549607   -3.8690868    2471.4711  0.043350015  0.041853634           16 
 4752000   0.49794682   -3.8625362    2473.2899  0.043372789  0.041843672           21 
 4753000   0.48837013   -3.8460195    2469.4141  0.043295709  0.041833749           15 
 4754000   0.49818459   -3.8484373    2466.2918  0.043231872  0.041823788           31 
 4755000    0.4896694   -3.8513432    2470.2164  0.043291559  0.041813832           24 
 4756000    0.4852127   -3.8777005    2475.0355  0.043366897  0.041803885           22 
 4757000   0.50188493   -3.8500846    2470.8272  0.043284059  0.041793921           11 
 4758000   0.49607237   -3.8688517    2471.7196  0.043290591  0.041783921           12 
 4759000   0.48957539   -3.8574948    2472.2289  0.043290412  0.041773931           21 
 4760000   0.48565221   -3.8564007    2467.1931  0.043193156  0.041763965           12 
 4761000   0.49917531   -3.8650029    2468.7858  0.043211962  0.041753987           16 
 4762000   0.49488124   -3.8638605    2467.4196   0.04317898  0.041744044           20 
 4763000   0.49181996    -3.848834    2472.0847  0.043251534  0.041734085           18 
 4764000   0.48379046   -3.8513668    2468.7126   0.04318347   0.04172415           12 
 4765000   0.47988959   -3.8557834    2468.4126   0.04316916   0.04171422            7 
 4766000   0.48855111   -3.8560217    2467.7578  0.043148654  0.041704296            7 
 4767000   0.48769638   -3.8689361    2473.4875  0.043239764  0.041694347           10 
 4768000   0.48353193   -3.8537773    2472.9048  0.043220512  0.041684435           11 
 4769000   0.48813136    -3.868311    2471.5713  0.043188147  0.041674527           28 
 4770000   0.48807391   -3.8702203    2470.4366  0.043159269  0.041664602           17 
 4771000   0.48637362   -3.8527396    2465.0276  0.043055746  0.041654692           23 
 4772000    0.4814716   -3.8669548    2468.7855  0.043112348  0.041644787           17 
 4773000   0.48821194   -3.8680538    2467.3026  0.043077426  0.041634856           30 
 4774000    0.4835552   -3.8719053    2468.0287  0.043081076  0.041624942           19 
 4775000   0.48925942    -3.850595    2475.5152  0.043202708  0.041615056            9 
 4776000   0.48842819   -3.8614023    2469.8414  0.043094665  0.041605156           17 
 4777000   0.49137761   -3.8557089    2468.0799  0.043054914  0.041595214           10 
 4778000   0.50065097   -3.8607116     2467.858  0.043042034  0.041585285           30 
 4779000   0.48795386   -3.8550938    2469.4584  0.043060933  0.041575392           14 
 4780000   0.48320878   -3.8550333    2476.6623  0.043177515  0.041565487           23 
 4781000   0.47903733   -3.8653537    2468.8106  0.043031629  0.041555577           18 
 4782000     0.488449   -3.8626695    2473.6909  0.043107677  0.041545695           14 
 4783000   0.48385245   -3.8666841    2468.2693  0.043004205  0.041535779           20 
 4784000    0.4834541   -3.8556934    2471.6442  0.043054003  0.041525847           17 
 4785000   0.48854416   -3.8638105    2467.4609  0.042972151  0.041515979           23 
 4786000   0.48766449   -3.8483905    2470.8635  0.043022418   0.04150608           20 
 4787000   0.48354622   -3.8553695    2466.4755  0.042937044  0.041496162           31 
 4788000   0.48269875    -3.857424    2473.8123  0.043055769  0.041486241           17 
 4789000   0.47614009   -3.8471153    2474.7267   0.04306269  0.041476342           17 
 4790000   0.48888667   -3.8738828    2476.0632  0.043076951  0.041466432           38 
 4791000   0.46946424   -3.8626594    2469.1123  0.042947059  0.041456532           22 
 4792000   0.48450502   -3.8838006    2472.3939  0.042995164  0.041446617           27 
 4793000   0.49987413   -3.8785027    2472.1399  0.042981778  0.041436721           24 
 4794000   0.47328963    -3.858559    2464.8125  0.042845441  0.041426828           17 
 4795000   0.48926435    -3.860031    2471.7709  0.042957437  0.041416966           18 
 4796000   0.49050269   -3.8693638    2475.8483  0.043019327  0.041407087           24 
 4797000   0.47888511   -3.8518374     2472.947  0.042959958  0.041397198            8 
 4798000   0.49542534   -3.8686876     2468.197  0.042868504  0.041387311           15 
 4799000   0.47649813   -3.8625933    2469.1022  0.042875289  0.041377429           17 
 4800000   0.49101615   -3.8717964    2467.5199  0.042838887  0.041367507           33 
 4801000   0.47759371   -3.8759734    2470.3673  0.042879389  0.041357572          115 
 4802000   0.47863852   -3.8691117    2470.1945  0.042867459  0.041347642           23 
 4803000   0.48418022   -3.8645297    2471.1332  0.042874822  0.041337743           27 
 4804000   0.49098956    -3.873352    2469.9541  0.042845443  0.041327852           13 
 4805000   0.48195601   -3.8712231     2468.399  0.042809557  0.041317934           11 
 4806000   0.48999318   -3.8750925    2459.4351   0.04264522  0.041308026           12 
 4807000   0.48427211   -3.8561141     2469.434  0.042809687  0.041298139           32 
 4808000   0.48633969   -3.8624856     2467.159  0.042761353  0.041288275           10 
 4809000   0.48754122    -3.857774    2471.3832   0.04282566  0.041278425           10 
 4810000   0.47718007   -3.8912263    2468.5387  0.042767476   0.04126851            9 
 4811000   0.49031397   -3.8719076    2474.9739  0.042870052  0.041258615           22 
 4812000   0.47520398    -3.866503    2471.5276  0.042801462  0.041248733           19 
 4813000   0.48902831    -3.864436    2466.0143   0.04269711  0.041238861           11 
 4814000   0.47318296   -3.8759406    2471.4044  0.042781548  0.041229013           19 
 4815000   0.48254384   -3.8676319      2469.89  0.042746452  0.041219148            5 
 4816000   0.48494006   -3.8585687    2473.4492  0.042799162  0.041209282           10 
 4817000   0.47740809   -3.8759214    2466.3901  0.042668157  0.041199392           11 
 4818000   0.47582926   -3.8781953    2469.7541  0.042717485  0.041189489           11 
 4819000   0.46803705   -3.8680847    2464.6447  0.042620265  0.041179585           10 
 4820000   0.49087368   -3.8794672    2467.7629  0.042665333  0.041169681           15 
 4821000   0.47198465   -3.8681456    2460.5907  0.042532509  0.041159783           16 
 4822000   0.48635094   -3.8718694    2470.5658  0.042696077  0.041149923           25 
 4823000   0.48418644   -3.8565588    2470.7415   0.04269026  0.041140093            8 
 4824000   0.47478077    -3.873031    2472.3055  0.042708428  0.041130293           13 
 4825000    0.4758997   -3.8642209    2471.2172  0.042680781  0.041120456           10 
 4826000   0.47312674   -3.8826776    2471.2249   0.04267207  0.041110586           20 
 4827000   0.47838652   -3.9005465    2468.7859  0.042621122  0.041100712           34 
 4828000   0.49095403   -3.8910631    2468.6493  0.042609937  0.041090792           32 
 4829000   0.46927536   -3.8815548    2468.8623  0.042604789  0.041080904           43 
 4830000   0.47634501   -3.8814142    2465.0562    0.0425303   0.04107102           22 
 4831000   0.48594651   -3.8757743    2468.2627  0.042576808   0.04106112           21 
 4832000   0.47543108   -3.8896619    2469.4987  0.042589312  0.041051251           40 
 4833000   0.47409434   -3.8857071    2465.8591  0.042517745  0.041041377           34 
 4834000   0.48046308   -3.8911213    2471.5583  0.042607196  0.041031494           14 
 4835000   0.48910567   -3.8716065    2467.7932  0.042533491  0.041021668           10 
 4836000    0.4771964   -3.8840112    2465.3252  0.042482169  0.041011803           18 
 4837000   0.48874315   -3.8925758    2466.0397  0.042485695  0.041001954           33 
 4838000    0.4762262   -3.8801618    2475.8244  0.042645453  0.040992112           15 
 4839000    0.4736462   -3.8963723    2469.9268  0.042535077   0.04098231           15 
 4840000   0.46969652   -3.8924442    2468.5793  0.042503087  0.040972485            9 
 4841000   0.47632397    -3.884013    2474.7287  0.042600164  0.040962673           11 
 4842000   0.47677338   -3.8895641    2467.9626  0.042474918  0.040952846           15 
 4843000    0.4726599   -3.8838277    2475.7883  0.042600803  0.040943046           13 
 4844000   0.47004058   -3.8864888     2471.478  0.042517858  0.040933231           15 
 4845000    0.4769926   -3.8876354    2475.2025  0.042573143  0.040923402            7 
 4846000   0.47337121   -3.8771278    2471.2546  0.042496468  0.040913596           24 
 4847000   0.47446305   -3.8718968    2466.0699  0.042398561  0.040903784           19 
 4848000    0.4738655   -3.8858245     2467.493  0.042414277  0.040893976            9 
 4849000   0.47734415   -3.8799236    2472.9902  0.042500004  0.040884174           17 
 4850000   0.47947284   -3.9003907    2466.7406  0.042383858  0.040874331           32 
 4851000    0.4745005   -3.8939091    2461.7404  0.042289225  0.040864442           45 
 4852000   0.46958404   -3.8884861    2470.9873  0.042439325  0.040854598           22 
 4853000   0.47959312   -3.8942557    2472.8616  0.042462766  0.040844782           15 
 4854000   0.47084037   -3.8921289    2472.6186  0.042449846  0.040834936           21 
 4855000   0.47361671   -3.8802462     2472.661   0.04244183  0.040825076           20 
 4856000   0.46630741   -3.8855212    2466.7472  0.042331604  0.040815241           21 
 4857000   0.48421701   -3.8943771    2469.1361  0.042363876  0.040805427           25 
 4858000   0.48117487   -3.8863245    2472.0257  0.042404723  0.040795589           29 
 4859000   0.48447443   -3.9058957    2468.3839  0.042333537  0.040785752           12 
 4860000    0.4699747   -3.8905673    2465.3675  0.042273105  0.040775904           20 
 4861000   0.48605099   -3.8926613    2467.9374  0.042308466   0.04076608           30 
 4862000   0.47584361   -3.8900758    2463.7866  0.042228621  0.040756236           20 
 4863000   0.47788351   -3.8921256    2467.0163  0.042275281   0.04074644           12 
 4864000   0.46333471   -3.8888963    2468.8665  0.042298289  0.040736595           20 
 4865000   0.48272302   -3.8948783    2474.3104  0.042382844  0.040726791           18 
 4866000   0.47293525   -3.8852891    2469.6606  0.042294503  0.040716971           18 
 4867000   0.47218017   -3.8839159    2465.7492  0.042218841  0.040707138           37 
 4868000   0.46489898    -3.901243    2464.8845  0.042195366   0.04069731           50 
 4869000   0.48649986   -3.8899884    2468.8072  0.042253837  0.040687475           83 
 4870000    0.4777026   -3.8824813    2465.0304  0.042180534  0.040677646           39 
 4871000   0.47347806   -3.8884227    2473.9817  0.042325014  0.040667858           41 
 4872000   0.47841083   -3.8800119    2470.7152  0.042260455  0.040658039           24 
 4873000   0.47172542   -3.8899428    2468.8724  0.042220267  0.040648235           26 
 4874000   0.46872701   -3.8733768    2469.1586  0.042216498  0.040638426           16 
 4875000   0.46441544   -3.8720515    2470.7313  0.042234723  0.040628664           14 
 4876000   0.48125247   -3.8861338    2469.7462  0.042209225  0.040618888           18 
 4877000   0.46504755   -3.8962286     2470.359  0.042211041   0.04060912           31 
 4878000   0.48123661   -3.9012935    2468.3461  0.042168001  0.040599323           16 
 4879000   0.46960505   -3.9034167     2473.102   0.04224059  0.040589547           14 
 4880000   0.47056033   -3.9007142     2461.088  0.042026776  0.040579762           16 
 4881000   0.47570056    -3.876288    2463.7895  0.042064288  0.040569962           16 
 4882000   0.47078612   -3.9257004     2466.201  0.042096835  0.040560173           30 
 4883000   0.45696961   -3.9020775    2465.9836  0.042084505  0.040550333           34 
 4884000   0.46571434   -3.8888433    2468.2598  0.042114726  0.040540512           34 
 4885000    0.4679647   -3.8929019     2467.199  0.042088008  0.040530719           36 
 4886000    0.4707043   -3.8842978    2465.3668  0.042048144  0.040520941           29 
 4887000   0.46354026   -3.8958193    2473.2016   0.04217314  0.040511161           19 
 4888000   0.47248205   -3.9098583     2467.284  0.042063625  0.040501353           13 
 4889000   0.46188217    -3.898745    2469.5993  0.042094486  0.040491548           33 
 4890000   0.47364948   -3.8789586    2463.5602  0.041982961  0.040481753           37 
 4891000   0.47764802   -3.9087516    2464.3699  0.041988174  0.040471922           63 
 4892000   0.46207082   -3.9166689    2461.4705    0.0419302  0.040462052           42 
 4893000   0.48092712   -3.8973722    2463.0079  0.041947816  0.040452228           46 
 4894000   0.46258998   -3.8948827    2462.3056  0.041927285   0.04044245           55 
 4895000   0.46540648   -3.8924672    2466.2831  0.041986433  0.040432654           30 
 4896000   0.47318489   -3.8743521    2461.8995  0.041903245  0.040422841           27 
 4897000   0.46379339   -3.8842437     2465.477  0.041955567  0.040413064           25 
 4898000   0.47033264    -3.886575    2465.2256  0.041942725  0.040403317           16 
 4899000   0.46624566   -3.8805918    2463.2717  0.041900926  0.040393546           23 
 4900000   0.46779949   -3.9053158    2466.0134  0.041939003  0.040383765           14 
 4901000    0.4648227   -3.8942117    2461.3801  0.041851664  0.040373972           18 
 4902000   0.46743861   -3.8982755    2463.3197    0.0418761   0.04036419           30 
 4903000   0.47527919   -3.8977342    2466.2424  0.041917234  0.040354394           18 
 4904000   0.46233345   -3.9030989    2465.4072  0.041894493  0.040344593           22 
 4905000   0.47030598   -3.9027926    2465.6245  0.041889645   0.04033479           19 
 4906000    0.4661161   -3.8919675    2467.6684  0.041915824  0.040325002           21 
 4907000   0.45652897   -3.9075678    2462.4935  0.041819399  0.040315204           20 
 4908000   0.46407483   -3.9166891    2460.3644  0.041774729  0.040305409           41 
 4909000   0.46101116   -3.8911299    2467.2522  0.041883144  0.040295646           39 
 4910000   0.46106225   -3.9059213    2468.3845  0.041893831  0.040285899           27 
 4911000   0.46747693   -3.8952849    2472.9221  0.041962298  0.040276135           42 
 4912000   0.46832613   -3.9028362      2471.03  0.041921654  0.040266383           10 
 4913000    0.4666587    -3.889579    2469.8828  0.041893663  0.040256613           19 
 4914000   0.46788769   -3.8964945    2461.8087  0.041748215  0.040246822           30 
 4915000   0.46613149   -3.9019373    2470.9495  0.041894702  0.040237018           21 
 4916000   0.47084852   -3.8944596    2465.7619  0.041798243   0.04022724           16 
 4917000   0.46885019   -3.9010077    2463.0679  0.041744083  0.040217477           20 
 4918000   0.47711127   -3.8938293    2466.9365  0.041801148   0.04020772           13 
 4919000   0.46530018   -3.8980159    2470.0282  0.041845027  0.040197971           10 
 4920000   0.45542327    -3.904496    2473.4349  0.041894223   0.04018826           13 
 4921000   0.45553604   -3.9173642    2460.9289   0.04167393  0.040178494            9 
 4922000   0.45658727   -3.9259324    2463.6467  0.041711477  0.040168717           25 
 4923000   0.45945602   -3.9142664    2464.9782  0.041725544  0.040158922           11 
 4924000   0.46106105   -3.8962576    2466.8241   0.04174831  0.040149153           28 
 4925000    0.4661846   -3.9040138    2469.1202  0.041778684  0.040139398           14 
 4926000   0.45534216   -3.9113712    2465.3012  0.041705596   0.04012962           16 
 4927000   0.46346953   -3.9046607    2469.6732  0.041771078  0.040119899           19 
 4928000   0.45691667    -3.934999    2469.0926  0.041752784  0.040110127           32 
 4929000   0.46854177   -3.9025678    2464.0649  0.041659311  0.040100353           31 
 4930000   0.46640076   -3.9049827    2462.2256  0.041619769  0.040090563           32 
 4931000   0.46104684   -3.9032011    2464.6039  0.041651522  0.040080769           53 
 4932000   0.46958744   -3.9209435    2460.8847  0.041580235  0.040071025           28 
 4933000   0.46395573   -3.9130454    2463.4853   0.04161574  0.040061277           37 
 4934000   0.45677007   -3.9018073    2466.2995  0.041654836  0.040051535           21 
 4935000    0.4607574   -3.9030375     2464.113  0.041609474  0.040041795           15 
 4936000   0.46033172   -3.9045231    2468.5424  0.041675823  0.040032063           26 
 4937000   0.46349477   -3.9206589    2466.7134  0.041636509  0.040022316           39 
 4938000   0.46639947   -3.9032583    2463.9586  0.041581588  0.040012554           99 
 4939000   0.45596364   -3.9220545    2464.4876  0.041582095  0.040002799          100 
 4940000   0.45686673   -3.9013958    2464.1624  0.041568191   0.03999304          118 
 4941000   0.46247754   -3.9148678    2464.7665  0.041569967    0.0399833           91 
 4942000   0.45633184    -3.922278    2467.0134  0.041599444  0.039973555           69 
 4943000   0.45921528   -3.9143085    2460.6176  0.041483202  0.039963798          109 
 4944000   0.46232388   -3.9094335    2466.9652  0.041581802  0.039954054          113 
 4945000   0.45076103   -3.9243583    2460.8021  0.041469533  0.039944265           81 
 4946000   0.45368846   -3.9173455     2459.886  0.041445714  0.039934482           66 
 4947000   0.45856768   -3.9153185    2459.6726  0.041433741  0.039924713           25 
 4948000   0.46389807   -3.9069642    2459.6827  0.041425537  0.039914961           69 
 4949000   0.46040198   -3.9210114    2466.5141  0.041532197  0.039905197           27 
 4950000   0.44964735    -3.918941    2466.0741  0.041516398  0.039895458           63 
 4951000    0.4545355    -3.915435    2464.5544  0.041482434  0.039885743           62 
 4952000   0.45759711   -3.9046532    2469.3248  0.041554335  0.039876025           44 
 4953000    0.4528255   -3.9061999    2464.8997  0.041471494  0.039866297           75 
 4954000   0.46337362   -3.8995559    2461.9878   0.04141414  0.039856586           22 
 4955000   0.45714397   -3.9234556    2462.0148  0.041406236  0.039846848           39 
 4956000   0.45332513   -3.9312489    2459.2011   0.04135057  0.039837092           13 
 4957000   0.47173902   -3.9086839    2464.2796  0.041427603  0.039827335           21 
 4958000   0.45228246   -3.9142929    2462.3887  0.041387466  0.039817583           54 
 4959000   0.46098246   -3.9219387    2462.6591  0.041383664  0.039807831           19 
 4960000   0.44522384   -3.9242487    2462.1736  0.041367163  0.039798059           18 
 4961000    0.4656445   -3.9197227    2460.5757  0.041331985  0.039788306           50 
 4962000   0.46481595   -3.9098574     2463.526  0.041373203  0.039778549           36 
 4963000   0.45925166   -3.9045963    2464.0324   0.04137337  0.039768836           18 
 4964000   0.46710111   -3.9224097    2463.9219   0.04136318   0.03975915           18 
 4965000    0.4532851   -3.9296372    2464.6558  0.041367168  0.039749434           19 
 4966000   0.46048137   -3.9229145    2455.2371  0.041200783  0.039739702           25 
 4967000   0.45627859   -3.9237314    2462.4099   0.04131283  0.039729948           39 
 4968000   0.45646582   -3.9269619    2463.6729  0.041325699    0.0397202           37 
 4969000   0.45431911   -3.9075922    2466.2686  0.041360914  0.039710502           26 
 4970000   0.45034837   -3.9143989    2472.5165  0.041457353  0.039700854           16 
 4971000   0.45898908   -3.9097369    2462.2357  0.041276666  0.039691144           30 
 4972000   0.45471929   -3.9263938    2467.0004  0.041348224   0.03968144           13 
 4973000   0.46135555   -3.9163369    2464.9628  0.041305765  0.039671722           18 
 4974000   0.45640434   -3.9264494    2460.9797  0.041230727  0.039661994           11 
 4975000   0.45423459   -3.9358701    2457.9035  0.041170912  0.039652251           14 
 4976000   0.44526534   -3.9262357    2460.4238  0.041204847   0.03964251           22 
 4977000   0.44993791   -3.9302482    2464.4285  0.041263621  0.039632783           24 
 4978000   0.46086041   -3.9250799     2459.655  0.041175422  0.039623019           21 
 4979000   0.45283645   -3.9273875    2459.6565  0.041167178  0.039613265           23 
 4980000   0.45821033   -3.9257855    2453.5215   0.04105625  0.039603514           10 
 4981000    0.4619638   -3.9437201    2455.1882  0.041075892  0.039593753           22 
 4982000   0.44916452   -3.9269925    2465.0491  0.041232589  0.039583989           24 
 4983000   0.45320595   -3.9209911    2462.0006  0.041173332  0.039574236           27 
 4984000   0.45183765    -3.926917    2461.9142  0.041163627  0.039564476           36 
 4985000   0.44726967   -3.9207716    2461.0062  0.041140191  0.039554753           35 
 4986000   0.44609588   -3.9231928    2461.7007  0.041143546  0.039545021           29 
 4987000   0.45272746   -3.9212715    2462.8938  0.041155234  0.039535296           19 
 4988000   0.45218692   -3.9188653    2460.7758  0.041111598  0.039525568           52 
 4989000   0.45190269   -3.9192658      2462.64  0.041134496  0.039515872           53 
 4990000   0.45197307   -3.9254751    2458.0896   0.04105026   0.03950617           38 
 4991000   0.45794628   -3.9200221    2464.2774  0.041145352  0.039496483           43 
 4992000    0.4482959   -3.9261301    2459.3038  0.041054083  0.039486778           28 
 4993000    0.4451476   -3.9301536    2461.9535  0.041090085  0.039477081           16 
 4994000   0.44417269   -3.9308863    2460.4264  0.041056375  0.039467364           58 
 4995000   0.45503949   -3.9214136    2461.3895  0.041064222  0.039457664           18 
 4996000   0.45913581   -3.9211806    2458.7859  0.041012575  0.039447948           36 
 4997000   0.45260043   -3.9203231    2462.2046  0.041061381  0.039438229           13 
 4998000   0.45582798   -3.9116559    2461.1447  0.041035492  0.039428523           14 
 4999000   0.45968612   -3.9478774     2462.526   0.04105031  0.039418826           24 
 5000000    0.4592081   -3.9457898    2464.4462  0.041074103  0.039409125           28 
 5001000   0.45640597   -3.9308347    2458.3998  0.040965137  0.039399426           27 
 5002000   0.45579026   -3.9366995    2459.3121  0.040972146  0.039389709           18 
 5003000    0.4579051   -3.9381925    2462.6194  0.041019044  0.039379974           72 
 5004000   0.45575573   -3.9358466    2463.6986  0.041028821  0.039370275           44 
 5005000   0.45401765    -3.943635    2459.2407  0.040946399  0.039360576           42 
 5006000   0.45728354   -3.9387482    2459.2316  0.040938068  0.039350862           44 
 5007000   0.45307136   -3.9433189    2458.9241  0.040924774  0.039341169           54 
 5008000    0.4469178   -3.9344359    2457.4048  0.040891321  0.039331465           42 
 5009000   0.45435917   -3.9317157    2458.0174  0.040893348   0.03932176           36 
 5010000   0.44596997   -3.9340558    2458.2878  0.040889683  0.039312043           23 
 5011000   0.44228661   -3.9506192    2457.0129  0.040860323  0.039302352           28 
 5012000   0.45182803   -3.9306688    2458.9753  0.040884798  0.039292651           25 
Loop time of 12305.3 on 48 procs for 5000000 steps with 4000 atoms

Performance: 70213.660 tau/day, 406.329 timesteps/s
99.4% CPU use with 48 MPI tasks x no OpenMP threads

MPI task timing breakdown:
Section |  min time  |  avg time  |  max time  |%varavg| %total
---------------------------------------------------------------
Pair    | 811.54     | 877.53     | 946.98     | 102.0 |  7.13
Neigh   | 81.667     | 85.008     | 88.331     |  20.5 |  0.69
Comm    | 783.25     | 846.18     | 908.6      | 106.7 |  6.88
Output  | 49.277     | 49.282     | 49.365     |   0.2 |  0.40
Modify  | 10305      | 10334      | 10358      |  12.5 | 83.98
Other   |            | 113.3      |            |       |  0.92

Nlocal:        83.3333 ave          89 max          77 min
Histogram: 2 3 5 3 4 16 4 4 4 3
Nghost:        2197.67 ave        2214 max        2181 min
Histogram: 5 0 4 8 6 9 6 3 4 3
Neighs:        14669.5 ave       16040 max       13248 min
Histogram: 2 4 9 4 6 3 6 5 6 3
FullNghs:      29338.4 ave       31650 max       27061 min
Histogram: 3 3 6 4 8 8 6 6 1 3

Total # of neighbors = 1408245
Ave neighs/atom = 352.06125
Neighbor list builds = 271040
Dangerous builds = 0

#clear
#
#next RN
#
#jump SELF
Total wall time: 3:25:08
