
units lj                  # Use reduced LJ style units
atom_style atomic         # Uncharged point particles
atom_modify map hash      # Needed for indexing of clusters etc
                          # Used to be able to find where atoms are in relation to each other.

lattice fcc 1.0 spacing 1 1 1
Lattice spacing in x,y,z = 1.5874011 1.5874011 1.5874011
region box block 0 10 0 10 0 10 units lattice
create_box 2 box
Created orthogonal box = (0.0000000 0.0000000 0.0000000) to (15.874011 15.874011 15.874011)
  3 by 4 by 4 MPI processor grid
create_atoms 1 box
Created 4000 atoms
  using lattice units in orthogonal box = (0.0000000 0.0000000 0.0000000) to (15.874011 15.874011 15.874011)
  create_atoms CPU = 0.036 seconds
set type 1 type/fraction 2 0.93 78393
Setting atom values ...
  3709 settings made for type/fraction
mass 1 1.0
mass 2 1.0
pair_style lj/cut  3.5
pair_modify tail  yes
pair_coeff 1  1  1.0  1.0   # Intearaction between 1 and 1 set with epsilon = 1 and sigma = 1
pair_coeff 1  2  1.5  0.8
pair_coeff 2  2  0.5  0.88

write_data data.0
System init for write_data ...
Neighbor list info ...
  update every 1 steps, delay 10 steps, check yes
  max neighbors/atom: 2000, page size: 100000
  master list distance cutoff = 3.8
  ghost atom cutoff = 3.8
  binsize = 1.9, bins = 9 9 9
  1 neighbor lists, perpetual/occasional/extra = 1 0 0
  (1) pair lj/cut, perpetual
      attributes: half, newton on
      pair build: half/bin/atomonly/newton
      stencil: half/bin/3d
      bin: standard
WARNING: Not all mixed pair coeffs generated from mixing. Use write_data with 'pair ij' option to store all pair coeffs. (../write_data.cpp:312)


#############################
#   M E L T   S Y S T E M   #
#############################

velocity all create 2.4 6229865 mom yes dist gaussian # Assign velocities
                                                    # Temperature 2.4, random number seed, zero linear momentum
                                                                                # Gaussian distribution

timestep 0.002   # simulation timestep
thermo 1000       # output thermodynamic data every 1000 steps bf 100

# Define a fix  in this case with index 1 applied to all
# particles in the simulation. This fix is for simulations
# in the anisotropic NPT ensemble. Note that we use the MTK
# correction.
fix 1 all npt temp 2.4 2.4 0.1 iso 5.68 5.68 0.5 mtk yes tchain 5 pchain 5 # Use NPT ensemble
                                                                         # Set temperature and pressure and damping
                                                                         # Numbers of thermostats in chain and in barostat
run 10000          # run for 10000 steps
Per MPI rank memory allocation (min/avg/max) = 3.642 | 3.644 | 3.648 Mbytes
Step Temp E_pair E_mol TotEng Press Volume 
       0          2.4   -3.0493222            0   0.54977785   -2.3496824         4000 
    1000    2.4224214   -1.9991817            0     1.633542     5.697539    4074.9828 
    2000     2.387776   -2.0174639            0    1.5633047    5.7262993    4054.7565 
    3000    2.3747202   -1.9734896            0    1.5877002    5.7334883    4090.8374 
    4000     2.355409   -1.9598418            0    1.5723885    5.6987174    4098.0911 
    5000    2.3327209   -2.0105309            0    1.4876757    5.5300782    4099.8039 
    6000    2.3831805    -2.022312            0    1.5515651    5.5256525    4090.7785 
    7000    2.3828897    -2.000667            0    1.5727739    5.8162006    4040.0861 
    8000    2.4187084   -1.9954068            0    1.6317487    5.9902248    4030.8229 
    9000    2.3461228   -1.9818137            0    1.5364908     5.943031    4042.6264 
   10000    2.4331424   -2.0299119            0    1.6188894    5.7703375    4046.7884 
Loop time of 2.39941 on 48 procs for 10000 steps with 4000 atoms

Performance: 720176.724 tau/day, 4167.689 timesteps/s
99.7% CPU use with 48 MPI tasks x no OpenMP threads

MPI task timing breakdown:
Section |  min time  |  avg time  |  max time  |%varavg| %total
---------------------------------------------------------------
Pair    | 1.0402     | 1.1243     | 1.2071     |   3.0 | 46.86
Neigh   | 0.20246    | 0.21253    | 0.22823    |   0.9 |  8.86
Comm    | 0.71539    | 0.81596    | 0.90953    |   4.4 | 34.01
Output  | 0.00025993 | 0.00026465 | 0.00033261 |   0.0 |  0.01
Modify  | 0.20736    | 0.23141    | 0.25834    |   2.9 |  9.64
Other   |            | 0.01495    |            |       |  0.62

Nlocal:        83.3333 ave          92 max          74 min
Histogram: 3 2 6 8 2 6 9 5 5 2
Nghost:        1631.23 ave        1654 max        1611 min
Histogram: 2 4 7 11 1 6 9 3 3 2
Neighs:        9433.65 ave       10624 max        8347 min
Histogram: 3 4 6 8 4 6 8 3 2 4

Total # of neighbors = 452815
Ave neighs/atom = 113.20375
Neighbor list builds = 907
Dangerous builds = 217

# Equilibrate just above the melting temperature to avoid step fn in T

fix 1 all npt temp 1.25 1.25 0.1 iso 5.68 5.68 0.5 mtk yes tchain 5 pchain 5
run 2000
Per MPI rank memory allocation (min/avg/max) = 3.643 | 3.645 | 3.649 Mbytes
Step Temp E_pair E_mol TotEng Press Volume 
   10000    2.4331424   -2.0299119            0    1.6188894    5.7703375    4046.7884 
   11000    1.2296217    -3.034194            0   -1.1902226    5.7877022    3144.5402 
   12000    1.2739088   -3.0299793            0   -1.1195938    5.6069295     3164.021 
Loop time of 0.58147 on 48 procs for 2000 steps with 4000 atoms

Performance: 594355.830 tau/day, 3439.559 timesteps/s
99.7% CPU use with 48 MPI tasks x no OpenMP threads

MPI task timing breakdown:
Section |  min time  |  avg time  |  max time  |%varavg| %total
---------------------------------------------------------------
Pair    | 0.25345    | 0.28241    | 0.30855    |   2.2 | 48.57
Neigh   | 0.037917   | 0.040438   | 0.043977   |   0.6 |  6.95
Comm    | 0.18497    | 0.21191    | 0.24573    |   2.8 | 36.44
Output  | 4.9152e-05 | 5.121e-05  | 6.8462e-05 |   0.0 |  0.01
Modify  | 0.038133   | 0.042008   | 0.046136   |   1.2 |  7.22
Other   |            | 0.004643   |            |       |  0.80

Nlocal:        83.3333 ave          90 max          74 min
Histogram: 2 1 1 7 2 10 12 3 6 4
Nghost:        1930.71 ave        1955 max        1907 min
Histogram: 3 3 5 6 5 4 11 8 1 2
Neighs:        12075.2 ave       14146 max       10144 min
Histogram: 2 1 3 9 13 9 4 5 1 1

Total # of neighbors = 579611
Ave neighs/atom = 144.90275
Neighbor list builds = 142
Dangerous builds = 17

#############################
# L I N E A R  Q U E N C H  #
#############################

# Define solid atoms. This closely follows ten Wolde  Ruiz-Montero and Frenkel  Faraday Discuss  1996  104  93-110
# Compute components of the per-atom q6 vector
compute q6 all orientorder/atom degrees 1 6 components 6 nnn NULL cutoff 1.3 # compute the Q6 parameter.
                                                                             # Use all neighbours within 1.3 unit cell.

# get number of connections
compute coord_number all coord/atom orientorder q6 0.5

# An atom is solid if it has 8 or more connections (of a possible 14)
variable is_solid atom c_coord_number>=8
group solid dynamic all var is_solid    # Must be dynamic to update
dynamic group solid defined

# do clustering
compute cluster solid cluster/atom 1.3 # Create a cluster where all atoms within are solid and max 1.3 units from another member

# define chunks one chunk per cluster
compute clus_chunks solid chunk/atom c_cluster nchunk every compress yes  # Says which atoms are in which chunk

# count the size of each chunk
compute size_chunks solid property/chunk clus_chunks count


# Find the maximum entry in the vector of chunk sizes
variable max_n equal max(c_size_chunks)


# Thermo style which includes this variable
# thermo_style custom step temp pe vol v_max_n

thermo ${N}  # Print the thermo information every 100 steps
thermo 1000  

# Reset the npt fix at a lower temperature (below freezing)
fix 1  all npt temp  ${temp} ${temp}  0.1  iso  5.68  5.68  0.5  mtk yes tchain  5  pchain  5
fix 1  all npt temp  0.45 ${temp}  0.1  iso  5.68  5.68  0.5  mtk yes tchain  5  pchain  5
fix 1  all npt temp  0.45 0.45  0.1  iso  5.68  5.68  0.5  mtk yes tchain  5  pchain  5

dump dmp2 all dcd ${N} traj.dcd
dump dmp2 all dcd 1000 traj.dcd


compute msd all msd com yes
variable twopoint equal c_msd[4]/6/(step*dt+1.0e-6)
fix 9 all vector 10 c_msd[4]
variable fit equal slope(f_9)/6/(10*dt)
thermo_style custom step temp pe c_msd[4] v_twopoint v_fit v_max_n

fix 1 all npt temp 1.25 ${temp} 0.1 iso 5.68 5.68 0.5 mtk yes tchain 5 pchain 5
fix 1 all npt temp 1.25 0.45 0.1 iso 5.68 5.68 0.5 mtk yes tchain 5 pchain 5
run 500000 # 5000000  # Run for this many steps
Neighbor list info ...
  update every 1 steps, delay 10 steps, check yes
  max neighbors/atom: 2000, page size: 100000
  master list distance cutoff = 3.8
  ghost atom cutoff = 3.8
  binsize = 1.9, bins = 8 8 8
  4 neighbor lists, perpetual/occasional/extra = 1 3 0
  (1) pair lj/cut, perpetual
      attributes: half, newton on
      pair build: half/bin/atomonly/newton
      stencil: half/bin/3d
      bin: standard
  (2) compute orientorder/atom, occasional
      attributes: full, newton on
      pair build: full/bin/atomonly
      stencil: full/bin/3d
      bin: standard
  (3) compute coord/atom, occasional
      attributes: full, newton on
      pair build: full/bin/atomonly
      stencil: full/bin/3d
      bin: standard
  (4) compute cluster/atom, occasional
      attributes: full, newton on
      pair build: full/bin/atomonly
      stencil: full/bin/3d
      bin: standard
Per MPI rank memory allocation (min/avg/max) = 9.820 | 9.827 | 9.834 Mbytes
Step Temp PotEng c_msd[4] v_twopoint v_fit v_max_n 
   12000    1.2739088   -3.0299793 8.3382598e-31 5.7904579e-33 8.3333333e+20            1 
   13000    1.2515279    -3.012652    1.0176873 0.0065236361  0.086981966            3 
   14000    1.2634778   -2.9977968    2.1852623  0.013007513  0.092172488            2 
   15000    1.2161845   -3.0158019    3.2816708  0.018231504  0.093722788            1 
   16000    1.2462035   -2.9817815    4.4470527  0.023161732  0.094227415            2 
   17000    1.2352949   -3.0147792    5.5632781   0.02727097  0.094389218            2 
   18000    1.2438958   -3.0321898    6.6376693  0.030729949  0.093986317            3 
   19000    1.2239679   -3.0274111    7.7277739  0.033893744  0.093560367            2 
   20000     1.222413   -3.0104295     8.863795  0.036932478   0.09319722            2 
   21000    1.2494556   -3.0387379    10.076208   0.03998495  0.093479249            1 
   22000     1.236046   -3.0150147    11.180296  0.042349607  0.093455149            3 
   23000    1.2113249   -3.0227251    12.080133  0.043768595   0.09317162            2 
   24000    1.2387558    -3.041868    13.220101  0.045903129  0.092738759            2 
   25000    1.2526489   -3.0023026    14.389535  0.047965117  0.092528609            2 
   26000    1.1884112   -3.0403152    15.660428  0.050193677  0.092508558            2 
   27000    1.2360107   -3.0757832      16.8624  0.052044444  0.092808053            3 
   28000    1.2026013   -3.0143176    18.080458  0.053810885  0.093261443            2 
   29000    1.1971125    -3.010127    19.297731  0.055453248  0.093618493            2 
   30000    1.2574994   -3.0275805    20.363743  0.056565952  0.093927238            2 
   31000    1.2128065   -3.0471304    21.904402  0.058882801  0.094489551            1 
   32000    1.2176499   -3.0481636    22.783867  0.059332985  0.095001866            1 
   33000     1.224986   -3.0593911    23.974257  0.060541052   0.09531854            4 
   34000    1.2310978   -3.0533076    25.039904  0.061372312  0.095382556            1 
   35000    1.2158516   -3.0393267    26.309968  0.062642781  0.095459434            2 
   36000    1.1890557   -3.0524603    27.272755  0.063131375  0.095422048            3 
   37000    1.2168772    -3.058472    28.347927  0.063846681  0.095320224            1 
   38000    1.1981224   -3.0323084    29.750069  0.065241379  0.095315018            1 
   39000    1.2017159   -3.0159701     30.78282  0.065775255  0.095436378            2 
   40000    1.2306357   -3.0469138    32.152454  0.066984279   0.09563737            2 
   41000    1.2043649   -3.0953987    33.662409   0.06841953  0.095877365            2 
   42000     1.209287   -3.0664113    34.760891  0.068970022  0.096135849            2 
   43000    1.1901654    -3.101835    35.804563  0.069388688  0.096307364            1 
   44000     1.202119   -3.0693396    37.136023  0.070333376  0.096421578            1 
   45000    1.1844034   -3.0959726    38.038668  0.070441977  0.096537497            3 
   46000    1.1980476   -3.0776154    39.088511  0.070812519  0.096533035            1 
   47000    1.2075276   -3.0578081    40.032952   0.07098041  0.096553176            3 
   48000    1.1794608   -3.0681498    40.963804  0.071117714  0.096504688            2 
   49000     1.188897   -3.0852708    42.104748  0.071606714  0.096396664            3 
   50000    1.2129188   -3.1124527    43.010228  0.071683713  0.096228457            1 
   51000    1.1584083   -3.0974663    44.059242  0.071992226  0.096097163            3 
   52000    1.2090411   -3.0872835    45.405299  0.072764902   0.09598663            1 
   53000    1.1903518   -3.0866315    46.564302  0.073214311  0.095844558            2 
   54000    1.1651506   -3.0758764    47.177711  0.072805108  0.095674281            1 
   55000    1.1822997   -3.0776508    48.062901  0.072822577   0.09543463            1 
   56000    1.1955388   -3.1061472    49.068821  0.073019078  0.095124814            2 
   57000    1.1826674   -3.1116359    49.732678  0.072708593   0.09481432            5 
   58000    1.1588028   -3.1231794    50.796113   0.07298292   0.09452028            1 
   59000    1.1959415   -3.1109846    52.070084  0.073545315   0.09425542            1 
   60000    1.1662993   -3.1118726    52.971522  0.073571558  0.094013442            2 
   61000    1.1568853   -3.1050561    53.844004  0.073557382   0.09374438            6 
   62000    1.1770536   -3.1092669    54.599836  0.073386875  0.093449347            2 
   63000    1.1713533   -3.1392556    55.825325  0.073843022  0.093160163            1 
   64000    1.1559369    -3.116277    57.127181   0.07438435  0.092906771            3 
   65000    1.1674667   -3.0978964    57.972147  0.074323265  0.092677315            1 
   66000    1.1513787   -3.1147181    59.159546  0.074696396   0.09248194            2 
   67000     1.148628   -3.1052402     60.44875  0.075185012  0.092309687            2 
   68000     1.176831   -3.1211624    61.440883    0.0752952  0.092155748            5 
   69000     1.161221   -3.1128513      62.5745  0.075573067  0.092003992            1 
   70000    1.1582926   -3.1323219     63.54306  0.075646499  0.091885083            3 
   71000     1.150913   -3.0972032    64.400727  0.075587707  0.091728634            1 
   72000    1.1703525   -3.1030725    65.497381  0.075807154  0.091581516            1 
   73000    1.1481392     -3.17367     66.12183   0.07548154  0.091427386            2 
   74000    1.1454415    -3.128735    67.396433  0.075896884  0.091265402            1 
   75000    1.1358236   -3.1132628    68.602791  0.076225323  0.091133721            2 
   76000    1.1488678   -3.1074065    69.484836  0.076189513  0.091001128            1 
   77000    1.1265134   -3.1616093    70.493237  0.076291382  0.090864945            4 
   78000     1.150387   -3.1488875    71.423708   0.07630738  0.090737995            1 
   79000     1.159817   -3.1594498    72.348586  0.076317073  0.090601826            2 
   80000    1.1552536   -3.1469363    73.137333  0.076184722     0.090459            2 
   81000    1.1289512   -3.1376058    74.079218  0.076213187   0.09028448            3 
   82000    1.1319373   -3.1445457    75.121164  0.076342646  0.090126508            1 
   83000    1.1434051   -3.1205669    76.421877  0.076728791  0.089987783            4 
   84000    1.1170356    -3.180985    76.866797  0.076256743  0.089822536            2 
   85000    1.1440358   -3.1649844    77.931484  0.076403415  0.089657493            3 
   86000    1.1466329   -3.1590314    78.436194  0.076004064   0.08948021            2 
   87000    1.1371924   -3.1389426    79.457276  0.076108502  0.089301717            1 
   88000    1.1205811   -3.1517013    80.220392   0.07596628  0.089099743            1 
   89000    1.1160707   -3.1528468     80.96043  0.075805646   0.08891339            2 
   90000    1.1210738   -3.1373077     82.26105  0.076167639  0.088727704            4 
   91000    1.1383059   -3.1957726     83.38813  0.076362756  0.088568555            2 
   92000    1.1251253    -3.158447    84.364715  0.076417314  0.088414024            1 
   93000    1.0812208   -3.1728262    85.053827  0.076213106  0.088246467            2 
   94000    1.1109028   -3.1688239    86.288698  0.076497073  0.088071221            2 
   95000    1.1110293   -3.1830141    86.702617  0.076054927  0.087911007            2 
   96000    1.1121463    -3.166853    87.844351  0.076253777  0.087750827            1 
   97000    1.0741458   -3.1829164    88.638101  0.076149571  0.087581964            1 
   98000    1.1284077   -3.1907605    89.212382  0.075860868  0.087406154            3 
   99000    1.1205001   -3.1925295    89.935057   0.07570291  0.087214134            2 
  100000    1.1083217   -3.1922516    90.941205  0.075784337  0.087021606            1 
  101000    1.0988013   -3.1875203    91.475173  0.075474565  0.086822736            3 
  102000    1.1169562   -3.1648756    92.555401  0.075617157  0.086638011            2 
  103000    1.0854391   -3.2060699    93.435957  0.075595434  0.086462636            2 
  104000    1.0978927   -3.1778555    94.443146  0.075675598  0.086281029            3 
  105000    1.1229445   -3.1935901    95.551937   0.07583487  0.086112251            2 
  106000     1.109907   -3.2095326     96.12698  0.075571525  0.085949018            3 
  107000    1.1026453   -3.1559476    97.801676  0.076169529  0.085786825            1 
  108000    1.1190064   -3.1986322    97.955743  0.075583135   0.08562633            1 
  109000    1.1011385   -3.1838527    99.198403  0.075839757  0.085471362            3 
  110000    1.0873984    -3.228491    100.14927  0.075870656  0.085312086            3 
  111000    1.0959697   -3.1984311    100.73624  0.075627811  0.085150487            2 
  112000    1.0735003   -3.2087073    102.13097  0.075990306  0.085003848            2 
  113000    1.0832063    -3.229924    102.26189  0.075414372   0.08486573            3 
  114000    1.0993584   -3.2298324    103.61971  0.075745401   0.08472054            1 
  115000    1.0725594     -3.20841    103.73677  0.075171569  0.084565297            2 
  116000    1.0765663   -3.2387525    104.59187  0.075137837  0.084410121            2 
  117000    1.0869269   -3.2133362    105.59167  0.075207738  0.084252962            1 
  118000    1.0753083   -3.2228818    106.41963  0.075155108   0.08408554            2 
  119000    1.0612682     -3.21781    106.93174  0.074882172  0.083919206            3 
  120000    1.0681911   -3.2322292    107.79833  0.074859954  0.083747819            3 
  121000    1.0822894   -3.2170883    108.56122   0.07476668  0.083577175            4 
  122000    1.0771455   -3.2276109    108.35654  0.074014027  0.083405072            3 
  123000    1.0681693   -3.2269579    109.62602  0.074272369  0.083215749            2 
  124000    1.0777914   -3.1987043    110.25091  0.074093354  0.083031924            5 
  125000    1.0897429   -3.2342062    111.13157  0.074087715  0.082837108            2 
  126000    1.0667673   -3.2367155     111.3109  0.073618317  0.082635937            3 
  127000    1.0586225   -3.2610408     111.6642  0.073270474  0.082437859            3 
  128000    1.0722278   -3.2616826     112.9693  0.073547723  0.082229487            2 
  129000    1.0708749   -3.2648855    113.42007  0.073268779  0.082017455            2 
  130000    1.0697047   -3.2149904    114.33033  0.073288672  0.081805194            1 
  131000     1.042859    -3.230743    115.27326  0.073329045  0.081607037            2 
  132000    1.0724875    -3.271773    115.30068  0.072790835  0.081407696            4 
  133000    1.0711106   -3.2516134    116.45855  0.072969017  0.081210099            1 
  134000    1.0496287   -3.2727508    117.14568  0.072851789  0.081012169            2 
  135000    1.0484842   -3.2210749    118.33346  0.073045344  0.080811967            3 
  136000    1.0375603   -3.2476703    118.48665  0.072602115   0.08061016            3 
  137000    1.0669532   -3.2608619    118.60268  0.072142746  0.080403149            1 
  138000    1.0392019   -3.2820827    119.64833  0.072251406  0.080191798            3 
  139000    1.0460399     -3.25244    120.43262  0.072201808  0.079986211            2 
  140000      1.04655   -3.2489994    121.04585  0.072051101  0.079788266            2 
  141000    1.0574063    -3.256862     121.5851  0.071858805  0.079580834            2 
  142000    1.0457377   -3.2702973    122.19908  0.071713075   0.07937605            3 
  143000    1.0352978   -3.2539179    123.26752   0.07183422  0.079178135            2 
  144000    1.0379856   -3.2685855    124.64988  0.072135345  0.078986469            2 
  145000    1.0283848   -3.2876753    125.15979  0.071930913  0.078808733            1 
  146000      1.02711   -3.2753559    126.66988  0.072300159  0.078637576            1 
  147000    1.0366756   -3.2745167    126.75777  0.071858149  0.078472583            1 
  148000    1.0436473   -3.2571127     127.6589  0.071880011   0.07830958            4 
  149000    1.0332836   -3.2561084    128.16677   0.07168164  0.078150793            3 
  150000    1.0079334   -3.2979971    129.20618  0.071781209  0.077989933            3 
  151000    1.0413297   -3.2975177    129.78693  0.071626342    0.0778369            1 
  152000    1.0504184   -3.2829648      130.555  0.071576205  0.077678847            3 
  153000    1.0221345   -3.2991525    131.65481  0.071707411  0.077527956            1 
  154000    1.0256033   -3.3047716    132.24627  0.071561834  0.077379906            3 
  155000    1.0061645   -3.2959367    132.88473  0.071443401  0.077231727            7 
  156000    1.0106087   -3.3073527    133.73977  0.071442186  0.077084597            2 
  157000    1.0334937   -3.3075669    134.05491  0.071154412  0.076942652            3 
  158000    1.0013498   -3.3177555    134.98102  0.071192518  0.076798742            1 
  159000     1.021455   -3.3269925    135.86453  0.071207824  0.076654654            2 
  160000    1.0114533   -3.3235277    136.33509  0.071007857   0.07651434            4 
  161000    0.9999674   -3.2917141    137.13254  0.070979577   0.07637163            5 
  162000    0.9932622   -3.3193219    137.76738  0.070867991  0.076227914            1 
  163000    1.0207374   -3.3408013    138.82566  0.070974264  0.076084746            2 
  164000    1.0074635   -3.3103076    138.44269  0.070346896  0.075938538            3 
  165000    1.0213911    -3.329782    139.69836  0.070554728  0.075792794            2 
  166000    1.0057449   -3.3270779    140.23562  0.070399409  0.075644799            2 
  167000     1.015084   -3.3196356    140.62997  0.070174637  0.075500903            1 
  168000     1.001014   -3.3203559    141.72712  0.070301153  0.075351312            3 
  169000   0.97769484   -3.3206536    141.68613  0.069864955   0.07519966            3 
  170000       1.0068   -3.3356961    142.37745  0.069792869  0.075042133            2 
  171000    1.0094699    -3.309898    143.40703  0.069886464   0.07488283            2 
  172000    1.0192892   -3.3540165     143.5171   0.06953348  0.074724869            3 
  173000   0.99220999   -3.3439952     144.3354  0.069525724  0.074565599            9 
  174000   0.98951637   -3.3251649    144.66924  0.069286034  0.074414812            2 
  175000   0.99085831   -3.3526367    145.77153  0.069415016  0.074261353            5 
  176000   0.98327805   -3.3130909     146.7922   0.06950388  0.074109306            3 
  177000   0.98306286   -3.3486591    146.50539  0.068976171  0.073955027            5 
  178000   0.99655045   -3.3347841    147.94666  0.069263419  0.073801852            4 
  179000   0.95443329   -3.3367545    147.68703  0.068755602  0.073648626            3 
  180000   0.97428488   -3.3719879    149.04608  0.069002814   0.07350213            3 
  181000   0.96979359   -3.3632562    149.49867  0.068829957  0.073357483            2 
  182000   0.97446534   -3.3803039    149.42706  0.068418981  0.073208311            3 
  183000   0.96728629   -3.3424312    150.25204  0.068420782  0.073058705            1 
  184000   0.95267178   -3.3651638    151.51867  0.068622587  0.072918475            2 
  185000   0.96197842   -3.3366539    153.15304  0.068987856  0.072786577            3 
  186000   0.95097792   -3.3512754    152.89445  0.068501098  0.072654986            2 
  187000   0.97108549   -3.3592177    153.55816  0.068430551   0.07252236            2 
  188000   0.96648266   -3.3835931    154.46122  0.068466852  0.072387207            4 
  189000   0.95191137   -3.3845289    154.75346  0.068233447   0.07225434            3 
  190000   0.95469476   -3.3917621    155.20081  0.068070532  0.072119247            3 
  191000   0.94318164   -3.3736294    155.28685  0.067751681  0.071982856            3 
  192000   0.96626662   -3.4133848     156.0867  0.067745964  0.071845122            4 
  193000   0.96287803   -3.3919151    156.32021  0.067495773  0.071707234            2 
  194000    0.9680056   -3.3962544    157.60265  0.067698732  0.071572843            4 
  195000   0.95521639   -3.3809837    158.18794  0.067601684  0.071434579            2 
  196000   0.94809126   -3.3814327    158.40627  0.067349603  0.071297633            4 
  197000   0.95492468   -3.4281989     158.3406  0.066979948  0.071154403            4 
  198000   0.97467817   -3.4179716    158.19496  0.066580369  0.071011461            5 
  199000    0.9473182   -3.3847338    159.84955  0.066938674  0.070870356            5 
  200000   0.94376926   -3.4033726    160.50479  0.066876994   0.07072989            4 
  201000   0.93050771   -3.3903818    162.01251  0.067169367  0.070590217            3 
  202000   0.96446374   -3.4039674    161.11543   0.06646676  0.070449441            2 
  203000   0.95178508   -3.4221905     161.9848  0.066496224  0.070305929            3 
  204000   0.94652085   -3.3951541     162.4719  0.066369242  0.070162096            2 
  205000   0.92101752   -3.4257057    162.64656  0.066116489  0.070017453            8 
  206000   0.95331872   -3.4042372    163.57355   0.06617053  0.069874481            2 
  207000   0.90909693    -3.389829    164.75507  0.066326516  0.069733773            4 
  208000   0.91332981   -3.4161079    164.43083  0.065877735  0.069593908            3 
  209000   0.93648693   -3.4136572    165.36984  0.065936938  0.069454117            1 
  210000   0.92108751   -3.4169264    166.06563  0.065899059  0.069314919            4 
  211000   0.92080669   -3.4330795    165.93582  0.065535475  0.069176124            2 
  212000   0.93195815   -3.4236466    167.57086  0.065869049  0.069036184            3 
  213000   0.93976663   -3.4363024    167.05643  0.065358542  0.068899935            4 
  214000   0.94448258   -3.4537894    167.62722  0.065275397  0.068763991            3 
  215000    0.9423453   -3.4361924    168.01293  0.065121291  0.068625352            3 
  216000   0.92758127   -3.4324579    168.33603  0.064944457  0.068486677            5 
  217000   0.93269677   -3.4460938    168.81317  0.064828405  0.068349657            3 
  218000    0.9169984   -3.4310467    170.36593  0.065124592  0.068215889            4 
  219000   0.91082689   -3.4545051    170.17167  0.064753298  0.068078721            3 
  220000   0.91956239   -3.4599715    171.39379  0.064921891  0.067945419            3 
  221000   0.93142914   -3.4506524    172.06842  0.064882512  0.067812862            6 
  222000   0.93319173   -3.4634502    171.86016  0.064512072  0.067683258            2 
  223000    0.9169709   -3.4621266    172.46005  0.064446955  0.067554623            3 
  224000      0.91364   -3.4776542    173.22207  0.064442734  0.067422153            3 
  225000   0.93584938   -3.4596571    173.96881  0.064432893  0.067290526            3 
  226000   0.89653925   -3.4611925    175.22797  0.064612084  0.067162201            2 
  227000   0.90950121    -3.478702    174.83063  0.064181581  0.067033481            4 
  228000   0.90499915   -3.4642368    175.84992   0.06427263  0.066903153            2 
  229000   0.91156557   -3.4606935    175.93015  0.064021162  0.066776953            2 
  230000    0.8996274   -3.4703983    176.09727  0.063803358  0.066651602            5 
  231000   0.88297539   -3.4710607    176.15635  0.063548467  0.066523212            4 
  232000   0.89515214   -3.4855734    176.78877  0.063501711   0.06639013            2 
  233000   0.89164477   -3.4531742    176.59601  0.063160231  0.066258207            3 
  234000   0.87870385   -3.4954441    177.00596  0.063036312  0.066119375            6 
  235000   0.88130344   -3.5041352    177.17983  0.062829728  0.065980731            2 
  236000   0.90277662    -3.457716    177.55141  0.062694708  0.065841887            9 
  237000   0.89406692   -3.4805613    179.17499  0.063001051  0.065706612            3 
  238000   0.90043723   -3.4594743    179.68762  0.062915834  0.065573833           12 
  239000   0.89525275   -3.4872637    178.77433  0.062334147  0.065440688            6 
  240000   0.88056569   -3.5043185    179.83892  0.062444069  0.065307385            5 
  241000   0.90527579   -3.5237953    179.91714  0.062212012   0.06517326            4 
  242000    0.8675503   -3.4974309    181.73983  0.062582585  0.065045287            4 
  243000   0.88928663   -3.5067891     181.3506  0.062191563  0.064910753           11 
  244000   0.86878036   -3.5182698    182.32389  0.062269087  0.064776958            3 
  245000    0.8862328   -3.4769742    182.16189  0.061959826  0.064643386            3 
  246000    0.8755602   -3.5128733    182.21459  0.061725809  0.064507141            3 
  247000   0.87886893   -3.5126984    183.22749  0.061817643  0.064372662            5 
  248000   0.88244061   -3.5029979    183.42022  0.061633138  0.064241272            3 
  249000   0.86884226   -3.5025195    183.60278  0.061446715  0.064110716            4 
  250000   0.88313118   -3.5053377    184.40639  0.061468797  0.063977547            3 
  251000   0.87426127   -3.5194088    185.03425  0.061432353  0.063848176            5 
  252000   0.86052599   -3.5158227    185.48629   0.06133806  0.063717302            3 
  253000   0.86328311   -3.4968244    186.41928  0.061402924  0.063585602            3 
  254000   0.86300349   -3.5318754    185.95208    0.0610079  0.063453362            4 
  255000   0.83972331   -3.5580057    186.16905  0.060839559  0.063323513            2 
  256000   0.86486257   -3.5315325    186.48713  0.060705447  0.063192719            5 
  257000   0.86337662   -3.5753413    186.91694  0.060608607  0.063060252            2 
  258000   0.86403454   -3.5045705    187.62471  0.060602295  0.062927909            3 
  259000   0.85449506    -3.541931    187.63325  0.060371058  0.062798425            2 
  260000   0.85526111   -3.5282667    189.19532  0.060639524  0.062669551            2 
  261000   0.85126224   -3.5452946    189.16803  0.060398478  0.062540285            3 
  262000   0.83514737   -3.5271675    188.99865  0.060114075  0.062411981            6 
  263000   0.84354551   -3.5436413    189.46821  0.060034287  0.062283945            3 
  264000   0.87110763   -3.5615437    190.44113  0.060113993  0.062155946            3 
  265000   0.83229633   -3.5480147    190.71295  0.059972626  0.062028698            3 
  266000   0.85360615   -3.5604257    190.72637  0.059751369  0.061903147            4 
  267000   0.84789567   -3.5647678    190.23985  0.059375735   0.06177562            5 
  268000   0.86370625   -3.5485709    191.52089  0.059552515   0.06164743            3 
  269000   0.85580069   -3.5962649    191.11994  0.059206922  0.061517617            4 
  270000   0.85267391   -3.5675242    191.57976  0.059129555  0.061387363            3 
  271000   0.83886078   -3.5833489    192.22195  0.059108841  0.061257829            3 
  272000   0.83931155   -3.5515354    192.37312  0.058937842  0.061127665            6 
  273000   0.84516218   -3.5567428    192.69559  0.058820387  0.060999602            7 
  274000   0.81825542    -3.558955    193.48948  0.058847166  0.060871185            2 
  275000   0.84112416   -3.5890795    193.43768  0.058617479  0.060743675            3 
  276000   0.81621287    -3.569129    193.86399  0.058533813   0.06061627            7 
  277000   0.84229972   -3.5720413    194.01051   0.05836658  0.060486803            7 
  278000   0.81962028    -3.609064    193.65673  0.058050579  0.060355558            3 
  279000   0.83079733   -3.5876433    194.68135  0.058148552  0.060223763            2 
  280000   0.80288803   -3.6121883    194.20538  0.057799219  0.060093384            4 
  281000   0.79655726   -3.6031206    195.27827  0.057911706  0.059961956            2 
  282000   0.82235963   -3.5967164     194.7454  0.057548876  0.059828832            3 
  283000   0.81071091   -3.6038057    195.35287  0.057524402  0.059694538            2 
  284000   0.80230772   -3.6064837    195.35307  0.057321909  0.059560171            2 
  285000   0.80356792   -3.6064404    196.32936  0.057406245  0.059425342            2 
  286000   0.79661514   -3.6147238    196.56245  0.057273442  0.059292307            7 
  287000   0.79959769   -3.5951745    197.11843  0.057235315  0.059160131            6 
  288000   0.79243773    -3.616645     197.8674  0.057253299    0.0590282            9 
  289000   0.80810477   -3.6175169    197.88903  0.057061429  0.058897075            3 
  290000   0.81194958   -3.6385659    197.51611  0.056757504  0.058765183            5 
  291000   0.80592317   -3.6474092    197.34284  0.056512842  0.058633042           12 
  292000   0.81392467   -3.6316488     197.6137  0.056396604  0.058500207            5 
  293000   0.80020401   -3.6452578    198.64818  0.056498344  0.058368189            5 
  294000    0.7971377   -3.6081156    198.82186  0.056355402  0.058236901            4 
  295000   0.79350881   -3.6236203    199.26715  0.056290155  0.058106482            2 
  296000   0.78667817   -3.6429561    199.65795  0.056210009  0.057977041            8 
  297000   0.79901552   -3.6010681     199.5252    0.0559835  0.057847916            5 
  298000   0.77700928   -3.6675874    200.03828  0.055939117   0.05771706            8 
  299000   0.77382445    -3.627394     200.1072  0.055771236  0.057586312            5 
  300000   0.78627529    -3.649429    201.42175  0.055950486  0.057459223            8 
  301000   0.77334007   -3.6326826    201.26601  0.055721487   0.05733183            6 
  302000   0.79969409    -3.654587     201.1215  0.055497102  0.057204772            6 
  303000   0.77928699   -3.6325044    202.72232  0.055754215  0.057078177            5 
  304000   0.79637074   -3.6386161    202.29233  0.055452941  0.056952403            4 
  305000    0.7873846    -3.645358    203.14046  0.055502857  0.056827931            3 
  306000    0.7904532   -3.6460393    202.75715  0.055217088  0.056703711            4 
  307000   0.78500629   -3.6746753     202.9499   0.05508955  0.056579751            7 
  308000   0.78146502   -3.6628151    203.77353  0.055133531  0.056455278            2 
  309000   0.76744114   -3.6816943    204.00223  0.055016782  0.056331407            5 
  310000   0.77266396   -3.6673255    203.96831  0.054830191  0.056208163            7 
  311000   0.79569434   -3.6732752     204.4598  0.054785585  0.056084021            3 
  312000   0.78478258   -3.6768456    204.60948  0.054649969  0.055961902            4 
  313000   0.77150247   -3.6789257    204.65684  0.054487977   0.05583962            5 
  314000   0.76632133   -3.6950157    204.12543  0.054173415  0.055716001            5 
  315000   0.73979283   -3.6815618    205.24058  0.054296449  0.055592197            5 
  316000   0.76716766   -3.6864977    205.26165  0.054130182  0.055468872            3 
  317000   0.76629654   -3.6818279    205.59661   0.05404748   0.05534673            7 
  318000   0.75164954   -3.6915868    205.93511  0.053966224  0.055225036            6 
  319000   0.77283532   -3.7003948    206.66486  0.053987686  0.055104276            9 
  320000   0.75238922   -3.7208575    206.71953  0.053833212  0.054982355            3 
  321000   0.75669584   -3.7092721    206.70078  0.053660638  0.054861389            7 
  322000   0.74294947   -3.7150826    207.41672  0.053679275  0.054739793            6 
  323000   0.75648879   -3.7468846     207.1649  0.053448116  0.054617431            8 
  324000    0.7590091   -3.7161533     207.5023  0.053369933  0.054497031            8 
  325000   0.75047266   -3.7061548    207.47691  0.053199208  0.054375795            5 
  326000   0.73307859   -3.7096994    208.38705  0.053268672   0.05425598            6 
  327000   0.73832755   -3.6867873     207.9457  0.052993296  0.054135709            3 
  328000   0.74210085   -3.7335584    208.11086  0.052873693  0.054015468            3 
  329000    0.7354307   -3.7146982    209.16853  0.052980884  0.053896054            3 
  330000   0.71421828   -3.6987106    209.86969  0.052997396  0.053777295           12 
  331000   0.73804243   -3.7194251    208.91227  0.052596241  0.053658063            3 
  332000   0.75720232   -3.7349475    209.25691  0.052524324  0.053540108            3 
  333000   0.74990451   -3.7360157    209.44954    0.0524148  0.053421353            7 
  334000   0.71910427   -3.7464693    209.74084  0.052330549  0.053302615            4 
  335000   0.75645591     -3.72865    210.93967  0.052472555  0.053186029            8 
  336000   0.72322106   -3.7338848    211.06553  0.052347601  0.053070082            3 
  337000   0.73361948   -3.7505212    210.81732   0.05213089  0.052953097            8 
  338000   0.73356575   -3.7328429    210.61698  0.051927263  0.052835294            4 
  339000      0.72082   -3.7286074     211.2049  0.051918609  0.052719075            7 
  340000   0.70996916   -3.7530189    211.20101  0.051764954  0.052603139            6 
  341000   0.71418935   -3.7417741    211.77597  0.051753658  0.052486994            3 
  342000   0.72297088   -3.7644584    211.33363   0.05149455  0.052371443            4 
  343000   0.71233016   -3.7703104     211.6011  0.051409401  0.052255779            3 
  344000   0.71223093   -3.7497622    212.48741  0.051474664  0.052142041            5 
  345000   0.71762562   -3.7552057    212.68419  0.051372992  0.052028466            8 
  346000    0.7167215   -3.7598195    212.51507  0.051183785  0.051914806            8 
  347000   0.69793441   -3.7408072    213.39502  0.051247603  0.051801713            8 
  348000   0.70749353   -3.7861301    212.60772  0.050911809  0.051688276            4 
  349000   0.70645576   -3.7632738    213.46269  0.050970078  0.051574162            7 
  350000   0.69993108   -3.7888343    213.43116  0.050816943  0.051460301            4 
  351000    0.7137129   -3.7689227    213.55805  0.050702292  0.051344685            6 
  352000   0.69727228   -3.7729446     213.4076  0.050522632  0.051229739            6 
  353000   0.69539237   -3.7778115    214.05985  0.050533488  0.051116043            7 
  354000   0.70498875   -3.7801051    214.09271  0.050398473  0.051001781            7 
  355000   0.70685623   -3.8178054    214.31079  0.050307696  0.050888039            5 
  356000   0.70477651   -3.7910796    215.59172  0.050466226  0.050774525            6 
  357000   0.69872697   -3.7997998    214.79201  0.050138191   0.05066131            5 
  358000   0.67942184   -3.8118044    214.59886  0.049953179  0.050547018            6 
  359000   0.69540802   -3.7981067     214.8125  0.049863627  0.050434088            8 
  360000   0.70622389   -3.8082642     214.9815  0.049764237   0.05032122            6 
  361000   0.69541727     -3.78902    215.81946   0.04981982  0.050208016            6 
  362000   0.68725838   -3.8326446    215.73738  0.049663302  0.050094449            6 
  363000   0.69787555   -3.8078497    216.10914  0.049611831  0.049982167            4 
  364000   0.68112462   -3.7996757    216.74468  0.049621035  0.049870379            6 
  365000   0.70533864   -3.8240563    215.83535  0.049277477  0.049759503            9 
  366000   0.68915932   -3.8335906    216.31079   0.04925109  0.049647948            5 
  367000   0.67868888   -3.8156074    216.72065  0.049209957   0.04953628            4 
  368000   0.69025284   -3.8292451     216.4078   0.04900539  0.049424853            5 
  369000    0.6814334    -3.841195    216.68741  0.048935729    0.0493138            6 
  370000   0.68647195   -3.8438801     216.5455  0.048771509  0.049202797            4 
  371000     0.676276   -3.8380799    217.38797  0.048829283  0.049092323           13 
  372000      0.68226   -3.8343556    217.38133  0.048696534  0.048982533            5 
  373000   0.67549861   -3.8409466    217.41208  0.048572851  0.048872603            5 
  374000   0.67369155   -3.8421378    217.32497  0.048423567  0.048762254            3 
  375000   0.66887146   -3.8373928    218.08714  0.048463809  0.048652891            7 
  376000   0.64581331   -3.8532357    217.72979  0.048255717   0.04854335            4 
  377000    0.6559586   -3.8258899      218.866  0.048378868  0.048434321            8 
  378000   0.66514318   -3.8482083     218.1932  0.048102557  0.048325653            9 
  379000   0.66106581   -3.8603426    218.46309  0.048034981  0.048216287            7 
  380000   0.64419041   -3.8627311    218.44273  0.047904108  0.048106614            6 
  381000   0.66523293   -3.8549417    218.62204  0.047817594  0.047997307            9 
  382000   0.65843717   -3.8636129    218.50638  0.047667187  0.047887159           18 
  383000   0.65280129   -3.8428117     218.8465  0.047616731  0.047778011            9 
  384000   0.65719514   -3.8807549    217.93135   0.04729413  0.047668052            6 
  385000   0.66193747   -3.8716641    218.65023   0.04732689  0.047557854            3 
  386000   0.64546006   -3.8824466    218.94827  0.047268626  0.047448388            9 
  387000   0.64982727   -3.8849169    219.21725  0.047204403   0.04733835            4 
  388000   0.65278043   -3.8980985    218.98609  0.047033094  0.047228481           12 
  389000   0.64857392   -3.9133091    219.33761  0.046987491  0.047118909            5 
  390000   0.65209315   -3.8933773    219.43087  0.046886938  0.047009232            9 
  391000   0.64589789   -3.8775293    219.46363  0.046774005  0.046900301           11 
  392000   0.65792377   -3.9219916    218.53116  0.046456454  0.046791159            6 
  393000   0.64179912   -3.8882686    219.54884  0.046554038  0.046683121            6 
  394000   0.63606073   -3.8658628    219.65436  0.046458197  0.046574705            8 
  395000   0.65465217   -3.9021501    220.04468  0.046422929  0.046466422            7 
  396000   0.62686839   -3.9051066    219.82697  0.046259884  0.046358261            7 
  397000    0.6416191   -3.9152776    219.93531  0.046166103  0.046251034            7 
  398000   0.62893055   -3.9307103    220.57921  0.046184927  0.046143901           16 
  399000   0.62002304   -3.9190667    220.95119  0.046146866  0.046037952            7 
  400000   0.63263096   -3.9332835     220.7755  0.045994895   0.04593154            8 
  401000   0.61820587   -3.9245665    221.34289  0.045998108   0.04582545            8 
  402000   0.62206479   -3.9405902    220.71911  0.045754376   0.04571977            7 
  403000   0.62510537   -3.9459203     220.8283   0.04566342  0.045613286            9 
  404000   0.63436782   -3.9177215    221.23223   0.04563371  0.045507165            5 
  405000   0.62762132   -3.9214094    221.28078  0.045531025  0.045401912            5 
  406000   0.62752352   -3.9353135    221.52543  0.045469094  0.045296706            7 
  407000    0.6209975   -3.9647656    220.66332   0.04518086  0.045190984            9 
  408000   0.62276004   -3.9388741    221.93889  0.045330655  0.045085808           14 
  409000   0.62884899   -3.9442085    221.68019  0.045167112  0.044981711            4 
  410000   0.62040373   -3.9402638    221.87118  0.045095769  0.044877462            7 
  411000   0.60039317   -3.9617324    222.23786  0.045060393  0.044773427           17 
  412000   0.61384437    -3.952264    221.90869  0.044884443  0.044669151            6 
  413000   0.60725098   -3.9420012    222.36937  0.044868719   0.04456519            6 
  414000   0.61829115   -3.9450767     222.6369   0.04481419  0.044461966           10 
  415000   0.60380569   -3.9603945    222.38849  0.044656323  0.044358408            6 
  416000   0.60419518   -3.9507046    222.69714  0.044610805  0.044256466           16 
  417000   0.60015079   -3.9603841    222.51032  0.044466492  0.044154092           13 
  418000   0.60642092   -3.9513413    223.30019  0.044517583  0.044052212            6 
  419000    0.5849981   -3.9606032     222.6191  0.044275875   0.04394983            4 
  420000   0.60374807   -3.9946095    222.53343  0.044153459  0.043847087            8 
  421000   0.58212651   -3.9503735     223.6292  0.044265478  0.043745008           19 
  422000   0.57090297   -3.9665562    223.02907  0.044042075   0.04364344            7 
  423000   0.58252127   -4.0063751    223.02044  0.043936256  0.043541672            9 
  424000    0.5872658   -3.9890975    223.06829  0.043842037  0.043440225           11 
  425000   0.59962109   -4.0029452    223.36372  0.043796807  0.043339777            9 
  426000   0.60356451    -3.995272    223.88974  0.043796898  0.043238837            8 
  427000   0.58181489   -3.9866752    223.79351  0.043675548  0.043138255           10 
  428000   0.57424567   -4.0067782    222.89358  0.043398282  0.043037513           15 
  429000   0.57142265   -4.0014272    224.06483  0.043524637  0.042936924            6 
  430000   0.56486361   -3.9940381    224.18123  0.043445975  0.042836996            7 
  431000   0.58516443    -3.999455    223.85467  0.043282032  0.042737168           12 
  432000   0.57179723   -4.0045294    224.23209  0.043254647   0.04263768            8 
  433000   0.57030897   -4.0054952    224.31884  0.043171446  0.042538943            9 
  434000   0.57961819    -4.010055    224.74921  0.043154611  0.042440211           14 
  435000   0.56754025   -4.0172893    224.67691  0.043041553  0.042341611           13 
  436000   0.56477595   -4.0333844    224.45462  0.042900348  0.042242828            6 
  437000   0.56692448   -4.0171591    224.42245  0.042796042   0.04214464           12 
  438000   0.57293542   -4.0242128    224.20412  0.042656796  0.042046215           13 
  439000   0.55075628   -4.0136832    224.29773  0.042577398  0.041947594            4 
  440000   0.57125303   -4.0475357    224.32169  0.042485169  0.041848726           10 
  441000   0.56178585   -4.0470945    224.65459  0.042451737  0.041750591            6 
  442000   0.56856375   -4.0449844    225.19254  0.042457115  0.041651879            8 
  443000   0.55379807   -4.0429485    225.17782  0.042358506  0.041554061            9 
  444000   0.55393136   -4.0334949    224.94523   0.04221945  0.041456867           25 
  445000   0.55428467   -4.0515986    224.60048  0.042060014  0.041359108            6 
  446000   0.55045299   -4.0603864    224.28091     0.041906  0.041261803            9 
  447000   0.53663915   -4.0585051     224.9089  0.041929324  0.041164433           29 
  448000    0.5474842   -4.0647922    224.29018  0.041720644  0.041067502            8 
  449000   0.55088232   -4.0700859    225.12639  0.041782923   0.04097073           10 
  450000   0.55197168   -4.0711531    225.19049  0.041701943   0.04087392           18 
  451000   0.54045985   -4.0677088    225.03626  0.041580979  0.040777056           11 
  452000   0.55052507   -4.0902839    224.93823  0.041470913  0.040680456           20 
  453000   0.54054325   -4.0796512    224.95291  0.041382066  0.040583275           16 
  454000   0.53810697   -4.0889358    224.37645  0.041185105  0.040486337           31 
  455000   0.53725202   -4.0809186    224.79619  0.041171464   0.04038896           25 
  456000   0.53898354    -4.094449    224.01492  0.040938399  0.040291791           35 
  457000   0.53667092   -4.0858319    224.59199  0.040954046  0.040194882           26 
  458000   0.53147639   -4.0970093    224.15568  0.040785241  0.040098223           19 
  459000    0.5372957   -4.0611352    225.55118  0.040949741  0.040002127            6 
  460000   0.54233112   -4.0689703    225.14634   0.04078738  0.039907048            8 
  461000   0.53619355   -4.0993514    225.12324   0.04069473  0.039811298            9 
  462000   0.52863089    -4.114275    225.32509  0.040643054  0.039715845            8 
  463000   0.52013815    -4.129371    224.60795  0.040426197  0.039619825            7 
  464000   0.51415175   -4.1162506    225.19018  0.040443639  0.039524089           10 
  465000   0.52268154   -4.1005332    225.01792  0.040325792  0.039428313           15 
  466000   0.52842227   -4.1319372    225.24479  0.040279827  0.039332787           16 
  467000   0.53256802    -4.123942    224.90644  0.040133197  0.039237485           13 
  468000   0.52309974   -4.1279759    225.02966  0.040069383  0.039142363            9 
  469000   0.51926615   -4.1153903    224.87002  0.039955583  0.039047269           28 
  470000   0.51026143   -4.1348773    225.56458   0.03999372  0.038952439            9 
  471000   0.51589752   -4.1526809    225.00619  0.039810013  0.038857807            9 
  472000   0.51342191   -4.1431765    225.51489  0.039815482  0.038763571           10 
  473000    0.5062189   -4.1392573    225.40998  0.039712823  0.038669655            9 
  474000   0.50606468   -4.1340489    225.20817   0.03959356  0.038575861           33 
  475000   0.50529438   -4.1398263    225.38791  0.039541738  0.038482176           20 
  476000   0.50400446   -4.1567686    224.99068  0.039389125  0.038388642           15 
  477000   0.50793621   -4.1482326    225.19021  0.039341406  0.038295467           17 
  478000   0.51498749   -4.1333033    225.24082  0.039267925  0.038202411           13 
  479000   0.50930758   -4.1450639      225.154  0.039170843  0.038109575           10 
  480000   0.49653764   -4.1485076    225.69462  0.039183094  0.038017065           17 
  481000     0.503916   -4.1575593    225.40991  0.039052307  0.037924971           13 
  482000   0.50161678   -4.1579551    225.18455  0.038932321  0.037832601           18 
  483000    0.4917506   -4.1638038    225.95322  0.038984338  0.037740387           17 
  484000   0.48131296   -4.1647379    226.10908  0.038930627   0.03764873           28 
  485000   0.49657829   -4.1761726    225.91227  0.038816541  0.037557408           10 
  486000   0.48562321   -4.1755501    225.32198  0.038635456  0.037466005           19 
  487000   0.49859861   -4.1823942    225.28403  0.038549628  0.037374175           15 
  488000   0.48726271   -4.1806182    225.87697  0.038571886  0.037282861           17 
  489000   0.47995151   -4.1759464    225.50388  0.038429427  0.037191794           80 
  490000   0.48587546   -4.1743716    225.46206  0.038343887    0.0371008           26 
  491000   0.48251005   -4.1831207    225.62846  0.038294036  0.037009705           28 
  492000   0.48871971   -4.1858689    225.64282  0.038218635  0.036918883           30 
  493000   0.47530794   -4.2075021    225.33245   0.03808865  0.036827746           29 
  494000   0.47886443   -4.1972343     225.3029  0.038006562  0.036736769           23 
  495000    0.4799707   -4.2054554    225.55579  0.037972356   0.03664605           14 
  496000   0.48102942   -4.1866867    225.41173  0.037871595  0.036555753           22 
  497000   0.47857117   -4.2104609    225.01272   0.03772849   0.03646544           19 
  498000   0.46275488   -4.2106252    224.90756  0.037635134  0.036375181           21 
  499000   0.47218102   -4.2069366    225.24284  0.037615705  0.036285159           13 
  500000   0.47399851   -4.2239564    225.11384  0.037518974  0.036195377           10 
  501000   0.46211153   -4.2031088    224.86658  0.037402957  0.036105511           10 
  502000   0.47235584   -4.2288576     224.8762  0.037330046   0.03601541           11 
  503000   0.46216979   -4.2276228    224.62657  0.037214475   0.03592567           28 
  504000   0.45189655   -4.2196346    225.60432  0.037302302  0.035836208           39 
  505000   0.45395766   -4.2515499    224.37901   0.03702624  0.035746968           38 
  506000   0.45865061   -4.2501532    224.68059  0.037002732   0.03565754           22 
  507000   0.45594616   -4.2520996    225.32608  0.037035845  0.035568082           36 
  508000   0.45619498   -4.2573554    224.24054  0.036784866  0.035478895           16 
  509000   0.45479048   -4.2630969    224.43191  0.036743927  0.035389547           32 
  510000   0.45357141    -4.265409    224.73428  0.036721288  0.035300766           27 
  511000   0.44281593   -4.2723324    224.82274  0.036663851  0.035211758           41 
  512000   0.44941259   -4.2507244    224.24666   0.03649848  0.035123007            9 
Loop time of 1224.11 on 48 procs for 500000 steps with 4000 atoms

Performance: 70581.803 tau/day, 408.460 timesteps/s
99.4% CPU use with 48 MPI tasks x no OpenMP threads

MPI task timing breakdown:
Section |  min time  |  avg time  |  max time  |%varavg| %total
---------------------------------------------------------------
Pair    | 77.017     | 85.858     | 91.68      |  30.1 |  7.01
Neigh   | 8.3006     | 8.6054     | 8.9756     |   6.5 |  0.70
Comm    | 79.157     | 85.345     | 94.611     |  33.5 |  6.97
Output  | 0.84094    | 0.84144    | 0.84957    |   0.1 |  0.07
Modify  | 1029.9     | 1032       | 1034.7     |   3.9 | 84.31
Other   |            | 11.47      |            |       |  0.94

Nlocal:        83.3333 ave          89 max          76 min
Histogram: 2 0 2 5 8 9 13 3 3 3
Nghost:        2230.23 ave        2248 max        2211 min
Histogram: 3 2 5 1 11 8 6 6 4 2
Neighs:        14899.1 ave       16433 max       13215 min
Histogram: 2 3 2 7 5 11 7 6 2 3
FullNghs:      29797.8 ave       31841 max       26671 min
Histogram: 2 0 0 6 2 16 4 10 5 3

Total # of neighbors = 1430293
Ave neighs/atom = 357.57325
Neighbor list builds = 27083
Dangerous builds = 0

#clear
#
#next RN
#
#jump SELF
Total wall time: 0:20:27
