
units lj                  # Use reduced LJ style units
atom_style atomic         # Uncharged point particles
atom_modify map hash      # Needed for indexing of clusters etc
                          # Used to be able to find where atoms are in relation to each other.

lattice fcc 1.0 spacing 1 1 1
Lattice spacing in x,y,z = 1.5874011 1.5874011 1.5874011
region box block 0 10 0 10 0 10 units lattice
create_box 2 box
Created orthogonal box = (0.0000000 0.0000000 0.0000000) to (15.874011 15.874011 15.874011)
  3 by 4 by 4 MPI processor grid
create_atoms 1 box
Created 4000 atoms
  using lattice units in orthogonal box = (0.0000000 0.0000000 0.0000000) to (15.874011 15.874011 15.874011)
  create_atoms CPU = 0.002 seconds
set type 1 type/fraction 2 0.04 78393
Setting atom values ...
  161 settings made for type/fraction
mass 1 1.0
mass 2 1.0
pair_style lj/cut  3.5
pair_modify tail  yes
pair_coeff 1  1  1.0  1.0   # Intearaction between 1 and 1 set with epsilon = 1 and sigma = 1
pair_coeff 1  2  1.5  0.8
pair_coeff 2  2  0.5  0.88

write_data data.0
System init for write_data ...
Neighbor list info ...
  update every 1 steps, delay 10 steps, check yes
  max neighbors/atom: 2000, page size: 100000
  master list distance cutoff = 3.8
  ghost atom cutoff = 3.8
  binsize = 1.9, bins = 9 9 9
  1 neighbor lists, perpetual/occasional/extra = 1 0 0
  (1) pair lj/cut, perpetual
      attributes: half, newton on
      pair build: half/bin/atomonly/newton
      stencil: half/bin/3d
      bin: standard
WARNING: Not all mixed pair coeffs generated from mixing. Use write_data with 'pair ij' option to store all pair coeffs. (../write_data.cpp:312)


#############################
#   M E L T   S Y S T E M   #
#############################

velocity all create 2.4 3143649 mom yes dist gaussian # Assign velocities
                                                    # Temperature 2.4, random number seed, zero linear momentum
                                                                                # Gaussian distribution

timestep 0.002   # simulation timestep
thermo 1000       # output thermodynamic data every 1000 steps bf 100

# Define a fix  in this case with index 1 applied to all
# particles in the simulation. This fix is for simulations
# in the anisotropic NPT ensemble. Note that we use the MTK
# correction.
fix 1 all npt temp 2.4 2.4 0.1 iso 5.68 5.68 0.5 mtk yes tchain 5 pchain 5 # Use NPT ensemble
                                                                         # Set temperature and pressure and damping
                                                                         # Numbers of thermostats in chain and in barostat
run 10000          # run for 10000 steps
Per MPI rank memory allocation (min/avg/max) = 3.642 | 3.644 | 3.648 Mbytes
Step Temp E_pair E_mol TotEng Press Volume 
       0          2.4   -8.1195307            0   -4.5204307   -2.5632236         4000 
    1000    2.4221644   -4.5313889            0  -0.89905061    5.4793123    5058.0624 
    2000    2.3809092   -4.4922565            0  -0.92178549    5.6180698    5068.8205 
    3000     2.428055   -4.4518454            0  -0.81067344    5.8931517    5055.7734 
    4000    2.3996418   -4.4227591            0  -0.82419629    5.7930255    5083.6829 
    5000    2.4123394   -4.4175289            0  -0.79992441    5.9885752    5062.5071 
    6000    2.4067418   -4.4565885            0  -0.84737829    5.7333815    5074.0239 
    7000    2.4240968    -4.460939            0  -0.82570281    5.6673797    5092.0094 
    8000    2.3918359   -4.4696976            0   -0.8828407    5.6727404    5070.1856 
    9000    2.4216606   -4.4402608            0  -0.80867795    5.6369025     5098.926 
   10000    2.3810654   -4.4555552            0  -0.88485002    5.7438138    5068.1692 
Loop time of 2.12531 on 48 procs for 10000 steps with 4000 atoms

Performance: 813058.002 tau/day, 4705.197 timesteps/s
99.6% CPU use with 48 MPI tasks x no OpenMP threads

MPI task timing breakdown:
Section |  min time  |  avg time  |  max time  |%varavg| %total
---------------------------------------------------------------
Pair    | 0.87125    | 0.93848    | 1.049      |   3.9 | 44.16
Neigh   | 0.16997    | 0.17718    | 0.19566    |   1.4 |  8.34
Comm    | 0.62157    | 0.7551     | 0.82718    |   5.2 | 35.53
Output  | 0.00024969 | 0.00025619 | 0.00031538 |   0.0 |  0.01
Modify  | 0.20969    | 0.23994    | 0.28311    |   3.8 | 11.29
Other   |            | 0.01435    |            |       |  0.68

Nlocal:        83.3333 ave          89 max          73 min
Histogram: 2 1 2 4 3 3 12 6 7 8
Nghost:        1401.71 ave        1427 max        1379 min
Histogram: 6 3 7 3 3 7 9 4 3 3
Neighs:        7511.52 ave        8335 max        6018 min
Histogram: 1 0 3 3 7 3 8 10 9 4

Total # of neighbors = 360553
Ave neighs/atom = 90.138250
Neighbor list builds = 907
Dangerous builds = 228

# Equilibrate just above the melting temperature to avoid step fn in T

fix 1 all npt temp 1.25 1.25 0.1 iso 5.68 5.68 0.5 mtk yes tchain 5 pchain 5
run 2000
Per MPI rank memory allocation (min/avg/max) = 3.643 | 3.645 | 3.648 Mbytes
Step Temp E_pair E_mol TotEng Press Volume 
   10000    2.3810654   -4.4555552            0  -0.88485002    5.7438138    5068.1692 
   11000    1.2612589   -5.9390257            0   -4.0476103     5.868022    4209.4638 
   12000    1.2366824   -5.9557395            0   -4.1011796    5.7337021    4209.8929 
Loop time of 0.46141 on 48 procs for 2000 steps with 4000 atoms

Performance: 749007.832 tau/day, 4334.536 timesteps/s
99.7% CPU use with 48 MPI tasks x no OpenMP threads

MPI task timing breakdown:
Section |  min time  |  avg time  |  max time  |%varavg| %total
---------------------------------------------------------------
Pair    | 0.20066    | 0.21726    | 0.23818    |   1.8 | 47.09
Neigh   | 0.030527   | 0.032697   | 0.03652    |   0.6 |  7.09
Comm    | 0.13458    | 0.15918    | 0.17449    |   2.2 | 34.50
Output  | 5.1237e-05 | 5.2556e-05 | 6.6182e-05 |   0.0 |  0.01
Modify  | 0.042573   | 0.047633   | 0.05328    |   1.3 | 10.32
Other   |            | 0.004589   |            |       |  0.99

Nlocal:        83.3333 ave          92 max          77 min
Histogram: 6 2 9 4 9 4 7 2 2 3
Nghost:        1582.90 ave        1601 max        1559 min
Histogram: 1 0 3 5 5 12 12 6 2 2
Neighs:        9046.29 ave       10147 max        7875 min
Histogram: 1 3 5 5 10 8 4 6 3 3

Total # of neighbors = 434222
Ave neighs/atom = 108.55550
Neighbor list builds = 142
Dangerous builds = 14

#############################
# L I N E A R  Q U E N C H  #
#############################

# Define solid atoms. This closely follows ten Wolde  Ruiz-Montero and Frenkel  Faraday Discuss  1996  104  93-110
# Compute components of the per-atom q6 vector
compute q6 all orientorder/atom degrees 1 6 components 6 nnn NULL cutoff 1.3 # compute the Q6 parameter.
                                                                             # Use all neighbours within 1.3 unit cell.

# get number of connections
compute coord_number all coord/atom orientorder q6 0.5

# An atom is solid if it has 8 or more connections (of a possible 14)
variable is_solid atom c_coord_number>=8
group solid dynamic all var is_solid    # Must be dynamic to update
dynamic group solid defined

# do clustering
compute cluster solid cluster/atom 1.3 # Create a cluster where all atoms within are solid and max 1.3 units from another member

# define chunks one chunk per cluster
compute clus_chunks solid chunk/atom c_cluster nchunk every compress yes  # Says which atoms are in which chunk

# count the size of each chunk
compute size_chunks solid property/chunk clus_chunks count


# Find the maximum entry in the vector of chunk sizes
variable max_n equal max(c_size_chunks)


# Thermo style which includes this variable
# thermo_style custom step temp pe vol v_max_n

thermo ${N}  # Print the thermo information every 100 steps
thermo 1000  

# Reset the npt fix at a lower temperature (below freezing)
fix 1  all npt temp  ${temp} ${temp}  0.1  iso  5.68  5.68  0.5  mtk yes tchain  5  pchain  5
fix 1  all npt temp  0.45 ${temp}  0.1  iso  5.68  5.68  0.5  mtk yes tchain  5  pchain  5
fix 1  all npt temp  0.45 0.45  0.1  iso  5.68  5.68  0.5  mtk yes tchain  5  pchain  5

dump dmp2 all dcd ${N} traj.dcd
dump dmp2 all dcd 1000 traj.dcd


compute msd all msd com yes
variable twopoint equal c_msd[4]/6/(step*dt+1.0e-6)
fix 9 all vector 10 c_msd[4]
variable fit equal slope(f_9)/6/(10*dt)
thermo_style custom step temp pe c_msd[4] v_twopoint v_fit v_max_n

fix 1 all npt temp 1.25 ${temp} 0.1 iso 5.68 5.68 0.5 mtk yes tchain 5 pchain 5
fix 1 all npt temp 1.25 0.45 0.1 iso 5.68 5.68 0.5 mtk yes tchain 5 pchain 5
run 2000000 # 5000000  # Run for this many steps
Neighbor list info ...
  update every 1 steps, delay 10 steps, check yes
  max neighbors/atom: 2000, page size: 100000
  master list distance cutoff = 3.8
  ghost atom cutoff = 3.8
  binsize = 1.9, bins = 9 9 9
  4 neighbor lists, perpetual/occasional/extra = 1 3 0
  (1) pair lj/cut, perpetual
      attributes: half, newton on
      pair build: half/bin/atomonly/newton
      stencil: half/bin/3d
      bin: standard
  (2) compute orientorder/atom, occasional
      attributes: full, newton on
      pair build: full/bin/atomonly
      stencil: full/bin/3d
      bin: standard
  (3) compute coord/atom, occasional
      attributes: full, newton on
      pair build: full/bin/atomonly
      stencil: full/bin/3d
      bin: standard
  (4) compute cluster/atom, occasional
      attributes: full, newton on
      pair build: full/bin/atomonly
      stencil: full/bin/3d
      bin: standard
Per MPI rank memory allocation (min/avg/max) = 9.736 | 9.739 | 9.744 Mbytes
Step Temp PotEng c_msd[4] v_twopoint v_fit v_max_n 
   12000    1.2366824   -5.9557395 7.9953025e-30 5.5522932e-32 8.3333333e+20            2 
   13000    1.2550766   -5.9341109   0.58226492 0.0037324673  0.048075199            1 
   14000    1.2580042   -5.9322459    1.1565322 0.0068841199  0.047641419            4 
   15000     1.243691   -5.9776867      1.71158 0.0095087777  0.047069255            3 
   16000    1.2493909   -5.9891765    2.2339307  0.011635055   0.04630074            2 
   17000    1.2602207   -5.9651758    2.8165716  0.013806723  0.046272747            3 
   18000    1.2479116   -5.9764434    3.4330176    0.0158936  0.046619084            2 
   19000    1.2411856   -5.9619769     4.093644  0.017954578  0.047559893            2 
   20000    1.2288004   -5.9883099    4.6267407  0.019278086   0.04821814            3 
   21000    1.2274857   -5.9782205     5.124818  0.020336579  0.048072465            4 
   22000     1.254963   -5.9436432    5.6349179  0.021344386   0.04759319            3 
   23000    1.2242692    -6.029972     6.180718  0.022393905   0.04724053            4 
   24000    1.2503362   -5.9612196     6.766068  0.023493291  0.047003998            2 
   25000    1.2537132   -5.9522512    7.3089984  0.024363328  0.046830737            3 
   26000    1.2506339   -6.0069519    7.7389816  0.024804428  0.046628796            2 
   27000    1.2557206   -5.9870435    8.3906082  0.025896938  0.046457625            4 
   28000    1.2266601   -6.0315582     8.853466  0.026349601  0.046360663            4 
   29000    1.2518793   -6.0021867    9.5135395  0.027337757  0.046312715            2 
   30000    1.2312055    -5.981634    9.9399375  0.027610937  0.046253711            2 
   31000    1.2395785   -5.9594803    10.539333  0.028331539  0.046104491            3 
   32000    1.2558623    -6.005157    11.049117  0.028773743  0.045999049            5 
   33000    1.2272655    -5.968849    11.562503   0.02919824  0.045886277            3 
   34000    1.2255513   -6.0238536    11.975557  0.029351855  0.045740459            3 
   35000    1.2567352   -6.0079534    12.525314  0.029822177   0.04556878            3 
   36000    1.2457642   -5.9770595    13.222303  0.030607182  0.045476637            2 
   37000    1.2583855   -5.9997524    13.719944  0.030900773  0.045452857            6 
   38000    1.2515835      -6.0171    14.215249  0.031173791  0.045386844            4 
   39000    1.2573958   -6.0018741    14.729651  0.031473614   0.04531509            6 
   40000      1.22872    -5.984101    15.360008  0.032000016  0.045260452            2 
   41000    1.2593004   -5.9884408    15.904618  0.032326459  0.045244932            3 
   42000    1.2425497   -5.9936955    16.382477  0.032504914  0.045242342            2 
   43000    1.2601363   -6.0023721    16.766797  0.032493792  0.045162713            1 
   44000    1.2200566   -5.9957095    17.304734  0.032774116  0.045094447            3 
   45000    1.2347054   -6.0065567    17.938446  0.033219343  0.045022081            5 
   46000    1.2504007   -5.9869164    18.550655  0.033606259  0.045007038            2 
   47000    1.2538372   -5.9730907    19.103697  0.033871803  0.045021139            3 
   48000    1.2244285   -5.9648266    19.626748  0.034074215  0.045028062            3 
   49000     1.262911   -5.9909815    20.189227   0.03433542   0.04501298            3 
   50000     1.229832   -6.0236069    20.531828  0.034219713  0.044992498            2 
   51000    1.2533982   -5.9857523    21.176284   0.03460177  0.044951072            3 
   52000     1.231138   -6.0231554    21.542861  0.034523816  0.044890525            4 
   53000    1.2153124   -6.0071159     22.04369   0.03465989  0.044830752            3 
   54000    1.2254229   -5.9584845    22.457084  0.034655993  0.044750373            3 
   55000    1.2420022   -6.0122321      22.9058  0.034705757  0.044657507            4 
   56000    1.2370465   -6.0254839    23.375961  0.034785656  0.044557721            2 
   57000    1.2254578   -5.9994678     23.88588  0.034920877  0.044468069            2 
   58000    1.2477138   -6.0396598    24.358932  0.034998465  0.044362542            4 
   59000    1.2337939   -6.0018614    24.925134  0.035204991   0.04426177            4 
   60000    1.2615379   -6.0150424    25.197929  0.034997123  0.044156751            5 
   61000    1.2479006   -6.0315328     25.71109   0.03512444  0.044033137            3 
   62000    1.2265729   -6.0145455    26.363489  0.035434796  0.043938906            2 
   63000    1.2143135    -6.005434    26.996355  0.035709464   0.04387171            4 
   64000    1.2281455   -6.0110402    27.460397  0.035755725  0.043826351            3 
   65000    1.2263319   -6.0438865    28.043601  0.035953334   0.04378893            3 
   66000    1.2336251   -5.9930923    28.708393   0.03624797  0.043761151            2 
   67000    1.2019918    -6.027395    29.018557  0.036092732  0.043735768            3 
   68000    1.2302027   -6.0442305    29.603194  0.036278424   0.04370792            2 
   69000    1.2168723   -6.0055334    30.172502  0.036440219  0.043684764            3 
   70000    1.2349829   -6.0116051    30.591109  0.036417986  0.043662434            4 
   71000    1.2554065   -6.0036922    31.291904  0.036727587  0.043650276            3 
   72000    1.2316844   -6.0093991    31.829223  0.036839378  0.043632519            2 
   73000    1.2173231   -5.9621905    32.417649  0.037006448  0.043636271            3 
   74000    1.2356302    -6.037298    32.952445  0.037108609  0.043643759            3 
   75000    1.2081952   -6.0397274    33.362849  0.037069832  0.043639377            3 
   76000    1.1974381   -6.0500957     34.04423  0.037329199  0.043639374            5 
   77000    1.2360403   -6.0369512    34.558196  0.037400644  0.043636283            3 
   78000    1.2338431   -6.0212906     34.99346  0.037386175  0.043636054            6 
   79000    1.1958149   -6.0491562    35.434894   0.03737858  0.043633512            2 
   80000    1.2333369   -5.9903902    35.875304  0.037370108  0.043628026            2 
   81000    1.2035376   -6.0167976    36.390503  0.037438789  0.043622254            2 
   82000    1.2194397    -6.047859    36.790416  0.037388634  0.043598947            4 
   83000    1.2140648   -6.0470654    37.299826  0.037449625  0.043573488            6 
   84000    1.2080384   -6.0090484    37.922757  0.037621783  0.043550782            3 
   85000    1.2297324   -6.0561015    38.405769  0.037652715  0.043534546            2 
   86000    1.2048946   -6.0390795    38.680938  0.037481529  0.043497508            2 
   87000    1.2248112   -6.0780816    39.063219  0.037416876  0.043448798            3 
   88000    1.2268525   -6.0108175    39.639834  0.037537722  0.043402576            3 
   89000    1.2107769   -6.0490211    40.117355  0.037563066  0.043358336            2 
   90000    1.2241488    -6.060984    40.294998  0.037310183  0.043313498            2 
   91000    1.2343849   -6.0006201    41.137484  0.037671688  0.043263275            3 
   92000    1.1876527   -6.0368102    41.572228  0.037656003  0.043220812            4 
   93000     1.220382   -6.0580815    41.943042  0.037583371  0.043181787            4 
   94000    1.2103902   -6.0481721    42.586827  0.037754279  0.043142894            4 
   95000    1.2247079   -6.0242055    43.400384  0.038070512  0.043113844            4 
   96000    1.2319134   -6.0581849    43.818593  0.038036973   0.04309142            3 
   97000     1.226625   -6.0689472    44.163788  0.037941398  0.043068569            3 
   98000    1.2280649   -6.0437105    44.581633  0.037909552  0.043041107            4 
   99000    1.2342744    -6.021894    45.254095  0.038092672  0.043011434            4 
  100000    1.2293009   -6.0421033    45.646009   0.03803834  0.042994108            3 
  101000    1.2131493   -6.0551331    46.193982  0.038113846   0.04297237            3 
  102000    1.2011299   -6.0351811    47.011331   0.03840795  0.042954982            4 
  103000    1.1891762   -6.0211881    47.482154  0.038415982  0.042947604            5 
  104000    1.2132562   -6.0166835    47.812797  0.038311536  0.042941486            3 
  105000    1.1854588    -6.047402    48.140414  0.038206678  0.042927725            2 
  106000    1.2151445   -6.0729999    48.557994  0.038174523  0.042906435            4 
  107000     1.228573   -6.0516191    49.348543  0.038433444   0.04288489            3 
  108000    1.2286984   -6.0655491    49.548203  0.038231638  0.042862186            3 
  109000    1.2090238   -6.0477083    49.966236  0.038200486  0.042844081            5 
  110000    1.2290737   -6.0537382    50.641911  0.038365084  0.042825758            3 
  111000    1.2018141   -6.0517071    51.366072  0.038563117  0.042812611            2 
  112000    1.2311736   -6.0542853    51.876608  0.038598666  0.042802265            4 
  113000    1.2244026   -6.0580848    52.309923  0.038576639     0.042792            4 
  114000    1.2001787   -6.0540847    52.863155  0.038642657  0.042782587            6 
  115000    1.2064746   -6.0505773     53.29724  0.038621188  0.042773935            4 
  116000    1.1898147    -6.055382    53.844486  0.038681383  0.042760642           10 
  117000    1.2302273   -6.0479876    54.618611  0.038902144   0.04275405            3 
  118000    1.1947357   -6.0652346    55.090252  0.038905545  0.042749722            6 
  119000    1.2231053   -6.0650067    55.449289  0.038830034  0.042743718            3 
  120000     1.214696   -6.0461445    56.035274  0.038913385  0.042741949            1 
  121000    1.1851591   -6.0212305     56.50613  0.038916067  0.042739021            3 
  122000       1.2064   -6.0748178    56.995983  0.038931682  0.042735148           12 
  123000    1.2336546   -6.0228521    57.520291  0.038970387  0.042728628            2 
  124000     1.194843   -6.0866798    57.940571  0.038938556  0.042718302            3 
  125000     1.211412   -6.0371334    58.067213  0.038711475   0.04269864            3 
  126000     1.188052   -6.0491368    58.418885  0.038636828  0.042677096            7 
  127000    1.2213823   -6.0635508    59.352675  0.038945324  0.042660969            3 
  128000    1.1994436   -6.0420038    59.515864  0.038747307  0.042640419            3 
  129000    1.1856181   -6.0665309    60.082773  0.038813161  0.042618688            3 
  130000    1.2030655    -6.087881    60.358512  0.038691354  0.042594488            3 
  131000    1.2067514   -6.0899048    60.895511  0.038737602  0.042566318            4 
  132000    1.1683858   -6.0668167    61.491747  0.038820547  0.042543316            6 
  133000    1.1629719   -6.0780298    61.781575   0.03871026    0.0425196            5 
  134000    1.2079971   -6.0521156    62.265764   0.03872249  0.042496147            4 
  135000    1.2123866    -6.091274     62.77142   0.03874779  0.042471158            3 
  136000    1.2057551   -6.0685604    63.355821  0.038820969  0.042444759            3 
  137000    1.2257238   -6.0529148    63.965558   0.03890849  0.042422602            4 
  138000    1.1923157   -6.1076075    64.643949  0.039036201  0.042405371            2 
  139000    1.1904265   -6.0567638    64.985554  0.038960164  0.042394341            4 
  140000    1.2040408   -6.0861402    65.373429  0.038912755   0.04238001            2 
  141000    1.1894755   -6.1072168    65.734242  0.038850025  0.042361466            3 
  142000    1.1861368   -6.0590665    66.119318  0.038802416  0.042340796            4 
  143000    1.1945349    -6.100198    66.580815  0.038800009  0.042315974            2 
  144000    1.2121532    -6.079265    67.177082  0.038875626  0.042287768            3 
  145000    1.1956588   -6.0355165    67.525527  0.038807774  0.042258888            5 
  146000    1.1953325   -6.0182054    67.951425   0.03878506  0.042228238            2 
  147000    1.2037121   -6.1040984    68.166978  0.038643412  0.042198785            3 
  148000     1.213879   -6.0640849    68.700324  0.038682615  0.042168554            4 
  149000    1.2003658    -6.124895    69.410714   0.03882031   0.04213867            2 
  150000    1.1654363   -6.0666382    69.879206  0.038821781   0.04211352            6 
  151000    1.1887271    -6.080285    70.350539  0.038824801  0.042090959            2 
  152000    1.2043199   -6.0754035    70.765979  0.038797137  0.042066224            5 
  153000    1.2169594   -6.0512952    71.115844   0.03873412  0.042045163            3 
  154000    1.1671503   -6.1014364    71.713103  0.038805792  0.042022249            2 
  155000    1.1937459   -6.0579284    71.998594  0.038708921  0.041995852            6 
  156000    1.2186582   -6.0794627    72.870333   0.03892646  0.041970222            6 
  157000    1.1693938   -6.0914467    73.181492  0.038843679  0.041949717            4 
  158000    1.1798869   -6.0868425     73.89498  0.038974145  0.041929565            4 
  159000    1.1684319   -6.0844436    74.375439  0.038980838  0.041912146            8 
  160000    1.1857735   -6.0786496    74.602763  0.038855606  0.041893284            2 
  161000    1.2018776   -6.1079436    75.220213  0.038933858  0.041874061            3 
  162000    1.2084673   -6.0964759     75.81056  0.038997201  0.041853662            6 
  163000    1.1685491   -6.0823696    76.246765  0.038980964  0.041836121            4 
  164000    1.2237043   -6.0711355    76.867711  0.039058796  0.041820884            2 
  165000    1.1858133   -6.0650693    77.109537   0.03894421  0.041804166            2 
  166000    1.2047424   -6.0737243    77.878576  0.039095671  0.041786025            5 
  167000    1.2074102   -6.0533195    78.158844  0.039001419  0.041770021            7 
  168000    1.2131756   -6.0867681    78.549522  0.038963056  0.041753684            3 
  169000    1.1984854   -6.1165417    78.962757  0.038936271   0.04173457            4 
  170000    1.1888376   -6.0885545    79.834176    0.0391344   0.04171729            3 
  171000    1.1907629    -6.109297    79.813196   0.03889532  0.041701439            4 
  172000    1.1771655   -6.0627394    80.514208  0.039008821   0.04168755            3 
  173000    1.1769907   -6.1028827    81.228888  0.039127595  0.041673531            5 
  174000    1.1877112   -6.0734548    81.640212  0.039099718  0.041658991            4 
  175000    1.1774665   -6.0539933    81.983518   0.03903977  0.041644093            3 
  176000    1.1833991   -6.0779819    82.611418  0.039115254  0.041631147            8 
  177000    1.1546786   -6.0796131    82.743611  0.038956502  0.041616171            4 
  178000    1.2012997   -6.0682013     83.34654  0.039019916   0.04160116            3 
  179000    1.1982511   -6.0645841    83.409098  0.038831051  0.041584791            5 
  180000    1.1887004   -6.1104659    83.928604  0.038855835  0.041564529            5 
  181000    1.1684448   -6.1156806    84.442037  0.038877549  0.041542206            2 
  182000    1.1825493   -6.0930394    84.890032  0.038869062  0.041519027            6 
  183000     1.188138   -6.0752103    85.105045  0.038754574  0.041497017            2 
  184000    1.1942917   -6.0715715    85.864403  0.038887864  0.041476059            3 
  185000     1.189742   -6.0653167     86.15049  0.038806527  0.041454662            2 
  186000    1.1530877   -6.0607571    86.490456  0.038750204  0.041432483            3 
  187000    1.1945209   -6.0889423    86.984709  0.038763239   0.04141104           10 
  188000    1.1724231   -6.1010232    87.819491  0.038927079   0.04138915           10 
  189000    1.1643213    -6.104921    87.958673  0.038782483  0.041368929            5 
  190000    1.1822001   -6.1007625    88.294135  0.038725498  0.041347255            2 
  191000    1.1894618   -6.0724008    88.373483  0.038557366  0.041322391            4 
  192000    1.1740083   -6.1022688    89.365673  0.038787184  0.041299539            4 
  193000     1.176621   -6.0777678    90.430973  0.039046188  0.041281167            3 
  194000     1.176051   -6.1085476    90.887357  0.039040961  0.041265304            2 
  195000    1.1994075   -6.1042476    91.014856  0.038895238  0.041251288            3 
  196000     1.171138    -6.125939     91.45428  0.038883622  0.041234462            9 
  197000    1.1506948   -6.0883716    92.449651  0.039107297  0.041220147            4 
  198000    1.1774069   -6.0970172    93.033559  0.039155538  0.041206726            2 
  199000    1.1735881   -6.1134638    93.096038   0.03898494  0.041194584            6 
  200000    1.1628238   -6.1001218    93.365845  0.038902435  0.041179435            7 
  201000    1.1735388   -6.1025447    94.106826  0.039016097   0.04116367            4 
  202000    1.1718727   -6.0863898    94.465045  0.038970728  0.041148744            4 
  203000     1.172319   -6.0702649    95.131854  0.039052485  0.041133354            3 
  204000     1.161055   -6.1296345    95.125874  0.038858609  0.041116828            5 
  205000    1.1797704   -6.1138301     95.65915  0.038885833  0.041098707            3 
  206000    1.1810291   -6.0676305    96.031699  0.038847775  0.041077654            1 
  207000    1.1982758   -6.0864597    96.443629  0.038825938  0.041056577            3 
  208000      1.15442   -6.0672394     96.97112  0.038850609  0.041036363            7 
  209000    1.1644001   -6.1250519    96.765844  0.038582872  0.041014801            5 
  210000    1.2076116   -6.1482472     97.38617  0.038645305  0.040993043            5 
  211000    1.1343714   -6.0983574    98.198387  0.038782933  0.040971322            2 
  212000    1.1519561   -6.1105059    98.516029  0.038724854  0.040949435            4 
  213000    1.1848575   -6.1313254    98.595655    0.0385742  0.040926604            4 
  214000    1.1615886    -6.119957    99.351814  0.038688401  0.040905099            3 
  215000    1.1424652    -6.125523    100.04638  0.038777666  0.040887079            3 
  216000    1.1659478   -6.1391247    100.50476  0.038774984  0.040868937            1 
  217000    1.2011567   -6.1718964    100.51864  0.038601627  0.040848748            3 
  218000    1.1631101   -6.1058559    101.22867  0.038695974  0.040825754            5 
  219000    1.1671535   -6.1317736    101.54967  0.038641425  0.040805135            7 
  220000    1.1469733   -6.1242661    101.83869  0.038575262  0.040782513            2 
  221000    1.1762083   -6.1273888     102.3981   0.03861165  0.040763912            2 
  222000    1.1626534   -6.1383025    103.05638  0.038684828  0.040745848            4 
  223000    1.1820656   -6.1056077    103.61115  0.038718667  0.040726548            6 
  224000     1.160197   -6.1275071    103.55727  0.038525768  0.040707926            2 
  225000    1.1527565   -6.1635947     104.3791  0.038658928  0.040689436            6 
  226000    1.1450076   -6.1426845    105.22191   0.03879864  0.040672909            4 
  227000    1.1520004   -6.1453808    105.34683  0.038673581  0.040657381           11 
  228000     1.139779    -6.147563    105.58794  0.038592083   0.04064047            9 
  229000    1.1744654   -6.1362881    106.81458  0.038869936  0.040626182            3 
  230000    1.1448051   -6.1085352     107.2503  0.038858806  0.040612084            2 
  231000    1.1549966   -6.1586393    107.56744  0.038804992   0.04059949            2 
  232000    1.1530463   -6.1104177    108.24398   0.03888074  0.040587627            2 
  233000    1.1575212     -6.12609    108.64989  0.038859046  0.040574548            3 
  234000    1.1747771   -6.1320369    108.90007  0.038782076  0.040564243            3 
  235000    1.1568402   -6.1518934    109.08484  0.038682567  0.040550987            4 
  236000    1.1524378   -6.1237209    109.53884  0.038678971  0.040536679            3 
  237000    1.1609108   -6.1883445    109.96926   0.03866711  0.040522426            3 
  238000     1.165897   -6.1622536    110.25495  0.038604674  0.040506087            3 
  239000    1.1773292   -6.0903425    110.53618  0.038541205  0.040488243            3 
  240000    1.1564831    -6.120765    110.82549  0.038481071  0.040467502            3 
  241000    1.1825058   -6.1301767    111.01546  0.038387087   0.04044542            4 
  242000    1.1567807    -6.172581    111.57071  0.038419667  0.040423044            2 
  243000    1.1656218   -6.1522238    112.15804  0.038462975  0.040402192            5 
  244000    1.1578068    -6.178535    112.70708  0.038492854  0.040381611            4 
  245000    1.1499331   -6.1693233    113.15726  0.038488865  0.040360735            4 
  246000    1.1685678   -6.1290593    113.49837  0.038447959  0.040338334            2 
  247000    1.1723159   -6.1342813    113.23464   0.03820332  0.040317241            4 
  248000    1.1635959    -6.109683    113.92549  0.038281414  0.040293081            5 
  249000    1.1557753   -6.1556642    113.82463  0.038093919  0.040268168            4 
  250000    1.1815009   -6.1562775    114.11434  0.038038112  0.040242847            4 
  251000    1.1542561   -6.1237814    115.70695  0.038415323  0.040218958            3 
  252000    1.1634373   -6.1394992    115.60381  0.038228774  0.040197787            2 
  253000    1.1410971   -6.1657519    116.16088  0.038261159  0.040176225            2 
  254000    1.1634488    -6.194755    116.58292   0.03824899  0.040153781            1 
  255000    1.1702649   -6.1407413    116.81112  0.038173569   0.04012969            4 
  256000     1.151161   -6.1763075     117.5595  0.038268066  0.040105171            4 
  257000    1.1556699   -6.1527142    117.40237  0.038068213  0.040080505            3 
  258000    1.1320859   -6.1683865    117.82595  0.038057476  0.040056755            6 
  259000    1.1555194   -6.1175129    118.55791  0.038146047  0.040033113            6 
  260000    1.1823271   -6.1557373    119.23252   0.03821555  0.040011373            3 
  261000    1.1464529   -6.1697143    119.32508  0.038098685  0.039990419            2 
  262000    1.1643134   -6.1290844    120.10919  0.038202667  0.039969011            4 
  263000    1.1468022   -6.1503182    120.37255  0.038140858   0.03994842            3 
  264000    1.1429352   -6.1395424    121.07447  0.038217952  0.039929358            5 
  265000    1.1269365   -6.1250564    121.16923  0.038103531  0.039908844            4 
  266000    1.1336802   -6.1577411    121.42898  0.038041659  0.039887477            4 
  267000    1.1374823    -6.138302    122.28983  0.038167862  0.039867248            5 
  268000    1.1473469   -6.1709703    122.60755   0.03812424   0.03984636            3 
  269000     1.163922   -6.1391055    122.93609   0.03808429  0.039826413            4 
  270000    1.1406802   -6.1696191    123.60773  0.038150534  0.039806723            7 
  271000    1.1575605   -6.1841642    124.38414  0.038248507  0.039789531            5 
  272000    1.1322998   -6.1308131    125.52554  0.038457581  0.039772541            5 
  273000    1.1368969   -6.1604568     125.1087   0.03818947  0.039757188            4 
  274000    1.1459325   -6.1383999    125.25802  0.038095505  0.039738702            7 
  275000    1.1645402   -6.1241189    126.10983  0.038215101  0.039721566            2 
  276000    1.1617679   -6.1638213    126.20777  0.038106209   0.03970383            5 
  277000     1.140729   -6.2100439    126.20344   0.03796734  0.039684563            5 
  278000    1.1595165   -6.1837714    126.91922   0.03804533  0.039664337            5 
  279000    1.1547658   -6.2087876    127.24959  0.038007645  0.039644918            3 
  280000    1.1477329   -6.1705986    127.58059  0.037970413  0.039624956            2 
  281000    1.1408654   -6.1819195    128.26553  0.038038413   0.03960384            2 
  282000    1.1341058   -6.2111054     128.0022  0.037825709  0.039582858            9 
  283000    1.1420427   -6.1480422    128.70742   0.03789971  0.039560965            5 
  284000    1.1459306   -6.1355767    129.61995  0.038034022  0.039539518            3 
  285000     1.146373   -6.1479208    130.39282  0.038126554   0.03952023            3 
  286000    1.1018966   -6.1755669    130.53392  0.038034359  0.039501955            2 
  287000    1.1109765   -6.1823185    130.71606  0.037954722  0.039483255            5 
  288000    1.1398983   -6.1504306     131.3916  0.038018403  0.039464279            7 
  289000    1.1401454   -6.1716923    131.68769  0.037972228  0.039445963            7 
  290000    1.1690259   -6.1859124    132.19167  0.037986112  0.039427873            4 
  291000    1.1449858   -6.1699224    132.35336   0.03790188  0.039409103            2 
  292000    1.1196219   -6.1821861    133.04367  0.037969084  0.039392911            2 
  293000    1.1228892   -6.1776195    133.69995  0.038026152  0.039377636            5 
  294000    1.1239776   -6.1689339    134.36537  0.038085422  0.039361943            3 
  295000    1.1541849   -6.2074296    134.13779  0.037892031  0.039346279            3 
  296000    1.1234465   -6.2048898    134.15611  0.037769175   0.03932837            6 
  297000    1.1323167   -6.1728406    134.70673    0.0377965  0.039309908            3 
  298000    1.1556175   -6.1812072    134.83777  0.037706311  0.039290745            3 
  299000    1.1431652    -6.177245      135.538  0.037775363  0.039271188            4 
  300000    1.1367597   -6.2087101    135.88433  0.037745646  0.039250723            4 
  301000    1.1664832   -6.1757599    136.89132  0.037899035  0.039231301            6 
  302000    1.1417919   -6.2074209    137.15697  0.037846847  0.039213598            3 
  303000    1.1544068   -6.2000431    137.56617  0.037834481  0.039196076            1 
  304000    1.1378183   -6.1853152    137.22796  0.037617314  0.039177729            7 
  305000    1.1514451   -6.1589248    138.42767  0.037821768  0.039159395            3 
  306000    1.1229733    -6.183637     138.5701  0.037736956  0.039140739            3 
  307000    1.1360543   -6.2006904    139.16136  0.037774528  0.039123538            6 
  308000    1.1499162    -6.139165    139.70163  0.037798059  0.039105113            3 
  309000    1.1261531   -6.1755854    140.00788  0.037758327  0.039087131            2 
  310000    1.1362977   -6.1805851    139.55039  0.037513545  0.039068404            2 
  311000    1.1255452   -6.1679877    140.61887  0.037679225  0.039049776            2 
  312000    1.1280451    -6.223904    140.34871  0.037486301  0.039031476            4 
  313000    1.1514703   -6.1922804    140.87042  0.037505437  0.039011807            5 
  314000    1.1383507   -6.1631768    141.62914  0.037587351  0.038991311            5 
  315000    1.1161459     -6.18084     142.3376  0.037655449   0.03897214            4 
  316000    1.1297296   -6.1821172    142.17178  0.037492559  0.038952697            4 
  317000    1.1314502   -6.2145712     142.2673  0.037399394  0.038933011            7 
  318000    1.1212316   -6.1917196    143.23283   0.03753481  0.038912972            3 
  319000    1.1275784   -6.1767344    143.40488  0.037462091  0.038892311            3 
  320000     1.142728   -6.2038091    144.24089  0.037562733  0.038872929            3 
  321000    1.1290713   -6.1804694    144.37821  0.037481364  0.038853393            2 
  322000    1.1160144   -6.1551062    144.53748  0.037406179  0.038833951            3 
  323000    1.1192719   -6.1909195    145.52883  0.037546138  0.038814436            3 
  324000    1.1227407   -6.1711951    145.65596  0.037462952  0.038796141            4 
  325000     1.138474   -6.1916984    146.33922  0.037522877  0.038778433            2 
  326000    1.1114878   -6.1688346    146.67426  0.037493421  0.038759886            2 
  327000     1.142755   -6.1879277    146.64144  0.037370397  0.038742062            3 
  328000    1.1147864   -6.1804852    147.28592  0.037420203  0.038723529            6 
  329000    1.1377745   -6.1785747    147.63865  0.037395807  0.038704903            4 
  330000    1.1331295   -6.1841627     148.0658  0.037390352   0.03868682            3 
  331000    1.1301792   -6.1986479    148.12169  0.037291463  0.038667334            6 
  332000    1.1543506   -6.2024618    148.36871  0.037241142  0.038647496            2 
  333000    1.1188168   -6.2442001    148.80948  0.037239609   0.03862719            5 
  334000    1.1325589   -6.2212163    149.74163  0.037360686  0.038606491            3 
  335000    1.1175168   -6.2097752    149.16738  0.037106313  0.038586714            4 
  336000    1.1209377   -6.2441185    150.52737  0.037333178  0.038566644            3 
  337000    1.1167479   -6.2258156    150.95912  0.037329159  0.038547269            4 
  338000    1.1158203   -6.2340746    151.07966  0.037248437  0.038528052            3 
  339000    1.1451231   -6.2096232    151.12929   0.03715076  0.038507996            4 
  340000    1.1049528   -6.1915558     151.8898  0.037227892   0.03848902            2 
  341000     1.125578   -6.1933155    151.97494  0.037139527  0.038469864            3 
  342000    1.1165667   -6.2030906    152.99845  0.037280324  0.038450912            4 
  343000     1.125892   -6.1787976    152.94504  0.037158658  0.038432579            2 
  344000    1.0980592   -6.2126691    153.20684  0.037114059  0.038414287            5 
  345000    1.1230587   -6.1890376    153.74685  0.037136919  0.038394645            3 
  346000    1.1214204   -6.2405196    154.00935  0.037092811   0.03837518            3 
  347000    1.1310315   -6.2092707    154.90178  0.037200235  0.038355618            6 
  348000    1.0999539   -6.1946001    154.75757  0.037058805  0.038335134            5 
  349000    1.1105264   -6.2505306    154.13611  0.036804228  0.038313687            6 
  350000    1.1123592   -6.2484942    154.64363  0.036819913  0.038291741            5 
  351000    1.1058553   -6.2001678    155.29143  0.036868811  0.038269526            5 
  352000    1.1039598   -6.2217784      155.774  0.036878315  0.038247543            4 
  353000    1.1199904   -6.2407641    156.02803  0.036833812  0.038226175            3 
  354000    1.1206654   -6.2259972    156.60089  0.036864617  0.038204302            2 
  355000    1.1255869   -6.2010878    157.03119  0.036861782   0.03818258            7 
  356000    1.0958542   -6.1948744    157.61138  0.036894049  0.038160939            4 
  357000    1.0987448   -6.2514153     157.7893  0.036832235  0.038139282            2 
  358000    1.1235997   -6.1758414    157.52484  0.036667793  0.038116764            5 
  359000    1.1043749   -6.2033806    159.09663  0.036930508  0.038095839            6 
  360000    1.1095864   -6.1968113     158.5891   0.03671044  0.038073856           10 
  361000    1.1259189   -6.2246367    158.64263  0.036621106  0.038051298            3 
  362000    1.1101157   -6.2420087    159.15813  0.036638611  0.038028488            5 
  363000    1.1406748   -6.2531554    159.79918  0.036684844  0.038006646            5 
  364000    1.1134741   -6.2340244    160.28279  0.036694777  0.037984683            2 
  365000    1.1216444   -6.2314732    160.12766  0.036558827  0.037963151            7 
  366000    1.1222752   -6.2169957    160.37632  0.036515555  0.037941592            4 
  367000    1.1170287   -6.2326079    161.23562  0.036611177  0.037920694            3 
  368000    1.0998073   -6.2200724    161.96896  0.036677754  0.037899075            4 
  369000    1.1033374   -6.2063845    162.44466  0.036685785  0.037879034            3 
  370000    1.1021313   -6.2260578     162.6222  0.036626621  0.037858883            6 
  371000     1.120098   -6.2058157    163.07716  0.036630091  0.037838546            2 
  372000    1.0847368   -6.2249881    163.14809  0.036547511  0.037818319            5 
  373000    1.1184984   -6.2160758    163.69757  0.036572289  0.037797686            3 
  374000    1.0944015    -6.228843    164.43188   0.03663812  0.037777891            2 
  375000    1.1023573    -6.200044    165.17124   0.03670472   0.03775834            4 
  376000    1.0932817   -6.2401631    164.78714  0.036521973  0.037738662            5 
  377000    1.1058422   -6.2459301    165.03057  0.036478906  0.037718276            2 
  378000    1.0968171    -6.267013    165.34185  0.036451026  0.037696089            5 
  379000     1.093248   -6.2336032    166.33982  0.036574278  0.037674773            3 
  380000    1.0930781   -6.2210969    166.69116  0.036555078  0.037654208            2 
  381000     1.096476   -6.2267039    166.46385  0.036409416  0.037633914            5 
  382000    1.0942191   -6.2159688    167.58207  0.036558044  0.037613177            3 
  383000    1.0790657   -6.1945439    168.20514   0.03659816  0.037592987            5 
  384000    1.0983459   -6.2489686    167.72359  0.036398348  0.037572859            4 
  385000    1.0966665   -6.2283924    168.55843  0.036484509  0.037553006            2 
  386000    1.1101862   -6.2641485    168.34573   0.03634407  0.037532863            4 
  387000    1.0922722   -6.2280985    168.60141  0.036305212  0.037511834            4 
  388000    1.1011866    -6.244467    168.98533    0.0362941  0.037489746            3 
  389000    1.1066827   -6.2370439    169.95358  0.036408221  0.037468319           10 
  390000    1.0910832   -6.2580094    170.08396  0.036342727  0.037448518            3 
  391000    1.1232122   -6.2663915    169.85268  0.036200485   0.03742817            3 
  392000    1.0759024   -6.2387024    170.44484  0.036234022  0.037408526            3 
  393000     1.091189   -6.1931999    170.95997  0.036251053  0.037387507            2 
  394000    1.0823995   -6.2479431    171.01976  0.036171692  0.037366887            3 
  395000    1.0979069    -6.238319    172.14366  0.036317229  0.037347302            3 
  396000    1.0851422   -6.2506228    172.00973  0.036197334  0.037327477            9 
  397000     1.071672   -6.2448175    172.32745  0.036172849  0.037308443            3 
  398000    1.1054376   -6.2534375    173.33122  0.036292132  0.037289227            4 
  399000    1.1208345     -6.24997    173.04095   0.03614055  0.037269041            5 
  400000    1.0988388    -6.269083    173.09055  0.036060532  0.037248058            6 
  401000    1.0808275   -6.2276836    173.98811   0.03615713  0.037226676            7 
  402000    1.1092979    -6.275999     174.3157  0.036135095  0.037206604            4 
  403000    1.0893547   -6.2629459    175.36458  0.036262319  0.037187628            3 
  404000    1.0659711   -6.2211989    175.90763  0.036284578  0.037168754            4 
  405000     1.103292   -6.2506372    175.85986  0.036185157  0.037149681            3 
  406000    1.0759627   -6.2302485    175.74562  0.036072581  0.037129683            4 
  407000    1.0888931   -6.2276196    175.99828  0.036035685   0.03710972            2 
  408000    1.1038868   -6.2572172     176.6062  0.036071527  0.037090322            4 
  409000    1.0821407   -6.2563066    176.76399  0.036015483  0.037070448            3 
  410000    1.0817108   -6.2743726     177.0765  0.035991159  0.037050377            2 
  411000    1.0828941   -6.2319305    177.74581  0.036039297    0.0370307            6 
  412000     1.083717   -6.2629262    177.60136  0.035922605  0.037009282           12 
  413000    1.0759038   -6.2811888    177.52896  0.035821017    0.0369885            5 
  414000    1.0894984   -6.3002501    178.67921  0.035966025  0.036967371            4 
  415000    1.0940608   -6.2536176    179.25486  0.035994951  0.036946985            5 
  416000    1.0670854   -6.2323753    178.99371  0.035856112   0.03692667            4 
  417000    1.0819386   -6.2714313    179.68561  0.035908396  0.036906335            4 
  418000    1.0673232   -6.2707268    179.19362  0.035724406  0.036885886            5 
  419000    1.0960603   -6.2730971     179.8668   0.03577303  0.036864623            5 
  420000    1.0815676   -6.2697077    179.89965  0.035694375  0.036842449            5 
  421000    1.0798625   -6.2461349    180.64538  0.035757201  0.036820959            8 
  422000    1.1069183   -6.2782862    180.81443  0.035705851  0.036799636            4 
  423000    1.0814378    -6.288588    181.03034  0.035663976  0.036778375            5 
  424000    1.0929397    -6.283803    181.41517  0.035655496  0.036756544            9 
  425000    1.0741138   -6.2368373    181.85984  0.035658792  0.036734239            2 
  426000    1.0938209   -6.2510809    181.84725  0.035572623  0.036711822            4 
  427000    1.0739541   -6.2734809    181.43987  0.035409811  0.036688379            3 
  428000    1.0755727   -6.2643595    182.02989  0.035441956    0.0366649            5 
  429000    1.0952635   -6.2438932    182.21034  0.035394394  0.036641488            2 
  430000    1.0713982   -6.2653036     182.6614  0.035399496  0.036617459           11 
  431000    1.0892228   -6.2671132    182.99955  0.035382743  0.036594363            5 
  432000    1.0898496   -6.3093721    182.74514  0.035251764  0.036570645            4 
  433000    1.0847553   -6.2923457    183.07452  0.035233742  0.036546101            4 
  434000     1.072695   -6.2754367     184.1923  0.035367184  0.036521848            5 
  435000    1.0800926   -6.2789345     183.5875   0.03517002   0.03649782            6 
  436000    1.0898637   -6.2668264    184.09301  0.035185973   0.03647289            2 
  437000    1.0705252   -6.2783949    184.38134  0.035160439  0.036447913            4 
  438000    1.1031929   -6.2481749    184.75976  0.035152161  0.036423234            7 
  439000    1.0582834   -6.2479041    185.78979  0.035267613  0.036398628            5 
  440000    1.0784273   -6.2697428    185.92542  0.035213147  0.036374196            5 
  441000    1.0844496   -6.2405122    185.64474  0.035080261  0.036349207            9 
  442000    1.0569491   -6.2656955    185.73793  0.035018464  0.036323885            2 
  443000    1.0754678   -6.2675608    185.58537  0.034910717  0.036298978            7 
  444000     1.072574   -6.2708273    186.75185  0.035051023  0.036274571            2 
  445000      1.05947   -6.2522096    187.65387  0.035141174  0.036250055            4 
  446000    1.0730268   -6.2976846    187.35036  0.035005673  0.036226302            7 
  447000    1.0642306   -6.3059747    187.75684  0.035003139  0.036202029            3 
  448000     1.105685   -6.3110704     187.6661  0.034908129  0.036177968            4 
  449000    1.0863605   -6.2967363     188.9183  0.035062788  0.036153778            3 
  450000     1.087301   -6.2616217    188.42034  0.034892656  0.036129899            3 
  451000    1.0757415    -6.294712    189.36811  0.034990411  0.036106302            5 
  452000    1.0734718   -6.2971668    189.33623  0.034907123  0.036082893            7 
  453000    1.0695021   -6.2992476    189.88454   0.03493093  0.036058852            5 
  454000    1.0858253   -6.2709571    189.98691   0.03487278  0.036034468            5 
  455000    1.0872938   -6.2814242    189.96758  0.034792596  0.036010502            4 
  456000    1.0811587   -6.2691437    191.59181  0.035013123  0.035987224            3 
  457000    1.0547696   -6.2455237    191.85356  0.034984237  0.035964441            3 
  458000    1.0488425   -6.3053768    191.14951  0.034779751  0.035941564            6 
  459000    1.0526338    -6.267522    191.49112  0.034765999  0.035918408            6 
  460000    1.0865093   -6.2668253    193.01673    0.0349668  0.035895764            6 
  461000    1.0722016   -6.2819578    192.25694  0.034753604   0.03587277            5 
  462000    1.0443943   -6.2872957    193.33967  0.034873678  0.035850072            3 
  463000    1.0813596   -6.3049111    193.54822  0.034835893  0.035827968            5 
  464000    1.0688111   -6.2843171    193.85407  0.034815745  0.035806143            7 
  465000    1.0612753   -6.2836064    194.18959  0.034801002   0.03578452            3 
  466000    1.0856475   -6.2968667    194.71923  0.034821035  0.035762699            7 
  467000    1.1077227   -6.2559825    195.33759  0.034856814  0.035741136            7 
  468000    1.0959678   -6.3129351    194.83376  0.034692621  0.035719515            3 
  469000    1.0687237    -6.335212    196.00358  0.034826506   0.03569792            5 
  470000    1.0605813   -6.2822183    195.98548  0.034749198  0.035677185            2 
  471000    1.0681613   -6.3076837    196.51494  0.034769098  0.035656101            8 
  472000    1.0711859   -6.2282486    197.02066  0.034784721  0.035635011            5 
  473000    1.0715258   -6.2927781    197.20215  0.034743155  0.035614349            9 
  474000     1.072919   -6.3124147      197.674  0.034752813  0.035593492            3 
  475000    1.0640531    -6.330326    197.60864  0.034668183  0.035572427            3 
  476000    1.0783479   -6.3029527      197.923  0.034650386  0.035551982            5 
  477000    1.0660088   -6.3427868    198.52356  0.034682663  0.035531843            5 
  478000    1.0565013   -6.3191981    199.23743  0.034734559  0.035511863            4 
  479000    1.0499618   -6.3572237    199.05374  0.034630087  0.035491774            3 
  480000    1.0857917   -6.3238453    199.54439  0.034643123  0.035471394            3 
  481000    1.0553974   -6.3223268    199.92387  0.034636846  0.035451307            4 
  482000    1.0531701   -6.3170681    200.60478  0.034682708  0.035431813            5 
  483000    1.0845516   -6.2958138    201.37124  0.034743141  0.035413382            4 
  484000    1.0668601   -6.3123231    201.25969   0.03465215  0.035394461            5 
  485000    1.0502947   -6.2999067    201.69039  0.034654705  0.035375712           10 
  486000    1.0897741   -6.3273319    201.85679  0.034611933   0.03535639            4 
  487000    1.0573471   -6.3048374    202.26459  0.034610641  0.035336893            5 
  488000    1.0636843   -6.2876495    202.52922  0.034584907  0.035317732            7 
  489000    1.0432735   -6.2840591    203.17315  0.034623917  0.035298645            3 
  490000    1.0776514   -6.3070444    203.19996  0.034557817  0.035278829            3 
  491000    1.0654146   -6.3185082    202.79534   0.03441876  0.035258446            9 
  492000    1.0433181   -6.3341015    203.31347  0.034436564  0.035237965            6 
  493000    1.0400424   -6.3163831    203.83729  0.034455256  0.035217859            8 
  494000    1.0504216   -6.3577615    203.66705  0.034356789  0.035197849            9 
  495000    1.0644902   -6.3164193    204.15266  0.034369135  0.035177689            2 
  496000    1.0478769   -6.3435671    203.87611  0.034253379  0.035157131            5 
  497000    1.0431062   -6.3221589    205.06682  0.034384108  0.035136234           14 
  498000    1.0602372   -6.2911381    205.23067  0.034342481   0.03511609            4 
  499000    1.0504979   -6.3054994    205.30403   0.03428591  0.035095906            4 
  500000    1.0505958   -6.2991293    205.67592  0.034279321  0.035075422            3 
  501000    1.0380718   -6.3140461    206.26014  0.034308074  0.035055366            5 
  502000    1.0493533   -6.2910247    207.08615  0.034376852  0.035036154            7 
  503000    1.0754152   -6.2949676    207.32434  0.034347969  0.035017581            5 
  504000    1.0496301   -6.3758843    207.23062  0.034264322  0.034998336            3 
  505000    1.0529348     -6.33827      207.744  0.034281188  0.034979284            3 
  506000     1.080132   -6.3482074    208.28338   0.03430227   0.03496054            5 
  507000    1.0412099   -6.2918188    209.35416  0.034410611  0.034942015            2 
  508000    1.0655908   -6.3214887    209.09221  0.034299904  0.034923892            7 
  509000    1.0511639   -6.3394571    209.67176    0.0343274  0.034905761            3 
  510000    1.0510333   -6.3583079    209.90866  0.034298801   0.03488745            3 
  511000    1.0386424   -6.3850211    210.57455  0.034340273  0.034869146            7 
  512000    1.0437513   -6.3118355    210.37052  0.034239994  0.034850564            5 
  513000    1.0392918   -6.3407257    210.46867  0.034189193  0.034832173            4 
  514000    1.0589283   -6.3197295    211.49102  0.034288427  0.034813938            4 
  515000    1.0410212   -6.3398558    211.40214  0.034207466  0.034795916            4 
  516000    1.0387013   -6.3584862    211.76327  0.034199495  0.034777657            3 
  517000      1.02296   -6.3299054    212.31624  0.034222475  0.034759139            7 
  518000    1.0576836   -6.3118314    211.68238  0.034054437  0.034741221           12 
  519000    1.0452877   -6.3618562    212.00598   0.03404078  0.034723149           11 
  520000    1.0412684   -6.3542003    213.37295  0.034194384  0.034705185            7 
  521000      1.03462    -6.356145    212.68221  0.034018268  0.034687164            4 
  522000    1.0249988   -6.3363977    212.95705  0.033996975  0.034669099            6 
  523000    1.0429415   -6.3662261    213.51144  0.034020306  0.034650652            5 
  524000    1.0574288   -6.3473802    213.46709  0.033948328  0.034631683            3 
  525000    1.0397346   -6.3232582     214.5018  0.034047904  0.034613074            8 
  526000    1.0481629   -6.3341864     214.4839  0.033980338  0.034593973            4 
  527000    1.0333132    -6.316989    214.03091   0.03384423  0.034574599            6 
  528000    1.0321848   -6.3376331    214.72503  0.033889683  0.034555526            3 
  529000    1.0543545   -6.3441677    215.27874  0.033912844  0.034536222            4 
  530000    1.0433479   -6.3412627    214.62878  0.033746663  0.034517156           10 
  531000    1.0405033   -6.3450366    215.77433  0.033862889  0.034497468            6 
  532000    1.0205777   -6.3182809    215.49208  0.033755025  0.034476755            4 
  533000     1.032479   -6.3655709    215.29811  0.033661368  0.034455476            5 
  534000    1.0468429   -6.3514839    214.70773    0.0335062  0.034434405            7 
  535000    1.0310148   -6.3592742    215.85721  0.033622618  0.034412853            9 
  536000    1.0328795   -6.3095074    216.53306  0.033664965  0.034391298            6 
  537000    1.0510845    -6.373236    215.33459  0.033416292  0.034369597            5 
  538000     1.057606   -6.3574899    216.70905  0.033567077  0.034348022            5 
  539000    1.0489959    -6.371034    216.67549  0.033499612  0.034326468            4 
  540000    1.0341423    -6.345693    217.29401  0.033533026  0.034304998            4 
  541000    1.0134515   -6.3482056    217.41012  0.033488928  0.034283877            4 
  542000    1.0236688   -6.3284839    217.72069  0.033474891  0.034262472            3 
  543000    1.0456722   -6.3365235    217.65522  0.033403194  0.034240485            6 
  544000    1.0383479   -6.3673725    217.58976  0.033331764  0.034218614            5 
  545000    1.0283564   -6.3451884    218.43916  0.033400484  0.034197225            4 
  546000     1.034284    -6.342804    219.41845  0.033488775  0.034176337            4 
  547000    1.0090074   -6.3852184    219.09267  0.033377921  0.034155345            5 
  548000    1.0442636   -6.3573786    218.89719  0.033287285  0.034133728            5 
  549000    1.0284657   -6.3858981    219.21761   0.03327529  0.034111948            6 
  550000    1.0341622   -6.3704723    219.01186  0.033183615  0.034089763           12 
  551000    1.0303424   -6.3345702    219.78475  0.033240282  0.034067685            7 
  552000    1.0607209   -6.3410494    220.16984  0.033238201  0.034045249            5 
  553000    1.0076662   -6.3645498    219.21278  0.033033873  0.034022687            6 
  554000    1.0458896   -6.3713617    220.41664  0.033155332   0.03400019            2 
  555000    1.0307377   -6.3611605    220.56478  0.033117835  0.033977608            6 
  556000    1.0414279    -6.382231    219.65283  0.032921587  0.033954816            5 
  557000    1.0199287   -6.3512388    220.40924  0.032975649  0.033932317            4 
  558000     1.015851   -6.3922965    221.62341  0.033097881  0.033909738            5 
  559000    1.0397555   -6.3707885    221.19217  0.032974384  0.033886992            7 
  560000    1.0389517    -6.374009    221.37602  0.032942861  0.033863525            8 
  561000    1.0255254   -6.3705374    221.24834  0.032865172  0.033840394            6 
  562000    1.0126258   -6.3810337    221.20419  0.032800147  0.033816934            4 
  563000    1.0393247   -6.3837702    222.19196  0.032888094  0.033793152            8 
  564000    1.0484849    -6.375279    221.37881  0.032709636  0.033769073            3 
  565000     1.034836   -6.3345598    222.83708  0.032866826   0.03374518            6 
  566000    1.0359637   -6.3457927    222.05256  0.032693251  0.033720914            5 
  567000    1.0295089   -6.3776722    221.96829  0.032623206   0.03369678            7 
  568000    1.0476834   -6.3802846    222.77486  0.032684105  0.033672566            6 
  569000    1.0128315   -6.3643446    223.04093  0.032665632  0.033648499            3 
  570000     1.021334   -6.3685548    223.33811  0.032651771   0.03362417            4 
  571000    1.0090729   -6.3963219    223.37005  0.032599248  0.033600562            2 
  572000    1.0276273   -6.4028519     223.2024  0.032517833  0.033576603            4 
  573000    1.0217588   -6.3770581    224.12773  0.032595655  0.033552743            4 
  574000     1.016987   -6.3674359    224.52554  0.032596623  0.033529481            6 
  575000    1.0224681   -6.3545577    224.78797  0.032577966  0.033506191            6 
  576000    1.0232387    -6.382315    224.97598  0.032548608  0.033482218            5 
  577000    1.0216974   -6.3912288    225.65275  0.032589941  0.033458375            7 
  578000    1.0453204   -6.3992471    225.56043  0.032520246  0.033434742            6 
  579000    1.0290748   -6.3755136    225.71169   0.03248585  0.033410898            5 
  580000    1.0220973   -6.3479521    226.49635  0.032542579  0.033387675            3 
  581000    1.0239223   -6.3882936    226.42396  0.032476185  0.033364171            7 
  582000   0.99987612   -6.3699371    226.98481  0.032500688   0.03334087            5 
  583000     1.017706   -6.3842663    226.80042  0.032418585  0.033317833            2 
  584000    1.0172191   -6.3969297    226.96993  0.032387262   0.03329467            5 
  585000    1.0234956    -6.360659    228.12961  0.032497095  0.033271756           11 
  586000    1.0046653    -6.387754    227.20554  0.032310231  0.033248962            7 
  587000     1.035066   -6.3469924    228.74184  0.032473287  0.033226382            4 
  588000    1.0042305   -6.3431598    229.35048  0.032504319  0.033204039            3 
  589000    1.0036609   -6.3836875    228.53201  0.032333334  0.033181459            9 
  590000    1.0355192   -6.3455499    229.42691  0.032404931  0.033159163            3 
  591000    1.0089339   -6.3767497    229.17817  0.032315027  0.033137029            3 
  592000    1.0214946   -6.4085841    229.39083  0.032290375  0.033114732            4 
  593000   0.99879201   -6.3828055    230.09176  0.032334424  0.033092365            9 
  594000   0.96986824   -6.3781045    230.94928  0.032400292  0.033070458            3 
  595000    1.0194594   -6.3893058    231.15612  0.032374807  0.033049227            4 
  596000    1.0108305   -6.3885828    231.22685  0.032330377  0.033027914            6 
  597000    1.0110262   -6.4314356    231.52631  0.032318022   0.03300657           10 
  598000    1.0203514   -6.4197142    231.21157  0.032220118  0.032985102            7 
  599000    1.0081669   -6.3890824    232.01322  0.032277854  0.032963271            5 
  600000    1.0038873   -6.4029417    232.20367   0.03225051  0.032941742            3 
  601000   0.99942665   -6.3976667    232.37343  0.032220386  0.032919898            4 
  602000    1.0076398   -6.4300304    232.28926  0.032155213  0.032898182            6 
  603000    1.0351643    -6.379812    233.31544  0.032243703  0.032876961            6 
  604000     1.001125   -6.4015496    233.65312   0.03223691  0.032855938           12 
  605000    1.0152789   -6.3919282     233.7638   0.03219887  0.032834822           17 
  606000    1.0067261   -6.4152832    234.09972   0.03219193  0.032814055            8 
  607000    1.0158503    -6.446548    234.07238  0.032135143  0.032793536            8 
  608000    1.0117935   -6.3961244    234.96784  0.032205022  0.032773229            6 
  609000    1.0038103   -6.3936134    235.67662  0.032249127  0.032752762            4 
  610000    1.0103556   -6.4212111    235.25944  0.032139268   0.03273227            6 
  611000    1.0214818   -6.3632705    236.50288  0.032256258  0.032711809            9 
  612000    1.0287094   -6.4204004    236.07667  0.032145516  0.032691509            5 
  613000    1.0174403   -6.4142656    236.79107  0.032190194  0.032671573            3 
  614000     1.033972   -6.4180675    236.85808  0.032146862  0.032651503            3 
  615000     1.008992   -6.3913305    236.68316  0.032070889  0.032631259            5 
  616000    1.0078603   -6.3850892    236.45003  0.031987288  0.032610908            3 
  617000    1.0039839   -6.4181676     237.5516  0.032084225  0.032590606            8 
  618000   0.99349874   -6.4138506    237.36654  0.032007354  0.032570349            7 
  619000   0.98462453   -6.4111932    238.15814  0.032062216  0.032550209           10 
  620000    1.0191749   -6.3991531    239.11633  0.032139291  0.032530741            9 
  621000    1.0064117   -6.4136474    237.95635  0.031931877  0.032511236            9 
  622000    1.0387611   -6.4538117    238.60708  0.031967722  0.032491839            7 
  623000   0.99823034    -6.421856    238.37709  0.031885646   0.03247184            7 
  624000   0.99022362   -6.4247544    238.60997  0.031865648  0.032452089            3 
  625000    1.0137381   -6.3894159    240.13502  0.032018002  0.032432279            4 
  626000    1.0206346   -6.4256104    240.16239  0.031970499  0.032412016            6 
  627000    1.0089968   -6.3946283     240.1792  0.031921744  0.032391949            5 
  628000    1.0108656   -6.4438232     239.7812    0.0318181  0.032371615            3 
  629000   0.99687357   -6.4089485    240.37168  0.031845744  0.032351101            4 
  630000   0.98158115    -6.402369    240.78468  0.031849825  0.032330745            5 
  631000   0.98521958   -6.3991883    240.36531  0.031743966  0.032310826           11 
  632000   0.99004889   -6.4534861    240.36861  0.031694174  0.032290393            6 
  633000    1.0314399   -6.4297105    241.04592   0.03173327  0.032269875            5 
  634000    1.0053719   -6.4017763    241.00899  0.031678364  0.032249001            4 
  635000    1.0126378   -6.4119541    241.62692   0.03170957  0.032228419           17 
  636000    0.9865281   -6.4422449    240.95702  0.031571937  0.032207555            7 
  637000    1.0011159   -6.4092773    241.82203  0.031635535  0.032186716            5 
  638000   0.97503977   -6.4169418    241.95869    0.0316038  0.032166069            8 
  639000   0.97409415   -6.4450365    242.01852  0.031562144  0.032145651            9 
  640000   0.99421133   -6.4512428    242.90807  0.031628655  0.032125325            3 
  641000    1.0098582   -6.4201019    243.23571  0.031621907  0.032105314            7 
  642000    1.0018502   -6.4235494    243.88817  0.031657342  0.032085835            4 
  643000    1.0221013   -6.4035175    244.04729  0.031628731  0.032066514            5 
  644000    1.0085251   -6.4203233    244.33953  0.031617434  0.032047151            5 
  645000   0.98730794   -6.3931657    244.93598  0.031645475  0.032028236            5 
  646000    0.9713046     -6.43574    245.07718  0.031614703  0.032009358            6 
  647000    1.0001985   -6.4404723    244.40343  0.031479062  0.031990143            5 
  648000    1.0003108   -6.4397921    245.14598  0.031525975  0.031971038            4 
  649000    1.0075883   -6.4415135    245.95228  0.031580929  0.031951659            4 
  650000    1.0060716   -6.4417772    245.08285  0.031420878  0.031932131            5 
  651000    0.9761765   -6.4462819    245.90805  0.031478245  0.031912543            4 
  652000   0.99343737    -6.461694    245.88628  0.031427183  0.031893202            3 
  653000   0.99220839   -6.4047466    246.10408  0.031406851  0.031873825            6 
  654000    1.0001323   -6.4114948    246.38939  0.031395182  0.031854347            4 
  655000   0.99230643   -6.4017648    247.40632  0.031476631  0.031834811            5 
  656000   0.96738947   -6.4060512    246.97314  0.031373621  0.031814834            7 
  657000   0.99841519   -6.4166228    246.60808  0.031279564  0.031795453            6 
  658000   0.97771193   -6.4268847    246.79363  0.031255526  0.031775668            7 
  659000    0.9907255    -6.462459    246.97421  0.031230932  0.031755619            8 
  660000   0.98115718   -6.4532556    247.90271  0.031300847   0.03173541            8 
  661000   0.99831673   -6.4713592    247.47727  0.031199858  0.031715535            7 
  662000   0.98441714   -6.4394206    248.09878  0.031230964   0.03169557           10 
  663000   0.99397416   -6.4360728    247.88976  0.031157587  0.031675374            8 
  664000   0.98537776   -6.4138498    248.45956  0.031182173  0.031655185           12 
  665000    1.0143981   -6.4209898    248.01054  0.031079016  0.031634584            9 
  666000     1.002914   -6.4346998    248.43142  0.031085012  0.031614018            4 
  667000   0.97505492   -6.4203939    248.72106  0.031074595  0.031593643            4 
  668000   0.98062038   -6.4512936    249.29013  0.031099068  0.031573367            5 
  669000   0.99279437   -6.4393715    249.78558  0.031114297  0.031553572            8 
  670000    1.0148284   -6.4307057    250.39422   0.03114356  0.031533774            9 
  671000   0.97041652   -6.4690309    250.05851  0.031055454  0.031514296            9 
  672000   0.98036174   -6.4608585    250.62146  0.031079051  0.031494811           13 
  673000    0.9846999   -6.4354253    250.72154  0.031045263  0.031475338            3 
  674000   0.97343714   -6.4259892     250.9428  0.031026558  0.031455783            2 
  675000   0.98998905   -6.4453575    251.50998  0.031050615  0.031436153            4 
  676000   0.98034091   -6.4821055    250.78608  0.030915443  0.031416197           15 
  677000    1.0038811   -6.4604341    251.47186  0.030954193   0.03139641            7 
  678000   0.96901588   -6.4522509    251.68724   0.03093501  0.031376286            8 
  679000    1.0046928   -6.4162666    251.94555  0.030921153  0.031356053            9 
  680000   0.97232399   -6.4523974    251.44807  0.030814715  0.031336132            5 
  681000    0.9935435   -6.4645667    252.21607  0.030863445  0.031315858            7 
  682000    1.0004567   -6.4449138    252.80638   0.03089032   0.03129575            9 
  683000   0.97743206   -6.4546717    252.68837  0.030830694  0.031275811            7 
  684000   0.98295824   -6.4383526    252.51313  0.030764271  0.031255999            6 
  685000   0.98742784   -6.4623486    252.93059  0.030770144   0.03123613            4 
  686000   0.97577889   -6.4840489    253.22926  0.030761571  0.031216208           12 
  687000   0.97638013   -6.4703743     253.5494  0.030755629  0.031196333            8 
  688000   0.95603317   -6.4359383    253.86451  0.030749092  0.031176481            6 
  689000   0.98299362   -6.4333387    253.53021  0.030664031  0.031156728            4 
  690000   0.97610946   -6.4609339    254.43945  0.030729402  0.031136958            6 
  691000   0.94927997    -6.439404    254.48736  0.030690709  0.031117276            3 
  692000   0.99707094   -6.4896161    254.73077  0.030675671  0.031097488            6 
  693000   0.96799025   -6.4527196    254.53159  0.030607455   0.03107759            8 
  694000   0.98427439   -6.4220084    255.13607  0.030635936  0.031057914            9 
  695000    1.0049736   -6.4426321    255.76758  0.030667576  0.031038261            5 
  696000   0.96967204    -6.434831    256.27368  0.030684109  0.031018678           10 
  697000   0.99662922   -6.4712309    255.70849  0.030572512  0.030999266            5 
  698000   0.97065729    -6.466147    255.74865  0.030533506  0.030979882            7 
  699000   0.95582862    -6.449522    256.76772  0.030611317  0.030960076            8 
  700000   0.96151383   -6.4328822    257.54578  0.030660212  0.030940918            4 
  701000    0.9745941   -6.5029505    256.68576  0.030514236  0.030921866            5 
  702000   0.97693525   -6.4713997    257.97844  0.030624222  0.030902866            7 
  703000   0.98076266   -6.4981824    257.47177  0.030520598  0.030883485            4 
  704000     0.971256   -6.4440732    257.66377  0.030499973  0.030864293            5 
  705000   0.97372014   -6.4711045    258.63089  0.030571027   0.03084543            6 
  706000   0.98364738   -6.4788159    258.08865  0.030463722  0.030826369            7 
  707000   0.98029983   -6.4577367    258.53956  0.030473781  0.030807627            7 
  708000   0.97257456    -6.467702    259.20287  0.030508812  0.030789003           10 
  709000   0.96667868   -6.4976063    259.74654  0.030529683  0.030770719            3 
  710000    0.9558235   -6.5057105    259.43095  0.030449642  0.030752257            4 
  711000   0.98558392   -6.4976419    260.06984  0.030481697  0.030733574           10 
  712000   0.95843387   -6.4944657    259.98866  0.030429384    0.0307149            5 
  713000   0.96328733   -6.4884928    260.91077   0.03049448  0.030695955            7 
  714000   0.96619649   -6.4880649    260.53189   0.03040755  0.030677364           12 
  715000   0.95184137   -6.4666029    260.61145  0.030374295  0.030658553            5 
  716000   0.98098642   -6.4613707    261.01691  0.030379063  0.030639904            3 
  717000   0.95097736   -6.4977381    261.58527   0.03040275  0.030621157            5 
  718000   0.96968013   -6.4653811    261.82259  0.030387951  0.030602531            7 
  719000   0.97832155   -6.4739462    262.53137  0.030427836  0.030584284            8 
  720000   0.98448491   -6.4906776    262.58951  0.030392304  0.030566063            3 
  721000   0.97410512   -6.4866424    262.89736  0.030385733  0.030547824            2 
  722000    0.9696248   -6.5208279    262.43455  0.030290229  0.030529544            3 
  723000   0.95690384   -6.4442867    262.68485  0.030277184  0.030511404            3 
  724000   0.98003996   -6.4958922    263.60267  0.030341007  0.030493154           12 
  725000   0.96554099   -6.4991187    263.63014  0.030302315  0.030474983            9 
  726000   0.96998926    -6.483397    263.77407  0.030277097  0.030457098            4 
  727000   0.96593597   -6.4645177    264.01352  0.030262898  0.030439196           19 
  728000    0.9646183   -6.4865141    263.45796  0.030157734  0.030421452            4 
  729000   0.94872905   -6.4972087     263.7559  0.030150422  0.030403537            9 
  730000   0.95026229   -6.5117204    264.32434  0.030174012  0.030385576            6 
  731000   0.94299714   -6.4829103    265.49386  0.030266058  0.030367945            6 
  732000   0.95181772   -6.4980905    264.91636  0.030158967  0.030350359            4 
  733000   0.94463994   -6.5078059    265.00726  0.030128156  0.030332477           10 
  734000   0.97096672   -6.5269906    265.26104  0.030115922  0.030314593            7 
  735000   0.96191911   -6.5009623    265.68393  0.030122894  0.030296278            8 
  736000   0.96073719   -6.4947388    266.42881  0.030166305  0.030278002            4 
  737000   0.96833838   -6.4922534    265.80038  0.030054317  0.030259685            6 
  738000   0.96881668   -6.5008265    266.20463   0.03005924  0.030241596            8 
  739000   0.96588007   -6.4744749    266.61661  0.030065021  0.030223629            5 
  740000   0.96551915   -6.5008932    266.54608  0.030016451  0.030205617            9 
  741000   0.95245362   -6.5113992    267.40547   0.03007259  0.030187715            2 
  742000   0.97643517   -6.5185982    266.77631  0.029961401  0.030169771            7 
  743000   0.96838068   -6.4856074    267.31302  0.029981271  0.030151912            9 
  744000   0.96764279     -6.51097    266.56642   0.02985735   0.03013373            9 
  745000   0.97277381   -6.5008137    267.89614  0.029966011  0.030115649            5 
  746000   0.95568716   -6.4876201    268.47844   0.02999089  0.030097591            6 
  747000   0.95389124     -6.47011    268.34336  0.029935671  0.030080033            6 
  748000   0.95243453   -6.5138751    268.75756  0.029941796  0.030062444            4 
  749000   0.95300272   -6.5175619    269.60378   0.02999597  0.030045117            6 
  750000   0.95261759   -6.5390854    269.53939  0.029948821  0.030027892           11 
  751000   0.94582819   -6.4914304    270.60136  0.030026782  0.030010999            5 
  752000   0.95373854   -6.5191792    270.25295  0.029948243  0.029994141            3 
  753000   0.93160701   -6.4942151     270.8215  0.029971392  0.029977342            5 
  754000   0.97605399   -6.5154077    270.32113  0.029876341   0.02996059           10 
  755000   0.95978716    -6.514802    270.79861  0.029889471  0.029944058           10 
  756000   0.93379752   -6.5078261    271.44712  0.029921419  0.029927103           26 
  757000    0.9401258   -6.5082136    271.87912   0.02992945  0.029910152            9 
  758000   0.94882861   -6.5100789    271.15444  0.029810295  0.029893251            5 
  759000   0.95908271   -6.5551652    271.63568  0.029823856  0.029876464           10 
  760000   0.94356377   -6.5572778    270.61031  0.029672183   0.02985938            9 
  761000   0.94123286   -6.5309997    271.80337  0.029763838  0.029841995           11 
  762000   0.96076234   -6.5125031    272.58837  0.029810627  0.029825145            4 
  763000   0.96047356   -6.5167571    272.49035  0.029760851  0.029808155           13 
  764000   0.93190411   -6.5008785    272.74254  0.029749404  0.029791363            4 
  765000   0.95637028   -6.4938595    273.24317  0.029765051  0.029774638            9 
  766000   0.94132272   -6.5093034    273.42763   0.02974626  0.029757939            6 
  767000   0.93678262   -6.4764917    273.76406  0.029744031  0.029741161            9 
  768000   0.92257444   -6.5391911    273.50709  0.029677419  0.029724321            8 
  769000   0.94314397    -6.493622      274.589  0.029756069  0.029707315            5 
  770000   0.95851735   -6.5502399    274.45033  0.029702417  0.029690369           13 
  771000   0.93483428   -6.5458341    273.67768  0.029580381  0.029673377            5 
  772000   0.95873834   -6.5208492    274.58436  0.029639935  0.029656407            7 
  773000   0.95032887   -6.5086104    275.00409   0.02964684  0.029639394            4 
  774000   0.94154951   -6.5115277    275.61489  0.029674299  0.029622523            3 
  775000   0.94774416   -6.5270787    275.29286  0.029601383  0.029605822            5 
  776000   0.97000037   -6.5131724    275.06004  0.029538234  0.029588834           12 
  777000   0.94704499   -6.5085138     275.0872  0.029503132  0.029571829            7 
  778000   0.93473083   -6.5858868    274.53805  0.029406389  0.029554485            3 
  779000   0.93211573    -6.550007    275.54257  0.029476099  0.029537132           13 
  780000   0.94268016   -6.5050328    275.25284  0.029407355  0.029519829            8 
  781000   0.91879527   -6.5338274    275.79482   0.02942753   0.02950259            5 
  782000   0.91572695   -6.5187266    275.59988  0.029369127   0.02948512            5 
  783000   0.95634031   -6.5043313    276.65853  0.029444288  0.029468062            9 
  784000   0.95135839   -6.4827679    276.36019   0.02937502  0.029450948            6 
  785000   0.94733415   -6.5341038    277.08927  0.029414997  0.029433905            7 
  786000   0.93021701    -6.543594    276.82369  0.029349415  0.029416852            7 
  787000   0.95766323    -6.525185    277.45066  0.029378511  0.029399796            5 
  788000   0.93088981   -6.5235822    277.05418    0.0292993  0.029382918            4 
  789000   0.95383375   -6.5322614    277.11985  0.029269101  0.029365901            3 
  790000   0.94003147   -6.5341164    277.04105  0.029223739   0.02934848           15 
  791000   0.92761307   -6.5281258     277.7662   0.02926319  0.029331295            8 
  792000   0.94982281   -6.5496406    277.39957  0.029187665  0.029314134           11 
  793000   0.93603459   -6.5315068    279.22546  0.029342734  0.029296859            7 
  794000   0.93651611   -6.5607534    277.76058  0.029152034  0.029279651            9 
  795000   0.94681852   -6.5712947    278.07781  0.029148617  0.029262599           13 
  796000   0.94413954   -6.5456733    278.11097   0.02911547  0.029245304           11 
  797000   0.93832085   -6.5350995    279.13213   0.02918571  0.029228164           24 
  798000   0.94446875   -6.5158981    279.07114  0.029142768  0.029211213            7 
  799000   0.94183152   -6.5393129     280.0031  0.029203494  0.029194343            8 
  800000   0.94254869   -6.5334454    279.54741  0.029119522  0.029177607            6 
  801000   0.95514485   -6.5709129    280.23262  0.029154455  0.029160823            5 
  802000   0.93203888   -6.4829844    280.88942  0.029186349  0.029144254            4 
  803000   0.93523188   -6.5577487    281.21527  0.029183818  0.029127914           11 
  804000   0.93548495   -6.5723181     280.7501  0.029099306  0.029111192           19 
  805000   0.91530174   -6.5807213    280.96115  0.029085005  0.029094473            7 
  806000   0.95100555   -6.5164016    281.49054  0.029103654  0.029077941            7 
  807000    0.9395374   -6.5542222    282.43755  0.029165381   0.02906145            7 
  808000   0.95754658   -6.5199008    282.56564  0.029142495  0.029045127            7 
  809000   0.95034244   -6.5438286    283.07122  0.029158552  0.029028887           13 
  810000   0.92925804   -6.5229783    282.52194  0.029066043  0.029012554           13 
  811000   0.90124145   -6.5422846     282.5346  0.029031504  0.028996297            5 
  812000   0.91773402    -6.555809    283.12371   0.02905621   0.02897994           11 
  813000   0.94226411   -6.5727132    283.12294  0.029020392  0.028963684            7 
  814000   0.91173509   -6.5488559    283.29216  0.029002064  0.028947354            5 
  815000   0.93594782   -6.5725427    283.17534  0.028954534  0.028931198           12 
  816000   0.92133197   -6.5338261    283.80143  0.028982989  0.028914877           10 
  817000   0.91411733   -6.5367687    284.07666  0.028975588  0.028898708            6 
  818000   0.90751401   -6.5321083    284.30347  0.028963271   0.02888265            4 
  819000   0.90410018   -6.5624869    285.60856    0.0290607  0.028866598            8 
  820000   0.91802932    -6.537223    284.70383  0.028933316  0.028850658            7 
  821000   0.93486464   -6.5487178    284.76345  0.028904126  0.028834541            5 
  822000   0.91206018   -6.5631979    285.31919  0.028925303  0.028818368            3 
  823000    0.9215641   -6.5694417    285.25369  0.028883525  0.028802221            5 
  824000   0.93166965   -6.5733747    284.60762  0.028783133  0.028785916           13 
  825000   0.90203173   -6.5884918    285.39891  0.028828172  0.028769628            4 
  826000   0.91150688   -6.5537402     285.5948  0.028813035  0.028753381            6 
  827000   0.92590026   -6.5834952    286.67709  0.028887252  0.028737071            7 
  828000   0.93290766   -6.5782567    285.95952  0.028780145  0.028720532            3 
  829000   0.94542053   -6.5888453    285.99233  0.028748726  0.028704034            6 
  830000   0.94886227   -6.5851014    285.79128  0.028693904  0.028687623            7 
  831000   0.91380375   -6.5682755    286.71471  0.028751976  0.028671273            9 
  832000   0.93454096   -6.5788713    286.45062  0.028690967  0.028655093            5 
  833000   0.94030047     -6.56664    286.29808  0.028641265  0.028638645            4 
  834000   0.93622438   -6.5569914    287.61158  0.028738167  0.028622292            9 
  835000   0.92465285   -6.5470774    287.22511   0.02866518  0.028606205            5 
  836000    0.8950196    -6.575719    288.04343  0.028712463  0.028590248            5 
  837000   0.89183821   -6.5897038    287.89582  0.028663463  0.028574393            7 
  838000   0.91762517   -6.5286478    289.22427  0.028761363   0.02855874            4 
  839000   0.92387934    -6.609852     288.4914  0.028654291   0.02854317            4 
  840000   0.91259204   -6.5571267    288.86589   0.02865733  0.028527254            6 
  841000   0.91500653   -6.5512862    288.97522  0.028634089  0.028511501            6 
  842000   0.91844565   -6.5856024    288.58147  0.028561111  0.028495558            8 
  843000   0.91855107    -6.576933    288.78993  0.028547839  0.028479761            7 
  844000   0.94267872   -6.5842006    288.71658  0.028506771  0.028463447           11 
  845000    0.9220708   -6.6078898    288.40341  0.028442151  0.028447226           11 
  846000    0.9521586   -6.5829999    289.13956  0.028481044  0.028430997            5 
  847000   0.91254017   -6.5799423    289.41204  0.028474226  0.028414761            8 
  848000   0.92761219   -6.5922474    289.92025  0.028490591  0.028398472           16 
  849000   0.90698317   -6.5796143    289.55598  0.028421278  0.028381958           10 
  850000   0.91386265   -6.5738951    289.62545  0.028394652  0.028365468            7 
  851000   0.91178848   -6.5904961    289.63182  0.028361909  0.028348685           18 
  852000   0.91342117   -6.5743728    289.49543   0.02831528  0.028332029            6 
  853000   0.92943686   -6.5621382    290.07937  0.028339133  0.028315402            7 
  854000   0.91354154   -6.5714628    290.29037  0.028326539  0.028298946           10 
  855000   0.90609825   -6.6127451    290.29657  0.028294012  0.028282171            8 
  856000   0.88946028   -6.5824713    290.01248  0.028233302  0.028265425            9 
  857000   0.93067803   -6.5888322     291.1084  0.028306923  0.028248991            6 
  858000   0.92741263   -6.5840617    290.70988  0.028235225   0.02823238            4 
  859000   0.90679582   -6.5747745    290.85597  0.028216528  0.028215653            9 
  860000   0.90110252   -6.5965265    290.91484  0.028189423  0.028198836           12 
  861000    0.9069435     -6.58147    292.09657  0.028271058   0.02818207           11 
  862000   0.90538273   -6.5872421    291.54231  0.028184678  0.028165337            9 
  863000   0.90860578   -6.6164639    292.22182  0.028217634  0.028148806            4 
  864000    0.9010119   -6.5764638    291.54737  0.028119924   0.02813219           10 
  865000   0.89012428   -6.6077914    291.81781  0.028113469  0.028115433           16 
  866000   0.91755898   -6.5986354    292.37829  0.028134939  0.028098616            5 
  867000   0.90052393   -6.6061684    291.72536  0.028039731  0.028081857            8 
  868000   0.92686042   -6.6032312    292.64707  0.028095917  0.028065236           14 
  869000   0.90858008   -6.6085613     293.1124  0.028108209  0.028048611           13 
  870000   0.89611037   -6.6306898    292.23959  0.027992298   0.02803179            6 
  871000   0.88286179   -6.6147484    292.46968  0.027982174  0.028014943            5 
  872000   0.89675425   -6.6203524    293.28648  0.028028143  0.027998288           12 
  873000   0.89385611   -6.5944558    293.22712   0.02799037  0.027981779            7 
  874000   0.92530395   -6.5932372     294.3085  0.028061452  0.027965437            3 
  875000    0.9058222   -6.5938305    294.02368  0.028002255  0.027949037            5 
  876000   0.89864445   -6.5990557    294.25611    0.0279924   0.02793268            5 
  877000   0.90314562    -6.611894    295.07307   0.02803811  0.027916569            3 
  878000   0.89673858    -6.626099    294.55945  0.027957427  0.027900315           10 
  879000   0.89099969   -6.6143968    294.81686  0.027950025  0.027883954           10 
  880000   0.90265795   -6.5811886    294.66069  0.027903475  0.027867614           16 
  881000   0.92645141   -6.5735191    295.22954  0.027925609  0.027851405            4 
  882000   0.88496485   -6.5819578    294.97887  0.027870264   0.02783509            9 
  883000   0.88590978    -6.645281    295.03021  0.027843545  0.027818538           10 
  884000   0.91659677   -6.6055136    294.92752  0.027802368  0.027801841            7 
  885000   0.88524207   -6.6055044    294.91536  0.027769808  0.027785186            8 
  886000   0.90909548   -6.6287298    295.75685  0.027817612  0.027768729            6 
  887000   0.90318108   -6.6257093    295.94589   0.02780401  0.027752201           23 
  888000   0.90339774   -6.6217948     296.6998   0.02784345  0.027735978           21 
  889000   0.88477745   -6.6423996    297.06867  0.027846707  0.027719634            8 
  890000   0.87479292    -6.616424    296.60959  0.027772433  0.027703253            8 
  891000    0.9183928   -6.6180931    297.01081  0.027778789  0.027686973            8 
  892000    0.9002421   -6.6073473    296.81834  0.027729665   0.02767064           10 
  893000    0.8842482   -6.6098915    297.91191  0.027800663  0.027654426           12 
  894000   0.89403964   -6.6344737    297.18257  0.027701582  0.027638212           12 
  895000   0.90013717   -6.6206704    297.55206  0.027705034  0.027621836           11 
  896000   0.90742461   -6.6213498    297.44205  0.027663881  0.027605437           15 
  897000   0.91473566    -6.614716    297.51902  0.027640192  0.027588978            6 
  898000   0.89007737   -6.6540392    297.84435  0.027639602  0.027572548            6 
  899000   0.90633189   -6.6217355    297.64298  0.027590191  0.027556146            7 
  900000   0.88958421   -6.6183786     298.2107  0.027612102  0.027539729            8 
  901000   0.87891757   -6.6426811    298.48996  0.027607285  0.027523223           10 
  902000   0.89706039   -6.6206211     298.0799  0.027538793  0.027506644            5 
  903000    0.8933885   -6.6515309    298.49948  0.027547017  0.027490142            6 
  904000   0.89140602   -6.6219163    298.53378  0.027519707  0.027473453            4 
  905000   0.88554563   -6.6422315    298.42407  0.027479196  0.027456855            7 
  906000     0.885526   -6.6179385    298.91913  0.027494401  0.027440349           12 
  907000   0.89515233   -6.6122807     298.3757  0.027414159  0.027423861            7 
  908000   0.88107802   -6.6027871    299.40043  0.027478013  0.027407247            8 
  909000    0.9058874   -6.6569848    299.40114  0.027447849  0.027390867            7 
  910000   0.87896349   -6.6456777    299.60761  0.027436594   0.02737428            6 
  911000   0.88195352   -6.6103036    301.16946  0.027549347  0.027358133            6 
  912000   0.88812132   -6.5963229    300.44427  0.027452876  0.027342131           14 
  913000     0.899531   -6.6414642    299.70609   0.02735543  0.027326036            7 
  914000   0.88038172   -6.6295776     300.3934  0.027388166  0.027309983           11 
  915000   0.89523435   -6.6183997    300.86313  0.027401013  0.027293857            9 
  916000   0.88243609   -6.6153083     301.4714  0.027426437  0.027277689            5 
  917000   0.88950736   -6.6508359    301.33845  0.027384447  0.027261653            7 
  918000   0.88163173   -6.6502965    301.25615  0.027347145  0.027245402            8 
  919000   0.88106526   -6.6268235    301.41437  0.027331735  0.027229403            6 
  920000    0.8777929   -6.6504656    302.14999  0.027368659  0.027213441            6 
  921000    0.8852833   -6.6512489    301.83134  0.027310111  0.027197416            7 
  922000    0.9040058   -6.6555276    302.05345  0.027300565  0.027181323            8 
  923000   0.90509436   -6.6668521    301.84479  0.027252147  0.027165258            6 
  924000   0.88691559   -6.6496399    302.55005   0.02728626  0.027149077           13 
  925000   0.89958484   -6.6258381     302.6283  0.027263811  0.027132991           10 
  926000   0.89126316   -6.6294604    302.32158  0.027206766  0.027117076            6 
  927000   0.89479985   -6.6510579    302.90287  0.027229672  0.027101225            5 
  928000   0.87215677   -6.6185072    303.50197  0.027254128  0.027085432            9 
  929000    0.8741731   -6.6271301    303.07767   0.02718673  0.027069608            4 
  930000   0.87676611   -6.6466836    302.91292  0.027142735  0.027053657           15 
  931000   0.87928162   -6.6575886    303.76864  0.027190175  0.027037634           15 
  932000   0.88359596   -6.6410534    303.48158  0.027135334  0.027021743           11 
  933000   0.86721062   -6.6515863    303.78003  0.027132908  0.027005845           21 
  934000    0.8996526   -6.6644694    303.59739  0.027087562  0.026989844            6 
  935000    0.8548257   -6.6463589    304.59618   0.02714761  0.026973958            9 
  936000   0.86529687    -6.670249    304.45367  0.027105918  0.026958069            9 
  937000     0.871301   -6.6431976    304.56766  0.027087128  0.026942055            6 
  938000    0.8764067    -6.654174    304.09004  0.027015817  0.026925943           10 
  939000   0.87326782   -6.6578713    303.85364  0.026966067  0.026909563            7 
  940000   0.90214129   -6.6075949    304.36519   0.02698273  0.026893225            8 
  941000   0.87661459   -6.6607065    304.27567  0.026946128  0.026877047            8 
  942000   0.89936519   -6.6305802    304.92649  0.026975096  0.026860975            6 
  943000   0.88389777   -6.6412585     304.4974  0.026908572  0.026844897            7 
  944000   0.86143682   -6.6850766    304.67782  0.026895994  0.026828701           13 
  945000   0.89350696   -6.6211235    305.61489  0.026950167  0.026812578            6 
  946000   0.89511871   -6.6138915    305.52928  0.026914137  0.026796485           10 
  947000   0.87634893   -6.6687938    305.43989   0.02687785  0.026780461            7 
  948000   0.88181306   -6.6511332    305.04695  0.026814957  0.026764383            7 
  949000   0.89160903   -6.6390712    305.94515  0.026865573  0.026748389            9 
  950000   0.87956211   -6.6539813    306.42171  0.026879098  0.026732243            8 
  951000   0.87263453   -6.6613239    307.40909  0.026937355  0.026716152            8 
  952000   0.87101328   -6.6666057    305.95227  0.026781536  0.026700146           12 
  953000   0.87754987   -6.6834738    306.28549  0.026782571  0.026684156           13 
  954000   0.87472227   -6.6574165    306.05535  0.026734395  0.026668228            8 
  955000   0.89214308   -6.6639891       307.51  0.026833333  0.026652379           13 
  956000   0.87960786   -6.6836359    307.42848  0.026798159  0.026636449           20 
  957000   0.89353516   -6.6338098    307.53946   0.02677982   0.02662059           14 
  958000    0.8720287   -6.6889357    307.30581  0.026731542  0.026604765            7 
  959000   0.87983399   -6.6706003    306.94284  0.026672128  0.026588678           10 
  960000   0.85356016   -6.6955693    307.39418  0.026683522  0.026572503            4 
  961000   0.85695559   -6.6555502    307.86144  0.026696275  0.026556365            4 
  962000   0.87865934   -6.6584132    307.78971   0.02666231  0.026540327            8 
  963000   0.87184151   -6.6651544    307.78461  0.026634182  0.026524195            8 
  964000   0.86574522   -6.6829076    307.89416  0.026616023  0.026508176            9 
  965000   0.84980438   -6.6999287    307.97637  0.026595542  0.026492147            7 
  966000   0.86967616   -6.6742092    308.71607  0.026631821  0.026476217            7 
  967000   0.86612088    -6.661296    309.13162  0.026640091  0.026460335            9 
  968000   0.86995899   -6.6808836    308.52833  0.026560635  0.026444434           10 
  969000   0.85167796   -6.6977041    308.49972  0.026530764   0.02642854            9 
  970000    0.8680735    -6.662947    308.81239  0.026530274  0.026412699            4 
  971000   0.86985449   -6.6459172    310.41321  0.026640337  0.026396944            5 
  972000   0.87938571   -6.6941161    309.57331  0.026540922  0.026381222            9 
  973000    0.8728317   -6.6793912    309.07837  0.026471255  0.026365362           33 
  974000   0.86212098    -6.669624    309.58483  0.026487408  0.026349549           14 
  975000   0.86449775    -6.668756    309.99418  0.026495229  0.026333488           25 
  976000   0.86448618   -6.6811546    310.85528  0.026541605   0.02631748            4 
  977000   0.84443748   -6.6958771    309.62512  0.026409512  0.026301523            6 
  978000    0.8599922    -6.647633    310.49839  0.026456918  0.026285485           12 
  979000   0.86322467   -6.6911942    310.61927  0.026440183   0.02626945           15 
  980000   0.86528292   -6.6608358    309.95482  0.026356703  0.026253483           10 
  981000   0.86869743   -6.7025957    310.15375  0.026346734  0.026237297           18 
  982000   0.85393858   -6.6708179    310.75758  0.026371145  0.026221252            7 
  983000   0.86211677   -6.6997509    309.88555  0.026270393  0.026205328           18 
  984000   0.87550659   -6.6863746    310.87345  0.026327359  0.026189457            9 
  985000   0.85262661   -6.6354548    311.04615  0.026315242  0.026173652           11 
  986000   0.85281188   -6.7077113    311.64924  0.026339523  0.026157969            9 
  987000   0.85204145   -6.6922273    311.43131  0.026294437  0.026142155           18 
  988000   0.84508923   -6.6578741    312.23317  0.026335456  0.026126379           23 
  989000   0.85385265   -6.6630435     311.5664  0.026252646  0.026110669           17 
  990000   0.87381166    -6.695433    312.05294  0.026267082  0.026094745           12 
  991000   0.84674356   -6.6712121    311.91581  0.026229046  0.026078888           15 
  992000   0.87768676   -6.7463195    311.94835  0.026205339  0.026062982           16 
  993000   0.85061045   -6.6966849    312.49582  0.026224892  0.026046915           13 
  994000   0.84844798   -6.6837922    312.19263  0.026173091  0.026030898            6 
  995000   0.84159033   -6.7030537    313.18154   0.02622961  0.026015084           10 
  996000   0.86344071   -6.6995535    313.18377  0.026203462  0.025999151            9 
  997000   0.86034378   -6.6875722    313.61365   0.02621311  0.025983426            9 
  998000   0.84212225   -6.6911742     313.2433   0.02615592  0.025967699            7 
  999000   0.86112955   -6.7011226    313.29717  0.026134231   0.02595198           13 
 1000000   0.85062772   -6.7101031    313.79185  0.026149321   0.02593633            8 
 1001000   0.85368446    -6.699882    313.80235  0.026124072  0.025920812            8 
 1002000   0.84688017   -6.7111947    314.23794  0.026134227   0.02590532            7 
 1003000   0.84629927   -6.6940834    313.37815  0.026036735  0.025889703            7 
 1004000   0.85452537   -6.6681844    313.95254  0.026058478  0.025874075           15 
 1005000   0.85989458   -6.6930342      313.927  0.026030431  0.025858241           10 
 1006000   0.84317432   -6.7017723    314.04347  0.026014204  0.025842339           16 
 1007000   0.85400754   -6.7041492    313.81743  0.025969665  0.025826339           17 
 1008000    0.8688532   -6.7206927    313.87357  0.025948542  0.025810431           24 
 1009000   0.85657167   -6.7397803    313.17836  0.025865408  0.025794558           24 
 1010000   0.86178595   -6.7213762    314.88719  0.025980791  0.025778667            6 
 1011000    0.8490388   -6.7245818    314.19417   0.02589797  0.025762888            9 
 1012000   0.86094391   -6.7158052    314.40481  0.025889724  0.025747083           12 
 1013000   0.85442945   -6.6952428    315.23433  0.025932406  0.025731205            6 
 1014000   0.86329865   -6.7159933    315.60978  0.025937687   0.02571552            7 
 1015000   0.85682551   -6.7153521    315.60209  0.025911501  0.025699854           19 
 1016000   0.85289794    -6.689151    315.56877  0.025883265   0.02568422           13 
 1017000   0.86082658   -6.7196022    315.92326  0.025886862  0.025668693           11 
 1018000   0.86466796   -6.6859985    315.57423  0.025832861   0.02565313           22 
 1019000   0.84220377   -6.7089927    315.67164  0.025815476  0.025637519           10 
 1020000   0.84681169    -6.742315    316.55647  0.025862457  0.025621869           15 
 1021000   0.85896854   -6.6924176    315.47181  0.025748597  0.025606153            7 
 1022000   0.83672949   -6.7075897    316.40238  0.025799281  0.025590574            7 
 1023000   0.83719116    -6.744001    316.00093  0.025741359  0.025574808            9 
 1024000   0.83136504   -6.7318811     315.7249  0.025693758   0.02555885           25 
 1025000   0.83948555   -6.7292427    315.64767  0.025662412  0.025542977           19 
 1026000   0.85360947   -6.7309631    315.33388  0.025611913  0.025526982           14 
 1027000   0.85583326   -6.7065628    315.65678  0.025613176  0.025510943           12 
 1028000   0.84845746   -6.7202752    315.20957  0.025552008  0.025494941           17 
 1029000   0.83057443   -6.7620639    316.33725  0.025618501  0.025478946            5 
 1030000   0.83434616    -6.705171     317.2896   0.02567068  0.025462911           10 
 1031000   0.83124218   -6.7189987    316.28069  0.025564233  0.025446985           12 
 1032000   0.84231588   -6.7429124    316.71975  0.025574915  0.025431117           18 
 1033000   0.85814768   -6.7334687    317.09141   0.02558014  0.025415178            8 
 1034000   0.83196995   -6.7298459    317.49284  0.025587753  0.025399237            7 
 1035000   0.83775389   -6.7275484    317.15393  0.025535743  0.025383379           14 
 1036000   0.86541421   -6.7055563    317.24807  0.025518667  0.025367554           10 
 1037000    0.8297247   -6.6950054    316.76246  0.025455036   0.02535176           12 
 1038000   0.82824901   -6.7427261    317.51716  0.025491102  0.025335978           13 
 1039000   0.83736128   -6.7080731    317.69423  0.025480769  0.025320048           13 
 1040000   0.84664667   -6.7256704    317.20636  0.025417176  0.025304147           11 
 1041000   0.83766081   -6.7455215    317.41327  0.025409323  0.025288269           40 
 1042000   0.82204102   -6.7471023    317.33621  0.025378776  0.025272414           10 
 1043000   0.83029757   -6.7270758    318.48961  0.025446597  0.025256663           15 
 1044000   0.81667779    -6.769162    318.75331  0.025443272  0.025240876           13 
 1045000   0.84413578   -6.7572774    317.53686  0.025321919  0.025224975           10 
 1046000   0.84295445    -6.727061     318.1737  0.025348447  0.025209139            7 
 1047000   0.84781754   -6.7387755    319.01475  0.025391178  0.025193425           12 
 1048000   0.84596973   -6.7627212    319.21807  0.025383116  0.025177636           10 
 1049000   0.84007906      -6.7328    319.03155  0.025344101  0.025161857           15 
 1050000   0.82391801   -6.7639289    319.36698  0.025346586  0.025146121           23 
 1051000   0.83148039   -6.7260018     319.2834  0.025315842  0.025130529           15 
 1052000   0.84427063   -6.7258126    318.85445  0.025257799  0.025114889           11 
 1053000   0.84096772   -6.7353658    319.14452  0.025256768  0.025099346            7 
 1054000   0.82856609   -6.7503998    319.50901  0.025261623  0.025083663            9 
 1055000    0.8533596   -6.7500878    319.85546  0.025265044  0.025068093            7 
 1056000   0.83050091   -6.7290898    320.33498   0.02527896  0.025052493           17 
 1057000   0.82546828   -6.7606389    320.55752  0.025272589  0.025036949            9 
 1058000   0.85578179   -6.7359218    320.24734  0.025224271  0.025021404           11 
 1059000    0.8341547   -6.7477478    320.39012  0.025211687  0.025005859            7 
 1060000   0.82821396   -6.7463235    320.42296  0.025190485  0.024990054            9 
 1061000   0.82794692   -6.7363596     320.4801   0.02517123  0.024974399            9 
 1062000   0.81891444   -6.7536619    320.39298  0.025140692  0.024958655           15 
 1063000   0.82345154    -6.729167    320.90372   0.02515708  0.024942942            6 
 1064000   0.83471203   -6.7787469    320.30099  0.025086231  0.024927191            9 
 1065000   0.82325649   -6.7505097    320.46325  0.025075372  0.024911421           10 
 1066000   0.83472081   -6.7376371    320.64348  0.025065938  0.024895626           10 
 1067000   0.83464155   -6.7902982    320.39583  0.025023104  0.024879905           10 
 1068000     0.826049   -6.7533818    320.68388  0.025022151  0.024864207           12 
 1069000   0.83232086   -6.7507581    320.36634   0.02497399  0.024848446           16 
 1070000   0.84051342   -6.7626317     320.2774  0.024943722  0.024832579            9 
 1071000   0.83486653   -6.7461093    320.78139  0.024959648    0.0248167            8 
 1072000   0.83516623   -6.7871476    320.26072  0.024895889  0.024800805           15 
 1073000   0.82870391   -6.7650174    321.38391  0.024959919  0.024784864           15 
 1074000   0.80868543   -6.7590579    320.32246  0.024854319  0.024768863           16 
 1075000   0.82804651   -6.7935376    320.48373    0.0248437  0.024752769           28 
 1076000   0.83515087    -6.726578    320.75743  0.024841808  0.024736708           18 
 1077000   0.82346463   -6.7508432    321.13793  0.024848184  0.024720651           13 
 1078000    0.8239377    -6.742899    321.10367  0.024822485  0.024704583           15 
 1079000   0.79730012   -6.7441801    321.22748  0.024809043  0.024688583           10 
 1080000   0.82887129   -6.7443905    320.41595  0.024723453  0.024672473            8 
 1081000   0.81212035   -6.7783676    321.05789  0.024750068  0.024656323            6 
 1082000   0.80635406   -6.7547355     321.1519  0.024734435  0.024640193           10 
 1083000   0.81727174   -6.7648601    321.64379  0.024749445   0.02462403            4 
 1084000   0.80043247   -6.7635787    321.35206  0.024704187  0.024607905            4 
 1085000   0.81544723   -6.7697454    321.86607  0.024720896  0.024591771           12 
 1086000   0.82364546   -6.7476872    321.58468  0.024676541  0.024575706           12 
 1087000   0.81687363    -6.784055    321.15047  0.024620551   0.02455951            7 
 1088000   0.81735935   -6.7740758    321.11363    0.0245951  0.024543258           28 
 1089000   0.82815472   -6.7711366    322.26987  0.024660994  0.024527184            9 
 1090000   0.82867326   -6.7603727    321.20636  0.024557061  0.024511061           19 
 1091000   0.81853023   -6.7723404    321.44394    0.0245527  0.024494913            9 
 1092000   0.79761668    -6.747944    322.52514  0.024612725  0.024478807           19 
 1093000   0.81448319   -6.7202562    322.10049  0.024557829  0.024462783           14 
 1094000   0.81264708   -6.7684591     322.5766  0.024571648  0.024446744           12 
 1095000   0.79833297   -6.7826665    322.09138  0.024512281  0.024430609           23 
 1096000   0.81205491   -6.8001011    321.96102  0.024480005  0.024414365           13 
 1097000   0.81263769   -6.7554326    321.89799  0.024452901   0.02439815           10 
 1098000   0.81920983   -6.7743722    322.76017  0.024496067  0.024382111            7 
 1099000   0.82571093   -6.7674717    322.69679  0.024468971  0.024366052           10 
 1100000   0.81763831   -6.7855409      322.152  0.024405454  0.024350001           25 
 1101000   0.80380916   -6.7842027    322.33907  0.024397447  0.024333835           25 
 1102000   0.81605928   -6.7907153    323.47944  0.024461543  0.024317662           20 
 1103000   0.82061225   -6.7570015     323.4843  0.024439733  0.024301519           11 
 1104000   0.80401395   -6.8067999    322.16533  0.024318036  0.024285294           10 
 1105000   0.79707814   -6.7908219    322.78102   0.02434246  0.024269074           12 
 1106000   0.81810467   -6.8087901    323.60538  0.024382564  0.024252825           16 
 1107000   0.79926153   -6.7899867    322.78188  0.024298545   0.02423662            5 
 1108000   0.79864735   -6.7830547    323.41866  0.024324508  0.024220393           11 
 1109000   0.80223348   -6.8081933    323.50284    0.0243089  0.024204139            8 
 1110000   0.83141741    -6.799671    322.65129   0.02422307  0.024187931           15 
 1111000   0.82679617   -6.7934861    323.15168    0.0242388  0.024171575           19 
 1112000   0.81790999   -6.7760737    323.20127  0.024220719  0.024155239           11 
 1113000   0.82507682   -6.7685002    323.13848  0.024194256  0.024138886            7 
 1114000   0.81839957   -6.7940051    322.90738   0.02415525  0.024122456            9 
 1115000   0.79975363   -6.7884288    323.08166  0.024146611   0.02410614           21 
 1116000   0.78749271   -6.7788603    323.97984  0.024192043  0.024089765            9 
 1117000   0.79696338   -6.8214042    322.86032  0.024086863  0.024073387           21 
 1118000   0.80467332    -6.782845    323.94548  0.024146205  0.024057165           16 
 1119000    0.8173238   -6.7895933    323.99718  0.024128476  0.024040857           17 
 1120000   0.79817305   -6.8032196    324.02205  0.024108784  0.024024544           20 
 1121000   0.78192453   -6.8054258    323.84341  0.024073997  0.024008156           13 
 1122000   0.80569754    -6.803972    324.29224  0.024085876   0.02399177           10 
 1123000   0.80085976   -6.7764881    323.73599  0.024023152   0.02397555           19 
 1124000   0.81380364   -6.7675105    324.63519  0.024068445  0.023959369            7 
 1125000    0.8016909   -6.7961354    324.35129  0.024026021  0.023943202           17 
 1126000   0.79840133    -6.787527    324.81943  0.024039331  0.023927103            8 
 1127000   0.81158408   -6.8085916    325.22304  0.024047844  0.023910996           19 
 1128000   0.80689688   -6.8058224    325.07199  0.024015366  0.023894947            7 
 1129000   0.79110339   -6.7701611     324.8119  0.023974897  0.023878785           14 
 1130000   0.80478948     -6.82154    324.86763   0.02395779  0.023862522           14 
 1131000   0.79997901   -6.7976091    325.03259  0.023948762  0.023846313           10 
 1132000   0.79338184   -6.7872528    325.40892  0.023955309  0.023830251           12 
 1133000   0.78843824   -6.8132642    325.73597  0.023958221  0.023814304           10 
 1134000   0.79787672   -6.7688631    326.21556  0.023972337  0.023798311            8 
 1135000   0.79959566   -6.8250624     325.1061  0.023869758  0.023782336           15 
 1136000   0.80079498   -6.7889123    325.67836  0.023890725  0.023766242            6 
 1137000   0.78939724   -6.8173775    326.16805  0.023905603  0.023750131           16 
 1138000   0.78562347   -6.8156038     324.6673    0.0237747  0.023733973           23 
 1139000   0.80044528   -6.8135886    325.52138  0.023816314  0.023717785            8 
 1140000   0.79486299   -6.8074457    325.91905  0.023824492  0.023701745           12 
 1141000   0.80919927   -6.8046992    326.12786  0.023818862   0.02368579           11 
 1142000   0.80224996   -6.8323227    326.08898  0.023795168  0.023669854           14 
 1143000   0.79511205   -6.8185236    325.91781   0.02376187  0.023653914           13 
 1144000   0.79753188   -6.8193308    326.77175  0.023803303  0.023637952           15 
 1145000   0.79348387   -6.8051166    327.23629  0.023816324  0.023622096           19 
 1146000   0.78790869   -6.8412719     325.2911  0.023654094  0.023606127           17 
 1147000   0.79833614   -6.7929896     327.1906  0.023771476  0.023590201            9 
 1148000   0.80638078   -6.8266892    326.64232  0.023710969  0.023574303           10 
 1149000    0.7902918    -6.838004    326.63043  0.023689471  0.023558365            6 
 1150000   0.79689547   -6.8192521    327.14769  0.023706354  0.023542446            5 
 1151000   0.80325609   -6.7860717     327.4785  0.023709709  0.023526534           15 
 1152000   0.79649302   -6.8155342    327.23855   0.02367177  0.023510769           18 
 1153000   0.80743867   -6.8136308    327.17134  0.023646382  0.023495009           15 
 1154000    0.8217395   -6.8130396    327.78207  0.023669993  0.023479314            7 
 1155000   0.79160368   -6.8361278    328.18027   0.02367823  0.023463675           19 
 1156000   0.78076646   -6.8433879    328.04137  0.023647734  0.023447961            9 
 1157000   0.79340456   -6.8226089    327.80611  0.023610351   0.02343221           11 
 1158000   0.78184999   -6.8295557    329.37231   0.02370267  0.023416643           12 
 1159000   0.78094638   -6.8041841    328.47352  0.023617596  0.023401054            7 
 1160000   0.79061345   -6.8162878    328.73431   0.02361597  0.023385518            6 
 1161000   0.78228341   -6.8243669    328.96712   0.02361234  0.023370103           16 
 1162000   0.77530796   -6.8179921    329.93418  0.023661373  0.023354719           26 
 1163000   0.76643225   -6.8180398    328.53354  0.023540667  0.023339333           17 
 1164000   0.79243866   -6.8042916    329.34613  0.023578618  0.023323846           15 
 1165000   0.79098904   -6.8346676    329.45631   0.02356626  0.023308424           10 
 1166000   0.78577452   -6.8482045    328.61644  0.023486023  0.023292905           20 
 1167000   0.78614866   -6.8177861    329.64474  0.023539328  0.023277411            9 
 1168000   0.78978001   -6.8523059    328.71637  0.023452937  0.023261951           15 
 1169000   0.77917143   -6.8097275    329.89469  0.023516873  0.023246436            9 
 1170000   0.77582263   -6.8411426    329.97167  0.023502256  0.023230942           24 
 1171000   0.78927686   -6.8359495    329.36294  0.023438866  0.023215403           10 
 1172000   0.79020344   -6.8451898    329.76804  0.023447671  0.023199994           10 
 1173000   0.78401052     -6.82194    330.23154  0.023460609  0.023184575           18 
 1174000   0.77794771   -6.8577324    330.27279  0.023443554  0.023169191           21 
 1175000   0.78294914   -6.8273324    329.48809   0.02336795  0.023153808           18 
 1176000   0.77604966   -6.8268953    330.22607  0.023400373  0.023138416           16 
 1177000   0.79267406   -6.8510642    329.19604  0.023307565  0.023122936           18 
 1178000   0.78123611   -6.8520316    330.01071  0.023345409  0.023107478           10 
 1179000   0.78860191   -6.8436905    329.44204  0.023285414  0.023091945           15 
 1180000   0.77666562   -6.8315017    330.23024  0.023321345  0.023076418           23 
 1181000   0.79023915   -6.8269987    330.20208  0.023299611  0.023060843           18 
 1182000   0.77367863   -6.8161632    330.55958  0.023305103  0.023045358           10 
 1183000   0.77842955   -6.8328192    329.76547  0.023229464  0.023029851           12 
 1184000   0.78143962   -6.8464389    330.34347  0.023250526  0.023014376            7 
 1185000   0.79124222   -6.8358037    329.99966  0.023206727   0.02299884            6 
 1186000   0.78019509   -6.8196313    331.08032  0.023263092  0.022983321           15 
 1187000   0.78271942   -6.8358037    330.56587  0.023207376  0.022967815           15 
 1188000   0.76358027   -6.8412659    330.13066  0.023157314   0.02295231           10 
 1189000   0.77190817   -6.8752645    330.31442  0.023150717  0.022936722            9 
 1190000   0.77910688   -6.8374231     329.8196  0.023096611  0.022921056           18 
 1191000   0.78808592   -6.8701956    329.25925  0.023038011  0.022905357           10 
 1192000   0.76791298   -6.8447937    330.00467  0.023070796   0.02288969           19 
 1193000   0.77976671   -6.8471169    330.65407   0.02309682  0.022874058           24 
 1194000   0.77909605   -6.8489472     330.1322  0.023041052   0.02285843           16 
 1195000    0.7639564    -6.846673    330.32539  0.023035243  0.022842686           10 
 1196000   0.77799701   -6.8431827    330.26102  0.023011498  0.022826923           12 
 1197000   0.76323126   -6.8575574      330.495  0.023008563  0.022811203           39 
 1198000   0.79049475   -6.8845665    330.26662  0.022973471  0.022795381           21 
 1199000    0.7836813   -6.8105619    330.60324  0.022977706  0.022779647           19 
 1200000   0.75883065   -6.8921695    329.85951   0.02290691  0.022763896           27 
 1201000   0.76490312   -6.8552718    330.04719   0.02290086  0.022748104           33 
 1202000   0.79565044   -6.8666344    330.91538  0.022941998  0.022732413           17 
 1203000     0.770819   -6.8609775    330.65935  0.022905192   0.02271672           24 
 1204000   0.78617333   -6.8644617    330.30814  0.022861859  0.022700941           11 
 1205000   0.77769552   -6.8805951    329.59514  0.022793578  0.022685154           29 
 1206000   0.76814749   -6.8558407    331.73001  0.022922195  0.022669355            8 
 1207000   0.77776743   -6.8531461    331.22196  0.022868128  0.022653598            9 
 1208000   0.74845363   -6.8712058    331.13909   0.02284348   0.02263794            9 
 1209000   0.76666131   -6.8716874    330.28575  0.022765767  0.022622294           27 
 1210000   0.76957329   -6.8652851    330.96563  0.022793776  0.022606622           21 
 1211000   0.77399155   -6.8680823    331.30115  0.022798042  0.022590966           15 
 1212000   0.76974722   -6.8612437    331.07393  0.022763609  0.022575249           13 
 1213000   0.78112907   -6.8581079     331.0489  0.022743123   0.02255964           16 
 1214000   0.77540628   -6.8779198    331.18764  0.022733913  0.022544001           22 
 1215000   0.76491325   -6.8316844    331.56693  0.022741216  0.022528323           11 
 1216000   0.75263039   -6.8271856    331.24828  0.022700677  0.022512766            7 
 1217000   0.76535742    -6.851745    331.37675  0.022690821  0.022497098           20 
 1218000   0.75678767   -6.8854033    331.75576  0.022698122  0.022481499           15 
 1219000    0.7738669   -6.8799828    331.39143  0.022654596  0.022465936           17 
 1220000   0.76753451   -6.8558693     330.9265  0.022604269  0.022450355           15 
 1221000   0.77619874   -6.8676283    331.54606  0.022628041  0.022434764           17 
 1222000   0.77653749   -6.9187998    331.52808  0.022608298   0.02241908           14 
 1223000   0.78105976   -6.9074015    331.55012  0.022591314   0.02240336           15 
 1224000    0.7603358   -6.8953388    331.26983  0.022553774  0.022387683           15 
 1225000   0.76631788   -6.8993591     331.2465  0.022533775  0.022371989           20 
 1226000   0.77675154   -6.8973366    330.79666  0.022484819   0.02235622           28 
 1227000   0.77102814    -6.885745    331.11637  0.022488207  0.022340404           43 
 1228000   0.75938261   -6.8817663    331.88038  0.022521741  0.022324673           26 
 1229000   0.76849256   -6.8851501    331.26297  0.022461552  0.022308938           34 
 1230000   0.74416595   -6.8912161     332.7248  0.022542331  0.022293304           33 
 1231000    0.7684134   -6.8852227    332.45044  0.022505445  0.022277719           41 
 1232000   0.76404552   -6.8968813    332.27461  0.022475285  0.022262141           66 
 1233000   0.77038821   -6.8813255    332.59376  0.022478627  0.022246482           60 
 1234000   0.76255334   -6.8910115    332.18157  0.022432575  0.022230924          107 
 1235000   0.75626128   -6.8973032    331.98422  0.022401094  0.022215429          179 
 1236000   0.75670863   -6.9072305    331.69299  0.022363335  0.022199827           50 
 1237000   0.76359622   -6.8939762    332.47862  0.022398182  0.022184175           34 
 1238000   0.77728096   -6.8853311     332.2133  0.022362231  0.022168595           28 
 1239000   0.75877714   -6.9292096    332.88998  0.022389695  0.022152985           63 
 1240000   0.76387975   -6.9250354    333.44484  0.022408927  0.022137387           57 
 1241000   0.77161912   -6.8927425    332.83521  0.022349934  0.022121819           76 
 1242000    0.7610797   -6.8929135    332.65175  0.022319629  0.022106373           61 
 1243000   0.77391291   -6.8975966    332.57572  0.022296576  0.022090871           28 
 1244000   0.75741841   -6.8673849    332.90862  0.022300953  0.022075402           34 
 1245000    0.7563375   -6.8743124     333.3266  0.022311017  0.022059948           32 
 1246000   0.76684292   -6.8988019    332.80766  0.022258404  0.022044484           30 
 1247000   0.76325368   -6.9166589    332.62692  0.022228476  0.022029074           27 
 1248000   0.75246724   -6.8976962    333.22956  0.022250905  0.022013575           20 
 1249000    0.7636057   -6.9116508     333.5746  0.022256112  0.021998166           55 
 1250000   0.74820781   -6.9415443     333.1987  0.022213247  0.021982684           36 
 1251000   0.74719079   -6.8886493    333.07022  0.022186931  0.021967196           36 
 1252000   0.74050318   -6.9224517    333.19774  0.022177698  0.021951781           38 
 1253000   0.75247969   -6.8877997    333.50418  0.022180379   0.02193631           32 
 1254000   0.75946518   -6.9205095     332.8672  0.022120361  0.021920841           47 
 1255000   0.75237354   -6.9063893    333.09836  0.022118085  0.021905321           22 
 1256000   0.76068369   -6.9322178    333.26868  0.022111776  0.021889831           22 
 1257000   0.74868233   -6.8807165    333.32504  0.022097921   0.02187429           49 
 1258000   0.75299504   -6.9024495    333.86897  0.022116386  0.021858891           11 
 1259000   0.74702715   -6.8993059     333.2159  0.022055593  0.021843438           80 
 1260000   0.76463009   -6.9094287    334.04122  0.022092673   0.02182802           59 
 1261000   0.75049477   -6.9489538    333.61447  0.022046951  0.021812529          100 
 1262000   0.74608987   -6.9080287    333.47965  0.022020579  0.021797044           43 
 1263000   0.75045478   -6.9389656    332.77614  0.021956726   0.02178155           54 
 1264000   0.76513992   -6.9219723    333.58957  0.021992984  0.021766024           57 
 1265000   0.75183491   -6.9299611    333.28324  0.021955418  0.021750481           77 
 1266000   0.74236494   -6.9411007    333.60693  0.021959382  0.021734984           21 
 1267000   0.74851333   -6.9366179    333.90905  0.021961921  0.021719487           53 
 1268000   0.76252699   -6.9312117    334.19076  0.021963115  0.021704072           46 
 1269000   0.76075976   -6.9396437    333.75757  0.021917361  0.021688615           34 
 1270000   0.74171729   -6.9290556    333.73614  0.021898697   0.02167316           58 
 1271000   0.76075394   -6.9199041    333.96341  0.021896368  0.021657724           47 
 1272000   0.73367169   -6.9127084    334.78109  0.021932723  0.021642388           55 
 1273000   0.74423409   -6.9260176    334.06663  0.021868724  0.021627118           18 
 1274000   0.75049491    -6.908778    334.26147  0.021864303  0.021611796           53 
 1275000   0.73468017   -6.9296744    333.49145  0.021796827  0.021596526           44 
 1276000   0.75061707   -6.9299193    334.64562  0.021855122  0.021581232           33 
 1277000   0.74301886   -6.8895495    335.18628  0.021873289  0.021565979           28 
 1278000   0.74765142   -6.9100809    334.26145  0.021795869  0.021550764           21 
 1279000     0.748797   -6.9087211    334.66151  0.021804894  0.021535475           15 
 1280000   0.72643712   -6.8881279    334.50327  0.021777557  0.021520277           11 
 1281000   0.74723025   -6.9378716    334.93753  0.021788806  0.021505181           18 
 1282000   0.73857976   -6.9284875    335.27832  0.021793963  0.021490029           20 
 1283000   0.74801621   -6.9219286    334.66274  0.021736993   0.02147494           29 
 1284000   0.75343378   -6.8992662    335.25673  0.021758614  0.021459763           23 
 1285000   0.73845908   -6.9320082    334.83584  0.021714387    0.0214446           29 
 1286000   0.73630435   -6.9184326    334.31538  0.021663775  0.021429398           40 
 1287000   0.75725698   -6.9537154    335.11848  0.021698943   0.02141426           46 
 1288000   0.74749875    -6.941407    334.89974  0.021667944  0.021399084           68 
 1289000   0.73301186   -6.9287461    335.37035  0.021681559  0.021383939           78 
 1290000     0.724841    -6.947634    335.25719  0.021657441  0.021368744           59 
 1291000   0.76140341   -6.9055266     335.0219  0.021625478  0.021353559           32 
 1292000    0.7237868   -6.9110123    335.20357  0.021620458  0.021338425           27 
 1293000   0.73459065   -6.9156638    335.61824  0.021630462  0.021323317           51 
 1294000   0.72394791    -6.941377    335.32139  0.021594628  0.021308167           29 
 1295000   0.73278915    -6.930159    334.98304   0.02155618  0.021293008           46 
 1296000   0.73729447   -6.9384876    336.44575    0.0216336  0.021277833           50 
 1297000   0.73952295   -6.9507129    335.54639  0.021559136  0.021262724           61 
 1298000   0.74406503   -6.9458511    336.09151  0.021577524  0.021247615           38 
 1299000   0.73237877    -6.925934    335.29442  0.021509778   0.02123253           35 
 1300000   0.73981655   -6.9165311    335.31082  0.021494283    0.0212174           34 
 1301000   0.74147653   -6.8905081    336.12544  0.021529941  0.021202322           23 
 1302000   0.73495036   -6.9297803    335.58764  0.021478983  0.021187303           34 
 1303000   0.73443299   -6.9337814    336.03343   0.02149101  0.021172314           65 
 1304000   0.73102031   -6.9280146    336.57345  0.021509039  0.021157353           25 
 1305000   0.73872554   -6.9297733    336.02503  0.021457537   0.02114235           34 
 1306000   0.72721292   -6.9497446    336.88188  0.021495781  0.021127387           11 
 1307000   0.73172953   -6.9555306     336.5021   0.02145512  0.021112353           21 
 1308000   0.74012114   -6.9582951    335.83398  0.021396151  0.021097352           14 
 1309000   0.72877155   -6.9254102    335.82637  0.021379321  0.021082292           11 
 1310000    0.7303641   -6.9348522    336.52328  0.021407333    0.0210673           12 
 1311000   0.71760202   -6.9382149    336.26665  0.021374692  0.021052386           15 
 1312000   0.72531059   -6.9386244    335.98811  0.021340708  0.021037434           10 
 1313000   0.72336171   -6.9384528    337.21833  0.021402534  0.021022483           13 
 1314000   0.71199231   -6.9675229    335.56188  0.021281195  0.021007475           33 
 1315000    0.7445986   -6.9313651    336.65114  0.021334039  0.020992466           20 
 1316000   0.73501524   -6.9582646    336.39227  0.021301436  0.020977523           17 
 1317000   0.72868322   -6.9557503    335.80705  0.021248231  0.020962617           43 
 1318000   0.73499243   -6.9481564    336.97276  0.021305814  0.020947676           49 
 1319000   0.71792684   -6.9541572    336.76309  0.021276414  0.020932706           27 
 1320000   0.71396547   -6.9848681     336.4161   0.02123839  0.020917771           67 
 1321000   0.72747361    -6.992368    336.15872  0.021206076  0.020902774           61 
 1322000   0.72857438   -6.9915621    336.46265  0.021209194  0.020887795           32 
 1323000   0.72565628   -6.9916438    336.03376  0.021166148  0.020872831          120 
 1324000   0.73572102   -6.9683203     337.9293  0.021269468  0.020857854           50 
 1325000    0.7047528   -7.0067697    336.01087  0.021132759  0.020842809           77 
 1326000   0.71333201   -7.0024452    335.72026  0.021098558  0.020827774           39 
 1327000   0.73006631   -6.9712879    336.34372  0.021121811  0.020812727           31 
 1328000   0.72899506   -7.0058211    336.40933  0.021110023  0.020797713          104 
 1329000   0.71839411   -6.9986129    336.05398  0.021071857  0.020782706           63 
 1330000   0.72175173   -6.9726708    336.45545  0.021081169  0.020767776           66 
 1331000   0.71566428   -6.9846443    336.46014  0.021065624  0.020752873           95 
 1332000   0.72540993    -6.959605    337.39742  0.021108447  0.020737988           54 
 1333000   0.71684142   -6.9866738    337.78739  0.021116991  0.020723151           29 
 1334000   0.72919195   -6.9503583    337.12603  0.021059847  0.020708222           72 
 1335000   0.70810901   -6.9514627    337.49803  0.021067293  0.020693342           21 
 1336000    0.7230752   -6.9803166    336.87721    0.0210128  0.020678461           61 
 1337000   0.71912814    -6.968804    336.63234  0.020981821  0.020663565           46 
 1338000   0.71149428   -7.0060914    337.32658  0.021009379  0.020648638           80 
 1339000   0.71186361   -6.9666834    337.40003  0.020998259  0.020633743           56 
 1340000   0.70872955   -6.9737514     336.9467  0.020954397   0.02061882           62 
 1341000   0.70630464    -6.962638    336.88325  0.020934828  0.020603972           37 
 1342000   0.71728764   -6.9579461    336.86505  0.020918098  0.020589176           63 
 1343000   0.70564854   -6.9711828    337.59295  0.020947688  0.020574356           39 
 1344000   0.72358275   -6.9802063    336.93311   0.02089119  0.020559454           36 
 1345000   0.71511609   -6.9706081    336.93567  0.020875816  0.020544599           62 
 1346000    0.7045762   -6.9795896     336.8673  0.020856073  0.020529713          103 
 1347000    0.7100269   -6.9655008    336.97488  0.020847245  0.020514766          169 
 1348000    0.7156353   -6.9752658    337.50567  0.020864594  0.020499818           72 
 1349000    0.7015563   -6.9845825    337.48655  0.020847946  0.020484896          115 
 1350000   0.71977812   -6.9865348    337.83238  0.020853851  0.020470018           76 
 1351000   0.71948452   -6.9786052    337.20819  0.020799913  0.020455204          113 
 1352000   0.72381247   -6.9993642     336.8396  0.020761809  0.020440366           94 
 1353000   0.71899365   -6.9992551    337.59554  0.020793024  0.020425566          120 
 1354000   0.70532976   -6.9831292    337.40469  0.020765921   0.02041076           87 
 1355000   0.72816219   -7.0115811    337.12069   0.02073313  0.020395931           46 
 1356000   0.71726495   -6.9792799    336.88872  0.020703584  0.020381089           90 
 1357000   0.72005787   -6.9919895    338.30794  0.020775482  0.020366359           60 
 1358000   0.69926772   -6.9828598    338.35039  0.020762788  0.020351677           44 
 1359000     0.701653   -6.9748395    337.24519  0.020679739  0.020337011           24 
 1360000   0.73236756   -6.9778581    337.81313  0.020699334  0.020322323           27 
 1361000   0.71250921   -7.0131708    337.62764  0.020672768  0.020307621           30 
 1362000   0.72175992   -6.9668832    338.48775  0.020710215  0.020292873           24 
 1363000   0.70254675   -6.9757032    337.59108  0.020640198  0.020278222           32 
 1364000   0.70916295   -6.9917584    338.11068  0.020656811  0.020263622           39 
 1365000   0.71925905    -6.972932    338.21169  0.020647845  0.020249021           22 
 1366000   0.71605701   -6.9908406     339.0203  0.020682058  0.020234388           23 
 1367000   0.71274895    -6.992158    338.92276  0.020660983  0.020219787           31 
 1368000   0.70617917   -7.0174263    338.16441  0.020599684   0.02020517           41 
 1369000   0.70640585    -6.990456    338.89141   0.02062889  0.020190524           32 
 1370000    0.7106987     -6.97398    338.56815   0.02059417  0.020175956           25 
 1371000   0.69488808   -7.0062771    339.06554  0.020609381  0.020161399           21 
 1372000   0.68543958   -7.0061596    338.07552  0.020534227  0.020146836           32 
 1373000   0.70303092   -7.0025905    338.35091  0.020535986  0.020132249           45 
 1374000   0.70805173   -6.9905318    338.51115  0.020530759  0.020117713           18 
 1375000   0.71997272      -7.0163     337.9535  0.020482031  0.020103194           18 
 1376000   0.71610287    -6.982232    338.75772   0.02051585  0.020088713           19 
 1377000    0.7081335   -7.0037676    338.63787  0.020493698  0.020074225           18 
 1378000   0.70005026   -7.0110036     338.0024  0.020440397  0.020059668           27 
 1379000   0.69757272   -6.9992117    338.32651   0.02044516    0.0200451           31 
 1380000   0.69973261    -7.009675    338.02667  0.020412238  0.020030539           27 
 1381000   0.68772732   -7.0157964    338.85792  0.020447618  0.020015947           28 
 1382000   0.70167614   -6.9898478    338.40744  0.020405658  0.020001349           87 
 1383000   0.68203866   -7.0015307    338.18207  0.020377324  0.019986738           26 
 1384000   0.68977267   -7.0037571    338.78267  0.020398764   0.01997216           64 
 1385000   0.70332652    -7.007398    339.28932   0.02041452  0.019957625           78 
 1386000   0.68551901   -7.0155652    339.04212  0.020384928  0.019943101           55 
 1387000   0.68848076    -7.009242    338.46508  0.020335561  0.019928526           63 
 1388000   0.69254276   -7.0201072    338.64226  0.020331548  0.019913934           28 
 1389000   0.69954472    -7.005487    338.83727   0.02032861  0.019899342           48 
 1390000   0.70456394   -7.0399264    338.79406  0.020311394  0.019884701           73 
 1391000   0.70892052   -7.0090169    338.10712  0.020255639  0.019870032           48 
 1392000    0.7078541   -7.0255089    338.60015  0.020270603   0.01985538           58 
 1393000   0.71089587   -7.0221991    338.47117  0.020248335  0.019840819           79 
 1394000   0.68276979   -7.0234735    338.56832  0.020239617  0.019826241           56 
 1395000   0.69753441   -7.0381387    338.01609   0.02019212  0.019811673           88 
 1396000   0.69953769   -7.0367454    337.98227  0.020175637  0.019797049          147 
 1397000   0.69968925   -7.0097623    338.18589  0.020173341  0.019782437           96 
 1398000   0.70270997   -7.0314065    338.80208  0.020195642  0.019767846          153 
 1399000   0.68849117   -7.0190593    338.28201  0.020150227  0.019753223           71 
 1400000   0.68719739    -7.035545    338.47531   0.02014734  0.019738622          124 
 1401000   0.69204153   -7.0341495    338.31744  0.020123569  0.019724039          105 
 1402000   0.68893581   -7.0095651    338.05736  0.020093757  0.019709465          158 
 1403000   0.68445297   -7.0558342    338.02323  0.020077407  0.019694872          158 
 1404000   0.70928661   -7.0122789     339.1637  0.020130799  0.019680281          144 
 1405000   0.70398814   -7.0510435    339.47037   0.02013466  0.019665731           90 
 1406000   0.68728576   -6.9965814    338.44999  0.020059862  0.019651141           78 
 1407000   0.67986302   -7.0361716    338.08803  0.020024167  0.019636521          131 
 1408000   0.67129412   -7.0239622    338.79423  0.020051742  0.019621907           46 
 1409000     0.670814   -7.0381137    337.38864  0.019954379  0.019607274          129 
 1410000   0.69562938   -7.0375947    338.32333  0.019995469  0.019592657           83 
 1411000   0.68534669   -7.0334468    338.48791  0.019991017   0.01957814          129 
 1412000   0.71322777   -7.0483168    338.39261  0.019971235  0.019563618          168 
 1413000   0.68150765   -7.0332318    338.26655  0.019949667  0.019549089          238 
 1414000   0.69658285   -7.0498719    338.21574  0.019932564  0.019534485          322 
 1415000   0.68612714    -7.036929    339.24773  0.019979254  0.019519915          138 
 1416000   0.71341194   -7.0438996    338.21134  0.019904151   0.01950533          159 
 1417000   0.69711307   -7.0232283    338.30185  0.019895427  0.019490711          141 
 1418000    0.6900073   -7.0456372    337.72433  0.019847457  0.019476159          184 
 1419000   0.67478766   -7.0378221     338.9248   0.01990397  0.019461607           90 
 1420000    0.6937181   -7.0312328    338.54415  0.019867615  0.019447103          169 
 1421000   0.69539568   -7.0321195    338.38972  0.019844576  0.019432602           67 
 1422000   0.70277833   -7.0530713    338.54734  0.019839858  0.019418101          172 
 1423000   0.69999861   -7.0493688     338.6471  0.019831758  0.019403572          151 
 1424000   0.69281184   -7.0175375    338.36158  0.019801122  0.019389064          113 
 1425000   0.67131722   -7.0585113    338.60557  0.019801496  0.019374578          275 
 1426000   0.68521888   -7.0665759    338.48324  0.019780461  0.019360089          394 
 1427000   0.69713902   -7.0748452    338.65127  0.019776411  0.019345622          386 
 1428000   0.67954619   -7.0496038     338.8502  0.019774171  0.019331164          252 
 1429000   0.68451361    -7.068753    338.41707  0.019735075  0.019316661          557 
 1430000   0.68819861   -7.0750333    338.55286  0.019729188  0.019302174          576 
 1431000   0.67722245   -7.0790575    338.41012  0.019707088  0.019287648          621 
 1432000   0.66793276   -7.0752053    338.15887  0.019678705   0.01927315          599 
 1433000   0.69588544   -7.0993677    338.37851  0.019677745  0.019258611          704 
 1434000   0.66607996   -7.0836394    337.82697  0.019631972  0.019244055          692 
 1435000   0.66813736   -7.0969198    338.34547  0.019648401  0.019229533          674 
 1436000   0.68712438   -7.0985288    337.77276  0.019601483  0.019215016          641 
 1437000    0.6861235    -7.070508    338.10373  0.019607036  0.019200506          701 
 1438000   0.68100281   -7.0901946    337.93261  0.019583485  0.019185961          700 
 1439000   0.70210363   -7.0927253     337.6654  0.019554401  0.019171395          772 
 1440000   0.67961119    -7.093936    338.16343  0.019569643  0.019156809          663 
 1441000   0.68615733   -7.1182043    337.88073  0.019539713  0.019142236          750 
 1442000   0.67919864    -7.100164    338.13413  0.019540807  0.019127662          713 
 1443000   0.68784921   -7.0981371    337.35362  0.019482191  0.019113134          706 
 1444000   0.67973964   -7.1155268    337.99695  0.019505826  0.019098608          743 
 1445000   0.66979163   -7.1069325    338.19847  0.019503949  0.019084061          848 
 1446000   0.67691708   -7.1085112    337.81825  0.019468549   0.01906951          824 
 1447000   0.67919295   -7.1349319    337.97809  0.019464299  0.019054953          883 
 1448000   0.67941746   -7.1492652    338.12167   0.01945912  0.019040404          885 
 1449000   0.66896766   -7.1314709    338.26709  0.019454054  0.019025873          818 
 1450000   0.67235651   -7.1009953    337.37683  0.019389473  0.019011346          821 
 1451000    0.6683974   -7.1238128     336.8682  0.019346899  0.018996783          925 
 1452000   0.67374026    -7.135606     337.0636  0.019344789  0.018982202          998 
 1453000   0.66923278   -7.1482537    337.96909  0.019383407   0.01896763         1069 
 1454000    0.6807922   -7.1344505    338.27531  0.019387626  0.018953059         1013 
 1455000   0.65516034   -7.1400786    338.17375  0.019368485   0.01893851         1050 
 1456000    0.7002071   -7.1477548    337.32881  0.019306823   0.01892397         1106 
 1457000   0.67688485   -7.1367641     337.2346  0.019288183  0.018909428         1154 
 1458000   0.65050201    -7.182684    338.13633  0.019326494   0.01889489         1194 
 1459000   0.66072399   -7.1299116    337.90664  0.019300128  0.018880332         1211 
 1460000   0.66978013   -7.1715206    337.78459  0.019279942  0.018865799         1274 
 1461000   0.65714975   -7.1624078    337.65181  0.019259172  0.018851253         1222 
 1462000   0.67191602   -7.1894091    337.34112   0.01922829  0.018836653         1321 
 1463000   0.67148882   -7.1642022     337.2607  0.019210566  0.018822067         1318 
 1464000   0.66788808   -7.1866006    337.20884  0.019194492  0.018807461         1348 
 1465000   0.66668763   -7.1677233     337.4208  0.019193447  0.018792807         1449 
 1466000   0.66819646   -7.1890919    336.84366  0.019147548   0.01877816         1473 
 1467000   0.67106786   -7.1896311     337.5065  0.019172149  0.018763512         1466 
 1468000   0.66493254   -7.1858335    336.94877  0.019127428  0.018748861         1525 
 1469000   0.67099617   -7.2045654    336.87902   0.01911045  0.018734214         1584 
 1470000   0.67078278   -7.2143929    336.94866  0.019101398  0.018719515         1489 
 1471000    0.6645052   -7.2176798    336.07535  0.019038939  0.018704819         1526 
 1472000   0.66723274   -7.1928806    336.74403   0.01906386  0.018690113         1639 
 1473000   0.67216695    -7.188616    335.89022  0.019002615  0.018675458         1486 
 1474000   0.66480635   -7.2225672    336.47397  0.019022725  0.018660805         1507 
 1475000   0.67945895   -7.1966038    336.66916  0.019020856  0.018646157         1597 
 1476000    0.6651201   -7.2346436    336.28968  0.018986545  0.018631533         1723 
 1477000   0.68180151    -7.206652    336.64934  0.018993982  0.018616889         1756 
 1478000   0.64576582    -7.222636    336.73216  0.018985801  0.018602245         1707 
 1479000    0.6576166   -7.2347326    336.81118  0.018977416  0.018587601         1746 
 1480000    0.6731141   -7.2417622    336.00397  0.018919142  0.018572954         1859 
 1481000   0.65647765   -7.2149959    336.82023  0.018952298  0.018558296         1864 
 1482000   0.66637169   -7.2375386     336.0271  0.018894911  0.018543619         1963 
 1483000   0.67627995   -7.2278913    336.12808  0.018887845  0.018528955         1897 
 1484000   0.65909644   -7.2464255    336.22692  0.018880667  0.018514281         1909 
 1485000   0.66666784    -7.242364    336.67752  0.018893239  0.018499561         1919 
 1486000   0.65883879   -7.2376359    336.16934  0.018852027   0.01848484         1976 
 1487000   0.66678447   -7.2349917    336.21336  0.018841816  0.018470114         1972 
 1488000   0.67742446   -7.2918122    335.48531   0.01878838  0.018455395         2135 
 1489000   0.67310425   -7.2577677    335.93547  0.018800955  0.018440647         2158 
 1490000   0.65326279   -7.2689869    335.63349  0.018771448  0.018425912         2129 
 1491000    0.6622067   -7.2755883    335.33249  0.018742035   0.01841119         2290 
 1492000   0.64773993   -7.2912069    335.66614  0.018748109  0.018396478         2260 
 1493000   0.65869082   -7.2905439     335.4015   0.01872078  0.018381728         2242 
 1494000   0.66528086   -7.2927712    335.43646    0.0187102  0.018366977         2288 
 1495000   0.65478021   -7.3008268     335.6379  0.018708913  0.018352197         2325 
 1496000    0.6450176   -7.2974811    335.96587  0.018714676  0.018337429         2339 
 1497000   0.66948075   -7.2818217    335.32762  0.018666646   0.01832266         2426 
 1498000    0.6523361   -7.3032919    334.65278  0.018616643  0.018307887         2396 
 1499000   0.65800946   -7.3211938    334.70956  0.018607381  0.018293108         2556 
 1500000   0.64694645   -7.3283405    334.92051  0.018606695  0.018278315         2588 
 1501000   0.65881795   -7.3410792    334.74127  0.018584348   0.01826348         2546 
 1502000   0.64027727   -7.3055413    334.48219    0.0185576   0.01824865         2605 
 1503000   0.63382616   -7.3168317    333.96217  0.018516421  0.018233827         2572 
 1504000   0.65561747   -7.3364926    334.83535   0.01855249   0.01821901         2663 
 1505000   0.66141825   -7.3453047    334.47432  0.018520173   0.01820418         2718 
 1506000   0.65386238   -7.3180953    335.03684  0.018539002  0.018189357         2706 
 1507000   0.64824753   -7.3557112    334.78622  0.018512841   0.01817454         2690 
 1508000   0.65412404   -7.3128591    334.10743  0.018463054  0.018159723         2761 
 1509000   0.64828845   -7.3451577    333.81919  0.018434901  0.018144908         2830 
 1510000   0.63901946   -7.3603782    334.64727  0.018468392  0.018130051         2889 
 1511000    0.6525645   -7.3579039    334.69232  0.018458654  0.018115182         3019 
 1512000   0.65354672   -7.3535422    333.88784  0.018402107  0.018100303         3077 
 1513000   0.64211463   -7.3399625    333.38779  0.018362403  0.018085394         3124 
 1514000   0.64873213     -7.37029    333.19709  0.018339778  0.018070475         3159 
 1515000    0.6413846   -7.3736348    333.59877  0.018349767  0.018055565         3186 
 1516000   0.65546987   -7.3853209    334.13573  0.018367179  0.018040651         3254 
 1517000   0.64749907   -7.4000994    334.00656  0.018347976  0.018025702         3201 
 1518000   0.65660807    -7.390208    333.77642  0.018323256  0.018010749         3269 
 1519000   0.64808652   -7.3870758    333.57002   0.01829987  0.017995784         3262 
 1520000   0.64544896   -7.3939209    332.41482  0.018224497  0.017980824         3257 
 1521000   0.64812834    -7.395543    333.09116   0.01824957  0.017965856         3335 
 1522000   0.64631977   -7.3840777    333.42802  0.018256024  0.017950905         3286 
 1523000   0.63616164   -7.4013991    332.91003  0.018215694  0.017935935         3322 
 1524000   0.64210157   -7.4077019    333.41704  0.018231465  0.017920993         3292 
 1525000   0.64239595   -7.4097614    333.22068   0.01820878  0.017906048         3324 
 1526000   0.64450414    -7.428109    333.54699  0.018214667  0.017891079         3374 
 1527000   0.63021212   -7.4282339    333.21491  0.018184616  0.017876105         3305 
 1528000   0.65038584   -7.4386485    332.89716  0.018155386  0.017861141         3347 
 1529000   0.63924838   -7.4336428    331.82758  0.018085218  0.017846163         3389 
 1530000   0.64540067   -7.4213351    332.85054  0.018129114  0.017831213         3396 
 1531000   0.63226001   -7.4071647    332.56276  0.018101609  0.017816288         3333 
 1532000   0.64527841   -7.4218519    332.89812  0.018108035  0.017801324         3402 
 1533000   0.63779284   -7.4514757    332.87554  0.018094996  0.017786362         3389 
 1534000   0.64036075   -7.4403184    333.10786   0.01809582  0.017771421         3437 
 1535000   0.64515559   -7.4398873    332.10614  0.018029649   0.01775647         3368 
 1536000   0.64295369   -7.4383875    332.65318   0.01804759   0.01774153         3371 
 1537000   0.62644865    -7.456638    332.81054   0.01804438  0.017726601         3427 
 1538000   0.63703632   -7.4381231    332.52441  0.018017144  0.017711689         3380 
 1539000   0.63287646   -7.4320934    332.74189  0.018017213  0.017696782         3414 
 1540000   0.62578177    -7.437941    332.54573  0.017994899  0.017681892         3366 
 1541000   0.64214058   -7.4428512    333.21029  0.018019159  0.017667017         3392 
 1542000   0.64277465   -7.4416369    332.01976  0.017943134   0.01765212         3371 
 1543000    0.6401912    -7.461276    332.10659  0.017936195  0.017637249         3379 
 1544000   0.64508952   -7.4419081    332.59278  0.017950819  0.017622385         3382 
 1545000   0.63679932   -7.4231623    332.82451    0.0179517  0.017607553         3424 
 1546000   0.63593899   -7.4542326    332.62718  0.017929451  0.017592711         3402 
 1547000   0.61922765   -7.4438735    332.72317  0.017923032  0.017577892         3374 
 1548000   0.65121414   -7.4364523    332.40206  0.017894168  0.017563096         3374 
 1549000   0.63498613   -7.4450011    332.96471  0.017912885  0.017548315         3399 
 1550000   0.62201924   -7.4583892    332.46165  0.017874282  0.017533517         3370 
 1551000   0.64935716    -7.458571     332.4155  0.017860278  0.017518709         3408 
 1552000   0.62615206   -7.4589696    332.13382  0.017833646   0.01750393         3396 
 1553000   0.64903963   -7.4560079    332.28413  0.017830228  0.017489167         3432 
 1554000   0.62648836   -7.4309268    331.93365   0.01779996  0.017474417         3458 
 1555000   0.63211801   -7.4427008    332.58483   0.01782341   0.01745969         3420 
 1556000   0.64155126   -7.4689463    332.59712  0.017812614  0.017444951         3344 
 1557000   0.62435547   -7.4534447    332.02344  0.017770469  0.017430238         3363 
 1558000   0.63504345   -7.4488812     332.2059  0.017768822  0.017415523         3407 
 1559000    0.6244275   -7.4824792    332.01592   0.01774727  0.017400817         3421 
 1560000   0.63883914    -7.457377     332.3681  0.017754706  0.017386139         3426 
 1561000   0.63186161    -7.464545    332.31487  0.017740491  0.017371476         3412 
 1562000   0.63129756   -7.4820188    332.17619  0.017721734   0.01735682         3387 
 1563000   0.63101294   -7.4406368    332.33949  0.017719103  0.017342194         3413 
 1564000   0.63091935   -7.4636848     332.3005  0.017705696  0.017327571         3363 
 1565000   0.63065115   -7.4584883    332.40624  0.017700013  0.017312967         3419 
 1566000   0.62232485   -7.4758719    332.42766   0.01768985  0.017298369         3417 
 1567000   0.62235483   -7.4561422    332.14158  0.017663347  0.017283774         3399 
 1568000   0.63684069   -7.4639951    332.35924   0.01766365    0.0172692         3403 
 1569000   0.62320364   -7.4653949    332.93888  0.017683178  0.017254623         3421 
 1570000   0.61884982    -7.474586    332.03291  0.017623827  0.017240057         3422 
 1571000   0.60113071    -7.493444    332.25566  0.017624425  0.017225508         3400 
 1572000   0.62422665    -7.450353    331.74882  0.017586345   0.01721099         3394 
 1573000   0.63716047   -7.4554061    332.28996  0.017603834  0.017196475         3429 
 1574000   0.62667593   -7.4733964     332.6549   0.01761197  0.017181974         3412 
 1575000   0.62422903   -7.4737075    331.87965   0.01755977  0.017167493         3458 
 1576000   0.62265101    -7.493022     332.3793  0.017575048  0.017153009         3422 
 1577000   0.61523162   -7.4398511    332.30535  0.017559995  0.017138536         3410 
 1578000   0.62515979   -7.4808978    332.25423  0.017546167  0.017124047         3421 
 1579000   0.61065586   -7.5028248    332.30217  0.017537586  0.017109566         3437 
 1580000    0.6258856   -7.4942245    331.86348  0.017503348  0.017095108         3445 
 1581000   0.61793582   -7.4972613    331.93465  0.017496028  0.017080651         3432 
 1582000   0.62396197   -7.4644663     332.2188  0.017499937  0.017066191         3380 
 1583000   0.61822066   -7.4627824    331.83547  0.017468702  0.017051754         3455 
 1584000   0.61798977   -7.4759906    331.97396   0.01746496  0.017037314         3396 
 1585000    0.6151516   -7.4850019    331.28627  0.017417785  0.017022895         3452 
 1586000   0.61692321   -7.4843498    331.59781  0.017423172  0.017008477         3486 
 1587000   0.62507715   -7.4868291    331.49228  0.017406652  0.016994068         3502 
 1588000   0.60515413   -7.4824388    331.24219  0.017382567  0.016979671         3461 
 1589000   0.62959023   -7.5025293    332.07474  0.017415289  0.016965291         3500 
 1590000    0.6152683   -7.4901918    331.84987  0.017392551  0.016950927         3475 
 1591000   0.63206315   -7.4976189    331.93116  0.017385877  0.016936568         3415 
 1592000   0.61239151   -7.4905554    332.07851  0.017382669  0.016922234         3437 
 1593000   0.62940522   -7.4798618    331.81131  0.017357779   0.01690792         3485 
 1594000   0.61393928   -7.4915664    331.89211  0.017351114  0.016893598         3453 
 1595000   0.62300928   -7.4894667    331.47166  0.017318268  0.016879263         3471 
 1596000   0.62355891   -7.4792979    332.15876  0.017343294  0.016864962         3494 
 1597000   0.61824765   -7.4966319    331.93753   0.01732089  0.016850668         3470 
 1598000   0.61418133   -7.5040532    331.70046  0.017297688  0.016836389         3463 
 1599000   0.61829105   -7.5030537    331.53738  0.017278371  0.016822107         3543 
 1600000   0.60988279   -7.4930081    331.65551  0.017273724  0.016807859         3496 
 1601000   0.62198214   -7.5022103     331.5557   0.01725774  0.016793615         3507 
 1602000   0.59946152   -7.4766656    331.75535  0.017257353  0.016779365         3483 
 1603000    0.6089546   -7.4826643    331.36887  0.017226495  0.016765109         3500 
 1604000   0.60478326   -7.5051239    332.06674  0.017252012  0.016750889         3464 
 1605000   0.62623352   -7.5193636     331.8984  0.017232523   0.01673668         3428 
 1606000   0.62615633   -7.5001863    330.91758    0.0171709  0.016722491         3450 
 1607000   0.62179533   -7.5043817    331.11644  0.017170527  0.016708301         3443 
 1608000    0.6122018   -7.4877712    331.74238  0.017192287  0.016694124         3532 
 1609000   0.60809078   -7.4968863    331.39165  0.017163437  0.016679965         3462 
 1610000   0.60239845   -7.5069654    331.89395  0.017178776  0.016665803         3505 
 1611000   0.61646635   -7.4973026    331.64055  0.017155005  0.016651652         3469 
 1612000   0.62119208   -7.5219642    331.68006  0.017146405  0.016637519         3519 
 1613000   0.60920568   -7.5200216    331.47423  0.017125141  0.016623377         3543 
 1614000   0.62162621   -7.5054014    330.94185  0.017087043  0.016609253         3507 
 1615000   0.60565783   -7.5046473    331.76894   0.01711914  0.016595122         3480 
 1616000   0.60612291   -7.5157593    331.38423  0.017088708  0.016581016         3539 
 1617000   0.61006466   -7.4922372    330.56914  0.017036134   0.01656694         3546 
 1618000   0.61547478    -7.509186    330.91636  0.017043488  0.016552861         3547 
 1619000   0.59675893   -7.5216288     331.3126  0.017053356  0.016538792         3511 
 1620000   0.61180111   -7.5163793    331.07353  0.017030532  0.016524735         3524 
 1621000   0.60694862   -7.5233816    331.30312  0.017031828  0.016510688         3507 
 1622000   0.60808219   -7.5127324    331.65977  0.017039651  0.016496652         3553 
 1623000   0.60780728    -7.503977    330.83076  0.016986586   0.01648264         3523 
 1624000   0.60137098   -7.5331664     331.9185  0.017031943  0.016468622         3497 
 1625000   0.59223997   -7.4957092    331.47885  0.016998915  0.016454617         3468 
 1626000   0.59413422   -7.5284125    330.67029  0.016947022  0.016440638         3458 
 1627000   0.60083045   -7.5161765    331.62748  0.016985632  0.016426658         3498 
 1628000   0.60559317   -7.5269605    331.28183  0.016957506  0.016412678         3525 
 1629000   0.60767987   -7.5221228    330.72324   0.01691852   0.01639874         3504 
 1630000   0.60291869   -7.5259314    330.97193  0.016920855    0.0163848         3502 
 1631000   0.59908957   -7.5125911    330.95594  0.016909664  0.016370876         3528 
 1632000   0.61791735   -7.5074461    330.78553  0.016890601  0.016356979         3480 
 1633000   0.60358189    -7.533868    330.28939  0.016854939  0.016343066         3513 
 1634000   0.59910515   -7.5262949    330.98297  0.016879997  0.016329183         3502 
 1635000   0.59513725   -7.5212538    330.40925   0.01684043  0.016315289         3484 
 1636000   0.58895635   -7.5489302    330.85983  0.016853088  0.016301415         3533 
 1637000   0.60194032   -7.5063194    331.28601  0.016864488  0.016287545         3479 
 1638000   0.59616602   -7.5388629    331.18021   0.01684881  0.016273687         3525 
 1639000   0.59364724    -7.538693    330.96151  0.016827411  0.016259839         3544 
 1640000     0.609466   -7.5320412    330.77699  0.016807774  0.016245984         3545 
 1641000    0.5882593   -7.5306434    330.67026  0.016792111  0.016232162         3573 
 1642000     0.607595    -7.537956    331.16598  0.016807043  0.016218351         3522 
 1643000   0.59237362   -7.5115884    331.22447   0.01679978  0.016204548         3502 
 1644000   0.59541093   -7.5351316    330.73646  0.016764824  0.016190756         3548 
 1645000   0.59761703   -7.5410959    330.91646  0.016763752  0.016176981         3516 
 1646000   0.59237339   -7.5270043    330.92178  0.016753837  0.016163225         3498 
 1647000   0.59369825   -7.5303181    330.78737  0.016736864  0.016149469         3501 
 1648000   0.58574993   -7.5442231    331.04853  0.016739914   0.01613574         3506 
 1649000   0.59989804   -7.5369529    330.96657   0.01672562  0.016122013         3535 
 1650000   0.59826445   -7.5363578    330.34915  0.016684301  0.016108298         3530 
 1651000    0.6058197   -7.5385192    331.58917  0.016736784  0.016094609         3512 
 1652000    0.6039904   -7.5415376    331.27586  0.016710848  0.016080924         3517 
 1653000    0.6113224   -7.5341857    330.85657  0.016679601   0.01606726         3480 
 1654000   0.58812267   -7.5435605    330.74676  0.016663984  0.016053594         3505 
 1655000   0.58383728   -7.5316318    330.67769  0.016650438  0.016039947         3507 
 1656000   0.59847945   -7.5489559    330.44446  0.016628646  0.016026298         3527 
 1657000   0.59682909   -7.5292618    330.84671  0.016638841  0.016012665         3508 
 1658000   0.59732777   -7.5424555    330.62776    0.0166178   0.01599905         3507 
 1659000   0.59325518   -7.5326484    330.60512  0.016606647  0.015985446         3512 
 1660000    0.5951341   -7.5567353    330.59779  0.016596275   0.01597184         3521 
 1661000   0.57467883   -7.5471618    330.77326  0.016595086  0.015958253         3489 
 1662000   0.58619246   -7.5500531    330.47641  0.016570217   0.01594469         3528 
 1663000   0.59098625   -7.5582629      330.177   0.01654525  0.015931139         3486 
 1664000   0.59652756   -7.5397834    330.63407  0.016558197  0.015917584         3486 
 1665000   0.60479196   -7.5487438    331.09826  0.016571484  0.015904064         3491 
 1666000   0.58277413   -7.5440642    330.47249  0.016530237  0.015890558         3485 
 1667000     0.587482   -7.5534907    330.32269  0.016512832  0.015877051         3511 
 1668000   0.59035952   -7.5603598    330.35817  0.016504705  0.015863534         3498 
 1669000   0.58026341   -7.5534427    330.31369  0.016492595  0.015850051         3525 
 1670000    0.5774807   -7.5602929     330.7781  0.016505893  0.015836579         3511 
 1671000   0.58314765   -7.5526963    330.53505  0.016483894  0.015823128         3512 
 1672000    0.5841514   -7.5545039     330.6477   0.01647965  0.015809683         3538 
 1673000   0.58410632   -7.5535483    330.41766  0.016458341  0.015796267         3502 
 1674000   0.57788208   -7.5485095    330.66386  0.016460766  0.015782865         3505 
 1675000    0.5783511    -7.548943     330.1652   0.01642613  0.015769449         3542 
 1676000   0.58020296   -7.5453326    330.06579  0.016411386  0.015756043         3511 
 1677000   0.57361737    -7.555256    330.56187  0.016426251  0.015742659         3526 
 1678000   0.58794295   -7.5629062    330.82605  0.016429581  0.015729271         3519 
 1679000   0.58148149   -7.5430427    330.70023  0.016413551  0.015715909         3546 
 1680000   0.58414914   -7.5672767    330.56612  0.016397129  0.015702573         3514 
 1681000   0.57704998   -7.5628722    331.03544   0.01641064  0.015689237         3518 
 1682000   0.58724256   -7.5778982    330.74042  0.016386267  0.015675919         3536 
 1683000   0.58157185   -7.5410166    330.58933   0.01636905  0.015662617         3525 
 1684000   0.58462655   -7.5670638    330.73794  0.016366683  0.015649317         3550 
 1685000   0.58102548   -7.5522746    330.31368  0.016335988  0.015636018         3536 
 1686000   0.59524032   -7.5723423    330.92333  0.016356432  0.015622743         3539 
 1687000   0.58396178   -7.5709247    330.22728  0.016312353  0.015609467         3519 
 1688000   0.57760237     -7.56141     330.0122  0.016292071  0.015596203         3514 
 1689000   0.58097851   -7.5730868    330.35369  0.016299274   0.01558295         3533 
 1690000   0.56830894   -7.5540572    330.27546  0.016285772  0.015569699         3501 
 1691000   0.58240359   -7.5661639    330.05706  0.016265379  0.015556474         3520 
 1692000   0.58392698   -7.5636808    330.64869  0.016284904  0.015543268         3538 
 1693000   0.57623863    -7.594279    330.18044  0.016252236  0.015530065         3538 
 1694000   0.57472437    -7.572809    330.50181  0.016258452  0.015516889         3544 
 1695000   0.56602493    -7.574167    330.25122   0.01623654  0.015503707         3574 
 1696000   0.56446658   -7.5629559    329.34642  0.016182509  0.015490541         3549 
 1697000   0.56578825   -7.5639782    330.22396  0.016216065  0.015477391         3541 
 1698000    0.5712793   -7.5627717     330.0879  0.016199838  0.015464259         3552 
 1699000   0.56683287   -7.5869197    330.14934  0.016193317  0.015451134         3591 
 1700000   0.56682822    -7.569783    330.38219  0.016195205  0.015438017         3541 
 1701000   0.57490432    -7.581323    330.12521  0.016173095  0.015424932         3574 
 1702000   0.57220789   -7.5591016    330.46528  0.016180243  0.015411847         3544 
 1703000   0.57527714   -7.5871277    330.05027  0.016150434  0.015398784         3578 
 1704000   0.57722101     -7.59017    330.94754  0.016184837  0.015385727         3556 
 1705000   0.57879594   -7.5800505     330.0014  0.016129101   0.01537268         3534 
 1706000   0.58036724   -7.5949906    329.89358  0.016114379   0.01535964         3556 
 1707000   0.57216353   -7.5937151    329.54874  0.016088105  0.015346604         3513 
 1708000   0.56937189   -7.5727398    329.91846  0.016096724   0.01533358         3512 
 1709000   0.57643687   -7.5893043    329.46396  0.016065144  0.015320569         3559 
 1710000   0.57446532   -7.5950648    330.08207  0.016085871  0.015307573         3536 
 1711000   0.56764982   -7.5920158    330.20279  0.016082349  0.015294598         3554 
 1712000   0.55730647   -7.5916433    330.51988   0.01608839  0.015281618         3550 
 1713000   0.56445362   -7.5764287    330.13401  0.016060226  0.015268674         3551 
 1714000    0.5609248   -7.5716465    330.72395  0.016079539  0.015255733         3542 
 1715000   0.55287749   -7.5766566    330.34452  0.016051726  0.015242798         3558 
 1716000   0.56922569   -7.5809643    330.40782  0.016045446  0.015229882         3571 
 1717000   0.55457565   -7.5835471    329.88475  0.016010714   0.01521698         3571 
 1718000    0.5655377   -7.5986405    330.17103  0.016015281  0.015204088         3544 
 1719000   0.56576883   -7.5875932     329.6114  0.015978835   0.01519121         3550 
 1720000    0.5699216   -7.5892386    330.12457  0.015994408  0.015178344         3527 
 1721000   0.57756416   -7.5829602    330.00502  0.015979325  0.015165489         3552 
 1722000   0.56891122   -7.5882639    329.90812  0.015965356  0.015152641         3557 
 1723000   0.55326767    -7.599997    329.89845  0.015955623  0.015139803         3549 
 1724000   0.56120856   -7.6085156    330.05382  0.015953877   0.01512698         3530 
 1725000    0.5684089   -7.5940848    330.02894  0.015943427  0.015114181         3535 
 1726000   0.57264655   -7.5866588    330.15466   0.01594026  0.015101392         3514 
 1727000   0.56317464   -7.5779015    329.90703  0.015919081   0.01508861         3574 
 1728000   0.56120381   -7.5995478    330.60445  0.015943502  0.015075845         3557 
 1729000   0.56489156   -7.5818619    329.84939  0.015897888  0.015063095         3559 
 1730000   0.56486915   -7.5903111    329.90658  0.015891454  0.015050341         3553 
 1731000   0.56405206   -7.6070255    329.63871  0.015869377  0.015037613         3581 
 1732000   0.56273351   -7.5797459     329.6191  0.015859272  0.015024892         3552 
 1733000   0.56118882   -7.6021549     329.8414   0.01586081   0.01501219         3550 
 1734000    0.5647492   -7.6035747    330.23389  0.015870525  0.014999498         3542 
 1735000   0.56972567   -7.6080034    330.33853  0.015866404  0.014986815         3566 
 1736000   0.56140546   -7.5952286     330.0546  0.015843635  0.014974149         3524 
 1737000   0.55410134   -7.6001036    330.40903  0.015851518  0.014961498         3519 
 1738000   0.56466529   -7.6006893    329.97186  0.015821436   0.01494886         3553 
 1739000   0.55404347   -7.6050911    329.54592  0.015791926  0.014936225         3564 
 1740000   0.56088474   -7.5993684    329.75449   0.01579284  0.014923615         3578 
 1741000   0.56077985    -7.596472    329.93069  0.015792202  0.014911001         3527 
 1742000   0.55300271   -7.6039366    329.79713  0.015776747  0.014898409         3558 
 1743000   0.55121188   -7.6015919    330.02194  0.015778444  0.014885835         3538 
 1744000   0.55212043   -7.6124456    329.72216  0.015755072  0.014873264         3552 
 1745000   0.53831963   -7.5851384    329.51407  0.015736107   0.01486071         3591 
 1746000    0.5588093   -7.6195553    330.32038  0.015765577  0.014848177         3558 
 1747000   0.55072213   -7.6026845    329.80525  0.015731981  0.014835651         3551 
 1748000   0.55796111   -7.6032628    329.66547  0.015716317   0.01482315         3548 
 1749000   0.55174014   -7.5963445    329.91636  0.015719285  0.014810652         3581 
 1750000   0.55066092   -7.6038481    330.20423  0.015724011  0.014798151         3516 
 1751000   0.55515934   -7.5984242    329.50984  0.015681984   0.01478567         3542 
 1752000   0.55260325   -7.5989221    330.02957  0.015697754  0.014773206         3572 
 1753000    0.5464427   -7.6192614    330.05392  0.015689956  0.014760749         3551 
 1754000   0.55519534   -7.6119928     329.6472  0.015661688  0.014748307         3584 
 1755000   0.54979647   -7.5987727    329.59013  0.015650054  0.014735867         3539 
 1756000   0.55852046   -7.6105541    330.11322  0.015665965  0.014723447         3576 
 1757000   0.55038289   -7.6281669     329.8445  0.015644304  0.014711044         3571 
 1758000   0.55298447   -7.5986338    330.00756  0.015643134  0.014698648         3599 
 1759000   0.54960931   -7.6107754     329.3301  0.015602146  0.014686276         3567 
 1760000   0.55871404   -7.6210447     329.3453  0.015594001  0.014673907         3591 
 1761000   0.55727356   -7.6251249    329.67472  0.015600734  0.014661557         3559 
 1762000   0.55566873   -7.6218934    330.09706  0.015611855  0.014649224         3552 
 1763000   0.54387017   -7.6196468    329.29938  0.015565295  0.014636885         3559 
 1764000    0.5453483   -7.6158466    329.64323  0.015572715  0.014624561         3577 
 1765000   0.54553459   -7.6189767    329.39976  0.015552397  0.014612255         3607 
 1766000   0.54164676   -7.6099427    329.61485   0.01555374  0.014599958         3561 
 1767000   0.54606828   -7.6210546    329.43815  0.015536604  0.014587666         3542 
 1768000   0.54556729   -7.6237592     329.7535   0.01554268  0.014575401         3573 
 1769000   0.54004279   -7.6267889    329.42275  0.015518313  0.014563143         3583 
 1770000   0.55508458   -7.6021512      329.377  0.015507392  0.014550904         3539 
 1771000   0.54256092   -7.6172758    329.73488  0.015515475  0.014538666         3584 
 1772000   0.54873933   -7.6127172    329.50956  0.015496123   0.01452644         3546 
 1773000   0.53885433   -7.6277621    329.75387  0.015498866  0.014514223         3588 
 1774000   0.53374327   -7.6309528    329.83151  0.015493776  0.014502022         3570 
 1775000   0.54474465   -7.6425631    329.53381  0.015471071  0.014489837         3564 
 1776000    0.5449705   -7.6072739    329.11327  0.015442627  0.014477655         3562 
 1777000   0.53925159   -7.6140994    329.04635  0.015430799  0.014465496         3556 
 1778000   0.53780245   -7.6234625    329.46657  0.015441815   0.01445335         3592 
 1779000   0.55070307    -7.626455    329.65899  0.015442149  0.014441206         3567 
 1780000   0.53987566   -7.6347873    329.76261  0.015438325  0.014429073         3561 
 1781000   0.54434079   -7.6275779    329.13018  0.015400065   0.01441695         3561 
 1782000   0.54890713   -7.6050962    329.40388  0.015404222   0.01440485         3559 
 1783000    0.5385776   -7.6262611    329.99132  0.015423038  0.014392757         3557 
 1784000   0.54401653   -7.6214353    329.32025  0.015383046  0.014380677         3572 
 1785000   0.53905831   -7.6242552    329.75893  0.015394908  0.014368594         3541 
 1786000   0.53657272   -7.6387702    329.59123  0.015378463  0.014356543         3594 
 1787000   0.55192506   -7.6314019    329.37762  0.015359897    0.0143445         3560 
 1788000   0.53469169   -7.6426811    328.87723  0.015327984  0.014332463         3576 
 1789000   0.54199673   -7.6442069    329.83455  0.015364009  0.014320439         3570 
 1790000   0.54194403   -7.6257723    329.33006  0.015331939  0.014308428         3516 
 1791000   0.54307951   -7.6362551    329.49539  0.015331072  0.014296424         3593 
 1792000   0.53332661    -7.654587    329.84264  0.015338664  0.014284434         3535 
 1793000    0.5364708    -7.629128    329.34872  0.015307154  0.014272457         3584 
 1794000    0.5348138    -7.624187    329.41388  0.015301648  0.014260494         3589 
 1795000   0.53076842   -7.6334018    329.80328  0.015311202  0.014248542         3564 
 1796000   0.52760991   -7.6444223    329.21446  0.015275355  0.014236599         3565 
 1797000   0.54512019   -7.6288876    329.08734   0.01526096  0.014224674         3583 
 1798000   0.52809806   -7.6421642     329.6394  0.015278059  0.014212765         3575 
 1799000   0.54493382   -7.6155233    329.37833  0.015257473   0.01420086         3570 
 1800000   0.55253025   -7.6527174    329.07557   0.01523498  0.014188974         3576 
 1801000   0.55546964   -7.6372491      329.271  0.015235563  0.014177091         3575 
 1802000   0.52090403    -7.646491    329.43795  0.015234829  0.014165225         3571 
 1803000   0.53901575    -7.652958    329.00767  0.015206493  0.014153375         3589 
 1804000   0.52760957   -7.6401787    329.30259  0.015211687  0.014141541         3554 
 1805000   0.53294199   -7.6428904    329.81537  0.015226933   0.01412972         3549 
 1806000   0.52514229   -7.6232213    329.22536  0.015191277  0.014117909         3517 
 1807000   0.52499171   -7.6433261    329.77374   0.01520816  0.014106113         3497 
 1808000   0.53878357   -7.6387294    329.46522  0.015185528  0.014094321         3572 
 1809000    0.5244585   -7.6368293    329.03941  0.015157519  0.014082533         3560 
 1810000   0.52768723   -7.6443622    329.23966  0.015158364  0.014070765         3515 
 1811000   0.52314435   -7.6341593    328.67195   0.01512387   0.01405901         3582 
 1812000    0.5179738   -7.6399082    329.63802  0.015159953  0.014047268         3524 
 1813000   0.52295671   -7.6287645    328.68639   0.01510785  0.014035533         3525 
 1814000   0.54204368   -7.6272579    329.29715   0.01512758  0.014023817         3543 
 1815000   0.52854718   -7.6517752    329.11892  0.015111062  0.014012111         3561 
 1816000   0.52324064   -7.6468497    329.73566  0.015131042  0.014000426         3515 
 1817000   0.52724836   -7.6462786    329.42077  0.015108272  0.013988731         3529 
 1818000   0.52095459   -7.6475403    329.08653  0.015084641   0.01397705         3539 
 1819000   0.52469545    -7.643966    329.20711  0.015081872  0.013965389         3553 
 1820000   0.51992164   -7.6298918    328.79895  0.015054897  0.013953734         3564 
 1821000   0.53030209   -7.6393688      329.041  0.015057707  0.013942094         3509 
 1822000    0.5235998   -7.6561603    328.93379  0.015044539  0.013930461         3520 
 1823000   0.52107242   -7.6515143    329.41812  0.015058426  0.013918834         3504 
 1824000    0.5225393   -7.6611976     328.8031  0.015022072  0.013907229         3544 
 1825000   0.53356556   -7.6528174    328.91969  0.015019164  0.013895632         3484 
 1826000   0.51623963   -7.6386572    328.87381  0.015008845  0.013884041         3519 
 1827000   0.53205192   -7.6456423    329.27434  0.015018899  0.013872467         3529 
 1828000   0.51796048   -7.6529684    328.74198  0.014986414  0.013860907         3553 
 1829000   0.51953327   -7.6534391    328.66457  0.014974693  0.013849356         3534 
 1830000   0.51677225   -7.6696918    329.60513  0.015009341  0.013837823         3553 
 1831000    0.5213135   -7.6453347    328.94081  0.014970909  0.013826286         3517 
 1832000   0.52133791   -7.6595824     329.0377  0.014967144  0.013814763         3555 
 1833000   0.51933996   -7.6678893    329.24985  0.014968624   0.01380325         3542 
 1834000   0.52574118   -7.6625602    328.72577  0.014936649  0.013791747         3518 
 1835000    0.5256622   -7.6628345     328.6187  0.014923647  0.013780245         3520 
 1836000   0.51802454   -7.6628666    329.10659  0.014937663  0.013768755         3558 
 1837000   0.51900009   -7.6803843    329.18322  0.014933008  0.013757289         3539 
 1838000   0.52133831   -7.6628846    328.29478  0.014884602  0.013745818         3586 
 1839000   0.52085475   -7.6714009    328.72162   0.01489585  0.013734354         3568 
 1840000    0.5159325   -7.6732227    328.64388  0.014884234  0.013722905         3554 
 1841000    0.5203492   -7.6812683    329.05299  0.014894667  0.013711471         3558 
 1842000    0.5232793   -7.6645408    328.81278  0.014875714  0.013700057         3566 
 1843000    0.5196268   -7.6748248    329.05742  0.014878704  0.013688646         3566 
 1844000   0.51719822   -7.6687844     328.5637  0.014848323  0.013677251         3573 
 1845000   0.50856938   -7.6749106    329.56155  0.014885346  0.013665864         3545 
 1846000   0.52984264   -7.6693865    328.82152  0.014843875  0.013654493         3573 
 1847000   0.51460932   -7.6786456    329.21509  0.014853595  0.013643136         3565 
 1848000   0.52013902   -7.6697833    328.85584  0.014829358  0.013631781         3554 
 1849000    0.5145602   -7.6579859    328.69268  0.014813984  0.013620442         3531 
 1850000   0.51654285   -7.6625124    328.40943  0.014793218  0.013609109         3570 
 1851000   0.52373437   -7.6691653    328.55812   0.01479192  0.013597794         3556 
 1852000   0.51832406   -7.6681368    328.29572  0.014772126  0.013586493         3566 
 1853000   0.50307426   -7.6805179    328.80029  0.014786845  0.013575199         3547 
 1854000   0.51216022   -7.6543833    328.38937  0.014760399  0.013563918         3532 
 1855000   0.50577616   -7.6566359    329.16183  0.014787144  0.013552668         3543 
 1856000   0.51796751   -7.6576497    328.89852  0.014767355  0.013541418         3558 
 1857000   0.51238055   -7.6821906    328.73431  0.014752033   0.01353017         3558 
 1858000   0.50391362   -7.6469912    328.47871   0.01473263   0.01351893         3553 
 1859000   0.50421649   -7.6637555    328.36347  0.014719539    0.0135077         3556 
 1860000   0.50854562   -7.6734609    328.94049  0.014737477   0.01349648         3538 
 1861000   0.51169109   -7.6723311    328.15975  0.014694597  0.013485273         3556 
 1862000    0.5113057   -7.6652798     329.3165  0.014738476  0.013474086         3542 
 1863000   0.51261317   -7.6776407    328.96209  0.014714711  0.013462897         3549 
 1864000   0.51733431    -7.683797    328.60706  0.014690945  0.013451723         3586 
 1865000   0.50748142    -7.682535    328.62445  0.014683845  0.013440557         3556 
 1866000   0.50691766   -7.6835918    328.54233  0.014672309  0.013429408         3569 
 1867000   0.50637723   -7.6951787    328.92333  0.014681456  0.013418279         3545 
 1868000   0.51031622   -7.6746015    328.78829  0.014667572  0.013407151         3550 
 1869000    0.5148246   -7.6657886    328.22877  0.014634777  0.013396047         3540 
 1870000   0.50756288   -7.6684179    328.72551  0.014649087   0.01338495         3567 
 1871000   0.51491073   -7.6995088     329.0129  0.014654057  0.013373856         3556 
 1872000   0.49326646    -7.689025    328.44462  0.014620932  0.013362775         3557 
 1873000   0.49571977   -7.6781018    328.44974  0.014613354  0.013351706         3558 
 1874000   0.50893013   -7.6949669    328.78859  0.014620624  0.013340646         3572 
 1875000   0.50317806   -7.6737227    328.44315  0.014597473  0.013329599         3551 
 1876000   0.50313984   -7.6741909    328.64082  0.014598473  0.013318561         3542 
 1877000   0.49440203   -7.6871584     328.1805  0.014570258  0.013307543         3546 
 1878000   0.49978377   -7.6782391    328.51949  0.014577542  0.013296524         3555 
 1879000   0.51329415   -7.6804452    328.74809  0.014579922  0.013285522         3553 
 1880000   0.50155458   -7.6875273    328.14036  0.014545229  0.013274532         3524 
 1881000    0.4945532   -7.6930191     328.5712  0.014556583  0.013263558         3535 
 1882000   0.48945744   -7.6984973    328.30684  0.014537143  0.013252594         3556 
 1883000   0.50791679   -7.6919729     328.6891   0.01454634  0.013241632         3549 
 1884000    0.4966074   -7.6897185    329.08745  0.014556239  0.013230689         3530 
 1885000   0.50283869   -7.6869246    328.40108  0.014518173  0.013219765         3577 
 1886000    0.4966115   -7.6848576    328.17243  0.014500373  0.013208847         3530 
 1887000   0.48849745   -7.6896675    328.26844  0.014496928  0.013197937         3540 
 1888000    0.5005124   -7.6838579    328.28153  0.014489827  0.013187032         3560 
 1889000   0.50383951   -7.6845974    328.79008  0.014504591  0.013176144         3569 
 1890000   0.50094508   -7.6727782    328.11309  0.014467068  0.013165262         3555 
 1891000    0.4898689   -7.6930972     328.4356  0.014473629  0.013154391         3513 
 1892000   0.50174695   -7.6997981    327.92971  0.014443698  0.013143542         3555 
 1893000   0.49109547   -7.7068654    328.97071  0.014481894  0.013132689         3554 
 1894000   0.49614715   -7.6914269    328.32414    0.0144458  0.013121853         3580 
 1895000   0.49751948   -7.7097745    327.96353  0.014422319  0.013111022         3560 
 1896000   0.49824191    -7.693615    328.17382  0.014423955  0.013100213         3568 
 1897000   0.49324211   -7.6972791      328.112  0.014413636   0.01308942         3561 
 1898000   0.50925283   -7.6942732    328.35933  0.014416901  0.013078626         3544 
 1899000   0.49521475   -7.6979739    328.06977  0.014396602  0.013067842         3543 
 1900000   0.48781479   -7.6965673    328.10768  0.014390688  0.013057087         3559 
 1901000   0.48568919   -7.6879931    328.26286   0.01438992  0.013046327         3536 
 1902000   0.50226171   -7.6881376    328.43857  0.014390053  0.013035579         3548 
 1903000    0.4815365    -7.699442    328.08224  0.014366887  0.013024844         3558 
 1904000   0.49488531   -7.7220673    329.06293  0.014402264  0.013014124         3557 
 1905000   0.49616853   -7.6806127    328.43547  0.014367256  0.013003405         3569 
 1906000   0.48961631   -7.7075126    327.61073  0.014323659  0.012992706         3551 
 1907000   0.48071415   -7.7030098    328.27848  0.014345328  0.012982009         3552 
 1908000    0.4870371   -7.6913658    327.76721  0.014315479  0.012971327         3548 
 1909000   0.49536936      -7.7022    327.92276   0.01431477  0.012960658         3559 
 1910000   0.48931885   -7.6806996    328.26137  0.014322049  0.012950002         3532 
 1911000   0.48467521   -7.6943821    327.96378  0.014301578  0.012939361         3571 
 1912000   0.49435541   -7.7036645    328.10802  0.014300384  0.012928723         3554 
 1913000   0.48702771   -7.6957006     327.9811   0.01428738  0.012918091         3555 
 1914000   0.48997499   -7.7058812     328.3088  0.014294183  0.012907475         3551 
 1915000    0.4917635   -7.7049055    328.05434  0.014275646  0.012896864         3561 
 1916000   0.48374658   -7.6907864    328.48062  0.014286736  0.012886277         3556 
 1917000   0.48584213   -7.7056562    328.42784  0.014276988  0.012875694         3559 
 1918000   0.49154376   -7.7098107    327.75015    0.0142401  0.012865115         3554 
 1919000   0.48736415   -7.7032407    328.31063  0.014257019  0.012854558         3539 
 1920000    0.4876604   -7.7165835    327.66632  0.014221628  0.012844002         3541 
 1921000    0.4855704   -7.6932462    327.73457  0.014217186  0.012833454         3552 
 1922000   0.48028619    -7.710901    328.39228  0.014238305  0.012822924         3578 
 1923000   0.49140262   -7.7153057    327.61014  0.014197007  0.012812407         3561 
 1924000   0.48937688   -7.7140475    328.08399  0.014210152  0.012801903         3538 
 1925000   0.49510258   -7.7196213    328.17384   0.01420666   0.01279141         3557 
 1926000   0.49441504   -7.7049298    327.70097  0.014178824  0.012780913         3564 
 1927000    0.4843965    -7.714837    328.18059  0.014192207  0.012770438         3565 
 1928000   0.47427297   -7.7100461    328.01774  0.014177807  0.012759981         3597 
 1929000   0.48369691   -7.7174046    328.30495  0.014182864  0.012749519         3561 
 1930000   0.47795507   -7.7129491    328.07249  0.014165479  0.012739076         3529 
 1931000   0.48717408   -7.7053853    327.90664  0.014150986  0.012728637         3549 
 1932000   0.49081509   -7.7165248    328.22233  0.014157278  0.012718216         3545 
 1933000   0.48415709   -7.6975986    328.02963  0.014141646  0.012707807         3549 
 1934000   0.46840449   -7.6992675    327.99574  0.014132874  0.012697403         3563 
 1935000   0.49180865   -7.7102779    327.70499  0.014113049  0.012687014         3583 
 1936000    0.4883568    -7.709812     327.8882  0.014113645   0.01267663         3551 
 1937000   0.48166765   -7.7305264    328.05191  0.014113402  0.012666253         3581 
 1938000   0.47856546   -7.7225725    327.82932  0.014096548  0.012655892         3586 
 1939000   0.47077833   -7.7062191    328.20597  0.014105466  0.012645543         3547 
 1940000   0.48017138   -7.7270855    328.10703  0.014093945  0.012635201         3555 
 1941000   0.46811386   -7.7285092    327.92068  0.014078683  0.012624865         3566 
 1942000   0.48690833   -7.7198379     327.7856  0.014065637  0.012614533         3558 
 1943000   0.48423458   -7.7303346    327.98486  0.014066944  0.012604219         3552 
 1944000   0.48195918   -7.7145283    328.10383  0.014064807  0.012593919         3556 
 1945000   0.47094388   -7.7224796    327.75643  0.014042692  0.012583622         3565 
 1946000    0.4802199   -7.7200796    327.87653  0.014040619  0.012573341         3551 
 1947000   0.48622058   -7.7340956    327.72428  0.014026891   0.01256307         3564 
 1948000    0.4793074   -7.7086827    327.06399  0.013991444  0.012552803         3565 
 1949000    0.4818384   -7.7244943    327.83143  0.014017078  0.012542553         3545 
 1950000   0.48288423   -7.7034636    327.73696  0.014005853  0.012532311         3546 
 1951000   0.47818609   -7.7238683    327.50679  0.013988843  0.012522084         3587 
 1952000   0.47298021   -7.7218682    327.74209  0.013991722  0.012511856         3539 
 1953000   0.48345045   -7.7268378    327.84706  0.013989036  0.012501652         3530 
 1954000   0.48124829   -7.7251998    327.71271  0.013976147  0.012491457         3559 
 1955000   0.47348056   -7.7169365    328.18036  0.013988933  0.012481271         3574 
 1956000   0.48389086   -7.7098529    327.68924  0.013960857  0.012471101         3544 
 1957000   0.47185749    -7.723222    327.59433  0.013949682  0.012460944         3548 
 1958000    0.4750532    -7.713368    327.30919  0.013930422  0.012450782         3563 
 1959000   0.46854126   -7.7419286    328.25252  0.013963439  0.012440641         3544 
 1960000   0.47451276   -7.7080051     328.2559  0.013956458  0.012430501         3566 
 1961000   0.46662887   -7.7339089    328.02156  0.013939383  0.012420377         3571 
 1962000   0.46648401   -7.7407082     327.9061  0.013927374  0.012410263         3555 
 1963000   0.46313922   -7.7338223    327.56041  0.013905604  0.012400163         3575 
 1964000   0.47431624   -7.7336045    327.17116  0.013882008  0.012390065         3588 
 1965000   0.46863783   -7.7357663    327.69991  0.013897367  0.012379976         3566 
 1966000   0.46337119   -7.7393519    327.98461  0.013902366  0.012369909         3561 
 1967000   0.46458654   -7.7176304    328.12344  0.013901179   0.01235985         3569 
 1968000   0.46664906   -7.7197258    327.18497  0.013854377  0.012349803         3563 
 1969000   0.47351749   -7.7481616    327.77781  0.013872431  0.012339768         3570 
 1970000   0.46234937   -7.7208305    327.18882  0.013840475  0.012329733         3597 
 1971000   0.46228098   -7.7323282    327.76747  0.013857918  0.012319703         3549 
 1972000   0.46500098   -7.7354712    327.22104  0.013827799  0.012309681         3568 
 1973000   0.46762845   -7.7439564    328.02738  0.013854848   0.01229968         3582 
 1974000   0.46480665   -7.7207373    327.67184   0.01383282  0.012289684         3567 
 1975000   0.47085368   -7.7425577    327.64328  0.013824611  0.012279696         3568 
 1976000   0.45606254   -7.7521109     327.4852  0.013810948  0.012269719         3571 
 1977000   0.46499866   -7.7220678    327.27598  0.013795143  0.012259749         3573 
 1978000   0.46307772   -7.7410753    327.81522  0.013810887  0.012249802         3587 
 1979000   0.46380258   -7.7505804    327.46404  0.013789121  0.012239857         3564 
 1980000   0.46384708   -7.7260829    326.93243  0.013759782  0.012229922         3588 
 1981000   0.47087755   -7.7503385    327.35078  0.013770435  0.012219993         3636 
 1982000   0.46121927   -7.7331229    327.78897  0.013781911  0.012210075         3583 
 1983000   0.44820203   -7.7398952    327.66573  0.013769782  0.012200168         3544 
 1984000   0.46190556   -7.7388032    327.51961  0.013756704  0.012190275         3581 
 1985000   0.46233064   -7.7250661     327.5766  0.013752166  0.012180399         3582 
 1986000   0.46436346    -7.737367    326.96237  0.013719468  0.012170521         3578 
 1987000   0.45200524   -7.7346783    327.74255  0.013745284  0.012160665         3554 
 1988000   0.45278114   -7.7533057    327.70324  0.013736722  0.012150814         3535 
 1989000   0.47170811    -7.747828    327.29005  0.013712504  0.012140962         3582 
 1990000   0.46501971   -7.7455169    327.15558  0.013699983  0.012131131         3581 
 1991000   0.46422439   -7.7362078    327.58794  0.013711198  0.012121307         3554 
 1992000    0.4586301   -7.7484481    327.32738  0.013693414  0.012111492         3569 
 1993000   0.45058489   -7.7421932    327.32694  0.013686525  0.012101694         3568 
 1994000   0.44779249   -7.7584293    327.47108  0.013685685  0.012091903         3600 
 1995000   0.45778373   -7.7502051    327.03876  0.013660767  0.012082118         3567 
 1996000   0.45612223   -7.7474762    327.84191  0.013687455  0.012072343         3555 
 1997000   0.45063208   -7.7363475    327.19385  0.013653558  0.012062576         3543 
 1998000   0.45727876   -7.7579359    327.56102  0.013662038  0.012052821         3583 
 1999000   0.45480125   -7.7477593    327.55197  0.013654826  0.012043083         3563 
 2000000   0.45736091   -7.7465742    327.19702  0.013633209   0.01203334         3588 
 2001000   0.45475922   -7.7504358    326.86449  0.013612547  0.012023609         3572 
 2002000   0.44030532   -7.7382602    327.29229  0.013623555  0.012013898         3579 
 2003000   0.46131366   -7.7610161    327.78542   0.01363727  0.012004197         3550 
 2004000    0.4553663   -7.7578186     327.5946   0.01362253  0.011994502         3575 
 2005000   0.44189598   -7.7397302    327.44507  0.013609521  0.011984817         3570 
 2006000   0.45678538   -7.7319508    327.42091  0.013601733  0.011975142         3579 
 2007000    0.4552198   -7.7651312    327.25911  0.013588237   0.01196548         3571 
 2008000   0.45112494    -7.734457    326.89009  0.013566156  0.011955831         3549 
 2009000   0.46106789   -7.7493159    326.85918  0.013558121  0.011946187         3564 
 2010000   0.44472486   -7.7744099    327.25659  0.013567852  0.011936546         3589 
 2011000   0.44978624   -7.7439073    327.52918  0.013572401  0.011926917         3571 
 2012000   0.45188924   -7.7389617    327.15439  0.013550132  0.011917296         3608 
Loop time of 4267.41 on 48 procs for 2000000 steps with 4000 atoms

Performance: 80985.826 tau/day, 468.668 timesteps/s
99.4% CPU use with 48 MPI tasks x no OpenMP threads

MPI task timing breakdown:
Section |  min time  |  avg time  |  max time  |%varavg| %total
---------------------------------------------------------------
Pair    | 262.68     | 295.21     | 308.99     |  60.5 |  6.92
Neigh   | 26.887     | 27.205     | 28.011     |   4.0 |  0.64
Comm    | 232.16     | 249.48     | 283.74     |  72.7 |  5.85
Output  | 4.6239     | 4.6261     | 4.6614     |   0.2 |  0.11
Modify  | 3629.3     | 3643.9     | 3658.8     |  15.8 | 85.39
Other   |            | 46.95      |            |       |  1.10

Nlocal:        83.3333 ave          91 max          76 min
Histogram: 1 4 5 5 6 7 13 2 4 1
Nghost:        1771.17 ave        1793 max        1759 min
Histogram: 6 5 11 8 4 8 2 2 1 1
Neighs:        10726.9 ave       11930 max        9683 min
Histogram: 2 3 7 5 10 10 5 3 2 1
FullNghs:      21454.4 ave       23463 max       19551 min
Histogram: 1 7 3 5 8 9 7 3 4 1

Total # of neighbors = 1029812
Ave neighs/atom = 257.45300
Neighbor list builds = 107938
Dangerous builds = 1

#clear
#
#next RN
#
#jump SELF
Total wall time: 1:11:10
