
units lj                  # Use reduced LJ style units
atom_style atomic         # Uncharged point particles
atom_modify map hash      # Needed for indexing of clusters etc
                          # Used to be able to find where atoms are in relation to each other.

lattice fcc 1.0 spacing 1 1 1
Lattice spacing in x,y,z = 1.5874011 1.5874011 1.5874011
region box block 0 10 0 10 0 10 units lattice
create_box 2 box
Created orthogonal box = (0.0000000 0.0000000 0.0000000) to (15.874011 15.874011 15.874011)
  3 by 4 by 4 MPI processor grid
create_atoms 1 box
Created 4000 atoms
  using lattice units in orthogonal box = (0.0000000 0.0000000 0.0000000) to (15.874011 15.874011 15.874011)
  create_atoms CPU = 0.026 seconds
set type 1 type/fraction 2 0.45 78393
Setting atom values ...
  1799 settings made for type/fraction
mass 1 1.0
mass 2 1.0
pair_style lj/cut  3.5
pair_modify tail  yes
pair_coeff 1  1  1.0  1.0   # Intearaction between 1 and 1 set with epsilon = 1 and sigma = 1
pair_coeff 1  2  1.5  0.8
pair_coeff 2  2  0.5  0.88

write_data data.0
System init for write_data ...
Neighbor list info ...
  update every 1 steps, delay 10 steps, check yes
  max neighbors/atom: 2000, page size: 100000
  master list distance cutoff = 3.8
  ghost atom cutoff = 3.8
  binsize = 1.9, bins = 9 9 9
  1 neighbor lists, perpetual/occasional/extra = 1 0 0
  (1) pair lj/cut, perpetual
      attributes: half, newton on
      pair build: half/bin/atomonly/newton
      stencil: half/bin/3d
      bin: standard
WARNING: Not all mixed pair coeffs generated from mixing. Use write_data with 'pair ij' option to store all pair coeffs. (../write_data.cpp:312)


#############################
#   M E L T   S Y S T E M   #
#############################

velocity all create 2.4 1741580 mom yes dist gaussian # Assign velocities
                                                    # Temperature 2.4, random number seed, zero linear momentum
                                                                                # Gaussian distribution

timestep 0.002   # simulation timestep
thermo 1000       # output thermodynamic data every 1000 steps bf 100

# Define a fix  in this case with index 1 applied to all
# particles in the simulation. This fix is for simulations
# in the anisotropic NPT ensemble. Note that we use the MTK
# correction.
fix 1 all npt temp 2.4 2.4 0.1 iso 5.68 5.68 0.5 mtk yes tchain 5 pchain 5 # Use NPT ensemble
                                                                         # Set temperature and pressure and damping
                                                                         # Numbers of thermostats in chain and in barostat
run 10000          # run for 10000 steps
Per MPI rank memory allocation (min/avg/max) = 3.642 | 3.644 | 3.648 Mbytes
Step Temp E_pair E_mol TotEng Press Volume 
       0          2.4   -5.5879345            0   -1.9888345   -4.1997978         4000 
    1000    2.3836746   -5.0428075            0   -1.4681894    5.4689438    3782.8098 
    2000    2.3909816   -4.9493584            0   -1.3637826    6.0029028    3777.1718 
    3000    2.4602831   -4.9715072            0   -1.2820052    5.4942357    3816.6455 
    4000    2.4059405   -5.0220527            0   -1.4140442    5.5204219     3787.341 
    5000    2.3748117   -4.9019352            0   -1.3406082    5.6082285    3826.5372 
    6000    2.3751614   -5.0353297            0   -1.4734782    5.4933741    3775.8533 
    7000    2.4185215   -4.9777105            0   -1.3508351    5.8738667    3784.5014 
    8000    2.4070108   -4.9698323            0   -1.3602188    5.7604954    3785.2999 
    9000    2.3592591   -5.0699075            0   -1.5319037    5.4963037    3761.2264 
   10000    2.4230569   -4.9467502            0   -1.3130735    5.6915768    3809.5959 
Loop time of 2.56073 on 48 procs for 10000 steps with 4000 atoms

Performance: 674806.782 tau/day, 3905.132 timesteps/s
99.6% CPU use with 48 MPI tasks x no OpenMP threads

MPI task timing breakdown:
Section |  min time  |  avg time  |  max time  |%varavg| %total
---------------------------------------------------------------
Pair    | 1.1789     | 1.2191     | 1.2803     |   2.2 | 47.61
Neigh   | 0.21552    | 0.22071    | 0.23248    |   0.7 |  8.62
Comm    | 0.77964    | 0.85197    | 0.91185    |   3.3 | 33.27
Output  | 0.0002466  | 0.00025255 | 0.00033057 |   0.0 |  0.01
Modify  | 0.23395    | 0.25296    | 0.27126    |   2.2 |  9.88
Other   |            | 0.01569    |            |       |  0.61

Nlocal:        83.3333 ave          94 max          74 min
Histogram: 1 5 4 6 11 5 8 3 3 2
Nghost:        1696.73 ave        1723 max        1656 min
Histogram: 2 3 4 1 3 7 7 9 6 6
Neighs:        10024.6 ave       11897 max        8782 min
Histogram: 4 5 7 11 9 4 4 2 0 2

Total # of neighbors = 481181
Ave neighs/atom = 120.29525
Neighbor list builds = 906
Dangerous builds = 209

# Equilibrate just above the melting temperature to avoid step fn in T

fix 1 all npt temp 1.25 1.25 0.1 iso 5.68 5.68 0.5 mtk yes tchain 5 pchain 5
run 2000
Per MPI rank memory allocation (min/avg/max) = 3.644 | 3.645 | 3.649 Mbytes
Step Temp E_pair E_mol TotEng Press Volume 
   10000    2.4230569   -4.9467502            0   -1.3130735    5.6915768    3809.5959 
   11000    1.2661768   -7.0299602            0   -5.1311698    5.8889616    2978.7018 
   12000    1.2860809   -7.1718341            0    -5.243195    5.6078119    2951.5263 
Loop time of 0.641158 on 48 procs for 2000 steps with 4000 atoms

Performance: 539025.096 tau/day, 3119.358 timesteps/s
99.6% CPU use with 48 MPI tasks x no OpenMP threads

MPI task timing breakdown:
Section |  min time  |  avg time  |  max time  |%varavg| %total
---------------------------------------------------------------
Pair    | 0.28074    | 0.30797    | 0.36776    |   2.8 | 48.03
Neigh   | 0.040146   | 0.043017   | 0.051067   |   0.9 |  6.71
Comm    | 0.17546    | 0.24136    | 0.27447    |   3.6 | 37.64
Output  | 5.1347e-05 | 5.4559e-05 | 7.422e-05  |   0.0 |  0.01
Modify  | 0.038616   | 0.043757   | 0.048069   |   1.3 |  6.82
Other   |            | 0.004995   |            |       |  0.78

Nlocal:        83.3333 ave          91 max          73 min
Histogram: 2 2 3 4 4 6 13 7 4 3
Nghost:        2021.23 ave        2053 max        1989 min
Histogram: 1 2 6 6 7 10 8 6 1 1
Neighs:        12939.2 ave       14834 max       10907 min
Histogram: 2 2 5 5 9 8 5 7 3 2

Total # of neighbors = 621082
Ave neighs/atom = 155.27050
Neighbor list builds = 143
Dangerous builds = 8

#############################
# L I N E A R  Q U E N C H  #
#############################

# Define solid atoms. This closely follows ten Wolde  Ruiz-Montero and Frenkel  Faraday Discuss  1996  104  93-110
# Compute components of the per-atom q6 vector
compute q6 all orientorder/atom degrees 1 6 components 6 nnn NULL cutoff 1.3 # compute the Q6 parameter.
                                                                             # Use all neighbours within 1.3 unit cell.

# get number of connections
compute coord_number all coord/atom orientorder q6 0.5

# An atom is solid if it has 8 or more connections (of a possible 14)
variable is_solid atom c_coord_number>=8
group solid dynamic all var is_solid    # Must be dynamic to update
dynamic group solid defined

# do clustering
compute cluster solid cluster/atom 1.3 # Create a cluster where all atoms within are solid and max 1.3 units from another member

# define chunks one chunk per cluster
compute clus_chunks solid chunk/atom c_cluster nchunk every compress yes  # Says which atoms are in which chunk

# count the size of each chunk
compute size_chunks solid property/chunk clus_chunks count


# Find the maximum entry in the vector of chunk sizes
variable max_n equal max(c_size_chunks)


# Thermo style which includes this variable
# thermo_style custom step temp pe vol v_max_n

thermo ${N}  # Print the thermo information every 100 steps
thermo 1000  

# Reset the npt fix at a lower temperature (below freezing)
fix 1  all npt temp  ${temp} ${temp}  0.1  iso  5.68  5.68  0.5  mtk yes tchain  5  pchain  5
fix 1  all npt temp  0.45 ${temp}  0.1  iso  5.68  5.68  0.5  mtk yes tchain  5  pchain  5
fix 1  all npt temp  0.45 0.45  0.1  iso  5.68  5.68  0.5  mtk yes tchain  5  pchain  5

dump dmp2 all dcd ${N} traj.dcd
dump dmp2 all dcd 1000 traj.dcd


compute msd all msd com yes
variable twopoint equal c_msd[4]/6/(step*dt+1.0e-6)
fix 9 all vector 10 c_msd[4]
variable fit equal slope(f_9)/6/(10*dt)
thermo_style custom step temp pe c_msd[4] v_twopoint v_fit v_max_n

fix 1 all npt temp 1.25 ${temp} 0.1 iso 5.68 5.68 0.5 mtk yes tchain 5 pchain 5
fix 1 all npt temp 1.25 0.45 0.1 iso 5.68 5.68 0.5 mtk yes tchain 5 pchain 5
run 500000 # 5000000  # Run for this many steps
Neighbor list info ...
  update every 1 steps, delay 10 steps, check yes
  max neighbors/atom: 2000, page size: 100000
  master list distance cutoff = 3.8
  ghost atom cutoff = 3.8
  binsize = 1.9, bins = 8 8 8
  4 neighbor lists, perpetual/occasional/extra = 1 3 0
  (1) pair lj/cut, perpetual
      attributes: half, newton on
      pair build: half/bin/atomonly/newton
      stencil: half/bin/3d
      bin: standard
  (2) compute orientorder/atom, occasional
      attributes: full, newton on
      pair build: full/bin/atomonly
      stencil: full/bin/3d
      bin: standard
  (3) compute coord/atom, occasional
      attributes: full, newton on
      pair build: full/bin/atomonly
      stencil: full/bin/3d
      bin: standard
  (4) compute cluster/atom, occasional
      attributes: full, newton on
      pair build: full/bin/atomonly
      stencil: full/bin/3d
      bin: standard
Per MPI rank memory allocation (min/avg/max) = 9.833 | 9.839 | 9.845 Mbytes
Step Temp PotEng c_msd[4] v_twopoint v_fit v_max_n 
   12000    1.2860809   -7.1718341            0            0 8.3333333e+20            1 
   13000    1.2704581   -7.1298762   0.47065963 0.0030170488  0.038571164            2 
   14000    1.2068685   -7.1218655   0.89883637 0.0053502163  0.037093753            1 
   15000     1.263652    -7.145408    1.2661866 0.0070343698  0.035023811            3 
   16000    1.2295386   -7.1312813    1.6628166 0.0086605027  0.033870711            1 
   17000    1.2449266    -7.168779    2.0284768 0.0099435133  0.033116368            1 
   18000    1.2457428   -7.1435351    2.4075731  0.011146171  0.032654975            1 
   19000    1.2683943   -7.1372157    2.8190485  0.012364247  0.032488676            2 
   20000    1.2234119   -7.1459514    3.2290491  0.013454371  0.032493233            2 
   21000    1.2082304   -7.1146503    3.5889708  0.014241947  0.032468266            1 
   22000     1.248671   -7.1776148     3.959135  0.014996723   0.03231278            2 
   23000    1.2324863   -7.1579518    4.3553712   0.01578033  0.032177311            2 
   24000    1.2212334   -7.2096408    4.6900018  0.016284728  0.032196198            2 
   25000    1.1983922   -7.2146804    5.0885354  0.016961784  0.032116447            1 
   26000    1.2544839   -7.1754485    5.5248619   0.01770789  0.032084679            1 
   27000    1.2137894    -7.200118     5.966047  0.018413725  0.032224628            2 
   28000    1.2510294   -7.2459582    6.3190852  0.018806801  0.032324797            1 
   29000    1.1989798   -7.2076667    6.6280413  0.019046095  0.032305601            2 
   30000    1.2558783     -7.19442    6.9602962  0.019334156  0.032206115            1 
   31000    1.1904274    -7.181815    7.3809114  0.019841159  0.032124835            2 
   32000    1.2481526   -7.2111276    7.7591736  0.020206181  0.032072675            1 
   33000    1.2256347   -7.2516807    8.0888512  0.020426392  0.031975281            2 
   34000     1.211845   -7.2278765    8.3979082  0.020583108  0.031869159            1 
   35000    1.2265735   -7.2582218    8.7778968  0.020899754  0.031726158            1 
   36000     1.244015   -7.2246861    9.1587496  0.021200809  0.031637621            2 
   37000    1.2175864   -7.2257289    9.5005753  0.021397692  0.031548155            7 
   38000    1.2019953   -7.2614568    9.8076003  0.021507895  0.031423094            2 
   39000    1.2117305   -7.2312122    10.078391  0.021535023  0.031286485            1 
   40000    1.2357846    -7.248226    10.519305  0.021915218  0.031154882            1 
   41000    1.2053025   -7.2454692    10.862593  0.022078441  0.031057583            1 
   42000    1.2149386   -7.2496936    11.227353  0.022276494  0.030990565            1 
   43000    1.2011594    -7.251307    11.617018  0.022513601  0.030944053            2 
   44000    1.2253378   -7.2733234    12.012628   0.02275119  0.030913666            3 
   45000    1.2025326   -7.2599866    12.210726  0.022612455  0.030835378            3 
   46000    1.1917281   -7.2681467    12.576359  0.022783259  0.030730981            1 
   47000    1.2181701   -7.2724235    12.955642  0.022970996  0.030632271            1 
   48000    1.1793901   -7.2436774    13.351183  0.023179137  0.030558805            2 
   49000    1.1722824   -7.2698169    13.691856  0.023285469  0.030500052            2 
   50000     1.186306   -7.2820944    13.936902   0.02322817   0.03041997            2 
   51000    1.2090118   -7.2890381    14.287203  0.023345103  0.030334185            3 
   52000    1.2159088   -7.3079621    14.708349  0.023571072  0.030274101            5 
   53000    1.1692032   -7.2680023    15.069255  0.023693797  0.030228353            2 
   54000     1.202486   -7.2858592    15.322039  0.023645122  0.030162038            2 
   55000    1.1953776   -7.2907981     15.54203  0.023548531  0.030089824            1 
   56000    1.1861881   -7.2759648    15.888746  0.023643967  0.030006513            2 
   57000    1.1738543   -7.3110072    16.122575  0.023571016  0.029909937            1 
   58000    1.1591597   -7.2820457    16.308038  0.023431088  0.029787362            2 
   59000    1.1931947   -7.3238498    16.614013   0.02346612  0.029659886            1 
   60000    1.1757144    -7.360038    17.005146  0.023618258  0.029552029            4 
   61000    1.1727654   -7.3244615    17.315738   0.02365538  0.029456001            2 
   62000    1.1615377   -7.3484829    17.687893  0.023774049  0.029377548            2 
   63000    1.1534877   -7.3080382    18.079289  0.023914403  0.029308267            1 
   64000    1.1853957   -7.3688134    18.328104  0.023864718  0.029228323            2 
   65000    1.1804697   -7.3539682    18.645418  0.023904382   0.02915645            2 
   66000    1.1560786   -7.3642483    19.050466  0.024053619  0.029089741            1 
   67000    1.1469894   -7.3350391    19.420649  0.024155036  0.029031912            3 
   68000    1.1514358   -7.3216232    19.618955  0.024042836  0.028977951            2 
   69000    1.1499229   -7.3593019    19.930336  0.024070454  0.028910513            3 
   70000    1.1487284   -7.4059212    20.185874  0.024030803  0.028834705            2 
   71000    1.1447465   -7.3995187    20.568154  0.024141025  0.028773007            5 
   72000    1.1380955   -7.3604564    20.882792  0.024169898  0.028713455            1 
   73000    1.1515714   -7.3609114    21.093148  0.024078936  0.028645706            1 
   74000    1.1748305   -7.4021158    21.426587  0.024129039   0.02857571            1 
   75000    1.1434506   -7.3825652    21.663754  0.024070837  0.028505185            1 
   76000    1.1470547   -7.3945776    21.953248  0.024071543  0.028432758            1 
   77000    1.1525972   -7.3859319    22.195262  0.024020846  0.028360987            1 
   78000    1.1353553   -7.4181253    22.613848  0.024160094  0.028288145            2 
   79000    1.1165151   -7.3644184    22.815747  0.024067243  0.028215817            5 
   80000    1.1367157   -7.4040099    23.086434  0.024048368  0.028152536            2 
   81000    1.1614217   -7.4039181    23.322062  0.023993891  0.028080822            2 
   82000    1.1273924   -7.4382872    23.551616  0.023934569  0.028004602            6 
   83000    1.1303316   -7.4160351    23.847645  0.023943419   0.02792206            2 
   84000    1.1419279   -7.4395777    24.088503  0.023897325  0.027841071            2 
   85000    1.1429897   -7.4145325    24.294813  0.023818444  0.027758315            1 
   86000    1.1135231   -7.3805059     24.70274  0.023936764  0.027674547            1 
   87000    1.1312367   -7.4931384    24.821227  0.023775122  0.027598893            1 
   88000    1.1272127   -7.4646521    25.110374  0.023778763  0.027518616            2 
   89000    1.1235433   -7.4338229    25.547078  0.023920485  0.027441516            2 
   90000    1.1316442   -7.4413776    25.924812  0.024004456  0.027375719            2 
   91000    1.1200932   -7.4625242    26.195795  0.023988823   0.02731544            3 
   92000    1.1266685   -7.4316184    26.480688   0.02398613  0.027258615            2 
   93000    1.0988078   -7.4315847    26.672202  0.023899823  0.027198568            1 
   94000    1.1068355   -7.4338581    26.905882  0.023852732  0.027131328            1 
   95000     1.114907    -7.453516    27.205228  0.023864235  0.027068351            2 
   96000    1.1085921   -7.4337429    27.522312  0.023890896  0.027011925            2 
   97000    1.1089874   -7.4896584    27.737804  0.023829728  0.026951606            2 
   98000    1.1165171   -7.4834285    27.950514  0.023767443  0.026885475            3 
   99000    1.1262464   -7.4748018    28.081512  0.023637636  0.026812197            2 
  100000    1.0997117   -7.4895514    28.317999  0.023598332  0.026735584            1 
  101000    1.1064408   -7.5099472    28.502538  0.023516946  0.026660287            3 
  102000    1.1053568   -7.5275741    28.835528  0.023558438  0.026591744            2 
  103000    1.1147634   -7.4710431    29.238397  0.023655661  0.026521507            2 
  104000    1.1040248   -7.5366938     29.28166  0.023462868  0.026450977            3 
  105000    1.1034065   -7.5050865    29.407947   0.02333964  0.026376073            1 
  106000    1.0935784    -7.524999    29.756219  0.023393254  0.026303495            2 
  107000    1.0889528   -7.5455267    29.967561  0.023339222  0.026231271            2 
  108000    1.1005533   -7.5528208    30.239444  0.023332904  0.026160881            2 
  109000    1.0697122   -7.5401283    30.520776  0.023333926  0.026088965            2 
  110000    1.0865371   -7.5189712    30.770856  0.023311255  0.026019958            2 
  111000     1.085564   -7.5656919    31.011067  0.023281582  0.025948976            3 
  112000    1.1002199   -7.5412014    31.102113  0.023141453  0.025875653            4 
  113000    1.1232256   -7.5701544    31.262967  0.023055285   0.02580154            2 
  114000    1.0930393   -7.5222485    31.632912  0.023123473  0.025726902            2 
  115000    1.1094608   -7.5491628    31.716603  0.022983045  0.025653359            1 
  116000    1.0871452   -7.5660728    32.111151  0.023068355  0.025582843            2 
  117000     1.042435   -7.5063233    32.366087  0.023052768  0.025519515            3 
  118000    1.0699238   -7.5653466    32.470747  0.022931319  0.025450767            4 
  119000    1.0772697   -7.5699587    32.579477   0.02281476  0.025375619            1 
  120000    1.0816519   -7.6285966    32.699471  0.022707966  0.025298831            3 
  121000    1.0872007   -7.5990169    33.087252  0.022787364  0.025224931            2 
  122000    1.0715749   -7.5822308    33.368381   0.02279261   0.02515068            7 
  123000    1.0733192   -7.5956234    33.487334  0.022687895  0.025076602            4 
  124000    1.0762812    -7.600568    33.616087  0.022591457  0.025000906            3 
  125000    1.0688793   -7.5955786    33.951568  0.022634378  0.024927449            2 
  126000    1.0541506   -7.5900237    34.228546  0.022637927  0.024858061            2 
  127000    1.0726331   -7.5753874    34.470017  0.022618121  0.024792531            2 
  128000     1.039737   -7.6248713    34.692886  0.022586514  0.024727077            3 
  129000     1.062988   -7.6116945    34.932334  0.022566107  0.024661241            2 
  130000    1.0421797   -7.6146964    34.866447  0.022350287  0.024591462            1 
  131000     1.057634   -7.6256286    35.125045  0.022344176   0.02451949            2 
  132000    1.0418368   -7.6257826    35.241619  0.022248497  0.024448355            2 
  133000    1.0674914   -7.6142932    35.442061  0.022206805  0.024377452            1 
  134000     1.037462   -7.6221598      35.6942  0.022197886  0.024305761            4 
  135000    1.0809013   -7.5749385    36.031361   0.02224158  0.024235175            3 
  136000    1.0461387   -7.6717872    36.036752  0.022081343   0.02416452            1 
  137000    1.0435874   -7.6639723    36.211215  0.022026287  0.024091391            3 
  138000    1.0607374   -7.6402271     36.35843  0.021955574  0.024017594            7 
  139000    1.0448605   -7.6097157    36.366019   0.02180217  0.023943042            2 
  140000    1.0496257   -7.6863075    36.608407  0.021790719  0.023867867            1 
  141000     1.058144   -7.6697881    36.848648  0.021778161  0.023791792            1 
  142000    1.0327887   -7.6507744    37.006079  0.021717182   0.02371743            7 
  143000    1.0119955   -7.6622416    37.129346  0.021637148  0.023641682            2 
  144000    1.0176852   -7.6845091    37.436834  0.021664835  0.023568874            2 
  145000    1.0398534   -7.6755419    37.641735  0.021633181  0.023497752            1 
  146000    1.0144892   -7.6701604    37.917699  0.021642522  0.023428702            3 
  147000      1.02299   -7.6498318    38.292396  0.021707707  0.023361779            2 
  148000    1.0454528   -7.6999628    38.231613  0.021526809  0.023294772            1 
  149000    1.0443196   -7.6639817    38.542166  0.021556021   0.02322907            2 
  150000    1.0069146   -7.7344458    38.474977  0.021374987  0.023161591            1 
  151000    1.0282686   -7.6966189     38.73675  0.021377897  0.023093701            2 
  152000     1.029539   -7.6802612    38.925569  0.021340772  0.023027425            6 
  153000    1.0467897   -7.6841569    39.351679  0.021433376  0.022962982            1 
  154000    1.0301646   -7.6894491    39.627037  0.021443202  0.022903363            2 
  155000    1.0131563   -7.7186891    39.681114  0.021333932  0.022843153            2 
  156000    1.0360955    -7.712651    39.951166  0.021341435   0.02278301            2 
  157000    1.0290748   -7.6780883    40.170651  0.021322002  0.022723099            2 
  158000    1.0022489   -7.7572231    40.380592   0.02129778  0.022663592            3 
  159000    1.0417217   -7.7333993    40.566155  0.021261087  0.022604181            2 
  160000    1.0309444   -7.7634451    40.578674  0.021134726  0.022545572            2 
  161000     1.008805   -7.7585237    40.827984  0.021132497   0.02248765            2 
  162000    1.0075266     -7.70412    41.009882  0.021095618  0.022429716            3 
  163000    1.0150808   -7.7713226     41.17884  0.021052577  0.022372888            2 
  164000    1.0064988   -7.7007398    41.398344  0.021035744  0.022315631            1 
  165000    0.9901867   -7.7047338    41.433196  0.020925857  0.022257044            6 
  166000     1.022566   -7.8109899    41.484806  0.020825706  0.022195583            2 
  167000    1.0077995   -7.7768267    41.675447  0.020796131  0.022133784            1 
  168000    1.0053339   -7.7266157    41.909945  0.020788663  0.022072447            5 
  169000    1.0257171   -7.7283726    41.996484  0.020708326  0.022011724            2 
  170000   0.99383975   -7.7888262      41.8854  0.020532059  0.021949481            6 
  171000   0.99223861   -7.7678921    42.167362  0.020549397  0.021885605            4 
  172000    1.0055617   -7.7798479    42.200576  0.020446015  0.021821717            5 
  173000   0.99261088   -7.7495068    42.472126  0.020458635  0.021758805            5 
  174000   0.98958791   -7.7814814    42.593116  0.020399002  0.021695297            2 
  175000    1.0050664   -7.8113547    42.549342  0.020261591  0.021631723            3 
  176000   0.99068018   -7.8056665    42.855105  0.020291243   0.02156848            3 
  177000   0.97289306   -7.8266996    42.964664  0.020228184  0.021505726            3 
  178000   0.96392284   -7.8443055      43.0903  0.020173361   0.02144336            2 
  179000   0.98265709   -7.7910702    43.359561  0.020186015  0.021380804            3 
  180000   0.98786772   -7.8209848    43.634192  0.020201015  0.021319966            2 
  181000   0.98056893   -7.8388307    43.516514  0.020035228   0.02125852            5 
  182000    0.9658211   -7.8514633    43.792856  0.020051674  0.021197881            2 
  183000    0.9580333   -7.8376013    44.031709  0.020050869  0.021136701            1 
  184000   0.97071232   -7.8446096    44.111327  0.019977956   0.02107547            2 
  185000   0.97409607   -7.8434015    44.165067  0.019894174  0.021015472            2 
  186000   0.97829415   -7.8798815    44.186907  0.019797001  0.020953703            2 
  187000   0.96529955   -7.8572517    44.237375  0.019713625  0.020891762            4 
  188000   0.96387995   -7.8465955    44.488519  0.019720088  0.020829053            3 
  189000   0.98915505   -7.8483138    44.584508  0.019658072  0.020767516            2 
  190000   0.95619715   -7.8926318    44.761711  0.019632329  0.020705774            3 
  191000   0.95608074   -7.8678124    44.863489  0.019573948  0.020644601            6 
  192000   0.99364932   -7.8661158    44.954264  0.019511399  0.020583225            2 
  193000   0.95993239   -7.8530491    45.018724  0.019438136  0.020521195            3 
  194000   0.94918554    -7.882187    45.151879  0.019395137   0.02045902            2 
  195000    0.9474201   -7.8740483    45.184904  0.019309788   0.02039694            4 
  196000   0.94724591    -7.888454    45.390421  0.019298648  0.020334422            3 
  197000   0.95130601   -7.8906069    45.410041  0.019208985  0.020273367            3 
  198000   0.95670582   -7.9108342    45.647225  0.019211795  0.020212218           10 
  199000   0.95409632   -7.8921394    45.741602  0.019154775  0.020151403            3 
  200000   0.96991093     -7.94932    45.851305  0.019104711  0.020090113            3 
  201000   0.95047737   -7.8769179     45.92955  0.019042102  0.020029286            1 
  202000   0.92862959   -7.9038226    45.919882  0.018943846  0.019967867            4 
  203000   0.94617962    -7.897544    45.968246   0.01887038  0.019904994            1 
  204000   0.93662045   -7.9270132    46.032528  0.018804137  0.019842077            3 
  205000   0.93972951   -7.9646751    46.094511  0.018737606  0.019777791            3 
  206000   0.93706123   -7.9253731    46.196572  0.018687934  0.019713894            4 
  207000   0.93662573   -7.9505956    46.170957  0.018587342  0.019649855            2 
  208000   0.92774562   -7.9798057    46.323616  0.018559141  0.019585578            3 
  209000   0.94908263   -7.9494869    46.551026  0.018561015  0.019522452            3 
  210000   0.93194275   -7.9532865    46.825902  0.018581707  0.019460356            2 
  211000   0.95269883   -7.9559594    46.663748    0.0184296  0.019398163            5 
  212000   0.92085335   -7.9943748    46.738572   0.01837208  0.019334664            2 
  213000   0.93508052   -7.9869775     46.86848  0.018336651  0.019271449            1 
  214000   0.90920727   -7.9879413    46.843392  0.018241196  0.019208158            2 
  215000   0.93144889   -7.9884653    47.037939  0.018231759  0.019145674            2 
  216000   0.88817064    -8.007486    47.019499  0.018140239  0.019082863            4 
  217000   0.92219123   -8.0002126      47.1763  0.018116859  0.019020443            6 
  218000   0.91166103   -7.9715438    47.369161  0.018107478  0.018958779            6 
  219000   0.92892211   -8.0036044    47.457232  0.018058307  0.018896545            4 
  220000    0.9369927   -7.9924503    47.531947  0.018004525  0.018834266            1 
  221000   0.91132884   -7.9946937    47.518484   0.01791798  0.018772427            3 
  222000   0.91170001   -8.0146281    47.699172  0.017905095  0.018711712            2 
  223000   0.91122789   -8.0349569    47.837513    0.0178765  0.018651049            4 
  224000   0.89227567   -8.0187806     47.94496  0.017836667  0.018590358            6 
  225000   0.89218863   -8.0164908    47.962932  0.017764049  0.018529863            2 
  226000   0.89166102   -8.0330629    48.024712  0.017708227  0.018469016            1 
  227000   0.90172808   -8.0103759     48.20515  0.017696457  0.018408979            5 
  228000   0.91313518   -8.0076785    48.439744  0.017704585  0.018350131            4 
  229000   0.90466672   -8.0245655    48.460825  0.017634943  0.018292445            6 
  230000   0.90523608   -8.0674432    48.426773  0.017545932  0.018234584            3 
  231000   0.90239898   -8.0472837    48.585418  0.017527207  0.018176802            3 
  232000   0.89796642   -8.0862373    48.672793  0.017483043  0.018118838            4 
  233000   0.88147517   -8.0531385    48.674761  0.017408713  0.018060404            2 
  234000   0.89868806   -8.0840829    48.690189  0.017339811  0.018002134            3 
  235000   0.89714573   -8.0799571    48.860458  0.017326403  0.017943114            5 
  236000   0.90820057   -8.0590297    48.906862  0.017269372  0.017884276            3 
  237000   0.88365592    -8.102826    48.813723  0.017163756   0.01782632            5 
  238000   0.89740579   -8.0989097    48.987924  0.017152634  0.017768942            4 
  239000   0.89300386   -8.0870324    49.080856  0.017113269  0.017711141            8 
  240000   0.89865611   -8.0548422    49.231845  0.017094391  0.017654148            7 
  241000    0.8595144   -8.1027854    49.273314  0.017037799  0.017597589            9 
  242000   0.88490373   -8.0633655    49.405019  0.017012748  0.017540797            4 
  243000   0.85788571   -8.0908906    49.317339  0.016912668  0.017484378            7 
  244000   0.88162488   -8.1149574    49.515928  0.016911178  0.017427716            5 
  245000   0.88969861   -8.1053937     49.53297  0.016847949  0.017371578            3 
  246000   0.86494256   -8.1241026     49.63267  0.016813235  0.017316112            3 
  247000   0.85946931   -8.1255377    49.705037   0.01676958   0.01725971            3 
  248000   0.86909651   -8.1638288    49.667192  0.016689245   0.01720378            4 
  249000   0.88343442   -8.1351147    49.742836  0.016647535  0.017147378            3 
  250000   0.86820567   -8.1164305    49.847185  0.016615728  0.017091663            1 
  251000    0.8632511   -8.1404197    49.943128  0.016581384  0.017035555            2 
  252000   0.86617753   -8.1415691    50.055981  0.016552904  0.016980264            2 
  253000   0.85836937   -8.1208797    50.202212  0.016535643  0.016925428            2 
  254000   0.87552899   -8.1633402    50.131989  0.016447503  0.016870681            4 
  255000   0.84009853   -8.1617728    50.188071   0.01640133  0.016815924           14 
  256000   0.86227829    -8.136887    50.233381  0.016352012  0.016761081            4 
  257000   0.84235992   -8.1599488    50.038533  0.016225205   0.01670578            4 
  258000   0.87043249    -8.159497    50.321305  0.016253651  0.016650467            9 
  259000   0.87007478   -8.1506771     50.32426  0.016191847  0.016595049            7 
  260000   0.84040491   -8.1302551    50.355477  0.016139576  0.016539904            3 
  261000   0.84792054   -8.1847792    50.312403  0.016063985  0.016484325            1 
  262000   0.83889754   -8.2272453    50.295155  0.015997187  0.016428509            4 
  263000   0.85609786   -8.2124187    50.321997  0.015944866  0.016372535            9 
  264000   0.83760122   -8.1603995    50.419795  0.015915339   0.01631721            3 
  265000   0.84061747   -8.1974748    50.419934  0.015855325  0.016261591            2 
  266000   0.82920345   -8.1925724    50.560566  0.015839776  0.016206341            2 
  267000   0.84046009   -8.1869596    50.548731  0.015776757  0.016151033            4 
  268000   0.80704659   -8.1948439    50.510386  0.015705966  0.016095919            3 
  269000    0.8249477   -8.1904076    50.628067  0.015684036  0.016040814            2 
  270000   0.83810299   -8.1893956    50.752327  0.015664298   0.01598611            4 
  271000   0.85385162   -8.2322522    50.728994  0.015599322  0.015931444            5 
  272000   0.82748338   -8.2235155    50.676698  0.015525949  0.015876778            5 
  273000    0.8254145   -8.2237645    50.836677  0.015517911  0.015822475            4 
  274000   0.83073113   -8.2286149     50.79611  0.015448939  0.015767896            2 
  275000   0.84389586   -8.2406095    50.812313  0.015397671  0.015713374            3 
  276000   0.80927962   -8.2588898    50.793842  0.015336305  0.015659021            3 
  277000    0.8232982   -8.2667998    50.970556  0.015334102  0.015605019            2 
  278000   0.83694293   -8.2625244    50.940194  0.015269842  0.015550803            6 
  279000   0.82022998   -8.2475292    51.025489  0.015240588  0.015497132            3 
  280000   0.83077893   -8.2651246    51.037148  0.015189627  0.015443549            3 
  281000   0.81811591   -8.2648072    51.006365  0.015126443  0.015389823            3 
  282000   0.81449652   -8.2905202    51.051304  0.015086083  0.015336368            4 
  283000   0.81794395   -8.2874665    51.020752  0.015023779  0.015282695            2 
  284000   0.80533454   -8.3088043    50.948874  0.014949787  0.015229016            3 
  285000   0.80782926   -8.3110734    51.095181  0.014940111  0.015175264            4 
  286000   0.81260181    -8.289325     51.14665   0.01490287  0.015122099            2 
  287000   0.80291802    -8.291626    51.113635  0.014841357  0.015068919            2 
  288000   0.81680471   -8.3271887    51.103176  0.014786799  0.015015624            4 
  289000   0.81738972   -8.3156426     51.10951   0.01473746  0.014962723            3 
  290000     0.805905   -8.3285977    51.125307   0.01469118  0.014909584            4 
  291000   0.79735178   -8.2991014    51.184302  0.014657589  0.014856682            4 
  292000   0.82094357   -8.3272641     51.14957   0.01459748  0.014803928            3 
  293000   0.78686255   -8.3522598    51.139233  0.014544719  0.014751023            4 
  294000   0.80905745   -8.3740146    51.178618  0.014506411  0.014697831            2 
  295000   0.81274792    -8.348723    51.231629  0.014472212  0.014644861            5 
  296000   0.80291686   -8.3565439    51.329252  0.014450803  0.014592213            3 
  297000   0.78938535   -8.3378563    51.386792  0.014418292  0.014539415            4 
  298000   0.80285396   -8.3386959    51.280656  0.014340228  0.014486927            5 
  299000   0.79794302   -8.3855594    51.146244  0.014254806  0.014434806            7 
  300000   0.79037845   -8.3743914    51.301835   0.01425051  0.014382986            6 
  301000   0.77561198   -8.3674934    51.412701   0.01423386  0.014331037            9 
  302000   0.78074512   -8.3985545    51.412656  0.014186715  0.014279574            4 
  303000   0.78091702   -8.3630111    51.479049  0.014158154   0.01422853            8 
  304000   0.78119179   -8.3826834    51.335966  0.014072359  0.014177343            4 
  305000   0.78682254   -8.3907171    51.411905  0.014046968  0.014126069            4 
  306000   0.79580127   -8.3917385    51.415916  0.014002156  0.014075054            4 
  307000   0.78943212   -8.3342818    51.492338   0.01397729  0.014024293            3 
  308000   0.78887683   -8.3719364    51.423787  0.013913362  0.013973314            3 
  309000   0.76402517   -8.3691996    51.323561  0.013841305  0.013922336            3 
  310000   0.76149474   -8.4054436     51.35411  0.013804868  0.013871283           11 
  311000   0.77948771   -8.4027093    51.368109  0.013764231  0.013820377            3 
  312000   0.77746138   -8.3688919    51.611168  0.013785034  0.013769732            3 
  313000   0.77466146   -8.4090471    51.469397  0.013703247  0.013719496            6 
  314000   0.76585726   -8.4156721    51.485752  0.013663947  0.013669341            4 
  315000   0.77709521   -8.4456153    51.289598  0.013568677  0.013619124            4 
  316000   0.76250174   -8.4449385    51.336919  0.013538217  0.013568981            5 
  317000   0.74904487   -8.4165045    51.551419  0.013551898  0.013519082            5 
  318000   0.74610753   -8.3959635    51.608688  0.013524289  0.013469358           10 
  319000   0.77057878   -8.4165242    51.419911  0.013432579  0.013419955            5 
  320000   0.77485893   -8.4191271    51.588023  0.013434381  0.013370799            7 
  321000   0.75055859   -8.4434399    51.526717  0.013376614  0.013322068            8 
  322000    0.7674768   -8.4419118    51.528865  0.013335627  0.013273261            3 
  323000   0.76064893   -8.4425347    51.545438  0.013298617   0.01322461            3 
  324000   0.76275481   -8.4424625    51.580161  0.013266502  0.013176154            2 
  325000    0.7711851   -8.4532277    51.654716  0.013244799  0.013127817            2 
  326000   0.75966048   -8.4477671    51.585435  0.013186461  0.013079752            5 
  327000   0.74158552   -8.4544054     51.61153  0.013152785  0.013031714            2 
  328000   0.73987333   -8.4654926    51.590594  0.013107366  0.012983736            7 
  329000   0.76050865    -8.508381    51.652524  0.013083213   0.01293622            6 
  330000   0.75031265   -8.4834695    51.676285  0.013049567   0.01288863            4 
  331000   0.72781828   -8.5020823    51.597754  0.012990371  0.012841055            6 
  332000   0.73521427   -8.5048464    51.535039  0.012935502  0.012793505            3 
  333000   0.72514556   -8.5014609    51.646618  0.012924579  0.012746055            4 
  334000   0.73685574   -8.5177695    51.608217  0.012876302   0.01269901            3 
  335000   0.73755013   -8.4963946    51.524674  0.012817083   0.01265188            4 
  336000    0.7304312   -8.5100083    51.467156  0.012764672  0.012604941            4 
  337000    0.7193592   -8.5031612     51.50054  0.012735049  0.012558242           11 
  338000    0.7232038   -8.5052171    51.483812  0.012693247  0.012511722            6 
  339000   0.73656263   -8.5485849    51.654044  0.012697651  0.012465471           14 
  340000   0.72331927   -8.5499967    51.519413  0.012627307  0.012419421            5 
  341000   0.72361667   -8.5222801    51.682066  0.012630026  0.012373467            5 
  342000    0.7358451   -8.5657992    51.429006  0.012531434  0.012327668            7 
  343000   0.73368217   -8.5458555    51.584777  0.012532745  0.012282032            7 
  344000    0.7246822   -8.5558333    51.658956  0.012514282  0.012236504            4 
  345000   0.72243199   -8.5785638    51.483994  0.012435747  0.012190994            4 
  346000    0.7131271   -8.5684362    51.546184  0.012414784  0.012145613           12 
  347000   0.72262635   -8.5499324    51.536524  0.012376687  0.012100452            5 
  348000   0.71303669   -8.5507358    51.552437  0.012344932  0.012055611            3 
  349000   0.70796424   -8.5679774    51.558515  0.012311011  0.012011034            6 
  350000   0.68956891   -8.5772478    51.661364  0.012300325  0.011966537            7 
  351000   0.71338526    -8.573984    51.570234  0.012243645  0.011922176            4 
  352000   0.70819055   -8.5717957    51.680077  0.012234867  0.011877989           14 
  353000   0.70977866   -8.5986796    51.577894  0.012176084  0.011834131            6 
  354000   0.71434418   -8.5886849    51.661176  0.012161294  0.011790408           17 
  355000   0.70603058   -8.5697179    51.634975  0.012120886  0.011747086            5 
  356000   0.69088389   -8.6085328    51.632187  0.012086186  0.011703816            6 
  357000   0.68869533   -8.6092225    51.753331  0.012080609  0.011660622           13 
  358000   0.70241412   -8.6308736    51.565174  0.012003067  0.011617575            3 
  359000    0.6912012   -8.6289703     51.71303  0.012003953  0.011574739           13 
  360000   0.67086861    -8.615537    51.705717  0.011968916  0.011531902            8 
  361000   0.69540178    -8.632173    51.719115  0.011938854  0.011489338           10 
  362000   0.69862573   -8.6078395    51.592242  0.011876667  0.011446899            6 
  363000   0.70210618   -8.6259647    51.629589  0.011852523  0.011404654           10 
  364000   0.69955358   -8.6590394    51.636537  0.011821552  0.011362567            8 
  365000   0.68313505   -8.6498552    51.632591  0.011788263  0.011320601           19 
  366000    0.6799117   -8.6576494    51.629854  0.011755431  0.011278777            7 
  367000   0.70159332    -8.648214    51.670401  0.011732607  0.011237007           14 
  368000   0.68497842   -8.6854847    51.650115  0.011696131  0.011195458            9 
  369000   0.68008787   -8.6504621    51.631147  0.011660151  0.011154199            9 
  370000   0.66824987   -8.6621665    51.478903  0.011594347  0.011112946            8 
  371000   0.67431722   -8.6623348    51.618472  0.011594446  0.011071835            9 
  372000   0.66557679   -8.6594661    51.692047   0.01157976  0.011030859            7 
  373000   0.67586388   -8.6506657    51.637083  0.011536435  0.010990037            6 
  374000   0.65718545   -8.6656424    51.604881  0.011498414  0.010949612            7 
  375000   0.68952988   -8.6709196    51.637265  0.011474948  0.010909171           12 
  376000   0.66790452   -8.6937603    51.560561  0.011427429  0.010868841            6 
  377000   0.66939703   -8.6748563    51.470016  0.011377103  0.010828662           11 
  378000   0.67147293   -8.6884093    51.518775  0.011357755  0.010788665            7 
  379000   0.66756408   -8.6734641    51.585293  0.011342413  0.010748766            7 
  380000   0.66184211   -8.6732864    51.651789  0.011327147  0.010709116            8 
  381000   0.66217604   -8.7024809     51.54045  0.011273064  0.010669618            6 
  382000   0.65006633   -8.7265519    51.598455  0.011256207  0.010630293            8 
  383000   0.65586077   -8.7035907    51.633526  0.011234449  0.010591061            8 
  384000   0.66571764   -8.7015171    51.657706   0.01121044  0.010552053            7 
  385000   0.65716106   -8.7200311    51.474699   0.01114171  0.010513159            5 
  386000   0.65135129   -8.7350569     51.56501  0.011132342  0.010474478            6 
  387000   0.65395836   -8.7036979    51.614577   0.01111425  0.010435887            4 
  388000   0.64779335   -8.7327932    51.356753   0.01103023  0.010397358           13 
  389000   0.64786957   -8.7344425    51.546631  0.011042552  0.010359003            3 
  390000   0.64436163    -8.723908    51.558419  0.011016756  0.010320752            8 
  391000   0.63382297   -8.7154809    51.584602  0.010994161  0.010282777           11 
  392000   0.63611918   -8.7415307    51.524489  0.010953335  0.010244876            9 
  393000   0.63658891   -8.7320567    51.496457   0.01091952  0.010207192            9 
  394000   0.64440185   -8.7328585    51.486611  0.010889723  0.010169635           12 
  395000   0.62464058   -8.7436728    51.498263  0.010864613  0.010132334            9 
  396000   0.63745013   -8.7447951      51.5537  0.010848843  0.010095124            8 
  397000   0.63679123   -8.7364525      51.4136  0.010792108  0.010058087           10 
  398000   0.63703616   -8.7345524    51.485795  0.010780108  0.010021069           10 
  399000   0.62359478   -8.7420577    51.452869  0.010746213 0.0099841519            9 
  400000   0.61337231     -8.75995    51.445126  0.010717735 0.0099474506            8 
  401000   0.62457884   -8.7655104    51.421774  0.010686154 0.0099108905            6 
  402000   0.61934531   -8.7461557    51.361817  0.010647143 0.0098743553            6 
  403000   0.63043281   -8.7731975    51.339333  0.010616074 0.0098380815            6 
  404000   0.63613949   -8.7509283    51.386182   0.01059946 0.0098020081            5 
  405000   0.60701144   -8.7677212    51.410738  0.010578341 0.0097659602            8 
  406000   0.61369727   -8.7723049    51.446533  0.010559633 0.0097301379            8 
  407000   0.62028364   -8.7543994    51.459615  0.010536367 0.0096944446            9 
  408000   0.61571159   -8.7576083    51.406456  0.010499685 0.0096590753            5 
  409000   0.61964982   -8.7717214    51.423014  0.010477387 0.0096237232           12 
  410000   0.61545243   -8.7667474     51.39864  0.010446878 0.0095885446            6 
  411000   0.62124867   -8.7699982    51.380632  0.010417809  0.009553513            7 
  412000   0.59397618   -8.8052161    51.451658  0.010406889 0.0095185504            5 
  413000   0.60353207   -8.7717827    51.390322  0.010369314 0.0094838074            7 
  414000   0.61393932   -8.7973511    51.428035  0.010351859 0.0094493047            5 
  415000    0.5991002   -8.7920117    51.419868  0.010325275 0.0094149965            4 
  416000   0.59000107   -8.7963329      51.3997  0.010296414 0.0093807395           15 
  417000    0.5921533   -8.8113834    51.353299   0.01026245 0.0093466644            5 
  418000   0.60658976    -8.818236    51.262388  0.010219774 0.0093126056            7 
  419000   0.60448801   -8.8335377    51.355652  0.010213932 0.0092787955            5 
  420000    0.6038777    -8.823652    51.296416   0.01017786 0.0092450482            8 
  421000   0.58427997   -8.8322816    51.344041  0.010163112 0.0092114373            6 
  422000   0.59443747   -8.8209359    51.330469  0.010136349 0.0091779424           10 
  423000   0.59275351   -8.8486367    51.307801   0.01010792 0.0091445899            5 
  424000   0.58796091   -8.8617693    51.258156  0.010074323 0.0091113758            8 
  425000   0.58515609   -8.8341638    51.278743  0.010054656 0.0090782956            3 
  426000    0.5812283   -8.8313742    51.340663  0.010043166 0.0090452615            3 
  427000   0.57010114   -8.8530816    51.276679  0.010007158 0.0090124891            8 
  428000   0.57153051   -8.8409719    51.265866 0.0099816717 0.0089798122            6 
  429000   0.59072117   -8.8566421    51.284006 0.0099619281 0.0089472408            4 
  430000   0.58399273   -8.8383083    51.292281 0.0099403645  0.008914836            9 
  431000   0.57602845    -8.859594     51.23009 0.0099052765 0.0088825144           11 
  432000   0.56834756   -8.8638397    51.269346 0.0098899201 0.0088503527            5 
  433000   0.56544111   -8.8884154     51.23213 0.0098599173 0.0088183061            4 
  434000   0.57997551   -8.8398055    51.175456 0.0098263164  0.008786391            4 
  435000   0.56871758   -8.8548775    51.323096 0.0098320108 0.0087546351            7 
  436000   0.57240694   -8.8966971    51.197642 0.0097854821 0.0087230199            9 
  437000   0.56592997   -8.8789216    51.215288 0.0097664545 0.0086915355           10 
  438000   0.57418531   -8.8891189    51.173557  0.009736217   0.00866025            6 
  439000   0.56967481   -8.8666206    51.186127 0.0097164249  0.008629019            7 
  440000   0.55684557   -8.8785793    51.234021  0.009703413 0.0085979815            8 
  441000   0.55955832   -8.8785507    51.176704 0.0096705791 0.0085671271            6 
  442000   0.57716263   -8.8992312    51.155164 0.0096446387 0.0085364226            6 
  443000   0.56289253   -8.8833965    51.048298 0.0096027648 0.0085057487            6 
  444000   0.56203313   -8.8802555    51.130103 0.0095964909 0.0084752461            5 
  445000   0.55414021   -8.8950362    51.089549 0.0095673312 0.0084448698            9 
  446000   0.55587488   -8.8916096    51.211434 0.0095686535 0.0084147009            5 
  447000    0.5615513   -8.9020666    51.183438 0.0095420279 0.0083846409            4 
  448000   0.55498923    -8.912706    51.204721 0.0095246878 0.0083547046           10 
  449000   0.55304642   -8.9143877    51.132385 0.0094900492 0.0083248344            7 
  450000   0.56475145   -8.9164305    51.020119 0.0094481701 0.0082950687            7 
  451000   0.54067089   -8.9122797    51.091084 0.0094403334 0.0082654704            3 
  452000    0.5315068   -8.9249827    51.174988 0.0094349166  0.008236013            4 
  453000   0.53558185   -8.9313802    51.040039 0.0093892639 0.0082066866            7 
  454000   0.54007697   -8.9282169     51.18264 0.0093947577 0.0081775687            8 
  455000   0.54156486   -8.9281203    51.091585 0.0093574331 0.0081485197            7 
  456000   0.53264119   -8.9149153    51.127924 0.0093435534 0.0081196257            3 
  457000   0.53962352   -8.9149409    51.096372 0.0093173545 0.0080908445            5 
  458000   0.55064174    -8.931693    51.086565 0.0092952265 0.0080621515            5 
  459000   0.53148676   -8.9331718    50.968723 0.0092535808 0.0080336081            7 
  460000   0.53304516   -8.9366496    51.081413 0.0092538792 0.0080051492            7 
  461000   0.53664591   -8.9139209     51.05712 0.0092294144 0.0079768161            8 
  462000   0.52180677   -8.9666374    51.094212 0.0092161276 0.0079486621            5 
  463000   0.52443349   -8.9582359    51.056915 0.0091895095 0.0079206181            6 
  464000   0.53521995   -8.9421913    51.002059 0.0091598525 0.0078927433            4 
  465000   0.52275644   -8.9573627    51.004567 0.0091406034 0.0078650329            5 
  466000   0.52855803   -8.9427909    51.074181 0.0091334373 0.0078373779            8 
  467000    0.5192739   -8.9468321    51.058216 0.0091110307 0.0078098589            7 
  468000   0.52418332   -8.9617528        50.96 0.0090740741 0.0077824476            7 
  469000   0.50763515   -8.9502367    51.025936 0.0090664421  0.007755156            7 
  470000   0.52678424   -8.9621303    51.031947 0.0090482175 0.0077279765            4 
  471000   0.51288273   -8.9499781    51.004654  0.009024178 0.0077009339           12 
  472000    0.5052124    -8.964694    51.035236 0.0090104584 0.0076740236            6 
  473000    0.5140785    -8.971036    50.975855 0.0089809469  0.007647247            8 
  474000   0.50779146   -8.9554719    50.961916 0.0089595492 0.0076205699            9 
  475000    0.5143975   -8.9866854    50.919511 0.0089332476 0.0075939707            3 
  476000   0.50838023   -8.9787348    51.006697 0.0089297438 0.0075674936            9 
  477000   0.49393921   -8.9899614    50.908772 0.0088939154 0.0075411224            7 
  478000   0.50879376   -8.9791022    51.013399 0.0088935493 0.0075148684            7 
  479000   0.49782177   -9.0021251    50.975138  0.008868326 0.0074887498            7 
  480000    0.4907118   -8.9931464    50.896449  0.008836189 0.0074626936            8 
  481000   0.49311261   -8.9859026    50.941701 0.0088256584 0.0074368059            5 
  482000    0.5091337   -8.9999599    50.900724 0.0088002635 0.0074110093            8 
  483000   0.48619648   -8.9924497    50.884235 0.0087791986 0.0073852851            6 
  484000   0.48344023   -9.0104559    50.917512 0.0087667893 0.0073596809            6 
  485000   0.50025233   -8.9976782    50.864618  0.008739625 0.0073341696           10 
  486000   0.49191267   -8.9964233    50.888516 0.0087257401 0.0073087677           10 
  487000   0.48199802    -8.997814    50.850634 0.0087013404 0.0072834823           11 
  488000   0.48177244   -8.9937638    50.859531 0.0086850291 0.0072582882           10 
  489000   0.47711009   -9.0014562    50.853494 0.0086662395  0.007233224           15 
  490000    0.4834028   -9.0136618    50.806196 0.0086405096 0.0072082827            9 
  491000   0.49429138   -9.0371318    50.778282 0.0086181741  0.007183457            7 
  492000   0.48431474   -9.0325736    50.844643 0.0086118976  0.007158745           11 
  493000   0.47357959   -9.0139903     50.91079 0.0086056103 0.0071341281            7 
  494000    0.4823133   -9.0179999    50.846913 0.0085774144 0.0071096467            8 
  495000   0.48772596   -9.0232117    50.909737 0.0085706627  0.007085279            6 
  496000    0.4769719   -9.0246617    50.783159 0.0085321168   0.00706101            9 
  497000   0.46752216   -9.0334586    50.867957 0.0085291679 0.0070368049            9 
  498000   0.46893184   -9.0365605     50.81055 0.0085024347 0.0070127273           10 
  499000   0.47260865   -9.0341823    50.848445 0.0084917244 0.0069888131           12 
  500000   0.47512299   -9.0456844    50.823966  0.008470661  0.006964992            7 
  501000     0.463057   -9.0347423    50.783023 0.0084469432 0.0069412751            6 
  502000   0.45971947   -9.0408995    50.813783 0.0084352229 0.0069176837            8 
  503000   0.45208555   -9.0385537    50.805689 0.0084171121 0.0068941914            9 
  504000   0.46015291   -9.0558228    50.830065  0.008404442 0.0068707885           10 
  505000   0.46970907   -9.0461599     50.79402 0.0083818514 0.0068474596            6 
  506000   0.46008004   -9.0557344    50.813337 0.0083684679 0.0068242211            7 
  507000   0.45820024   -9.0551922    50.762537 0.0083436123 0.0068010649           11 
  508000    0.4608061   -9.0451223     50.83828 0.0083396128 0.0067780892            8 
  509000   0.46757905   -9.0575895    50.713201 0.0083027506  0.006755163           12 
  510000   0.44607594   -9.0547442    50.779208 0.0082972562 0.0067323452            6 
  511000   0.45737587   -9.0459173    50.766076 0.0082788773 0.0067096931            4 
  512000   0.44677825   -9.0597078    50.739836 0.0082584368 0.0066870976            9 
Loop time of 1251.43 on 48 procs for 500000 steps with 4000 atoms

Performance: 69041.001 tau/day, 399.543 timesteps/s
99.4% CPU use with 48 MPI tasks x no OpenMP threads

MPI task timing breakdown:
Section |  min time  |  avg time  |  max time  |%varavg| %total
---------------------------------------------------------------
Pair    | 86.113     | 90.478     | 98.655     |  29.7 |  7.23
Neigh   | 8.3892     | 8.7059     | 9.0944     |   6.7 |  0.70
Comm    | 75.786     | 85.058     | 92.43      |  34.7 |  6.80
Output  | 0.86166    | 0.86249    | 0.88862    |   0.4 |  0.07
Modify  | 1050.8     | 1055.5     | 1058       |   4.1 | 84.35
Other   |            | 10.79      |            |       |  0.86

Nlocal:        83.3333 ave          92 max          74 min
Histogram: 1 0 3 10 4 14 8 5 2 1
Nghost:        2259.10 ave        2275 max        2236 min
Histogram: 1 3 3 3 5 11 4 6 7 5
Neighs:        15150.5 ave       16885 max       13487 min
Histogram: 2 1 4 12 7 7 8 4 0 3
FullNghs:      30300.7 ave       33353 max       26885 min
Histogram: 1 1 2 8 9 11 6 7 2 1

Total # of neighbors = 1454434
Ave neighs/atom = 363.60850
Neighbor list builds = 26647
Dangerous builds = 0

#clear
#
#next RN
#
#jump SELF
Total wall time: 0:20:55
