
units lj                  # Use reduced LJ style units
atom_style atomic         # Uncharged point particles
atom_modify map hash      # Needed for indexing of clusters etc
                          # Used to be able to find where atoms are in relation to each other.

lattice fcc 1.0 spacing 1 1 1
Lattice spacing in x,y,z = 1.5874011 1.5874011 1.5874011
region box block 0 10 0 10 0 10 units lattice
create_box 2 box
Created orthogonal box = (0.0000000 0.0000000 0.0000000) to (15.874011 15.874011 15.874011)
  3 by 4 by 4 MPI processor grid
create_atoms 1 box
Created 4000 atoms
  using lattice units in orthogonal box = (0.0000000 0.0000000 0.0000000) to (15.874011 15.874011 15.874011)
  create_atoms CPU = 0.002 seconds
set type 1 type/fraction 2 0.43 78393
Setting atom values ...
  1722 settings made for type/fraction
mass 1 1.0
mass 2 1.0
pair_style lj/cut  3.5
pair_modify tail  yes
pair_coeff 1  1  1.0  1.0   # Intearaction between 1 and 1 set with epsilon = 1 and sigma = 1
pair_coeff 1  2  1.5  0.8
pair_coeff 2  2  0.5  0.88

write_data data.0
System init for write_data ...
Neighbor list info ...
  update every 1 steps, delay 10 steps, check yes
  max neighbors/atom: 2000, page size: 100000
  master list distance cutoff = 3.8
  ghost atom cutoff = 3.8
  binsize = 1.9, bins = 9 9 9
  1 neighbor lists, perpetual/occasional/extra = 1 0 0
  (1) pair lj/cut, perpetual
      attributes: half, newton on
      pair build: half/bin/atomonly/newton
      stencil: half/bin/3d
      bin: standard
WARNING: Not all mixed pair coeffs generated from mixing. Use write_data with 'pair ij' option to store all pair coeffs. (../write_data.cpp:312)


#############################
#   M E L T   S Y S T E M   #
#############################

velocity all create 2.4 6583654 mom yes dist gaussian # Assign velocities
                                                    # Temperature 2.4, random number seed, zero linear momentum
                                                                                # Gaussian distribution

timestep 0.002   # simulation timestep
thermo 1000       # output thermodynamic data every 1000 steps bf 100

# Define a fix  in this case with index 1 applied to all
# particles in the simulation. This fix is for simulations
# in the anisotropic NPT ensemble. Note that we use the MTK
# correction.
fix 1 all npt temp 2.4 2.4 0.1 iso 5.68 5.68 0.5 mtk yes tchain 5 pchain 5 # Use NPT ensemble
                                                                         # Set temperature and pressure and damping
                                                                         # Numbers of thermostats in chain and in barostat
run 10000          # run for 10000 steps
Per MPI rank memory allocation (min/avg/max) = 3.642 | 3.644 | 3.648 Mbytes
Step Temp E_pair E_mol TotEng Press Volume 
       0          2.4   -5.6998203            0   -2.1007203   -4.1891945         4000 
    1000    2.4070733   -4.9917779            0   -1.3820706     5.756942    3839.4714 
    2000    2.3541035    -5.081711            0   -1.5514386    5.5875149    3798.5392 
    3000    2.4270728   -4.9528782            0   -1.3131791    5.7646701    3851.9627 
    4000    2.3678951   -5.0731355            0   -1.5221808    5.7055027    3799.2987 
    5000    2.4520842   -4.9922042            0   -1.3149975    5.5769035    3854.7619 
    6000    2.3380704   -4.9633912            0   -1.4571624      5.78246    3834.2111 
    7000    2.3983747   -4.9892718            0   -1.3926092    5.9230078    3818.3231 
    8000    2.3763869   -5.0371452            0    -1.473456    5.7513876     3820.609 
    9000    2.4033288   -4.9869696            0   -1.3828776    5.5542147    3850.6528 
   10000     2.388198   -4.9771551            0   -1.3957536    5.6183966    3845.8869 
Loop time of 2.59759 on 48 procs for 10000 steps with 4000 atoms

Performance: 665231.471 tau/day, 3849.719 timesteps/s
99.6% CPU use with 48 MPI tasks x no OpenMP threads

MPI task timing breakdown:
Section |  min time  |  avg time  |  max time  |%varavg| %total
---------------------------------------------------------------
Pair    | 1.1392     | 1.2004     | 1.3116     |   3.3 | 46.21
Neigh   | 0.20704    | 0.21622    | 0.23797    |   1.3 |  8.32
Comm    | 0.77394    | 0.88697    | 0.96325    |   4.9 | 34.15
Output  | 0.00023998 | 0.00024488 | 0.00030687 |   0.0 |  0.01
Modify  | 0.24836    | 0.27841    | 0.31911    |   4.2 | 10.72
Other   |            | 0.01539    |            |       |  0.59

Nlocal:        83.3333 ave          92 max          72 min
Histogram: 1 1 6 5 6 7 3 6 8 5
Nghost:        1684.27 ave        1737 max        1648 min
Histogram: 4 4 6 14 4 7 4 3 1 1
Neighs:        9931.77 ave       11633 max        8518 min
Histogram: 3 6 5 9 3 7 7 3 4 1

Total # of neighbors = 476725
Ave neighs/atom = 119.18125
Neighbor list builds = 899
Dangerous builds = 173

# Equilibrate just above the melting temperature to avoid step fn in T

fix 1 all npt temp 1.25 1.25 0.1 iso 5.68 5.68 0.5 mtk yes tchain 5 pchain 5
run 2000
Per MPI rank memory allocation (min/avg/max) = 3.643 | 3.645 | 3.649 Mbytes
Step Temp E_pair E_mol TotEng Press Volume 
   10000     2.388198   -4.9771551            0   -1.3957536    5.6183966    3845.8869 
   11000    1.2482203   -7.0317933            0   -5.1599309    5.7893039    3022.7674 
   12000    1.2678162   -7.1322069            0   -5.2309581    5.2758539    3015.5752 
Loop time of 0.617278 on 48 procs for 2000 steps with 4000 atoms

Performance: 559877.253 tau/day, 3240.030 timesteps/s
99.7% CPU use with 48 MPI tasks x no OpenMP threads

MPI task timing breakdown:
Section |  min time  |  avg time  |  max time  |%varavg| %total
---------------------------------------------------------------
Pair    | 0.27147    | 0.29613    | 0.35178    |   2.8 | 47.97
Neigh   | 0.038887   | 0.042175   | 0.048186   |   0.9 |  6.83
Comm    | 0.1736     | 0.23219    | 0.26232    |   3.7 | 37.61
Output  | 4.9066e-05 | 5.1368e-05 | 6.471e-05  |   0.0 |  0.01
Modify  | 0.037956   | 0.042132   | 0.047726   |   1.3 |  6.83
Other   |            | 0.004601   |            |       |  0.75

Nlocal:        83.3333 ave          92 max          76 min
Histogram: 2 4 6 9 5 7 10 1 2 2
Nghost:        1984.83 ave        2016 max        1958 min
Histogram: 2 6 4 6 10 6 7 3 2 2
Neighs:        12676.9 ave       14440 max       10851 min
Histogram: 3 2 4 4 13 5 7 5 3 2

Total # of neighbors = 608492
Ave neighs/atom = 152.12300
Neighbor list builds = 145
Dangerous builds = 13

#############################
# L I N E A R  Q U E N C H  #
#############################

# Define solid atoms. This closely follows ten Wolde  Ruiz-Montero and Frenkel  Faraday Discuss  1996  104  93-110
# Compute components of the per-atom q6 vector
compute q6 all orientorder/atom degrees 1 6 components 6 nnn NULL cutoff 1.3 # compute the Q6 parameter.
                                                                             # Use all neighbours within 1.3 unit cell.

# get number of connections
compute coord_number all coord/atom orientorder q6 0.5

# An atom is solid if it has 8 or more connections (of a possible 14)
variable is_solid atom c_coord_number>=8
group solid dynamic all var is_solid    # Must be dynamic to update
dynamic group solid defined

# do clustering
compute cluster solid cluster/atom 1.3 # Create a cluster where all atoms within are solid and max 1.3 units from another member

# define chunks one chunk per cluster
compute clus_chunks solid chunk/atom c_cluster nchunk every compress yes  # Says which atoms are in which chunk

# count the size of each chunk
compute size_chunks solid property/chunk clus_chunks count


# Find the maximum entry in the vector of chunk sizes
variable max_n equal max(c_size_chunks)


# Thermo style which includes this variable
# thermo_style custom step temp pe vol v_max_n

thermo ${N}  # Print the thermo information every 100 steps
thermo 1000  

# Reset the npt fix at a lower temperature (below freezing)
fix 1  all npt temp  ${temp} ${temp}  0.1  iso  5.68  5.68  0.5  mtk yes tchain  5  pchain  5
fix 1  all npt temp  0.45 ${temp}  0.1  iso  5.68  5.68  0.5  mtk yes tchain  5  pchain  5
fix 1  all npt temp  0.45 0.45  0.1  iso  5.68  5.68  0.5  mtk yes tchain  5  pchain  5

dump dmp2 all dcd ${N} traj.dcd
dump dmp2 all dcd 1000 traj.dcd


compute msd all msd com yes
variable twopoint equal c_msd[4]/6/(step*dt+1.0e-6)
fix 9 all vector 10 c_msd[4]
variable fit equal slope(f_9)/6/(10*dt)
thermo_style custom step temp pe c_msd[4] v_twopoint v_fit v_max_n

fix 1 all npt temp 1.25 ${temp} 0.1 iso 5.68 5.68 0.5 mtk yes tchain 5 pchain 5
fix 1 all npt temp 1.25 0.45 0.1 iso 5.68 5.68 0.5 mtk yes tchain 5 pchain 5
run 500000 # 5000000  # Run for this many steps
Neighbor list info ...
  update every 1 steps, delay 10 steps, check yes
  max neighbors/atom: 2000, page size: 100000
  master list distance cutoff = 3.8
  ghost atom cutoff = 3.8
  binsize = 1.9, bins = 8 8 8
  4 neighbor lists, perpetual/occasional/extra = 1 3 0
  (1) pair lj/cut, perpetual
      attributes: half, newton on
      pair build: half/bin/atomonly/newton
      stencil: half/bin/3d
      bin: standard
  (2) compute orientorder/atom, occasional
      attributes: full, newton on
      pair build: full/bin/atomonly
      stencil: full/bin/3d
      bin: standard
  (3) compute coord/atom, occasional
      attributes: full, newton on
      pair build: full/bin/atomonly
      stencil: full/bin/3d
      bin: standard
  (4) compute cluster/atom, occasional
      attributes: full, newton on
      pair build: full/bin/atomonly
      stencil: full/bin/3d
      bin: standard
Per MPI rank memory allocation (min/avg/max) = 9.823 | 9.835 | 9.843 Mbytes
Step Temp PotEng c_msd[4] v_twopoint v_fit v_max_n 
   12000    1.2678162   -7.1322069            0            0 8.3333333e+20            1 
   13000    1.2485442   -7.1299773   0.48020392 0.0030782301  0.039746194            1 
   14000    1.2650716   -7.1407893     0.888637 0.0052895058   0.03640029            1 
   15000     1.245882   -7.1422894    1.3035094 0.0072417185  0.035317517            1 
   16000    1.2765754   -7.1672813    1.7469216 0.0090985497   0.03526046            2 
   17000    1.2676019   -7.1559639    2.2355952    0.0109588  0.035951552            1 
   18000    1.2575562   -7.1264227    2.6295459  0.012173823   0.03630487            3 
   19000    1.2533357   -7.1538802    3.0199213  0.013245269  0.036111296            2 
   20000    1.2403525   -7.1761363    3.4131334  0.014221389  0.035616542            1 
   21000    1.2478127   -7.2002297    3.7874457  0.015029546  0.035158815            2 
   22000    1.2243277   -7.1680338    4.1378055  0.015673505  0.034626594            2 
   23000    1.2395128   -7.1975413    4.6146314  0.016719679   0.03444889            1 
   24000    1.2202735   -7.1875461    5.0331949  0.017476371  0.034423362            1 
   25000     1.213376   -7.1842607    5.4600162  0.018200054  0.034405463            2 
   26000     1.228004   -7.1629569    5.8298425  0.018685392  0.034341392            2 
   27000    1.2465187   -7.1991756     6.170153  0.019043682  0.034199378            1 
   28000    1.2358473   -7.1689258    6.5667476  0.019543891  0.033999755            1 
   29000     1.230917   -7.2068915    7.0013828  0.020118916  0.033905906            2 
   30000    1.2306749   -7.2245154    7.4182247  0.020606179  0.033871222            1 
   31000    1.2211429   -7.2007765    7.7556974  0.020848649  0.033768196            1 
   32000    1.2045044   -7.1777875    8.0840332   0.02105217  0.033640092            1 
   33000    1.2302602   -7.2498954    8.4496798  0.021337575  0.033473716            2 
   34000    1.2262222   -7.1910579    8.8316215  0.021646131  0.033335442            1 
   35000     1.188159    -7.200194    9.0881592  0.021638474  0.033181942            1 
   36000    1.2299854    -7.208339    9.5023786  0.021996246  0.032986424            2 
   37000    1.1961753   -7.1553743    10.007202  0.022538743  0.032855172            2 
   38000    1.2182014   -7.2328202    10.329389  0.022652168  0.032805974            1 
   39000    1.1930208   -7.2015497     10.68395  0.022828952  0.032700041            1 
   40000    1.2244725   -7.2066832    11.090231  0.023104648  0.032621857            1 
   41000    1.1768278   -7.2518952    11.528701  0.023432319  0.032583443            1 
   42000    1.2098407   -7.2169455    11.990392   0.02379046  0.032564682            3 
   43000    1.2210446   -7.2588946    12.278579  0.023795696  0.032556345            2 
   44000    1.2052671    -7.288726    12.644147  0.023947248  0.032525696            1 
   45000    1.1960052   -7.2596782    12.963354  0.024006211  0.032470888            1 
   46000    1.1974203   -7.2578393    13.413599  0.024299997  0.032399252            1 
   47000    1.2206489    -7.218462     13.72644   0.02433766  0.032350213            2 
   48000    1.1668705   -7.2818146     14.04863  0.024389983  0.032291252            1 
   49000    1.2105961   -7.3008653    14.469029  0.024607192   0.03223854            4 
   50000    1.2083088   -7.2917956     14.73583  0.024559716  0.032177432            2 
   51000    1.1834016   -7.3140741    15.098205   0.02467027  0.032106134            1 
   52000    1.1912218   -7.2847982     15.45361  0.024765401  0.032032563            1 
   53000    1.1848068   -7.2775902    15.869811  0.024952533  0.031964412            3 
   54000    1.1828142   -7.2987344    16.239558  0.025061046  0.031915044            2 
   55000    1.1990931     -7.35338    16.491636  0.024987327  0.031855754            3 
   56000    1.1905979   -7.2694963    16.708736   0.02486419  0.031757048            1 
   57000    1.1707849   -7.2727418    16.968506  0.024807757  0.031643336            2 
   58000    1.2070456   -7.2939059    17.332392  0.024902862  0.031516862            1 
   59000    1.1926806   -7.3031937    17.617395  0.024883326  0.031389547            1 
   60000    1.1862132   -7.3046462    18.062405  0.025086673  0.031282555            1 
   61000    1.1498353   -7.3378139    18.460466  0.025219215  0.031198999            1 
   62000    1.1892492   -7.3287687    18.751462  0.025203578  0.031125405            2 
   63000    1.1723497   -7.3318218    19.142403  0.025320638  0.031045681            1 
   64000     1.166523     -7.35835    19.289194  0.025116137  0.030963713            2 
   65000    1.1733412   -7.3636766    19.720458  0.025282638  0.030878824            6 
   66000    1.1603237   -7.3601089    20.170323  0.025467579  0.030822909            3 
   67000    1.1507704   -7.2712754    20.621747  0.025648938  0.030770226            2 
   68000    1.1440758   -7.3563933    20.806048  0.025497607  0.030708528            1 
   69000    1.1846474   -7.3084769    21.227648  0.025637256  0.030645104            2 
   70000    1.1402652   -7.3754881    21.608286   0.02572415  0.030605858            1 
   71000    1.1492512   -7.3411668    21.980388  0.025798578  0.030567965            2 
   72000    1.1332176   -7.3276256    22.269381  0.025774747  0.030525719            3 
   73000    1.1334906   -7.3636683    22.611165  0.025811832  0.030483514            3 
   74000    1.1405931   -7.3831434    22.829905  0.025709353  0.030434941            1 
   75000    1.1715541   -7.3568733    23.091199  0.025656887  0.030373258            2 
   76000    1.1340135   -7.3781608    23.619105  0.025898142  0.030316202            3 
   77000    1.1180723   -7.4076066    24.054415  0.026032917   0.03027418            2 
   78000     1.158659   -7.4170797    24.489084  0.026163551  0.030247868            1 
   79000    1.1486837   -7.3542691    24.696916  0.026051599  0.030219562            2 
   80000    1.1554402   -7.3881745    24.919447  0.025957757  0.030186249            1 
   81000    1.1454158   -7.3617125    25.267551  0.025995422  0.030147741            2 
   82000     1.135948   -7.4123539    25.383293  0.025796029  0.030092853            2 
   83000    1.1712629   -7.3682712    25.832692  0.025936438  0.030038848            1 
   84000     1.144824   -7.4216513    26.093314  0.025886224  0.029982758            2 
   85000     1.127008   -7.4596938    26.255452  0.025740639  0.029922094            2 
   86000    1.1306593   -7.4284526    26.715437  0.025887051  0.029862441            1 
   87000    1.1136717   -7.3913551     26.85847  0.025726504  0.029799206            1 
   88000    1.1031479   -7.4451542    27.152863  0.025712938  0.029736903            3 
   89000    1.1209805   -7.4278984    27.517681  0.025765619  0.029672938            2 
   90000    1.1254465   -7.4064156    27.700826  0.025648913  0.029606512            1 
   91000    1.1380846   -7.4560339    28.033096  0.025671333  0.029546083            5 
   92000    1.1197049   -7.4174373    28.321728  0.025653739  0.029480992            1 
   93000    1.1086954   -7.4741581    28.650683  0.025672655  0.029416078            3 
   94000    1.1295802   -7.4667513    28.936614  0.025653027  0.029350738            3 
   95000    1.1267326   -7.4577882    29.340142  0.025736967  0.029289144            1 
   96000    1.1336367   -7.4979965    29.586644  0.025682851  0.029229048            3 
   97000    1.1330291   -7.4751505    29.704698    0.0255195  0.029164393            6 
   98000     1.112623   -7.4616485     30.06911  0.025568971  0.029098762            1 
   99000    1.1182181   -7.4391037     30.17033  0.025395901  0.029028967            1 
  100000    1.1184001   -7.4540237    30.609377  0.025507814  0.028953313            1 
  101000    1.1236853   -7.4807059    30.826744  0.025434607    0.0288847            2 
  102000    1.0858018   -7.4354738    31.204307  0.025493715  0.028819568            1 
  103000    1.1037489   -7.4717841    31.456093  0.025449913  0.028753734            3 
  104000    1.0925859   -7.4591063    31.595532  0.025316932   0.02868455            2 
  105000    1.0840372   -7.4478021    31.991848  0.025390356  0.028615474            3 
  106000    1.0814381   -7.5398917    32.373262  0.025450677  0.028551404            3 
  107000    1.0879461   -7.4851182    32.620768  0.025405583  0.028489364            1 
  108000    1.0831348   -7.4961264    32.834393   0.02533518   0.02842458            4 
  109000    1.0782942   -7.5347529    33.082388  0.025292346  0.028363209            6 
  110000    1.0941739     -7.52654    33.279024  0.025211381  0.028298551            1 
  111000    1.0885842   -7.5010765     33.48618  0.025139775  0.028227375            2 
  112000    1.0795358   -7.5142298    33.716203  0.025086461  0.028155291            2 
  113000    1.0721874   -7.4759219     33.82773  0.024946703  0.028078526            1 
  114000    1.0753182   -7.5513267     33.84249  0.024738662  0.027997804            2 
  115000    1.0681851   -7.5391842    34.273644  0.024835974  0.027914655            2 
  116000    1.0708864   -7.5294755    34.348197  0.024675429  0.027831763            2 
  117000    1.0902471   -7.5017328    34.600696   0.02464437  0.027742827            6 
  118000    1.0936151   -7.5643666    34.652647  0.024472208  0.027655117            2 
  119000    1.0699972   -7.5512852    34.852699  0.024406652  0.027561515            5 
  120000    1.0580187   -7.5764276    35.137395  0.024400969  0.027470895            2 
  121000    1.0765715   -7.6135785     35.32322  0.024327286  0.027379783            4 
  122000    1.0799068   -7.5824206     35.52249  0.024263995  0.027285655            3 
  123000    1.0771705   -7.6054208    35.551391  0.024086308  0.027189093            3 
  124000    1.0480646   -7.5554435    35.856388  0.024097035  0.027094607            3 
  125000    1.0486673   -7.5748015    36.208783  0.024139189  0.027002935            1 
  126000    1.0664668   -7.5498158     36.64263  0.024234544   0.02691703            1 
  127000    1.0397135   -7.5764804    36.788356  0.024139341  0.026832513            1 
  128000    1.0477106   -7.5788586    36.853217   0.02399298  0.026747858            2 
  129000    1.0495421   -7.5672013    37.024211  0.023917449  0.026659535            2 
  130000    1.0548677   -7.5780762     37.25622  0.023882192  0.026570236            2 
  131000    1.0768911   -7.5755428    37.441449  0.023817715  0.026480766            1 
  132000    1.0576102   -7.6313719    37.626851  0.023754325  0.026391302            4 
  133000    1.0684952   -7.6106443    37.942682   0.02377361  0.026303053            1 
  134000    1.0519036   -7.6345617    38.003364  0.023633933  0.026218168            3 
  135000    1.0334219   -7.6308497    38.258719  0.023616493  0.026133436            2 
  136000    1.0527534   -7.5420124    38.647974  0.023681357  0.026050158            2 
  137000    1.0445368   -7.6180738    38.644173  0.023506188  0.025965925            1 
  138000    1.0469285   -7.6084464    39.040601  0.023575242  0.025884116            1 
  139000    1.0533188    -7.640183    39.315754  0.023570596  0.025804503            3 
  140000    1.0514853   -7.6304093    39.372331  0.023435911  0.025723079            2 
  141000    1.0584245   -7.6568634    39.531729  0.023363906  0.025642176            5 
  142000    1.0611279   -7.6323025    39.878626  0.023402949  0.025561365            2 
  143000    1.0196113   -7.6634959    40.039968  0.023333314  0.025484321            2 
  144000    1.0174138   -7.6318614    40.057184  0.023181241  0.025404064            2 
  145000    1.0066307   -7.6175911    40.268363  0.023142738  0.025324801            2 
  146000    1.0471243   -7.6525744    40.448254  0.023086903  0.025246794            5 
  147000    1.0274972   -7.6671155    40.558875  0.022992559  0.025166531            4 
  148000    1.0107553   -7.6720297    40.730314  0.022933735  0.025086477            4 
  149000    1.0397547   -7.6589571    41.090567  0.022981301  0.025007873            1 
  150000    1.0376867   -7.6746584    41.457933  0.023032185  0.024935618            3 
  151000    1.0065507   -7.6860106    41.690527  0.023008017  0.024863241            1 
  152000    1.0310341   -7.6756653    42.055575  0.023056784   0.02479437            4 
  153000    1.0272316   -7.7091397    42.073349  0.022915767   0.02472607            2 
  154000     1.026614   -7.6981126    42.207301  0.022839449  0.024654466            1 
  155000    1.0242436   -7.7298625    42.393568  0.022792241  0.024582556            3 
  156000    1.0180342   -7.7152441    42.601247  0.022757076  0.024512894            2 
  157000    1.0343014   -7.6962358    42.945995  0.022795114  0.024444472            3 
  158000    1.0090658   -7.7023147    43.073313  0.022717992   0.02437717            2 
  159000    1.0162652   -7.7330985    43.101071   0.02258966  0.024308397            3 
  160000    1.0150521   -7.7437497    43.207682  0.022504001  0.024239643            3 
  161000    1.0351817   -7.7230143    43.521207  0.022526505  0.024171262            2 
  162000   0.99284208    -7.769208    43.824096  0.022543259    0.0241047            2 
  163000   0.98987702   -7.7271033    44.057512   0.02252429  0.024039487            1 
  164000    1.0057251   -7.7338503    44.289418  0.022504786  0.023976343            8 
  165000   0.99117251   -7.7448577    44.516942  0.022483304  0.023913577            1 
  166000    0.9729448   -7.7461363     44.58646  0.022382761  0.023850231            2 
  167000    1.0017419   -7.6951357    44.989346  0.022449774  0.023789176            2 
  168000    1.0183629   -7.7228394     44.97132  0.022307202  0.023727631            1 
  169000     1.004949   -7.7356039    45.334716  0.022354396  0.023665424            7 
  170000   0.99566425   -7.7468347    45.382638  0.022246391  0.023601965            2 
  171000   0.98393638   -7.7432047     45.53161  0.022188894   0.02353909            2 
  172000    1.0005322   -7.7745491    45.543756  0.022065773  0.023476381            2 
  173000   0.99722784   -7.7611043    45.700521  0.022013738  0.023411573            2 
  174000   0.98878736   -7.7768196    45.736065  0.021904246  0.023345551            2 
  175000    1.0056542   -7.8168634    45.716587  0.021769803   0.02327933            2 
  176000   0.99117246   -7.8060772    45.897491  0.021731766  0.023210982            2 
  177000    1.0235232   -7.7862363    46.158842  0.021732035  0.023142868            2 
  178000   0.99085027   -7.8005493    46.367748  0.021707747  0.023073787            3 
  179000   0.95937133    -7.793198    46.437799  0.021619087  0.023006227            2 
  180000   0.99240885   -7.8134381    46.494927  0.021525429  0.022939017            2 
  181000   0.98487891   -7.8225856    46.548226  0.021431043  0.022871893            4 
  182000   0.98700081   -7.8018994    46.717481  0.021390788  0.022804943            2 
  183000   0.96848709   -7.8088195    46.728369  0.021278857  0.022736134            3 
  184000   0.97628337    -7.825549    46.998152  0.021285395  0.022666387            2 
  185000   0.95170543    -7.820042    47.166418  0.021246134  0.022597444            1 
  186000   0.96095583   -7.7875286    47.405124  0.021238855   0.02252859            2 
  187000   0.96907026    -7.799826    47.405938  0.021125641  0.022459217            2 
  188000    0.9529978   -7.8415676     47.36534  0.020995275  0.022389739            2 
  189000   0.95927394   -7.8219166    47.731849  0.021045789  0.022319832            3 
  190000   0.96479526   -7.8436557    47.795293  0.020962848  0.022250869            4 
  191000   0.97645215   -7.8330801    47.728053  0.020823758  0.022181193            1 
  192000   0.97410499   -7.8774082    47.727477  0.020715051  0.022110566            2 
  193000   0.94208469    -7.867998    48.026068  0.020736644  0.022038982            3 
  194000   0.94292686   -7.8626633    48.052959  0.020641305   0.02196788            2 
  195000     0.935733   -7.8433252    48.220568   0.02060708  0.021896687            2 
  196000   0.94655922   -7.8490401    48.428517  0.020590356  0.021826982            3 
  197000   0.95847904     -7.88576    48.257131  0.020413338  0.021755872            3 
  198000   0.96660685    -7.914239    48.417771   0.02037785  0.021683365            2 
  199000    0.9777696   -7.9010046    48.454601  0.020290871  0.021611274            5 
  200000   0.94355163   -7.8846116    48.673438  0.020280599  0.021540552            2 
  201000   0.95526767   -7.8909163    48.998811  0.020314598  0.021470499            2 
  202000   0.93127697   -7.8800793    49.028424  0.020226248  0.021400296            2 
  203000   0.94260868   -7.9002624    49.170147  0.020184789  0.021331093            2 
  204000   0.95268795   -7.9123704    49.061548  0.020041482  0.021261249            2 
  205000   0.92773718   -7.8786189    49.396379  0.020079829  0.021190851            2 
  206000   0.95375125   -7.9292369    49.396958  0.019982588  0.021121008            2 
  207000   0.93352104   -7.9284921    49.482374   0.01992044  0.021050908            2 
  208000   0.92701118   -7.8932022    49.610628  0.019876053  0.020981808            1 
  209000   0.93627682   -7.9115531     49.78884  0.019852009   0.02091345            3 
  210000   0.92711081   -7.9477101    49.798173   0.01976118  0.020845926            3 
  211000    0.9234143   -7.9363216     49.98149  0.019739925  0.020778031            1 
  212000   0.92398133   -7.8963641    49.957774   0.01963749  0.020709821            1 
  213000   0.92666237   -7.9444288    50.143622  0.019618005  0.020642696            7 
  214000   0.91751193   -7.9262334    50.117212  0.019516048  0.020574976            3 
  215000   0.92327014   -7.9668563    50.152627  0.019439003  0.020505471            1 
  216000   0.91984664   -7.9735463     50.23225  0.019379726  0.020434908            3 
  217000   0.90468502   -7.9952438    50.242433  0.019294329   0.02036455            2 
  218000   0.92640027   -7.9936447    50.486868  0.019299261  0.020295098            5 
  219000   0.93148365   -7.9903236    50.590414  0.019250538  0.020226743            8 
  220000   0.89637536   -7.9413398    50.736888  0.019218518  0.020159819            4 
  221000   0.91930586   -7.9940908    50.640948   0.01909538  0.020092852            2 
  222000   0.92783835   -7.9876406    50.931061  0.019118266  0.020025643            6 
  223000   0.90331575   -7.9973399    50.946023  0.019038125  0.019959084            3 
  224000   0.90754786   -8.0025772    51.150473  0.019029194  0.019892801            7 
  225000   0.91918897   -8.0103361    51.018193  0.018895627  0.019825611            3 
  226000   0.90819238   -7.9972922     51.36229  0.018938898   0.01975949            2 
  227000   0.92420703   -8.0191457    51.299961  0.018832585   0.01969403            3 
  228000   0.92670046   -7.9954099    51.551395  0.018841884  0.019628276            2 
  229000    0.8917865   -8.0257764    51.553765  0.018760468  0.019563431            1 
  230000   0.90346632   -8.0056803     51.79139  0.018764996  0.019499384            3 
  231000   0.90790671   -8.0021319    51.760353  0.018672566  0.019435345            2 
  232000   0.89098598   -8.0305689     51.81872  0.018613046   0.01937088            4 
  233000   0.91123327   -7.9881067    52.019402  0.018604936  0.019307194            7 
  234000   0.90367885   -7.9753681    52.158459   0.01857495  0.019244331            2 
  235000   0.90799558   -8.0589667    52.138903  0.018488973  0.019181255            2 
  236000    0.8888093   -8.0407725    52.202598  0.018433121  0.019118026            2 
  237000   0.88709139   -8.0176793    52.160772  0.018340637  0.019055369            3 
  238000   0.88435337   -8.0248691    52.396416  0.018346084  0.018992769            1 
  239000   0.88495572   -8.0287724    52.495061  0.018303717  0.018930751            5 
  240000   0.87724842   -8.0478152    52.490027  0.018225704  0.018868167            3 
  241000   0.88251413   -8.1049731    52.390124  0.018115534  0.018804712            2 
  242000   0.85079415   -8.0756883    52.526977  0.018087802  0.018741253            2 
  243000   0.88452398   -8.1004235    52.410954  0.017973578  0.018677863            2 
  244000   0.87090556   -8.0810998    52.575973  0.017956275  0.018613798            2 
  245000   0.85664018   -8.0743323    52.368793  0.017812515  0.018549399            3 
  246000   0.87215558    -8.086512    52.430952  0.017761163  0.018484522            4 
  247000   0.86354541   -8.0931211    52.648442  0.017762632  0.018420351            2 
  248000   0.88380371   -8.1117726    52.671452  0.017698741  0.018356141            2 
  249000   0.88802297   -8.1279316    52.484616  0.017565132  0.018291081            3 
  250000   0.86745111   -8.1084258    52.688991  0.017562997  0.018225976            3 
  251000   0.86882965   -8.1022131    52.748419  0.017512755  0.018160911            4 
  252000   0.86434698   -8.1358513    52.759248  0.017446841   0.01809648            7 
  253000   0.84670974   -8.1104146    52.892179  0.017421666  0.018031751           11 
  254000   0.88240781   -8.1034058    53.059485  0.017407968  0.017967547            2 
  255000   0.86026601   -8.1333133     53.01599  0.017325487  0.017904405            4 
  256000   0.86428761   -8.1570019    52.893789   0.01721803  0.017840683            5 
  257000   0.85533382   -8.1622591    52.961541  0.017173003  0.017777257            3 
  258000   0.85582404    -8.143713    53.327962  0.017224794  0.017715225            3 
  259000   0.84101412   -8.0820197    53.360371  0.017168717  0.017653517            2 
  260000   0.85751852   -8.1160533    53.393919  0.017113436  0.017592055            3 
  261000   0.84191475    -8.129329    53.521171  0.017088497  0.017531422            5 
  262000   0.84990714   -8.1120514     53.58754  0.017044383  0.017471227            4 
  263000   0.85221623   -8.1745453    53.509445   0.01695483  0.017411091            5 
  264000   0.84296632   -8.1913422    53.594447  0.016917439  0.017351012            3 
  265000   0.84268564    -8.191449     53.72482  0.016894598  0.017291243            2 
  266000   0.84641763   -8.1657572    53.511317  0.016764197   0.01723106            2 
  267000   0.84790027   -8.2085247    53.697031  0.016759373  0.017170493            4 
  268000   0.83724544   -8.1788932    53.906534  0.016761982  0.017110421            3 
  269000   0.83867927   -8.1992864    53.952783  0.016713997  0.017050688            5 
  270000   0.82274516   -8.1994063      53.8783  0.016629105  0.016991621            4 
  271000   0.83593634   -8.1609801    54.133915  0.016646345   0.01693302            4 
  272000   0.83154155   -8.2057934    53.968595  0.016534496  0.016874235            5 
  273000    0.8493429   -8.2571455    53.947488  0.016467487  0.016815145            2 
  274000   0.83753128   -8.2200348    54.003012  0.016424274  0.016756409            3 
  275000    0.8184652   -8.1946734     54.04605  0.016377591  0.016697667            2 
  276000   0.82267222   -8.2293441    54.020718  0.016310603  0.016638887            1 
  277000   0.83916568   -8.2005869    54.179419  0.016299464  0.016579933            5 
  278000   0.83369878   -8.2058368    54.100006  0.016217028  0.016521251            7 
  279000   0.81530791   -8.2406432    54.084977  0.016154414  0.016462792            6 
  280000   0.83114531    -8.261557    54.239189  0.016142616  0.016404227            5 
  281000    0.8252564   -8.2590368    54.282791  0.016098099  0.016346165            3 
  282000    0.7995286     -8.26093    54.475796  0.016098049  0.016288972            3 
  283000   0.82299021     -8.24346    54.351761  0.016004641  0.016231846            2 
  284000   0.80954959   -8.2609635    54.266972  0.015923407  0.016174292            5 
  285000   0.81470778    -8.252381    54.464869    0.0159254   0.01611741            4 
  286000   0.82446125    -8.276681    54.457565  0.015867589  0.016060748            4 
  287000   0.81714766   -8.2561653    54.594321  0.015852009   0.01600494            4 
  288000   0.79008777   -8.2503266    54.616422  0.015803363  0.015949497            4 
  289000   0.80861513   -8.2714435    54.652978  0.015759221  0.015893959           12 
  290000   0.80486072   -8.2499089     54.61363  0.015693572  0.015838541            2 
  291000   0.81332029   -8.2681764    54.802624  0.015693764  0.015783223           11 
  292000   0.80295935   -8.2778576    54.779113  0.015633309  0.015728113           11 
  293000   0.81285312   -8.2856413    54.803743  0.015586957  0.015673245            7 
  294000   0.78613335   -8.3119948    54.882112  0.015556154  0.015618532            7 
  295000     0.799809   -8.3054075     54.91716  0.015513322    0.0155641            8 
  296000   0.79506913   -8.3185092    54.941645  0.015467805   0.01550981            4 
  297000   0.77159215   -8.2897296    54.824502  0.015382857  0.015455252            2 
  298000   0.79398546   -8.3232629    54.852792  0.015339148  0.015400617            9 
  299000   0.79619774   -8.3463657    54.912817  0.015304576  0.015346597            2 
  300000   0.79460041   -8.3349162    54.790676  0.015219632  0.015292622            1 
  301000   0.77617027   -8.3457176    54.885277   0.01519526  0.015238729            2 
  302000   0.80256803   -8.3428658    55.021918  0.015182649  0.015185223            4 
  303000   0.78074863   -8.3358347    55.072737  0.015146517  0.015131921            3 
  304000   0.78038521   -8.3249721    55.068026  0.015095402  0.015078865            3 
  305000   0.78960377    -8.367114    55.138247  0.015065095  0.015026061            6 
  306000   0.78313006   -8.3684533    55.117929  0.015010329  0.014973767            5 
  307000    0.7609391   -8.3583713    55.232614  0.014992566  0.014921209            4 
  308000   0.78647599   -8.3640273     55.21287  0.014938547  0.014869086            4 
  309000   0.77132568   -8.3528694    55.180533  0.014881481  0.014816833            3 
  310000   0.75762782   -8.3685538    55.221435  0.014844472  0.014764688            4 
  311000   0.78387237   -8.3648584    55.215676  0.014795197  0.014712585            3 
  312000   0.77892251   -8.3663626    55.239543  0.014754151  0.014660965            3 
  313000   0.77214506   -8.3540621    55.215836  0.014700702  0.014609352            4 
  314000   0.75145439   -8.3889855    55.199528  0.014649556  0.014557966            2 
  315000   0.76842529   -8.3607783    55.367952  0.014647606  0.014506844            1 
  316000   0.75856212   -8.3955434    55.185859  0.014553233  0.014455509            2 
  317000   0.78842581    -8.388615    55.264393  0.014527969  0.014404182            2 
  318000   0.76924963   -8.4077638    55.245104  0.014477228  0.014352867            5 
  319000   0.75837826   -8.3985524     55.25638  0.014434791  0.014301835            5 
  320000     0.768557   -8.4229809     55.18566  0.014371266  0.014250604            5 
  321000    0.7458166   -8.4155715    55.061162  0.014294175  0.014199546            4 
  322000   0.74760328   -8.3962399    55.162954  0.014276127  0.014148743            4 
  323000   0.75480815   -8.4107363    55.175477  0.014235159  0.014097934            8 
  324000   0.75555103   -8.4085096    55.150824  0.014184883  0.014047135           12 
  325000   0.72490007   -8.4416946    55.252695  0.014167358  0.013996335            9 
  326000   0.74995802    -8.420581    55.192228  0.014108443  0.013946148            4 
  327000   0.73799864    -8.447719    55.381903  0.014113635  0.013896061            4 
  328000   0.75462806   -8.4449094    55.306452  0.014051436  0.013846127            6 
  329000   0.74885569   -8.4527333    55.245367  0.013993254  0.013796367            3 
  330000   0.73290368   -8.4159268    55.329806  0.013972173  0.013746585            1 
  331000   0.76331054   -8.4332599    55.360048  0.013937575   0.01369722            3 
  332000   0.73268315   -8.4540464    55.355724  0.013894509  0.013648149            3 
  333000   0.73574788   -8.4344896    55.407178   0.01386566  0.013599368            3 
  334000   0.74287338   -8.4413959    55.492068  0.013845326  0.013550956           10 
  335000   0.75450627   -8.4821783    55.446819  0.013792741  0.013502614            7 
  336000   0.72408124   -8.4858649    55.469119  0.013757222  0.013454398            5 
  337000    0.7491026   -8.4542128    55.575735  0.013742763   0.01340626            4 
  338000   0.72941688     -8.49446    55.549972  0.013695752  0.013358571            5 
  339000    0.7251117   -8.4865062    55.548402  0.013654966  0.013311369            2 
  340000   0.72001533   -8.4788816    55.700954  0.013652195  0.013264383            1 
  341000   0.71336841   -8.4939674    55.602161  0.013588016  0.013217778            7 
  342000   0.73521378   -8.5055496    55.572814  0.013541134  0.013170995            3 
  343000   0.71472468   -8.5182375    55.652207  0.013520944  0.013124446            4 
  344000   0.73764514   -8.5129797    55.602138   0.01346951  0.013077869            4 
  345000   0.72585496   -8.5371475    55.645147  0.013440857   0.01303169            5 
  346000   0.71750374   -8.5367258    55.543181  0.013377452  0.012985691            3 
  347000   0.70985865   -8.5414296     55.56918  0.013345144  0.012939693            6 
  348000   0.70559239    -8.559026    55.732886  0.013345998  0.012893929            2 
  349000    0.7257021    -8.546535     55.70562  0.013301246   0.01284814            6 
  350000   0.71184615   -8.5603329    55.536623  0.013223005  0.012802422            7 
  351000   0.71307423   -8.5558083    55.707674  0.013225943  0.012756914            4 
  352000    0.7140475   -8.5542966    55.564935  0.013154577  0.012711717            3 
  353000   0.71696412    -8.598619    55.561056  0.013116397  0.012666557            9 
  354000   0.67383716   -8.5636253    55.694349  0.013110722  0.012621571            5 
  355000   0.69169157   -8.5886471    55.586892  0.013048566  0.012576595            4 
  356000   0.70283719   -8.6011735    55.629817  0.013021961  0.012531705            5 
  357000   0.70347251    -8.568969    55.608498  0.012980508  0.012486783            3 
  358000   0.69832373   -8.5986785    55.533101    0.0129267  0.012441976            8 
  359000   0.69599812    -8.602719    55.596376   0.01290538  0.012397372            3 
  360000   0.70254282   -8.5718278    55.626179   0.01287643  0.012352806            3 
  361000   0.68819886    -8.577029    55.652649  0.012846872  0.012308478            5 
  362000   0.69017288   -8.5608782    55.552541  0.012788338  0.012264344            4 
  363000    0.6895524   -8.5578974    55.596003  0.012763086  0.012220246            8 
  364000   0.68144312   -8.6170328     55.61625  0.012732658  0.012176268            3 
  365000   0.68299936   -8.6210107     55.58639  0.012690957  0.012132268            6 
  366000    0.6756993   -8.6034264    55.615542  0.012662919  0.012088394            4 
  367000   0.67505702   -8.6358466    55.558981  0.012615572  0.012044808            4 
  368000   0.67244206   -8.6254266    55.475701  0.012562432  0.012001131            8 
  369000   0.68604857   -8.6160275    55.384103  0.012507702  0.011957671            5 
  370000   0.66991223   -8.6266258    55.392817   0.01247586  0.011914441            7 
  371000   0.67832407   -8.6144749    55.538514  0.012474958  0.011871472            5 
  372000   0.68153429   -8.6259664    55.574211   0.01244942  0.011828718            7 
  373000   0.65866817   -8.6444319    55.573351  0.012415851  0.011786188            6 
  374000   0.67649076   -8.6343703    55.632055  0.012395734  0.011743845            5 
  375000   0.67741967    -8.624109    55.572093  0.012349354  0.011701704            4 
  376000   0.64922366   -8.6401715     55.58595  0.012319581  0.011659769            5 
  377000   0.65695023   -8.6647621    55.588242   0.01228741  0.011617902            2 
  378000   0.67109086   -8.6520652    55.539978  0.012244263  0.011576038            3 
  379000   0.66318555   -8.6529116    55.561854  0.012216766  0.011534349            3 
  380000   0.66436272   -8.6838247    55.508246  0.012172861  0.011492845            5 
  381000   0.66536495   -8.6615406    55.599229  0.012160811   0.01145151            5 
  382000   0.65701658   -8.6788263    55.640611  0.012138004  0.011410246            2 
  383000   0.64489697   -8.6968475     55.35889  0.012045015  0.011369078            2 
  384000   0.64773171   -8.6895975    55.471161  0.012038012  0.011328119            3 
  385000    0.6701168   -8.7149258    55.436535   0.01199925  0.011287362            2 
  386000   0.66816269   -8.6851455    55.517524  0.011985649  0.011246736            4 
  387000   0.64744674    -8.699957    55.449596  0.011940051  0.011206341            5 
  388000   0.64950554   -8.6941895     55.52361  0.011925174  0.011166061            2 
  389000   0.65398351   -8.6984078    55.465424  0.011882053  0.011125845            4 
  390000   0.64768426   -8.6684281    55.499834  0.011858939  0.011085916            2 
  391000   0.65559149   -8.7349579    55.468835  0.011822002  0.011046113            3 
  392000   0.64290786   -8.7014154     55.41687  0.011780797  0.011006362            3 
  393000   0.63906104   -8.7158975    55.518256  0.011772319  0.010966931            1 
  394000   0.64474831   -8.7118062    55.433246   0.01172446  0.010927739            4 
  395000   0.64148219   -8.7343045    55.519987  0.011713077  0.010888766            4 
  396000   0.64652723   -8.7427519    55.436395  0.011665908  0.010849929            5 
  397000   0.65521787   -8.7402059    55.514104  0.011652835   0.01081114            4 
  398000   0.63245834    -8.731798    55.582995   0.01163798  0.010772577            4 
  399000    0.6349708   -8.7403397     55.54272  0.011600401  0.010734149            8 
  400000   0.63553834   -8.7302256    55.481495  0.011558645  0.010695971            4 
  401000   0.61749065   -8.7390778    55.505387  0.011534785  0.010657958            6 
  402000   0.61903755   -8.7350587    55.586815  0.011522972  0.010620087           13 
  403000   0.60815567   -8.7458846    55.451323  0.011466361  0.010582375           15 
  404000   0.61803648   -8.7599308    55.496517  0.011447301  0.010544774           13 
  405000    0.6113243   -8.7644487    55.403582  0.011399914  0.010507278           12 
  406000   0.62377206   -8.7544495    55.475958  0.011386691  0.010469715           16 
  407000   0.62182487   -8.7583119    55.436046  0.011350542  0.010432329            5 
  408000   0.61684312   -8.7555038    55.426252  0.011320721  0.010395122           12 
  409000   0.61862487   -8.7797232    55.464404  0.011300816  0.010358192           16 
  410000    0.6062535   -8.7731451    55.353653  0.011250743  0.010321223           17 
  411000   0.61543777    -8.770761     55.55929  0.011265063  0.010284527           11 
  412000   0.62268553    -8.796366    55.299309  0.011185135  0.010248003           18 
  413000   0.61797868   -8.7782088    55.452441  0.011188951  0.010211579            8 
  414000   0.61242235   -8.7819344    55.382216  0.011147789  0.010175265            7 
  415000   0.59890196   -8.7788995    55.441355  0.011132802  0.010139136            8 
  416000   0.60596558   -8.7886032    55.348159  0.011087372  0.010103127            7 
  417000   0.60583021   -8.8272584     55.31855  0.011054866  0.010067238           10 
  418000   0.61458008   -8.7942939    55.299578  0.011024637  0.010031463           24 
  419000   0.58894797    -8.793697     55.42998   0.01102426  0.009995947           11 
  420000    0.5902758   -8.7942461    55.386136  0.010989313 0.0099605645           10 
  421000   0.59903739   -8.7931012    55.441547  0.010974178 0.0099252193           12 
  422000   0.58331149   -8.8113438    55.285275  0.010917313  0.009890029            2 
  423000   0.59076782   -8.8227777    55.348396  0.010903939 0.0098550364            4 
  424000   0.57682448   -8.8188158    55.273415  0.010863486 0.0098201017            6 
  425000   0.58758235   -8.8034216     55.26444  0.010836165 0.0097852576            9 
  426000   0.57932368   -8.7993537    55.317531  0.010821113 0.0097506163            6 
  427000   0.58769297   -8.8204823    55.335505  0.010799279 0.0097161733            8 
  428000   0.58522866   -8.8242479    55.323207  0.010771652 0.0096818783            9 
  429000   0.57994217   -8.8383275    55.304592  0.010742928 0.0096476923            4 
  430000   0.57814573    -8.838403    55.258796  0.010709069 0.0096137167            9 
  431000   0.57696682   -8.8207846    55.271975   0.01068677 0.0095798401           11 
  432000   0.56772367   -8.8327979    55.214379  0.010650922  0.009546076            3 
  433000    0.5809562   -8.8436016    55.266244  0.010636306 0.0095124662           10 
  434000    0.5674956   -8.8571437    55.256871  0.010609998 0.0094790187            8 
  435000   0.58167468   -8.8550243    55.213252  0.010577251 0.0094457168            7 
  436000   0.58113606   -8.8576283    55.203363  0.010551102 0.0094126076            8 
  437000   0.57271511   -8.8712762    55.194582  0.010525283  0.009379532            5 
  438000   0.56927113   -8.8591362    55.222656  0.010506594 0.0093465858           11 
  439000   0.55422433   -8.8467669     55.24533  0.010486965 0.0093138458           17 
  440000   0.56150551    -8.865105    55.164876  0.010447893  0.009281185           15 
  441000   0.57087513   -8.8653633    55.280022   0.01044596 0.0092486933           10 
  442000   0.55106139   -8.8744273     55.16439  0.010400526 0.0092163078           12 
  443000   0.55024758   -8.8694294    55.289261  0.010400538 0.0091840196           13 
  444000   0.56501908   -8.8823712    55.272658  0.010373997 0.0091519678           11 
  445000    0.5617279   -8.8568072    55.203071  0.010337654 0.0091199766            9 
  446000   0.55539829   -8.8735966    55.190217  0.010312073 0.0090882022           11 
  447000   0.55687535   -8.8738336    55.204156  0.010291603 0.0090565876            3 
  448000    0.5458862   -8.8859313    55.206328  0.010269034 0.0090250977           12 
  449000   0.55359933   -8.8836596    55.079522  0.010222628 0.0089937149           10 
  450000   0.54596693   -8.8630254    55.165239  0.010215785 0.0089624939           11 
  451000   0.54452278   -8.8922078    55.197461  0.010199087 0.0089313576            8 
  452000    0.5475559    -8.900827    55.151645  0.010168076   0.00890038           11 
  453000   0.53269973   -8.9057575    55.105238  0.010137093 0.0088694484           10 
  454000   0.53833121   -8.8880272    55.140101  0.010121164 0.0088386648           13 
  455000   0.54095385   -8.8968558    55.207048  0.010111181 0.0088080221            5 
  456000   0.53733273   -8.9049755    55.133954  0.010075649 0.0087775606           11 
  457000   0.54903837   -8.9130219     55.10707    0.0100487 0.0087471656           13 
  458000   0.54047358   -8.8991622     55.16512  0.010037322 0.0087169381            8 
  459000   0.52336144   -8.9241295    55.019792  0.009989069 0.0086868228           10 
  460000   0.53208221   -8.9073043    55.143539 0.0099897716 0.0086568658           15 
  461000   0.53461077    -8.923484    55.097092 0.0099597056  0.008627014            6 
  462000   0.52747439   -8.9230889    55.157963 0.0099491275  0.008597325            9 
  463000   0.52489164   -8.9229418    55.194957 0.0099342976 0.0085677392           11 
  464000   0.53049381   -8.9341259    55.119299 0.0098992995 0.0085382646           17 
  465000   0.51573527     -8.91608    55.106673 0.0098757478  0.008508957           12 
  466000   0.53017974   -8.9355171    55.124725 0.0098577834 0.0084796732           12 
  467000   0.52827701   -8.9451712    55.071791  0.009827229 0.0084506046           15 
  468000   0.51997115   -8.9434689    55.042378 0.0098009932 0.0084216064           12 
  469000   0.51524446   -8.9259497    55.096772 0.0097897605 0.0083927448           17 
  470000   0.52350798   -8.9408535    55.187039 0.0097849359 0.0083640662           12 
  471000   0.52435198   -8.9493805    55.100697 0.0097488848 0.0083355377           14 
  472000   0.52439561   -8.9450244    55.053243 0.0097198522 0.0083070697           17 
  473000   0.50047267   -8.9613361    55.039046 0.0096968016 0.0082787503           12 
  474000   0.51622496   -8.9571679    55.076745  0.009682972 0.0082505539           11 
  475000   0.51262864   -8.9564046    55.001428 0.0096493734 0.0082224249           14 
  476000   0.50285867   -8.9676241    55.098744 0.0096461387 0.0081944498           12 
  477000   0.52057633   -8.9667029    55.072513 0.0096213334 0.0081665842           12 
  478000   0.49400903   -8.9682015    55.012138 0.0095906796  0.008138813           21 
  479000   0.51127782   -8.9629046    55.072499 0.0095811584 0.0081111994           18 
  480000   0.51115518   -8.9679349    55.008936 0.0095501625 0.0080837253           11 
  481000   0.49199548   -8.9728854    54.961665 0.0095221179 0.0080563273           21 
  482000    0.4990825    -8.969227    55.043738 0.0095165521  0.008029099           18 
  483000   0.49611269    -8.966186     54.95434 0.0094814251 0.0080019438           16 
  484000   0.49693272   -8.9783957     54.91183 0.0094545162  0.007974894           15 
  485000   0.50048242   -8.9792708    54.965932 0.0094443181 0.0079479978           11 
  486000   0.48963869   -8.9888687    54.986524 0.0094284164 0.0079211703           14 
  487000   0.48319811   -8.9719454     54.98834 0.0094093669 0.0078945063           20 
  488000   0.48870325    -8.989541    55.048188 0.0094003052 0.0078679054           14 
  489000   0.47847075   -9.0053053    54.942798 0.0093631217 0.0078413842           13 
  490000    0.4822718   -9.0073262    54.965071 0.0093478013 0.0078149872           11 
  491000   0.49215553   -8.9831699    54.920415 0.0093211837  0.007788689           18 
  492000   0.49378167      -9.0101    54.931088 0.0093040461 0.0077625681           16 
  493000   0.47059435   -9.0069567    54.973125 0.0092922794 0.0077364853           15 
  494000   0.48497346   -9.0121381    54.870364 0.0092561343 0.0077105199           14 
  495000   0.47288342   -9.0050321    54.857653 0.0092352951 0.0076846555           10 
  496000   0.48285375   -9.0035465    55.013291 0.0092428244 0.0076589199           20 
  497000    0.4825686   -9.0009196    54.878052 0.0092015514  0.007633369           16 
  498000   0.47282387   -9.0309599    54.922873 0.0091905745 0.0076078909           11 
  499000   0.48084739   -9.0193109     54.99462 0.0091841383 0.0075825441           17 
  500000   0.47018896   -9.0278794    54.829747 0.0091382911 0.0075572265           13 
  501000   0.46655084   -9.0257588    54.856511 0.0091245029  0.007532034           18 
  502000    0.4541054   -9.0090477    54.894329 0.0091126045 0.0075069311           13 
  503000   0.45760513   -9.0304224    54.842964 0.0090859781 0.0074819131           20 
  504000   0.44916961   -9.0353744    54.740984 0.0090510885 0.0074570017           21 
  505000   0.46280276   -9.0374617    54.830204 0.0090478884 0.0074321434           17 
  506000   0.45712418   -9.0306163    54.843917 0.0090322657 0.0074074863           11 
  507000   0.45950647   -9.0378076    54.859033 0.0090169351 0.0073829023           16 
  508000   0.46040512   -9.0543588    54.874084 0.0090016542 0.0073584208           15 
  509000    0.4474656   -9.0396161    54.849145 0.0089798862 0.0073340599           11 
  510000   0.45356687   -9.0492627    54.763173 0.0089482309  0.007309807           10 
  511000   0.45295773   -9.0499462    54.747384 0.0089281448 0.0072856832           17 
  512000   0.44344437   -9.0441839    54.827445 0.0089237378 0.0072616272           13 
Loop time of 1245.85 on 48 procs for 500000 steps with 4000 atoms

Performance: 69350.340 tau/day, 401.333 timesteps/s
99.4% CPU use with 48 MPI tasks x no OpenMP threads

MPI task timing breakdown:
Section |  min time  |  avg time  |  max time  |%varavg| %total
---------------------------------------------------------------
Pair    | 84.732     | 89.037     | 93.831     |  25.4 |  7.15
Neigh   | 8.365      | 8.6358     | 8.8958     |   5.2 |  0.69
Comm    | 78.824     | 83.942     | 88.655     |  28.6 |  6.74
Output  | 0.93716    | 0.93806    | 0.96671    |   0.4 |  0.08
Modify  | 1049.8     | 1051.9     | 1054.5     |   3.7 | 84.43
Other   |            | 11.42      |            |       |  0.92

Nlocal:        83.3333 ave          92 max          76 min
Histogram: 3 6 2 10 5 8 6 2 3 3
Nghost:        2225.21 ave        2247 max        2196 min
Histogram: 1 0 2 3 13 9 7 5 5 3
Neighs:        14923.3 ave       16780 max       13380 min
Histogram: 4 4 7 4 10 4 6 5 2 2
FullNghs:      29848.5 ave       32842 max       27449 min
Histogram: 6 4 6 5 9 4 5 4 2 3

Total # of neighbors = 1432729
Ave neighs/atom = 358.18225
Neighbor list builds = 26681
Dangerous builds = 0

#clear
#
#next RN
#
#jump SELF
Total wall time: 0:20:49
