
units lj                  # Use reduced LJ style units
atom_style atomic         # Uncharged point particles
atom_modify map hash      # Needed for indexing of clusters etc
                          # Used to be able to find where atoms are in relation to each other.

lattice fcc 1.0 spacing 1 1 1
Lattice spacing in x,y,z = 1.5874011 1.5874011 1.5874011
region box block 0 10 0 10 0 10 units lattice
create_box 2 box
Created orthogonal box = (0.0000000 0.0000000 0.0000000) to (15.874011 15.874011 15.874011)
  3 by 4 by 4 MPI processor grid
create_atoms 1 box
Created 4000 atoms
  using lattice units in orthogonal box = (0.0000000 0.0000000 0.0000000) to (15.874011 15.874011 15.874011)
  create_atoms CPU = 0.002 seconds
set type 1 type/fraction 2 0.75 78393
Setting atom values ...
  3002 settings made for type/fraction
mass 1 1.0
mass 2 1.0
pair_style lj/cut  3.5
pair_modify tail  yes
pair_coeff 1  1  1.0  1.0   # Intearaction between 1 and 1 set with epsilon = 1 and sigma = 1
pair_coeff 1  2  1.5  0.8
pair_coeff 2  2  0.5  0.88

write_data data.0
System init for write_data ...
Neighbor list info ...
  update every 1 steps, delay 10 steps, check yes
  max neighbors/atom: 2000, page size: 100000
  master list distance cutoff = 3.8
  ghost atom cutoff = 3.8
  binsize = 1.9, bins = 9 9 9
  1 neighbor lists, perpetual/occasional/extra = 1 0 0
  (1) pair lj/cut, perpetual
      attributes: half, newton on
      pair build: half/bin/atomonly/newton
      stencil: half/bin/3d
      bin: standard
WARNING: Not all mixed pair coeffs generated from mixing. Use write_data with 'pair ij' option to store all pair coeffs. (../write_data.cpp:312)


#############################
#   M E L T   S Y S T E M   #
#############################

velocity all create 2.4 3143649 mom yes dist gaussian # Assign velocities
                                                    # Temperature 2.4, random number seed, zero linear momentum
                                                                                # Gaussian distribution

timestep 0.002   # simulation timestep
thermo 1000       # output thermodynamic data every 1000 steps bf 100

# Define a fix  in this case with index 1 applied to all
# particles in the simulation. This fix is for simulations
# in the anisotropic NPT ensemble. Note that we use the MTK
# correction.
fix 1 all npt temp 2.4 2.4 0.1 iso 5.68 5.68 0.5 mtk yes tchain 5 pchain 5 # Use NPT ensemble
                                                                         # Set temperature and pressure and damping
                                                                         # Numbers of thermostats in chain and in barostat
run 10000          # run for 10000 steps
Per MPI rank memory allocation (min/avg/max) = 3.642 | 3.644 | 3.648 Mbytes
Step Temp E_pair E_mol TotEng Press Volume 
       0          2.4    -3.937065            0  -0.33796495   -3.5201857         4000 
    1000    2.3819782   -3.4455787            0   0.12649531    5.7743986    3706.2269 
    2000    2.3839552   -3.4594569            0   0.11558192    5.7714379    3694.1032 
    3000     2.366071   -3.4311348            0   0.11708446    5.5815969    3730.0317 
    4000    2.4551917   -3.4705119            0   0.21135487    5.9026163    3674.2791 
    5000    2.4390515    -3.380671            0   0.27699149    5.7584249    3732.1942 
    6000    2.4006614    -3.423369            0   0.17672274    5.6138355    3728.3833 
    7000    2.4322127   -3.4626827            0   0.18472435    5.7622333    3702.0796 
    8000    2.3672304   -3.4426456            0    0.1073123    6.1842729    3656.5745 
    9000    2.3881628   -3.4266441            0   0.15470453    5.7897843    3715.3106 
   10000    2.4543355    -3.462341            0   0.21824198    5.6315602    3722.3632 
Loop time of 2.67025 on 48 procs for 10000 steps with 4000 atoms

Performance: 647129.640 tau/day, 3744.963 timesteps/s
99.6% CPU use with 48 MPI tasks x no OpenMP threads

MPI task timing breakdown:
Section |  min time  |  avg time  |  max time  |%varavg| %total
---------------------------------------------------------------
Pair    | 1.1688     | 1.2598     | 1.3809     |   3.9 | 47.18
Neigh   | 0.21472    | 0.2241     | 0.24304    |   1.2 |  8.39
Comm    | 0.77509    | 0.90679    | 1.0156     |   5.0 | 33.96
Output  | 0.00025574 | 0.00026109 | 0.00031905 |   0.0 |  0.01
Modify  | 0.22801    | 0.26366    | 0.31152    |   3.9 |  9.87
Other   |            | 0.01568    |            |       |  0.59

Nlocal:        83.3333 ave          94 max          72 min
Histogram: 3 1 2 3 5 21 8 3 0 2
Nghost:        1714.19 ave        1743 max        1688 min
Histogram: 1 2 9 7 6 6 10 3 3 1
Neighs:        10252.5 ave       12059 max        8711 min
Histogram: 3 1 6 5 15 8 7 0 2 1

Total # of neighbors = 492118
Ave neighs/atom = 123.02950
Neighbor list builds = 905
Dangerous builds = 201

# Equilibrate just above the melting temperature to avoid step fn in T

fix 1 all npt temp 1.25 1.25 0.1 iso 5.68 5.68 0.5 mtk yes tchain 5 pchain 5
run 2000
Per MPI rank memory allocation (min/avg/max) = 3.644 | 3.646 | 3.649 Mbytes
Step Temp E_pair E_mol TotEng Press Volume 
   10000    2.4543355    -3.462341            0   0.21824198    5.6315602    3722.3632 
   11000    1.2423601   -5.0851968            0   -3.2221226    5.6132034    2839.2501 
   12000    1.2373897   -5.0951967            0   -3.2395761    5.6463913    2835.8818 
Loop time of 0.665692 on 48 procs for 2000 steps with 4000 atoms

Performance: 519158.776 tau/day, 3004.391 timesteps/s
99.6% CPU use with 48 MPI tasks x no OpenMP threads

MPI task timing breakdown:
Section |  min time  |  avg time  |  max time  |%varavg| %total
---------------------------------------------------------------
Pair    | 0.30297    | 0.32438    | 0.37198    |   2.2 | 48.73
Neigh   | 0.042034   | 0.044166   | 0.048683   |   0.7 |  6.63
Comm    | 0.19484    | 0.24614    | 0.26865    |   2.9 | 36.97
Output  | 5.429e-05  | 5.5846e-05 | 8.0456e-05 |   0.0 |  0.01
Modify  | 0.041412   | 0.046014   | 0.051035   |   1.2 |  6.91
Other   |            | 0.004935   |            |       |  0.74

Nlocal:        83.3333 ave          90 max          76 min
Histogram: 1 1 8 6 5 10 3 8 4 2
Nghost:        2069.65 ave        2096 max        2043 min
Histogram: 2 3 3 7 8 8 8 7 1 1
Neighs:        13457.6 ave       14758 max       11846 min
Histogram: 4 2 1 3 4 13 10 4 4 3

Total # of neighbors = 645966
Ave neighs/atom = 161.49150
Neighbor list builds = 143
Dangerous builds = 12

#############################
# L I N E A R  Q U E N C H  #
#############################

# Define solid atoms. This closely follows ten Wolde  Ruiz-Montero and Frenkel  Faraday Discuss  1996  104  93-110
# Compute components of the per-atom q6 vector
compute q6 all orientorder/atom degrees 1 6 components 6 nnn NULL cutoff 1.3 # compute the Q6 parameter.
                                                                             # Use all neighbours within 1.3 unit cell.

# get number of connections
compute coord_number all coord/atom orientorder q6 0.5

# An atom is solid if it has 8 or more connections (of a possible 14)
variable is_solid atom c_coord_number>=8
group solid dynamic all var is_solid    # Must be dynamic to update
dynamic group solid defined

# do clustering
compute cluster solid cluster/atom 1.3 # Create a cluster where all atoms within are solid and max 1.3 units from another member

# define chunks one chunk per cluster
compute clus_chunks solid chunk/atom c_cluster nchunk every compress yes  # Says which atoms are in which chunk

# count the size of each chunk
compute size_chunks solid property/chunk clus_chunks count


# Find the maximum entry in the vector of chunk sizes
variable max_n equal max(c_size_chunks)


# Thermo style which includes this variable
# thermo_style custom step temp pe vol v_max_n

thermo ${N}  # Print the thermo information every 100 steps
thermo 1000  

# Reset the npt fix at a lower temperature (below freezing)
fix 1  all npt temp  ${temp} ${temp}  0.1  iso  5.68  5.68  0.5  mtk yes tchain  5  pchain  5
fix 1  all npt temp  0.45 ${temp}  0.1  iso  5.68  5.68  0.5  mtk yes tchain  5  pchain  5
fix 1  all npt temp  0.45 0.45  0.1  iso  5.68  5.68  0.5  mtk yes tchain  5  pchain  5

dump dmp2 all dcd ${N} traj.dcd
dump dmp2 all dcd 1000 traj.dcd


compute msd all msd com yes
variable twopoint equal c_msd[4]/6/(step*dt+1.0e-6)
fix 9 all vector 10 c_msd[4]
variable fit equal slope(f_9)/6/(10*dt)
thermo_style custom step temp pe c_msd[4] v_twopoint v_fit v_max_n

fix 1 all npt temp 1.25 ${temp} 0.1 iso 5.68 5.68 0.5 mtk yes tchain 5 pchain 5
fix 1 all npt temp 1.25 0.45 0.1 iso 5.68 5.68 0.5 mtk yes tchain 5 pchain 5
run 500000 # 5000000  # Run for this many steps
Neighbor list info ...
  update every 1 steps, delay 10 steps, check yes
  max neighbors/atom: 2000, page size: 100000
  master list distance cutoff = 3.8
  ghost atom cutoff = 3.8
  binsize = 1.9, bins = 8 8 8
  4 neighbor lists, perpetual/occasional/extra = 1 3 0
  (1) pair lj/cut, perpetual
      attributes: half, newton on
      pair build: half/bin/atomonly/newton
      stencil: half/bin/3d
      bin: standard
  (2) compute orientorder/atom, occasional
      attributes: full, newton on
      pair build: full/bin/atomonly
      stencil: full/bin/3d
      bin: standard
  (3) compute coord/atom, occasional
      attributes: full, newton on
      pair build: full/bin/atomonly
      stencil: full/bin/3d
      bin: standard
  (4) compute cluster/atom, occasional
      attributes: full, newton on
      pair build: full/bin/atomonly
      stencil: full/bin/3d
      bin: standard
Per MPI rank memory allocation (min/avg/max) = 9.839 | 9.845 | 9.849 Mbytes
Step Temp PotEng c_msd[4] v_twopoint v_fit v_max_n 
   12000    1.2373897   -5.0951967 1.8443568e-30 1.2808033e-32 8.3333333e+20            1 
   13000      1.21644   -5.1398393   0.71348014 0.0045735904  0.059138973            2 
   14000    1.2540827   -5.0431413    1.4163533  0.008430674  0.059120891            2 
   15000    1.2513174   -5.1136942    2.1096126   0.01172007   0.05859404            1 
   16000    1.2553952    -5.116444    2.8567379  0.014878843  0.058814334            1 
   17000    1.2339428   -5.0936398    3.6280493  0.017784555  0.060102897            1 
   18000    1.2047628     -5.14521    4.2149098  0.019513471  0.059705615            1 
   19000    1.2435593   -5.1184709    4.8675083   0.02134872  0.059118021            1 
   20000    1.2548113   -5.1535801    5.5750999  0.023229582  0.058505906            2 
   21000    1.2295042   -5.1514946    6.2873116  0.024949649  0.058090775            2 
   22000    1.2796745   -5.1254049    6.9909287   0.02648079  0.058060198            3 
   23000    1.2117215   -5.1427107    7.7278349  0.027999401  0.058135537            3 
   24000    1.2219372   -5.1145294    8.3650865  0.029045439  0.058077197            4 
   25000    1.2459147   -5.1299494    8.9640833  0.029880277  0.057829749            6 
   26000    1.2316697   -5.1316895    9.5992095  0.030766696  0.057596241            2 
   27000    1.2197592   -5.1113122    10.305411  0.031806823     0.057362            2 
   28000    1.2273053   -5.1935915    11.026755  0.032817721  0.057256884            8 
   29000    1.2049966   -5.1702402    11.773736  0.033832574  0.057259266            1 
   30000    1.2339016   -5.1575603    12.381545   0.03439318  0.057227827            1 
   31000    1.2197673    -5.165583    13.022654  0.035007134  0.057173426            4 
   32000    1.2185506   -5.1785079    13.695941  0.035666511  0.057067625            3 
   33000    1.2305868   -5.1467949    14.347064  0.036229959  0.056959458            3 
   34000    1.2047029   -5.2061902    14.881623  0.036474566  0.056773063            2 
   35000    1.2032063   -5.2055908     15.45828  0.036805428  0.056604577            2 
   36000     1.199255   -5.1815765    16.164207  0.037417145  0.056404239            3 
   37000    1.2092391   -5.1665695    16.852858  0.037956886  0.056233272            2 
   38000    1.2049963   -5.1596532    17.506329  0.038391072  0.056111483            2 
   39000    1.2220899   -5.1528118     18.12303  0.038724422  0.055992701            1 
   40000     1.217359   -5.1862419    18.700675   0.03895974  0.055828002            4 
   41000    1.2043537   -5.2174171    19.265641  0.039157806  0.055635003            2 
   42000    1.2003556   -5.2265147    20.015754  0.039713797  0.055504526            3 
   43000    1.1779731    -5.207633    20.645333  0.040010335  0.055416433            6 
   44000    1.1969257   -5.2034705    21.356146  0.040447246  0.055364712            1 
   45000    1.1902803    -5.193573     22.19724  0.041105999  0.055328693            5 
   46000    1.1937715   -5.2195629    22.836837   0.04137108  0.055312675            2 
   47000    1.2162313   -5.1797995    23.443516  0.041566517  0.055300072            2 
   48000    1.1965747   -5.2173987    24.054963  0.041762088  0.055269765            1 
   49000     1.204178   -5.2544226    24.667996  0.041952373  0.055224353            3 
   50000    1.2073927   -5.2100971     25.32579   0.04220965  0.055168854            3 
   51000    1.1877001   -5.2282502     25.93101  0.042370931  0.055119903            4 
   52000    1.1930935   -5.2130141    26.479946   0.04243581  0.055074475            2 
   53000    1.2007861   -5.2187411     26.87081  0.042249701  0.054954819            2 
   54000    1.1730902   -5.2379439    27.589718  0.042576725  0.054841431            2 
   55000    1.1757154   -5.2770427    28.166068   0.04267586  0.054759058            3 
   56000    1.1796616   -5.1957349    28.942262  0.043068842  0.054688522            5 
   57000    1.1898982   -5.2202535    29.408111  0.042994314  0.054593812            1 
   58000    1.1728228   -5.2702905    29.967994  0.043057462  0.054481062            2 
   59000     1.177889   -5.2197285    30.615621  0.043242402  0.054380265            4 
   60000    1.1525195   -5.2682808    31.236553    0.0433841  0.054261127            2 
   61000    1.1268413   -5.2389096    31.919058  0.043605271  0.054170934            3 
   62000    1.1609589    -5.265342    32.554215  0.043755665  0.054089691            2 
   63000    1.1864497   -5.2244004    33.310171  0.044061073  0.054016196            2 
   64000    1.1933255   -5.2349352    33.908795  0.044152076  0.053957018            2 
   65000    1.1729506   -5.2469341     34.48064  0.044205948  0.053897892            2 
   66000    1.1474952   -5.2873446    35.077692  0.044290015  0.053834758            3 
   67000    1.1593701   -5.2509504      35.5383  0.044201865  0.053771563            4 
   68000    1.1430648   -5.2690895    36.337549  0.044531309  0.053695035            5 
   69000    1.1639664    -5.264594    37.094155  0.044799704  0.053650001            3 
   70000    1.1311707   -5.2383118    37.595725  0.044756816  0.053604193            1 
   71000    1.1521181   -5.2905572    38.178324  0.044810239  0.053567606            2 
   72000    1.1561932   -5.3085082    38.847912  0.044962861  0.053525088            6 
   73000    1.1747564   -5.2921394    39.378712  0.044952867  0.053475772            3 
   74000    1.1799537   -5.2753751    40.250883  0.045327571  0.053442096            3 
   75000    1.1302349   -5.3213569    40.808501  0.045342779  0.053416764            5 
   76000    1.1352952   -5.2857119    41.253724  0.045234346  0.053380939            3 
   77000    1.1547469   -5.3796676    41.678879  0.045107011  0.053330529            2 
   78000    1.1190394   -5.2735583    42.199521  0.045084958  0.053267037            5 
   79000    1.1428827   -5.3096024    42.510849  0.044842667  0.053179186            2 
   80000    1.1385182   -5.3530515    42.949813  0.044739389  0.053074208            3 
   81000    1.1375315   -5.2900717    43.665984  0.044923852  0.052970673            3 
   82000    1.1480412   -5.3015235    44.042566  0.044758705  0.052855248            5 
   83000    1.1294036   -5.3395223    44.479983  0.044658617  0.052737366            2 
   84000    1.1293594   -5.3143768    44.923224   0.04456669  0.052607111            3 
   85000    1.1454698   -5.3173301    45.642939  0.044747979  0.052471232            6 
   86000      1.12691   -5.3228653     45.62879  0.044213944  0.052339923            3 
   87000    1.1293201   -5.3304548    46.513112  0.044552789  0.052200387            1 
   88000    1.1190767   -5.3217327    47.076176  0.044579712  0.052063663            3 
   89000    1.1251872   -5.3426271    47.388795  0.044371531  0.051931751            1 
   90000    1.1291087   -5.3660005    47.891372  0.044343862  0.051805253            4 
   91000    1.1150385   -5.3112258    48.595765  0.044501616  0.051681352            3 
   92000    1.1114485   -5.3549496     48.97341  0.044359972  0.051548734            3 
   93000    1.1090638   -5.3807891    49.483082  0.044339679  0.051415172            3 
   94000    1.1236409   -5.3626837    50.069211  0.044387598  0.051279944            3 
   95000    1.1329259   -5.3625195    50.326987   0.04414648  0.051155208            3 
   96000    1.0988348   -5.3490416    51.020318  0.044288471  0.051026462            3 
   97000    1.1159959   -5.3347687    51.563966   0.04429894  0.050897181            2 
   98000    1.1201083   -5.3862018    52.141201  0.044337756  0.050767552            3 
   99000    1.1062733    -5.366712    52.500701  0.044192509  0.050641174            4 
  100000    1.1069354   -5.4204498    52.646232   0.04387186  0.050513898            4 
  101000     1.137179   -5.3961734    53.477315  0.044123197  0.050378976            3 
  102000    1.1145707   -5.3947827    53.878976  0.044018771   0.05024722            3 
  103000    1.1141273   -5.3910879    54.368339  0.043987329  0.050124201            2 
  104000    1.1254079   -5.3673743    55.165945  0.044203481  0.050009906            2 
  105000     1.100697   -5.4045853    55.530459  0.044071793  0.049897011            3 
  106000    1.1138853   -5.4167523    55.865006  0.043919029  0.049779232            4 
  107000    1.1015578   -5.4179891    56.440216  0.043956554  0.049665458            3 
  108000    1.1037685    -5.414924    56.847595  0.043863885  0.049561763            3 
  109000    1.0941073   -5.4408995    57.573305  0.044016288  0.049460663            2 
  110000    1.1160263   -5.4152693    58.198123  0.044089487  0.049363037            2 
  111000    1.0902154   -5.4227012    58.617735  0.044007308  0.049272534            4 
  112000    1.0974095    -5.416037    59.094284  0.043968961  0.049177304            4 
  113000    1.0900581   -5.4295966    59.762287  0.044072483  0.049083129            2 
  114000    1.1060693   -5.4467292    60.521829  0.044241103    0.0489984            5 
  115000    1.0752362   -5.4206279    61.113125  0.044284873  0.048923239            3 
  116000    1.1146841   -5.4302064    61.587307  0.044243754   0.04884791            4 
  117000    1.0675653   -5.4282686    62.000286  0.044159748   0.04877583            2 
  118000    1.1082211   -5.4527873    62.550461  0.044174054  0.048703112            5 
  119000    1.0676534   -5.4346916    63.120016  0.044201692  0.048631691            3 
  120000      1.09449   -5.4287715      63.7979  0.044304097  0.048559476            2 
  121000     1.088205   -5.4648842    64.049402  0.044111158  0.048490053            6 
  122000    1.0567544   -5.4589961    64.778713  0.044247754  0.048428402            3 
  123000     1.105331     -5.45913    65.173009  0.044155155  0.048366605            3 
  124000    1.0876976   -5.4534067    65.638414  0.044111837  0.048297763            7 
  125000    1.0810115   -5.4409349    65.740756   0.04382717  0.048224707            3 
  126000    1.0554546   -5.5192817       66.118  0.043728836  0.048147711            3 
  127000    1.0828946   -5.4873523    66.681387  0.043754191  0.048067941            3 
  128000     1.073247   -5.4650929     66.97075  0.043600748    0.0479821            5 
  129000    1.0611742   -5.4682256    67.520238  0.043617725  0.047893844            2 
  130000    1.0559315   -5.4773474    67.575665  0.043317734  0.047799644            3 
  131000    1.0637219   -5.4855784    68.005487  0.043260488  0.047700002            4 
  132000    1.0679975   -5.4502199    68.503864  0.043247388  0.047597292            2 
  133000    1.0418138   -5.4747103    68.708017  0.043050136  0.047492281            4 
  134000    1.0516856   -5.5102666    68.842394  0.042812434  0.047385975            5 
  135000    1.0635342   -5.5103132    68.955139    0.0425649  0.047278067            2 
  136000    1.0457325   -5.5356288    69.604582  0.042649866  0.047168237            5 
  137000    1.0577402    -5.486999    70.349092  0.042791418  0.047059438            2 
  138000    1.0460314   -5.5131389    70.696797  0.042691303  0.046950248            3 
  139000    1.0312866   -5.5021271    71.092947  0.042621671  0.046841837            3 
  140000     1.041501   -5.5355014    71.081901  0.042310655  0.046730759            6 
  141000    1.0323709   -5.5052489    71.886447  0.042486079  0.046620042            2 
  142000     1.045124   -5.4887533    72.098425  0.042311282  0.046507243            3 
  143000     1.040747   -5.5096754    72.474496  0.042234555  0.046395011            4 
  144000     1.034865   -5.5426254    72.921291  0.042199821  0.046287074            2 
  145000    1.0220088   -5.5237626     73.46976     0.042224  0.046183538            5 
  146000    1.0560499   -5.5185621    73.890604  0.042175002  0.046079382            5 
  147000    1.0250551   -5.5179604    74.136763  0.042027643  0.045971036            2 
  148000     1.033941   -5.5675788    74.596943  0.042002783   0.04586502            5 
  149000    1.0189557    -5.515578    75.294628  0.042111089  0.045762126            4 
  150000    1.0293549   -5.5406594     75.87878  0.042154878  0.045663948            4 
  151000    1.0311287    -5.554098    75.883871  0.041878516  0.045563698            6 
  152000    1.0330471   -5.5577474    76.444797  0.041910524  0.045470407            3 
  153000   0.99949139   -5.5796166    76.459599  0.041644661  0.045369972            5 
  154000    1.0400287   -5.5218039    77.604093  0.041993557  0.045274177            3 
  155000    1.0387068   -5.5390146    78.170764  0.042027292  0.045186318            6 
  156000   0.99282485    -5.581876    78.202742  0.041774969  0.045100713            5 
  157000    1.0112858   -5.5569376    78.738362  0.041793186   0.04501568            9 
  158000    1.0043673   -5.5752161    78.619677  0.041466074   0.04492562            3 
  159000    1.0191297   -5.5780855    79.016611  0.041413318  0.044830383            3 
  160000    1.0215132   -5.5696923     79.58763   0.04145189  0.044732169            3 
  161000    1.0205633   -5.5835634    79.463041  0.041129938  0.044633487            3 
  162000   0.99657478   -5.5626497    79.858053  0.041079245  0.044529635            2 
  163000   0.98752977   -5.5893962    80.432583  0.041120952  0.044426567            3 
  164000    1.0127101   -5.5874235    80.653985  0.040982716  0.044326845            2 
  165000    1.0026907   -5.5924838    80.970207  0.040894044  0.044226592            3 
  166000    1.0105305   -5.6041807    81.395888  0.040861389  0.044123552            4 
  167000   0.99178546   -5.6072613    81.540946  0.040689095  0.044020236            3 
  168000   0.99325413   -5.6237368    81.715205  0.040533336   0.04391567            2 
  169000    1.0083145    -5.624996    82.126817  0.040496458  0.043810756            2 
  170000     1.001955   -5.5965452    82.272493  0.040329653  0.043704359            2 
  171000   0.98560203   -5.6039747    82.719241  0.040311521  0.043596472            5 
  172000   0.99984727    -5.621087    83.101384  0.040262298  0.043487541            2 
  173000   0.97757191   -5.6058972    83.548577  0.040244979  0.043376788            2 
  174000   0.96182492   -5.6423174    83.446022   0.03996457  0.043267976            2 
  175000    1.0030659   -5.6107839    84.150048  0.040071451   0.04316031            5 
  176000   0.98981873   -5.6305929    84.200933  0.039867866  0.043052161            4 
  177000   0.97813941   -5.6397693    84.517913  0.039791861  0.042943599            4 
  178000   0.97443039    -5.624381    84.836096  0.039717273  0.042834596            4 
  179000   0.98510529   -5.6393479    85.101708  0.039619045  0.042725707           11 
  180000   0.98365217   -5.6320449    85.106615  0.039401211  0.042611403            3 
  181000   0.97736323   -5.6750503    85.353869  0.039297361  0.042497238            3 
  182000   0.95601211    -5.692684    85.631891  0.039208741  0.042386273            3 
  183000   0.98233261   -5.6781048    85.955681  0.039141931   0.04227233            4 
  184000   0.96394564   -5.6759063    86.146315  0.039015541  0.042161101            6 
  185000   0.97530068   -5.6222275    87.139721  0.039252126  0.042051656            5 
  186000   0.94081531   -5.6995367    87.029067  0.038991517  0.041945305            7 
  187000   0.96036785   -5.6477414    87.425422  0.038959635   0.04183666            6 
  188000   0.97917964   -5.6818385    87.337859   0.03871359   0.04172906            3 
  189000   0.97446844    -5.700347    87.624886  0.038635311  0.041620402            6 
  190000    0.9619036   -5.6980114    87.921582  0.038562097  0.041510927            5 
  191000   0.96437598   -5.6904257     88.11849  0.038446112  0.041401641            4 
  192000   0.99349738   -5.6710355    88.957883  0.038610192  0.041293777           10 
  193000   0.96549161   -5.7202677    88.779474  0.038333106  0.041183437            7 
  194000   0.94407151     -5.68548    88.946894  0.038207429  0.041069968            2 
  195000    0.9648045   -5.6817873    89.316289  0.038169354   0.04095706            4 
  196000   0.96535833   -5.7220625    89.623556  0.038105253   0.04084809            6 
  197000   0.93576233   -5.7110677    89.996952  0.038069776  0.040739345            2 
  198000    0.9438853   -5.7246094    90.130245  0.037933605  0.040627526            7 
  199000   0.95954106   -5.7274024    90.418919  0.037863869   0.04051821            5 
  200000   0.94718734   -5.7153223    90.633015  0.037763756  0.040411102            7 
  201000   0.95226196   -5.7133194    91.109027  0.037773229  0.040303365            6 
  202000   0.95097878   -5.7231577    91.192781  0.037620784  0.040195829            2 
  203000   0.94821754   -5.7523929    91.485453  0.037555604  0.040089658            6 
  204000   0.95693771   -5.7282194    91.665378  0.037445007  0.039984861            4 
  205000   0.93774096   -5.7271803    92.194724   0.03747753  0.039880644            9 
  206000   0.92807011   -5.7332902    92.918352   0.03758833  0.039776483            6 
  207000   0.97315178   -5.7380069    92.555518  0.037260676  0.039672201            4 
  208000   0.94395891   -5.7322648    92.989342  0.037255345   0.03956859            3 
  209000   0.93297594   -5.7808941    93.096677  0.037119887  0.039463357            5 
  210000    0.9296217   -5.7426145     93.22804  0.036995254  0.039359692            3 
  211000   0.93441961   -5.7959966    93.405327   0.03688994  0.039255749            4 
  212000   0.92120993   -5.7808249    93.519221    0.0367607  0.039153604            9 
  213000   0.92918247   -5.7447085    94.398832   0.03693225  0.039051338            8 
  214000   0.90850726   -5.7898021    94.488025  0.036794402  0.038950684            5 
  215000   0.92406678    -5.750949    94.918258  0.036790022  0.038849695            9 
  216000   0.93088122   -5.7616189    95.020828   0.03665927  0.038748851            7 
  217000   0.91933962   -5.7620605    95.288764  0.036593227  0.038650047            5 
  218000   0.91008489   -5.7896163    95.551176  0.036525679  0.038550842            5 
  219000    0.9290635   -5.7837133    95.942339  0.036507739   0.03845293            3 
  220000   0.91761239   -5.8266675    95.969768  0.036352185  0.038354043            4 
  221000   0.94947291   -5.8095831    96.331945  0.036324263  0.038255025            5 
  222000   0.90480187   -5.7994173    96.621263  0.036269243  0.038158404            8 
  223000   0.91697723   -5.7481543    96.924852  0.036220049   0.03806294            5 
  224000   0.92238617   -5.7902439    96.768717  0.036000267    0.0379677            9 
  225000   0.91797724   -5.8175893     97.47197  0.036100729  0.037872867            7 
  226000   0.92184832   -5.8107945    97.720525  0.036032642  0.037779614            3 
  227000   0.91524206   -5.8488844    97.965612  0.035963881  0.037687325            4 
  228000   0.90741655   -5.8147608    98.486514  0.035996533  0.037596314            2 
  229000   0.90514847   -5.8155812    98.883449  0.035983788   0.03750675            5 
  230000   0.89750059    -5.838002    98.667606  0.035749133  0.037416049            8 
  231000   0.89117383   -5.8637929    98.703321  0.035607259  0.037324837            3 
  232000   0.89963047   -5.8595471     99.23381  0.035644328  0.037232016            8 
  233000   0.90593857   -5.8428014    98.925764  0.035381174  0.037138274            7 
  234000   0.90109366   -5.8787486    99.345894  0.035379592  0.037046686            5 
  235000    0.9010568   -5.8602643    99.931822  0.035436816  0.036956619            3 
  236000   0.89616294   -5.8800588    100.22814  0.035391291  0.036867455            5 
  237000   0.89821383   -5.8788021    100.46367  0.035324777  0.036778881            8 
  238000   0.88908275   -5.8310915    101.09301  0.035396712  0.036689814            4 
  239000    0.8764138   -5.8439192    100.71607  0.035117178  0.036601683            5 
  240000    0.8870522   -5.8553868    101.38129  0.035201838  0.036512738            6 
  241000    0.8863071   -5.8822407    100.95987  0.034910053  0.036422919            5 
  242000   0.87898122   -5.8803838    101.56933  0.034975665  0.036335003            7 
  243000   0.88759242   -5.8664334    101.46498  0.034795946  0.036244362            7 
  244000   0.86468295   -5.8489885    101.94389  0.034816901  0.036154267            4 
  245000   0.88062634   -5.9045185    101.75179  0.034609453  0.036063789           27 
  246000   0.88499076   -5.8783564    101.68188   0.03444508  0.035972252            4 
  247000   0.87193715   -5.8850665    101.99498  0.034411261  0.035880646            7 
  248000   0.86202317   -5.8983443    102.20259  0.034342268  0.035789724            4 
  249000   0.87358175    -5.924501    102.31262  0.034241173  0.035699016            5 
  250000   0.87398524   -5.8983273    102.57245  0.034190817  0.035607217            5 
  251000   0.87456486   -5.9236318    102.77703  0.034122519  0.035515878            3 
  252000    0.8619956    -5.927981    103.12377  0.034101777  0.035424268            5 
  253000   0.85600649   -5.8760076    103.32612  0.034033635  0.035333295            8 
  254000   0.87052979   -5.8934212    103.57089  0.033979952  0.035244282            5 
  255000   0.85153331   -5.9325237    103.88112   0.03394808  0.035154622            5 
  256000   0.85001788    -5.922733    103.79261  0.033786658  0.035064614           13 
  257000   0.87025971   -5.9742559     103.3698  0.033518093   0.03497402            6 
  258000   0.85249255   -5.9361075    104.70423  0.033819197  0.034885591           14 
  259000   0.85737857   -5.9468646    104.40431  0.033592121  0.034798387            4 
  260000    0.8570448   -5.9412699    104.79185  0.033587131  0.034710746            5 
  261000   0.87385972   -5.9861874    104.66312  0.033417344  0.034623048            4 
  262000   0.81333825   -5.9641852    105.20449  0.033461987  0.034535667            7 
  263000   0.83868358   -5.9413884    105.37538  0.033388903  0.034450549            5 
  264000   0.84385954   -5.9710809    105.37692  0.033262916  0.034363818            4 
  265000   0.85038179   -5.9570756     105.3569    0.0331311  0.034276295            3 
  266000   0.83442327   -6.0133518    105.42005  0.033026331  0.034189207            9 
  267000   0.83678841   -5.9962507    105.64584  0.032973107  0.034101413            5 
  268000   0.82460851   -5.9603176     105.5941  0.032833987  0.034013217           11 
  269000   0.84284703   -6.0349876    105.91139   0.03281022  0.033924848            9 
  270000    0.8440448   -6.0039845    105.81421  0.032658706  0.033835705            6 
  271000   0.82140604   -6.0317726    105.78268  0.032528498  0.033745805            7 
  272000   0.84565698   -5.9808438    106.10148  0.032506581  0.033657783            5 
  273000   0.81859378   -5.9844441    106.45369  0.032495022  0.033568917           11 
  274000   0.83295477   -6.0063613    106.65587  0.032437917  0.033480117            5 
  275000   0.83474219   -6.0226247    106.60363   0.03230413  0.033391332            5 
  276000   0.82745579   -5.9914594     106.7361  0.032227084  0.033302479            3 
  277000   0.83291042   -6.0516278    106.37191  0.032001175  0.033212409            9 
  278000   0.82149295   -5.9954817    107.15821  0.032121767  0.033122882            5 
  279000   0.82611514   -6.0046186    106.81579  0.031904356  0.033033012            5 
  280000   0.80414629   -6.0284457    106.62692  0.031734203  0.032942882           12 
  281000    0.8230125   -6.0504955    106.52024  0.031589632  0.032851779           11 
  282000   0.82382133    -6.026515    107.05159   0.03163463  0.032760036           12 
  283000   0.82859795   -6.0291979    107.17647  0.031559621  0.032670002            9 
  284000   0.81969789   -6.0299459    107.55381  0.031559217  0.032579584           18 
  285000   0.80609359   -6.0587501    107.29538  0.031372918  0.032489722            8 
  286000   0.80818927    -6.064561    107.57906  0.031345878  0.032400409            9 
  287000   0.79064472   -6.0508996    107.46205  0.031202686    0.0323101            6 
  288000   0.79734405   -6.0619621    107.84749   0.03120587  0.032220055            6 
  289000   0.79590654   -6.0322687    107.87082   0.03110462  0.032130834            8 
  290000   0.80932336   -6.0433929    107.95072  0.031020322  0.032040292           12 
  291000    0.8096867   -6.0609677    108.11651  0.030961201  0.031950599           12 
  292000   0.80911713   -6.0851678     108.0356  0.030832078  0.031861279            8 
  293000   0.80057827   -6.0760222    108.25132  0.030788203  0.031772041            4 
  294000   0.79224179   -6.0686491    108.22631  0.030676391  0.031683212            7 
  295000   0.80325075   -6.0411606    108.81166  0.030737756  0.031594267            8 
  296000   0.79500265   -6.0617783    108.92461  0.030665711  0.031507349            9 
  297000   0.78700458   -6.1003987    108.85644  0.030543334  0.031419808           10 
  298000    0.7953789   -6.1046903    109.05718  0.030496975  0.031331745            4 
  299000   0.78343106   -6.1019653    108.92755  0.030358848  0.031244287            7 
  300000   0.77761698   -6.1101103    108.96528  0.030268132  0.031156674            7 
  301000   0.78732417   -6.1198309    109.44131  0.030299365  0.031070072           18 
  302000   0.80712419   -6.1069215    109.38348  0.030183079  0.030984213            6 
  303000   0.78769419    -6.133661    109.63591   0.03015289   0.03089852            8 
  304000   0.77429873   -6.1043704    109.81049   0.03010156   0.03081223            9 
  305000   0.76617889   -6.1375581    109.67331  0.029965385  0.030726446            5 
  306000   0.77830912   -6.1090916    109.62081  0.029853162  0.030639993            9 
  307000    0.7668814   -6.1272264    109.90799  0.029833874   0.03055451            5 
  308000   0.79007715   -6.1463179    109.78536   0.02970383  0.030467745            6 
  309000   0.77552971   -6.1480852    109.87015  0.029630569  0.030381357           16 
  310000   0.78326286   -6.1545754    109.97439  0.029563008  0.030295367           20 
  311000   0.74958625   -6.1240343    110.03454  0.029484068  0.030209089           10 
  312000   0.75621907   -6.1565771    110.06394   0.02939742  0.030124109            6 
  313000   0.75903446   -6.1475787    110.52195   0.02942544  0.030039195            7 
  314000   0.76446349   -6.1727104    110.39138  0.029297075  0.029954784            7 
  315000   0.75989475   -6.1657433    110.80295   0.02931295  0.029870809            5 
  316000   0.77627681   -6.1543372    110.65742  0.029181808  0.029786763            8 
  317000   0.75999117   -6.1701476    110.85525  0.029141759   0.02970235            8 
  318000   0.76990056   -6.1554369     110.8374  0.029045441  0.029618234            8 
  319000   0.74280907   -6.1679375    110.81465  0.028948446   0.02953403           13 
  320000   0.76023048   -6.1928225    111.05079  0.028919476  0.029449697           12 
  321000   0.77715864   -6.1689202    111.29231  0.028892084  0.029366346            7 
  322000    0.7364377    -6.182135    111.33487  0.028813373  0.029284044            8 
  323000   0.73704059   -6.2273345    111.31167  0.028718181  0.029201539           17 
  324000   0.75566008   -6.1933573    111.39455  0.028650861  0.029118967           22 
  325000   0.74306987   -6.2016943    111.43957  0.028574248  0.029036561            5 
  326000   0.73964103   -6.1976727    111.44695  0.028488485  0.028954618           12 
  327000   0.74278237    -6.194307    111.62668  0.028447166   0.02887253            6 
  328000   0.73932409   -6.2612462    111.56323  0.028344317  0.028791003           10 
  329000   0.75123247   -6.2273746    111.95389  0.028357115  0.028709907           12 
  330000   0.75656145   -6.2229861    112.03535  0.028291756    0.0286297           17 
  331000   0.74590454   -6.2123308    112.14885  0.028234857  0.028549824           12 
  332000   0.74486327   -6.1998932    112.37593  0.028206809  0.028470617           10 
  333000   0.73261503   -6.2052799     112.5076  0.028155055  0.028391221           11 
  334000   0.72561781   -6.2250783    112.57127  0.028086643  0.028312453            9 
  335000    0.7085072   -6.2461804    112.36138  0.027950591  0.028233093            7 
  336000   0.71802477   -6.2410816    112.54267  0.027912369  0.028154721           24 
  337000   0.73960312   -6.2692775    112.45273  0.027807303  0.028075813            5 
  338000   0.71890518   -6.2279677     112.7617  0.027801209   0.02799668            6 
  339000   0.72021195    -6.287739    112.36089  0.027620671  0.027917462           13 
  340000   0.73732914   -6.2356981    113.13609  0.027729433  0.027838459           18 
  341000   0.72916411   -6.2430753    112.96301  0.027605819  0.027759934           18 
  342000   0.71839978   -6.2542343    112.63313  0.027444721  0.027681691           16 
  343000   0.73041673   -6.2738519    112.64787  0.027368287  0.027603595           12 
  344000   0.71032505   -6.2961367    112.96096  0.027364575   0.02752512           18 
  345000    0.7170509    -6.283265    112.94914    0.0272824  0.027446587           15 
  346000   0.72389787   -6.2738632    112.90509   0.02719294  0.027368545           12 
  347000   0.72095717    -6.274434    112.92918  0.027120361  0.027290405           15 
  348000   0.72258745   -6.3135969    112.77153  0.027004676  0.027211893           17 
  349000   0.70137597   -6.3063234    113.06624  0.026997671  0.027133475           15 
  350000   0.70392078    -6.324025     113.0005  0.026904881  0.027055512           24 
  351000   0.71505187   -6.3333605    112.76543  0.026772419  0.026977736           12 
  352000   0.70067273   -6.3167017    113.13128  0.026782973  0.026899914           10 
  353000   0.72136326   -6.3122729    112.99198  0.026674217   0.02682224            7 
  354000   0.70496069    -6.313613     113.1672  0.026640114  0.026744625           15 
  355000   0.72164727   -6.3353627    113.20839  0.026574739  0.026667302           12 
  356000    0.7130891   -6.3027277    113.30654  0.026523065  0.026590474            8 
  357000   0.68784617   -6.3117708    113.39865  0.026470274  0.026514332            9 
  358000   0.68196195   -6.3481237    113.48904  0.026417375   0.02643823            7 
  359000   0.69326611   -6.3456416    113.27572   0.02629427  0.026362004           12 
  360000    0.6784779   -6.3490031     113.2144  0.026207038  0.026285536           15 
  361000   0.68665626   -6.3262622    113.70972  0.026248781  0.026209329           16 
  362000   0.68303399   -6.3624494    113.59052   0.02614883  0.026133706           12 
  363000   0.67575298   -6.3692528    113.63568  0.026087163  0.026058125           10 
  364000   0.68657965   -6.3621765    113.59706  0.026006653  0.025982599           10 
  365000   0.67444002   -6.3868769    113.40285  0.025891061  0.025906689           13 
  366000   0.68398429   -6.3881375    113.37951  0.025815007  0.025830859           13 
  367000   0.67875037   -6.3626783    113.50681  0.025773572  0.025755485           17 
  368000   0.68337326   -6.3561556    113.48974  0.025699669  0.025679933            9 
  369000   0.67891981   -6.3715747    113.66931  0.025670576  0.025604485           16 
  370000   0.67132423   -6.4096584    113.36224  0.025532035  0.025529094           13 
  371000   0.66806968   -6.3695986    113.62018  0.025521155  0.025453776           15 
  372000   0.67370024   -6.3865427    113.56743  0.025440734  0.025378743            6 
  373000   0.66161207   -6.3949414    113.63829  0.025388359   0.02530396           10 
  374000   0.66719682   -6.4101924    113.49211  0.025287903  0.025228655           26 
  375000   0.67505739   -6.4017494    113.66759  0.025259465  0.025153552           15 
  376000   0.67258702   -6.4210268    113.59837  0.025176944  0.025078759           14 
  377000   0.66716582   -6.4224496    113.68831  0.025130043  0.025004517           28 
  378000   0.67797547   -6.4059195    113.77457  0.025082577  0.024930412           28 
  379000   0.64405932   -6.4196669    113.82648   0.02502781  0.024856198           21 
  380000   0.66534677   -6.4335834    113.72589  0.024939887  0.024782558           19 
  381000   0.66260181   -6.4160245    113.53835  0.024833411  0.024709019           26 
  382000   0.65519026   -6.4402994    113.69352  0.024802251  0.024635925           20 
  383000   0.65532251   -6.4348925    113.85114  0.024771789   0.02456317           12 
  384000    0.6579089   -6.4443923    113.81442  0.024699309  0.024490294           26 
  385000   0.65662664    -6.452099    113.88337   0.02465008  0.024417363           19 
  386000   0.65410845   -6.4670564    113.57776  0.024520242  0.024344532           28 
  387000   0.64456254   -6.4552247    113.88175   0.02452234  0.024272015           38 
  388000   0.64261223    -6.446625     113.7956  0.024440636  0.024199647           22 
  389000   0.64547782   -6.4675123    113.72088  0.024361799  0.024127305           16 
  390000   0.65381736     -6.45933    114.09968  0.024380274  0.024055433           22 
  391000   0.62769899   -6.4701331     114.1179  0.024321803  0.023984083            8 
  392000   0.62987287   -6.4563086    113.97386  0.024229136  0.023912813           10 
  393000   0.63905406   -6.4457423    114.16295  0.024207581  0.023841513           14 
  394000   0.63181077   -6.4684631    113.95483   0.02410212  0.023770495           13 
  395000     0.633061   -6.4775913    114.06956  0.024065307   0.02369986           12 
  396000    0.6304679   -6.4571399    114.27645  0.024048075  0.023629493           14 
  397000   0.63136258   -6.4602157    114.04557  0.023939037   0.02355919           28 
  398000   0.64250538   -6.4937499    114.27292   0.02392649  0.023489099           14 
  399000   0.62256465   -6.5009876    114.22851   0.02385725  0.023418857           11 
  400000   0.62986376   -6.5172479    113.76311  0.023700648  0.023348315            9 
  401000   0.63002473   -6.5055458    113.92964  0.023676151  0.023278009           17 
  402000   0.63113282   -6.5194763    114.06303  0.023644906  0.023208198            7 
  403000   0.62987748   -6.5220754    113.82783    0.0235376  0.023138096           13 
  404000   0.61933277   -6.5263334    113.78506  0.023470516  0.023068191           22 
  405000   0.63340683   -6.5352064    113.82344  0.023420462  0.022998269           37 
  406000   0.61728593   -6.5479139    114.03451  0.023406099  0.022928858           32 
  407000   0.62249286   -6.5169181    114.21792  0.023386143  0.022859545           24 
  408000   0.61595598   -6.5192193    114.00541   0.02328542  0.022790501           22 
  409000    0.6216585   -6.5306926     114.0043  0.023228259  0.022721516           10 
  410000   0.62172557   -6.5321152    113.88437  0.023147229  0.022652859           10 
  411000   0.60565243   -6.5703503    113.74031  0.023061702  0.022584312           19 
  412000   0.60588989   -6.5726938    113.94223  0.023046568  0.022515846           18 
  413000   0.60357802   -6.5326693    114.14341  0.023031358  0.022447617           22 
  414000   0.61895537   -6.5416238    113.95691  0.022938187   0.02237984           16 
  415000   0.62750568    -6.537868    114.17855   0.02292742  0.022312409           13 
  416000   0.60128896   -6.5698695    113.72224  0.022780897  0.022244936           32 
  417000    0.6081026   -6.5657613    114.02371  0.022786513  0.022177455           19 
  418000   0.58734708   -6.5636884    113.75566  0.022678561  0.022109992           18 
  419000   0.59498982   -6.5788881    113.79892  0.022633038  0.022042636           27 
  420000   0.61445961   -6.5530147    114.07289  0.022633509  0.021975676           21 
  421000   0.58548368   -6.5773013    113.70529  0.022506985  0.021908805           25 
  422000   0.58555483   -6.5882451    113.80922  0.022474175  0.021842046           37 
  423000   0.58634941   -6.5955544    113.69524   0.02239859  0.021775558           23 
  424000   0.60054494   -6.5967974    113.67866  0.022342503   0.02170892           17 
  425000   0.59316153   -6.6087296    114.03898  0.022360585  0.021642668           20 
  426000   0.59190672   -6.6077403    113.89799  0.022280514  0.021576558           38 
  427000   0.58590537   -6.6072389    113.88413   0.02222563  0.021511159           42 
  428000   0.59042633   -6.6028569    113.65683  0.022129445  0.021445851           18 
  429000   0.57921957   -6.6256198    114.09514  0.022163002  0.021380608           28 
  430000   0.58619956   -6.6197777    113.81018  0.022056237  0.021315658           26 
  431000   0.57715054    -6.615213    113.86568  0.022015793  0.021250688           46 
  432000   0.58134957   -6.6345605    113.82978  0.021957906   0.02118578           38 
  433000   0.58258517   -6.6295323    113.81235  0.021903839  0.021121071           22 
  434000   0.58063385   -6.6339069    113.63184   0.02181871  0.021056299           43 
  435000   0.57652889   -6.6620476    113.54485  0.021751887  0.020991701           21 
  436000   0.56983432   -6.6463706    113.56509  0.021705866  0.020927323           31 
  437000    0.5790189   -6.6439131    113.72553  0.021686791  0.020863071           20 
  438000   0.57040367   -6.6600973    113.55425   0.02160469  0.020799113           27 
  439000   0.57749492   -6.6772491    113.65715   0.02157501  0.020735346           50 
  440000   0.56934552   -6.6520813    113.51353  0.021498775  0.020671734           27 
  441000   0.56216115   -6.6736845    113.72621  0.021490213  0.020608322           40 
  442000     0.563484   -6.6485795    113.47439  0.021394115  0.020545204           23 
  443000   0.56579863     -6.69611    113.73217  0.021394314  0.020482233           21 
  444000   0.55088004   -6.6642057    113.65135   0.02133096  0.020419519           31 
  445000   0.54830856   -6.6799975     113.8526  0.021320712  0.020356825           47 
  446000   0.55644941   -6.6857814    113.54507  0.021215447  0.020294276           52 
  447000   0.56095498   -6.6873148    113.51153  0.021161733   0.02023186           60 
  448000   0.55540089   -6.6707555    113.65205  0.021140634  0.020169589           49 
  449000   0.54828942    -6.707942    113.31512  0.021031016  0.020107444           39 
  450000   0.54789058   -6.6965086    113.71518  0.021058366  0.020045455           55 
  451000   0.54917409   -6.6937466    113.41617  0.020956425  0.019983721           39 
  452000   0.54989598   -6.7263014    113.22143  0.020874158  0.019921932          102 
  453000   0.53758887   -6.7194534    113.44285   0.02086881  0.019860329           58 
  454000   0.54543299   -6.7194038    113.39243  0.020813588  0.019798941           56 
  455000   0.54467521   -6.7429524    113.07186  0.020709132  0.019737737           51 
  456000   0.55306341   -6.7274497    113.23577  0.020693671  0.019676606           62 
  457000   0.53749634   -6.7490091    113.22582  0.020646576  0.019615657           70 
  458000   0.53877837   -6.7480161    113.26531  0.020608681  0.019554924           52 
  459000   0.53546194   -6.7567826    113.19271  0.020550602  0.019494347           36 
  460000   0.53611621   -6.7274378     113.2563  0.020517445  0.019434158           77 
  461000   0.52525581   -6.7467642    113.24845   0.02047152  0.019373916           88 
  462000   0.51824194   -6.7304398    113.07112  0.020395223  0.019313938           72 
  463000   0.53309437   -6.7620486    113.11231  0.020358587  0.019254031           98 
  464000    0.5304545   -6.7762791    112.96689  0.020288593  0.019194364           48 
  465000   0.51118054   -6.7503187    113.18699  0.020284406  0.019134833           49 
  466000   0.51984972   -6.7713893    113.01927  0.020210885  0.019075443           51 
  467000   0.52705963   -6.7588822    113.12243  0.020186016  0.019016284           77 
  468000   0.52587505   -6.7616535    113.08623  0.020136438  0.018957179           40 
  469000   0.51931428   -6.7496133    112.99151  0.020076672   0.01889837           63 
  470000   0.51934239   -6.7706468     112.8782  0.020013865  0.018839852           39 
  471000   0.51864635   -6.7813429    112.97811   0.01998905  0.018781553          182 
  472000   0.51123239   -6.7699855    113.11603  0.019971051   0.01872356           97 
  473000    0.5122345   -6.7724346    113.05648  0.019918336  0.018665748          136 
  474000   0.50936452   -6.7753022    113.04111  0.019873613  0.018608145          109 
  475000   0.51689687   -6.7806219     113.0696  0.019836771   0.01855075           80 
  476000   0.51001437   -6.7974342    113.14947  0.019809081  0.018493554           93 
  477000   0.50165571   -6.7926904    112.92035  0.019727525  0.018436519           44 
  478000   0.49699999   -6.7947035       113.07  0.019712344  0.018379711           87 
  479000   0.50086699   -6.8019737    113.01003  0.019660757  0.018323093          147 
  480000   0.50953419   -6.8126237    112.80183  0.019583651  0.018266699           70 
  481000   0.50479954   -6.8017349    112.87907  0.019556318  0.018210363          203 
  482000   0.50428358   -6.8075365     112.8257  0.019506518  0.018154307          126 
  483000   0.49849235   -6.8227377    112.99506  0.019495353  0.018098576          121 
  484000   0.50762085   -6.7997987    113.08603  0.019470735  0.018042918          104 
  485000   0.49226085   -6.8184914    112.88666  0.019396334  0.017987366          112 
  486000   0.48842059   -6.8196136    112.64777  0.019315461  0.017931891          117 
  487000   0.48498594   -6.8197345     112.8929  0.019317744  0.017876643          172 
  488000   0.50130524   -6.8231641    112.84358  0.019269737  0.017821702          107 
  489000   0.48617198   -6.8259498    112.77901  0.019219327   0.01776684          219 
  490000   0.48484965   -6.8449596    112.62646   0.01915416  0.017712061          140 
  491000   0.48788189   -6.8332757    112.52023   0.01909712  0.017657397          146 
  492000   0.48707745   -6.8291582     112.6919  0.019087381  0.017603002           93 
  493000   0.48686979   -6.8555212    112.66715  0.019044481  0.017548814          149 
  494000    0.4746797   -6.8466086    112.73375  0.019017165  0.017494718          165 
  495000   0.47561022   -6.8496996    112.77113  0.018985039  0.017440846           89 
  496000   0.47501802   -6.8507531    112.56552  0.018912218  0.017387197          141 
  497000   0.46268805   -6.8473325    112.55004   0.01887157  0.017333715          123 
  498000   0.46857986   -6.8670654     112.5995  0.018841951  0.017280444          185 
  499000   0.47495724   -6.8652505    112.34943  0.018762429  0.017227266          152 
  500000   0.47087506     -6.86252    112.62332  0.018770553  0.017174195          139 
  501000   0.46867078   -6.8427719    112.60638  0.018730269  0.017121388          212 
  502000   0.46915125   -6.8692102    112.64395  0.018699195  0.017068756          183 
  503000    0.4737816   -6.8791933    112.61951  0.018657971  0.017016393          180 
  504000   0.46034042   -6.8683522    112.55522   0.01861032  0.016964328          139 
  505000   0.45928415   -6.8832101    112.71111  0.018599193  0.016912437          214 
  506000   0.45519099    -6.884905    112.40791  0.018512502  0.016860583          210 
  507000   0.46212921   -6.8672045    112.35564  0.018467396  0.016808887          280 
  508000    0.4539875     -6.88724    112.40012  0.018438339  0.016757484          221 
  509000   0.45579558    -6.896963    112.56043  0.018428361  0.016706113          173 
  510000   0.45067723    -6.898958    112.20693  0.018334466  0.016654923          247 
  511000   0.45205652   -6.8928758    112.28105  0.018310673  0.016603945          161 
  512000   0.44595823   -6.9149439    112.33381  0.018283498  0.016553128          151 
Loop time of 1291.41 on 48 procs for 500000 steps with 4000 atoms

Performance: 66903.781 tau/day, 387.175 timesteps/s
99.4% CPU use with 48 MPI tasks x no OpenMP threads

MPI task timing breakdown:
Section |  min time  |  avg time  |  max time  |%varavg| %total
---------------------------------------------------------------
Pair    | 91.509     | 97.775     | 102.42     |  27.8 |  7.57
Neigh   | 8.8796     | 9.2429     | 9.6098     |   5.9 |  0.72
Comm    | 84.931     | 89.818     | 97.412     |  31.5 |  6.96
Output  | 1.2031     | 1.2038     | 1.2259     |   0.3 |  0.09
Modify  | 1078.2     | 1081.6     | 1085       |   5.1 | 83.75
Other   |            | 11.76      |            |       |  0.91

Nlocal:        83.3333 ave          90 max          79 min
Histogram: 11 4 2 7 10 4 4 1 2 3
Nghost:        2386.58 ave        2400 max        2371 min
Histogram: 2 1 4 8 5 9 8 4 4 3
Neighs:        16510.6 ave       19039 max       14688 min
Histogram: 6 8 6 5 2 5 5 6 4 1
FullNghs:      33019.7 ave       35778 max       31038 min
Histogram: 6 6 3 2 15 5 6 1 3 1

Total # of neighbors = 1584946
Ave neighs/atom = 396.23650
Neighbor list builds = 26791
Dangerous builds = 0

#clear
#
#next RN
#
#jump SELF
Total wall time: 0:21:34
