
units lj                  # Use reduced LJ style units
atom_style atomic         # Uncharged point particles
atom_modify map hash      # Needed for indexing of clusters etc
                          # Used to be able to find where atoms are in relation to each other.

lattice fcc 1.0 spacing 1 1 1
Lattice spacing in x,y,z = 1.5874011 1.5874011 1.5874011
region box block 0 10 0 10 0 10 units lattice
create_box 2 box
Created orthogonal box = (0.0000000 0.0000000 0.0000000) to (15.874011 15.874011 15.874011)
  3 by 4 by 4 MPI processor grid
create_atoms 1 box
Created 4000 atoms
  using lattice units in orthogonal box = (0.0000000 0.0000000 0.0000000) to (15.874011 15.874011 15.874011)
  create_atoms CPU = 0.019 seconds
set type 1 type/fraction 2 0.63 78393
Setting atom values ...
  2531 settings made for type/fraction
mass 1 1.0
mass 2 1.0
pair_style lj/cut  3.5
pair_modify tail  yes
pair_coeff 1  1  1.0  1.0   # Intearaction between 1 and 1 set with epsilon = 1 and sigma = 1
pair_coeff 1  2  1.5  0.8
pair_coeff 2  2  0.5  0.88

write_data data.0
System init for write_data ...
Neighbor list info ...
  update every 1 steps, delay 10 steps, check yes
  max neighbors/atom: 2000, page size: 100000
  master list distance cutoff = 3.8
  ghost atom cutoff = 3.8
  binsize = 1.9, bins = 9 9 9
  1 neighbor lists, perpetual/occasional/extra = 1 0 0
  (1) pair lj/cut, perpetual
      attributes: half, newton on
      pair build: half/bin/atomonly/newton
      stencil: half/bin/3d
      bin: standard
WARNING: Not all mixed pair coeffs generated from mixing. Use write_data with 'pair ij' option to store all pair coeffs. (../write_data.cpp:312)


#############################
#   M E L T   S Y S T E M   #
#############################

velocity all create 2.4 6229865 mom yes dist gaussian # Assign velocities
                                                    # Temperature 2.4, random number seed, zero linear momentum
                                                                                # Gaussian distribution

timestep 0.002   # simulation timestep
thermo 1000       # output thermodynamic data every 1000 steps bf 100

# Define a fix  in this case with index 1 applied to all
# particles in the simulation. This fix is for simulations
# in the anisotropic NPT ensemble. Note that we use the MTK
# correction.
fix 1 all npt temp 2.4 2.4 0.1 iso 5.68 5.68 0.5 mtk yes tchain 5 pchain 5 # Use NPT ensemble
                                                                         # Set temperature and pressure and damping
                                                                         # Numbers of thermostats in chain and in barostat
run 10000          # run for 10000 steps
Per MPI rank memory allocation (min/avg/max) = 3.642 | 3.644 | 3.648 Mbytes
Step Temp E_pair E_mol TotEng Press Volume 
       0          2.4    -4.562992            0  -0.96389204   -3.9987934         4000 
    1000    2.3265099   -4.2765927            0  -0.78770032    5.7507932    3621.8602 
    2000    2.4159394   -4.2865531            0  -0.66354991    6.0628357    3589.9906 
    3000    2.3598756   -4.2899364            0   -0.7510079    5.6746712    3616.4419 
    4000    2.3914367   -4.3395081            0  -0.75324987    5.6718771    3599.1659 
    5000    2.4149471   -4.3390151            0  -0.71750006    5.4595311    3610.2362 
    6000    2.3675046   -4.3398211            0  -0.78945199     5.277242    3617.0166 
    7000    2.4051565   -4.3751398            0  -0.76830703     5.462704    3595.3462 
    8000    2.3987456   -4.3436734            0  -0.74645452    5.6272216    3587.6717 
    9000     2.396687   -4.2223153            0  -0.62818357     5.859682    3637.1894 
   10000    2.4130644   -4.2881897            0  -0.66949793    5.6885321    3608.1051 
Loop time of 2.64524 on 48 procs for 10000 steps with 4000 atoms

Performance: 653248.931 tau/day, 3780.376 timesteps/s
99.6% CPU use with 48 MPI tasks x no OpenMP threads

MPI task timing breakdown:
Section |  min time  |  avg time  |  max time  |%varavg| %total
---------------------------------------------------------------
Pair    | 1.2174     | 1.2726     | 1.343      |   2.0 | 48.11
Neigh   | 0.21913    | 0.22448    | 0.23768    |   0.8 |  8.49
Comm    | 0.81997    | 0.88385    | 0.96773    |   3.4 | 33.41
Output  | 0.00024024 | 0.00024424 | 0.00031062 |   0.0 |  0.01
Modify  | 0.21596    | 0.24857    | 0.27741    |   3.6 |  9.40
Other   |            | 0.0155     |            |       |  0.59

Nlocal:        83.3333 ave          95 max          75 min
Histogram: 3 1 7 7 14 8 5 1 1 1
Nghost:        1757.88 ave        1786 max        1727 min
Histogram: 1 1 4 6 11 7 9 4 2 3
Neighs:        10584.2 ave       12373 max        9284 min
Histogram: 2 5 2 13 11 9 3 2 0 1

Total # of neighbors = 508043
Ave neighs/atom = 127.01075
Neighbor list builds = 908
Dangerous builds = 213

# Equilibrate just above the melting temperature to avoid step fn in T

fix 1 all npt temp 1.25 1.25 0.1 iso 5.68 5.68 0.5 mtk yes tchain 5 pchain 5
run 2000
Per MPI rank memory allocation (min/avg/max) = 3.644 | 3.646 | 3.650 Mbytes
Step Temp E_pair E_mol TotEng Press Volume 
   10000    2.4130644   -4.2881897            0  -0.66949793    5.6885321    3608.1051 
   11000    1.2444538   -6.3099152            0   -4.4437012    5.5537685    2770.3286 
   12000    1.2222444   -6.3050826            0   -4.4721744    6.1505384    2745.2554 
Loop time of 0.648194 on 48 procs for 2000 steps with 4000 atoms

Performance: 533173.461 tau/day, 3085.495 timesteps/s
99.7% CPU use with 48 MPI tasks x no OpenMP threads

MPI task timing breakdown:
Section |  min time  |  avg time  |  max time  |%varavg| %total
---------------------------------------------------------------
Pair    | 0.30336    | 0.32273    | 0.3479     |   2.0 | 49.79
Neigh   | 0.041715   | 0.043546   | 0.046131   |   0.6 |  6.72
Comm    | 0.20417    | 0.23385    | 0.25557    |   2.7 | 36.08
Output  | 4.9145e-05 | 5.0166e-05 | 6.694e-05  |   0.0 |  0.01
Modify  | 0.039846   | 0.043244   | 0.046612   |   1.0 |  6.67
Other   |            | 0.00477    |            |       |  0.74

Nlocal:        83.3333 ave          91 max          77 min
Histogram: 2 2 9 8 5 12 3 4 0 3
Nghost:        2121.88 ave        2135 max        2100 min
Histogram: 1 1 1 3 4 8 14 3 8 5
Neighs:        13917.6 ave       15451 max       12628 min
Histogram: 5 4 2 7 7 13 4 2 1 3

Total # of neighbors = 668046
Ave neighs/atom = 167.01150
Neighbor list builds = 143
Dangerous builds = 10

#############################
# L I N E A R  Q U E N C H  #
#############################

# Define solid atoms. This closely follows ten Wolde  Ruiz-Montero and Frenkel  Faraday Discuss  1996  104  93-110
# Compute components of the per-atom q6 vector
compute q6 all orientorder/atom degrees 1 6 components 6 nnn NULL cutoff 1.3 # compute the Q6 parameter.
                                                                             # Use all neighbours within 1.3 unit cell.

# get number of connections
compute coord_number all coord/atom orientorder q6 0.5

# An atom is solid if it has 8 or more connections (of a possible 14)
variable is_solid atom c_coord_number>=8
group solid dynamic all var is_solid    # Must be dynamic to update
dynamic group solid defined

# do clustering
compute cluster solid cluster/atom 1.3 # Create a cluster where all atoms within are solid and max 1.3 units from another member

# define chunks one chunk per cluster
compute clus_chunks solid chunk/atom c_cluster nchunk every compress yes  # Says which atoms are in which chunk

# count the size of each chunk
compute size_chunks solid property/chunk clus_chunks count


# Find the maximum entry in the vector of chunk sizes
variable max_n equal max(c_size_chunks)


# Thermo style which includes this variable
# thermo_style custom step temp pe vol v_max_n

thermo ${N}  # Print the thermo information every 100 steps
thermo 1000  

# Reset the npt fix at a lower temperature (below freezing)
fix 1  all npt temp  ${temp} ${temp}  0.1  iso  5.68  5.68  0.5  mtk yes tchain  5  pchain  5
fix 1  all npt temp  0.45 ${temp}  0.1  iso  5.68  5.68  0.5  mtk yes tchain  5  pchain  5
fix 1  all npt temp  0.45 0.45  0.1  iso  5.68  5.68  0.5  mtk yes tchain  5  pchain  5

dump dmp2 all dcd ${N} traj.dcd
dump dmp2 all dcd 1000 traj.dcd


compute msd all msd com yes
variable twopoint equal c_msd[4]/6/(step*dt+1.0e-6)
fix 9 all vector 10 c_msd[4]
variable fit equal slope(f_9)/6/(10*dt)
thermo_style custom step temp pe c_msd[4] v_twopoint v_fit v_max_n

fix 1 all npt temp 1.25 ${temp} 0.1 iso 5.68 5.68 0.5 mtk yes tchain 5 pchain 5
fix 1 all npt temp 1.25 0.45 0.1 iso 5.68 5.68 0.5 mtk yes tchain 5 pchain 5
run 500000 # 5000000  # Run for this many steps
Neighbor list info ...
  update every 1 steps, delay 10 steps, check yes
  max neighbors/atom: 2000, page size: 100000
  master list distance cutoff = 3.8
  ghost atom cutoff = 3.8
  binsize = 1.9, bins = 8 8 8
  4 neighbor lists, perpetual/occasional/extra = 1 3 0
  (1) pair lj/cut, perpetual
      attributes: half, newton on
      pair build: half/bin/atomonly/newton
      stencil: half/bin/3d
      bin: standard
  (2) compute orientorder/atom, occasional
      attributes: full, newton on
      pair build: full/bin/atomonly
      stencil: full/bin/3d
      bin: standard
  (3) compute coord/atom, occasional
      attributes: full, newton on
      pair build: full/bin/atomonly
      stencil: full/bin/3d
      bin: standard
  (4) compute cluster/atom, occasional
      attributes: full, newton on
      pair build: full/bin/atomonly
      stencil: full/bin/3d
      bin: standard
Per MPI rank memory allocation (min/avg/max) = 9.847 | 9.852 | 9.856 Mbytes
Step Temp PotEng c_msd[4] v_twopoint v_fit v_max_n 
   12000    1.2222444   -6.3050826 4.1298841e-30 2.8679749e-32 8.3333333e+20            3 
   13000    1.2684368   -6.3697134   0.50982613 0.0032681161  0.042558899            3 
   14000    1.2560096   -6.4193213   0.96859733 0.0057654601  0.039011071            2 
   15000    1.2310377    -6.431929    1.4094504 0.0078302795  0.038349113            1 
   16000    1.2524728   -6.4182628    1.8705536 0.0097424664  0.037960494            1 
   17000    1.2479705   -6.3685746    2.3726617  0.011630694  0.038466173            2 
   18000     1.227345    -6.411642    2.9161507  0.013500698  0.039476654            3 
   19000    1.2302367   -6.4038724    3.3804172  0.014826391  0.040151501            2 
   20000    1.2351951   -6.4419184    3.8633065   0.01609711  0.040222404            2 
   21000    1.2606805   -6.4520408    4.2997561  0.017062524  0.040285345            2 
   22000    1.2381955   -6.4263065    4.7195239  0.017876984  0.039952149            3 
   23000    1.2366678   -6.4528499    5.1237304   0.01856424  0.039433701            1 
   24000    1.2433666   -6.3855654    5.6322418  0.019556395   0.03909175            5 
   25000    1.2459306   -6.4492369    6.1181887  0.020393962  0.038982739            2 
   26000    1.2388009   -6.4806066    6.5750568  0.021073899   0.03898882            1 
   27000    1.2087589   -6.4925389    7.0749864  0.021836377  0.038947204            1 
   28000    1.2111404   -6.5186104    7.5836063  0.022570256  0.039049125            4 
   29000    1.2200787   -6.4790131    8.0099218  0.023017016  0.039075299            3 
   30000    1.2146134   -6.5025192    8.4266077  0.023407243  0.039063043            5 
   31000    1.1890394    -6.457361    8.8778271  0.023865126  0.039036286            2 
   32000    1.2284031   -6.4390504    9.3784813  0.024423128  0.038989527            1 
   33000    1.2481287   -6.4625226    9.6905712  0.024471139  0.038891721            2 
   34000    1.2090734   -6.4354805    10.166268  0.024917324  0.038734972            2 
   35000    1.2188967    -6.452583    10.650471  0.025358264  0.038602688            3 
   36000       1.2133    -6.464391    11.077771  0.025642988  0.038517109            3 
   37000     1.216047   -6.4791841    11.462274  0.025815932  0.038381773            4 
   38000    1.2053759   -6.4807285    11.874443  0.026040445  0.038251748            3 
   39000    1.2158422   -6.5067071    12.296355  0.026274263  0.038118059            1 
   40000    1.1787002   -6.4648616    12.709135  0.026477365  0.038024774            2 
   41000     1.210504   -6.5282165     13.09409  0.026614003  0.037885823            3 
   42000    1.1836817   -6.5238929    13.356508  0.026501008  0.037693248            2 
   43000    1.2031242   -6.4797427    13.847422  0.026836089   0.03751372            3 
   44000    1.2052865    -6.518475    14.160035  0.026818249  0.037351316            3 
   45000    1.2032405   -6.5277484    14.559918   0.02696281  0.037162583            3 
   46000    1.1792593   -6.5042854    14.998888  0.027171899  0.036994272            4 
   47000    1.2100437   -6.5556404    15.391114  0.027289209  0.036844997            2 
   48000    1.1870029   -6.4978187    15.883352  0.027575264  0.036719661            2 
   49000    1.1759299   -6.5533703    16.281679  0.027689929  0.036609176            3 
   50000    1.1729633   -6.5987454    16.536434  0.027560724  0.036474817            2 
   51000    1.2038969   -6.5339954    16.990812  0.027762764  0.036349946            3 
   52000    1.2133764   -6.5630442    17.393157  0.027873648  0.036234568            3 
   53000    1.1739432   -6.5074695    17.932352  0.028195522  0.036139515            3 
   54000    1.2067068   -6.5562789    18.332375  0.028290701  0.036054709            2 
   55000     1.183099   -6.5819089    18.641827  0.028245193  0.035977881            3 
   56000    1.1541464   -6.5638196    19.014132  0.028294839  0.035889447            2 
   57000    1.1902523   -6.5751801    19.351273  0.028291334  0.035786157            4 
   58000    1.1791609   -6.5391618    19.757218  0.028386808  0.035677315            3 
   59000    1.1562686   -6.5662501    20.173766  0.028494019  0.035589383            5 
   60000     1.171469   -6.5432645    20.512646  0.028489786  0.035498192            2 
   61000    1.1981918   -6.5904998     20.82457  0.028448866  0.035379715            3 
   62000    1.2089948   -6.6281993    21.122997  0.028391125  0.035259415            3 
   63000    1.1712709   -6.5926027    21.613134  0.028588801  0.035148716            3 
   64000    1.1553654   -6.6259679    21.869903  0.028476436  0.035039865            3 
   65000    1.1317358   -6.5943433    22.318574  0.028613556  0.034941325            3 
   66000    1.1400857   -6.6107788    22.672572  0.028626984  0.034838406            4 
   67000    1.1388694   -6.6246249    23.115352  0.028750437  0.034745757            2 
   68000    1.1540427   -6.6444978    23.601171  0.028923004  0.034683443            3 
   69000     1.151008   -6.6102436    23.895571  0.028859385  0.034618109            4 
   70000    1.1418215   -6.5852668    24.395461  0.029042216   0.03455563            3 
   71000    1.1572485    -6.640889    24.959901  0.029295658  0.034508302            3 
   72000    1.1339612   -6.6309263    25.246633   0.02922064  0.034463875            2 
   73000     1.153818   -6.6389019    25.694455   0.02933157  0.034422924            4 
   74000    1.1538297   -6.6398029    25.908106  0.029175795  0.034382045            6 
   75000    1.1672897   -6.6714433    26.165084  0.029072315  0.034318816            3 
   76000    1.1286333   -6.6667693    26.551297  0.029113264   0.03425319            4 
   77000    1.1220024   -6.6396154    26.779116  0.028981727  0.034178108            7 
   78000    1.1543542   -6.6184111    27.070837  0.028921834  0.034093052            2 
   79000    1.1264028   -6.6584894    27.357777  0.028858415  0.033997408            2 
   80000     1.139283   -6.7048714    27.651801   0.02880396  0.033903832            3 
   81000    1.1409641    -6.674749    27.893104  0.028696609  0.033809781            2 
   82000    1.1543679   -6.6836912    28.007185  0.028462586  0.033698009            2 
   83000    1.1516229   -6.6642643    28.513722  0.028628235  0.033583822            6 
   84000    1.1287318   -6.7210826    29.004393  0.028774199  0.033483069            2 
   85000    1.1346707   -6.6812218    29.420615   0.02884374  0.033397377            3 
   86000    1.1432267   -6.7002987     29.74905  0.028826599  0.033325082            6 
   87000    1.1283105   -6.6757856     30.26294   0.02898749  0.033252247            2 
   88000    1.1234797   -6.6542987    30.686246  0.029058945  0.033187515            2 
   89000    1.1602799   -6.6898626    30.902967  0.028935362  0.033126026            3 
   90000    1.1378104    -6.664195    31.161897  0.028853608  0.033055538            2 
   91000    1.0980671   -6.7099173    31.423285  0.028775902  0.032980518            2 
   92000    1.1098874    -6.703831    31.660203   0.02867772  0.032896995            2 
   93000    1.1261523   -6.7226352    31.929749  0.028610886  0.032815295            2 
   94000     1.131931   -6.7348863    32.224913  0.028568185  0.032727061            2 
   95000    1.1348345   -6.7605531    32.599141  0.028595738  0.032642083            3 
   96000    1.1134424   -6.7260413    32.665404  0.028355385  0.032554635            3 
   97000    1.1143568   -6.7400959    33.248526  0.028564025  0.032458712            4 
   98000    1.1088348   -6.7201914    33.353093  0.028361474  0.032364557            1 
   99000     1.115453   -6.7237655    33.576843  0.028263336  0.032267076            6 
  100000    1.0979546   -6.6955055    34.012896   0.02834408  0.032173321            6 
  101000     1.133972   -6.7550632     34.23913  0.028250107  0.032084107            3 
  102000    1.0894305   -6.7842271    34.574371  0.028247035  0.031989735            4 
  103000    1.1020384   -6.7246049    34.704145  0.028077787   0.03189536            4 
  104000    1.1094136    -6.739843    34.996207  0.028041833  0.031794823            2 
  105000     1.090832   -6.7370313    35.365639  0.028067967  0.031697645            3 
  106000    1.1093959   -6.7612755    35.570692   0.02796438  0.031598298            4 
  107000    1.0723251   -6.7780887    35.779563  0.027865703  0.031500702            5 
  108000    1.0956074   -6.8040452    36.070984   0.02783255  0.031406444            4 
  109000    1.0846735   -6.7863604    36.393942  0.027824114  0.031312534            5 
  110000    1.1054953   -6.7580264    36.794609  0.027874703  0.031219048            2 
  111000    1.0725872   -6.8058262    37.009342  0.027784792  0.031132174            2 
  112000    1.0786329   -6.8372075    37.240295  0.027708553  0.031048708            4 
  113000     1.066745   -6.8401754     37.63553  0.027754816  0.030959845            4 
  114000    1.0879905   -6.8365986    37.881119  0.027690877  0.030868173            5 
  115000    1.0824139   -6.8560199    38.030618  0.027558419  0.030780285            4 
  116000    1.0685288    -6.793663    38.268955  0.027492065  0.030688157            2 
  117000    1.0696213   -6.8923868    38.332005  0.027301998  0.030591695            8 
  118000    1.0888225   -6.8561371    38.661676  0.027303443  0.030494361            4 
  119000    1.0753128   -6.8500457    38.891445  0.027234905  0.030397795            5 
  120000    1.0532477   -6.8101516     39.18559  0.027212215  0.030305125            4 
  121000    1.0831166   -6.8438963    39.650052  0.027307198  0.030218366            5 
  122000    1.0628473   -6.8170666    40.019363  0.027335631   0.03013276            2 
  123000     1.067082   -6.8324357    40.130039  0.027188374  0.030046472            2 
  124000    1.0684818   -6.8257698    40.442162  0.027178873   0.02996254            2 
  125000    1.0754771   -6.8523525     40.83478  0.027223187  0.029882225            4 
  126000    1.0423135   -6.7991373    41.239032  0.027274492  0.029802553            4 
  127000    1.0519815   -6.8538928    41.445784  0.027195396  0.029724133            3 
  128000     1.061512   -6.8820628    41.383456  0.026942354  0.029644403            5 
  129000    1.0614182   -6.8945551    41.632835  0.026894596  0.029559489            3 
  130000    1.0767836   -6.8620817    42.129706  0.027006222  0.029476237            2 
  131000    1.0411647   -6.8148074    42.310169  0.026914865  0.029395823            3 
  132000    1.0757006   -6.8857918    42.369081  0.026748157  0.029313465            4 
  133000    1.0656169   -6.8975604    42.586682  0.026683385  0.029227031            2 
  134000    1.0578054   -6.8732811    42.825256  0.026632622  0.029138913            4 
  135000    1.0734581   -6.8618443    43.124378  0.026619986  0.029053773            2 
  136000    1.0722847   -6.8910389    43.297539  0.026530354  0.028967213            4 
  137000    1.0452802    -6.907937    43.334195  0.026358999  0.028881045            2 
  138000    1.0545441    -6.891407    43.634679  0.026349444  0.028794596            4 
  139000     1.049357   -6.8997049    43.884702  0.026309773  0.028707471            4 
  140000    1.0623631    -6.909902    43.916335  0.026140676  0.028618655            3 
  141000    1.0517845   -6.9161627    44.249594  0.026152242  0.028529465            4 
  142000    1.0267739   -6.8986129    44.500805  0.026115496  0.028440655            6 
  143000    1.0618333   -6.9174268    44.530569  0.025950215  0.028351901            3 
  144000    1.0393684   -6.9125984    44.910519  0.025989884  0.028264518            7 
  145000    1.0361373   -6.9159361    44.963463  0.025841071  0.028177324            5 
  146000    1.0299715   -6.9679282    45.052216  0.025714735  0.028087207            4 
  147000    1.0262038    -6.951362    45.352992  0.025710313  0.027995975            3 
  148000    1.0337454   -6.9763794    45.427923  0.025578786  0.027905415            8 
  149000    1.0306965    -6.984254    45.587353  0.025496283  0.027814456            4 
  150000    1.0302375   -6.9483658     45.84973  0.025472072  0.027723583            4 
  151000    1.0475839   -6.9618085    46.003816  0.025388419  0.027633065            6 
  152000    1.0153857   -6.9973423    46.008556  0.025223989   0.02753968            5 
  153000    1.0352202   -6.9575235    46.252584  0.025192039  0.027443587           12 
  154000    1.0398155   -6.9812578    46.386568  0.025100957  0.027348471            2 
  155000    1.0522595   -6.9432021    46.768378  0.025144289  0.027256619            4 
  156000    1.0209051   -6.9856833    46.799695  0.024999837  0.027163467            3 
  157000    1.0327096   -6.9972976    47.114286  0.025007583  0.027071474            2 
  158000      1.02686    -7.010555    47.256199  0.024924155  0.026982464            2 
  159000    1.0169002   -7.0115523    47.457241  0.024872768  0.026892332            2 
  160000     1.001768   -7.0081173    47.549319   0.02476527  0.026802804            7 
  161000    1.0050248    -7.021653    47.744501  0.024712474  0.026715863            4 
  162000    1.0147744   -6.9776177     48.37145  0.024882433  0.026629947            5 
  163000    1.0134712   -7.0421456    48.267045  0.024676403  0.026546081            2 
  164000    1.0246623   -7.0446458    48.429243  0.024608355  0.026460856            3 
  165000    1.0082173   -7.0210289    48.796065  0.024644477  0.026376087            4 
  166000    1.0008262   -7.0600298    48.855114   0.02452566   0.02629289           10 
  167000    1.0093896   -7.0493982    48.992607  0.024447409  0.026209505            6 
  168000    1.0177103   -7.0229759    49.266657  0.024437826  0.026126712            4 
  169000     1.000495   -7.0363062    49.344025  0.024331373  0.026041741            7 
  170000    1.0091673    -7.040514    49.458624  0.024244423  0.025956339            2 
  171000    1.0053343   -7.0434344    49.853208  0.024294935  0.025873556            4 
  172000   0.97465413    -6.995957    50.092728  0.024269732  0.025793276            4 
  173000    1.0011204   -7.0785165    50.144755  0.024154506  0.025714656            5 
  174000    1.0254563   -7.0600585    50.428546  0.024151602  0.025635994            4 
  175000   0.99975361   -7.0115145    50.561439  0.024076876  0.025557185            4 
  176000    1.0097871   -7.0682453    50.804757  0.024055282  0.025480342            5 
  177000   0.98872069   -7.0486026     50.97798  0.024000932  0.025402781            7 
  178000   0.97152463   -7.0640254    51.015078  0.023883463  0.025325812            4 
  179000   0.96853811    -7.070553    51.216095   0.02384362  0.025248332            8 
  180000   0.98922368   -7.0975652    51.277561  0.023739612   0.02516842            4 
  181000   0.98053274   -7.1200868    51.274708   0.02360714  0.025089609            5 
  182000   0.98986456   -7.1025847    51.606324  0.023629269  0.025011805            7 
  183000   0.96617529    -7.117033    51.594039  0.023494553  0.024933345            2 
  184000   0.94230784   -7.1003527    51.648016  0.023391312  0.024852864            6 
  185000   0.98447569    -7.074429    52.086723  0.023462488   0.02477351            5 
  186000   0.99803073   -7.1362353    52.015329  0.023304359  0.024694198            5 
  187000   0.94839255   -7.1128449    52.218356  0.023270212  0.024615452            5 
  188000   0.98091365   -7.1634846    52.221258  0.023147721  0.024537497            2 
  189000    0.9802333   -7.1377684    52.575914   0.02318162  0.024461669            2 
  190000   0.95591869   -7.1480453    52.756744  0.023138923  0.024384699            6 
  191000   0.95719562   -7.1768193    52.724588  0.023003747  0.024307673            6 
  192000    0.9746925   -7.1454905     52.97836   0.02299408  0.024229737           10 
  193000   0.94017666   -7.1754967     52.91763  0.022848718   0.02415119            8 
  194000   0.93595954   -7.1783315    53.199182  0.022851882  0.024072787            9 
  195000   0.95884886   -7.1656781    53.513021  0.022868812  0.023996991            8 
  196000   0.93264443   -7.1500237    53.387313  0.022698688   0.02392148            6 
  197000   0.95599383   -7.1463106    53.581149  0.022665461  0.023846047            4 
  198000   0.97918125   -7.1794867    53.718254  0.022608693   0.02377049            4 
  199000   0.96588851   -7.1991945    53.868623   0.02255805  0.023696347            4 
  200000   0.96244612   -7.1553994    54.148889  0.022562037  0.023621531            4 
  201000   0.95565868   -7.1967808    54.147213  0.022449093  0.023547333            8 
  202000   0.93588606   -7.1692869    54.481347  0.022475803  0.023474168            5 
  203000    0.9338004   -7.2074682    54.468202  0.022359689  0.023400926           11 
  204000   0.95251127   -7.2218226    54.605922  0.022306341    0.0233258            5 
  205000    0.9264924   -7.1918624    54.925023  0.022327245  0.023252242            6 
  206000   0.93193301   -7.1903317    54.959597  0.022232846   0.02318003            5 
  207000   0.93643113    -7.239945    54.720343  0.022029123  0.023107246            9 
  208000   0.93392543   -7.2426787    54.904466  0.021996982  0.023033648            6 
  209000   0.94068073    -7.210811    54.991952  0.021926615   0.02295838            4 
  210000   0.94307185    -7.222187     55.17951  0.021896631  0.022884125            6 
  211000   0.91263385   -7.2147511    55.382821  0.021873152  0.022809802            4 
  212000   0.92275572   -7.2535421    55.221981  0.021706753    0.0227362           13 
  213000   0.92588148   -7.2532778    55.461354  0.021698495  0.022661975            7 
  214000     0.937571   -7.2575321    55.670924  0.021678709  0.022588123           10 
  215000    0.8976671   -7.2313587    55.970798  0.021694108  0.022516106           13 
  216000   0.93012437   -7.2555816    55.910552  0.021570429  0.022443312            4 
  217000   0.91840751   -7.2397472    55.939218  0.021482035  0.022369462            8 
  218000   0.93072646   -7.3042737    55.730044  0.021303534  0.022295125            4 
  219000    0.9262058   -7.2707653    56.004346  0.021310634  0.022220095            9 
  220000   0.89772823   -7.3017405    56.009248  0.021215624  0.022145209            9 
  221000   0.93621631    -7.319346    56.142059  0.021169705   0.02207002           10 
  222000   0.91563722   -7.3460912    56.108052  0.021061581  0.021995388            8 
  223000   0.91535582    -7.326664    56.202749  0.021002522  0.021919965           10 
  224000   0.91631989    -7.300448    56.260298   0.02093017  0.021844653            6 
  225000   0.89108112   -7.3694928    56.069018  0.020766303  0.021768156            6 
  226000   0.89273557   -7.3120177    56.363336  0.020782941  0.021691805            6 
  227000   0.90451222   -7.3104784    56.663787  0.020801684  0.021615308            6 
  228000   0.91044292   -7.2977883    56.540255  0.020665298  0.021538985            5 
  229000   0.94670214   -7.3399543    56.491724  0.020557396  0.021462857            8 
  230000   0.90992501   -7.3355983    56.574983  0.020498182   0.02138701            2 
  231000   0.91316725   -7.3339403    56.774229  0.020481324  0.021311329           23 
  232000    0.9163728   -7.3561758    56.864017  0.020425293  0.021235921            7 
  233000   0.91568272    -7.342554    56.870315  0.020339884  0.021160361            9 
  234000   0.91923516   -7.3209224      57.1023  0.020335577  0.021085713            8 
  235000   0.89760409   -7.3422779    57.135873  0.020260948  0.021012195            4 
  236000    0.8895942   -7.3796814    57.312076  0.020237315  0.020939447           20 
  237000   0.91227823   -7.3372442    57.530471  0.020228717  0.020867713            6 
  238000   0.88250519   -7.3793594    57.288211  0.020058897  0.020795332            4 
  239000    0.8935146   -7.3553309     57.44583  0.020029927  0.020722388            4 
  240000    0.9015482   -7.3950578    57.407724  0.019933238   0.02065009           10 
  241000   0.88049741    -7.395149    57.537727   0.01989548  0.020577909            4 
  242000   0.87207891   -7.3894828    57.656533  0.019854178  0.020506159           10 
  243000   0.88350787   -7.4166689    57.556658  0.019738223  0.020434625            5 
  244000   0.87971074   -7.4208102    57.868506  0.019763834  0.020362919           10 
  245000   0.88342686   -7.4034289     57.90274  0.019694809  0.020291982           10 
  246000   0.85784887    -7.404126    57.803083   0.01958099  0.020220084           19 
  247000   0.86346399   -7.4024776    58.026916  0.019577232  0.020149061           17 
  248000   0.87956492    -7.415269    58.062723  0.019510324  0.020078463            7 
  249000   0.87040223   -7.4695809    58.035829  0.019422968  0.020008475           12 
  250000   0.86217767   -7.4248677    58.254471  0.019418157  0.019937825           10 
  251000    0.8545173   -7.4510354    58.347238  0.019371593  0.019867514           19 
  252000    0.8696094    -7.462206    58.238304  0.019258698  0.019798052            4 
  253000   0.88389254   -7.4710993    58.317798  0.019208761  0.019727914            8 
  254000   0.86288678   -7.4846194    58.416678  0.019165577  0.019657959           15 
  255000   0.87969101   -7.4844163    58.417916  0.019090822   0.01958821           14 
  256000   0.86086313   -7.4896761    58.409461  0.019013496  0.019518285            5 
  257000   0.85484651   -7.5054957    58.431666  0.018946714  0.019448835           15 
  258000   0.86275837   -7.5060962     58.58239  0.018921961  0.019379595           15 
  259000   0.85340425   -7.4859106    58.726121  0.018895148  0.019310109           18 
  260000   0.86520497    -7.498751    58.669456  0.018804313  0.019242193            8 
  261000   0.85250164   -7.4447715    58.889236  0.018802438  0.019174929            8 
  262000   0.84665411   -7.4808841    58.691926  0.018667915  0.019107112           14 
  263000   0.85651244   -7.4932818    58.873722  0.018654538  0.019038205            9 
  264000   0.84443399   -7.5109726    58.834193  0.018571399  0.018970204           10 
  265000   0.85487559   -7.5071201    59.057898  0.018571666  0.018902322            9 
  266000     0.848624   -7.4919414    58.926613  0.018460718  0.018834491           14 
  267000   0.84264352   -7.5249236    59.132003  0.018455681  0.018767195           13 
  268000   0.83120348   -7.5022062     59.15368  0.018393557  0.018700156           10 
  269000   0.82547139   -7.5030841    59.258691  0.018357711  0.018633648           11 
  270000   0.84266088   -7.5091764    59.128325  0.018249483  0.018566685            6 
  271000   0.82929796   -7.5181024    59.315449  0.018239683   0.01850018            7 
  272000   0.83322183   -7.5193281    59.318034  0.018173417  0.018433593            8 
  273000   0.82390152   -7.5384407    59.282726   0.01809607   0.01836765           12 
  274000   0.80745078   -7.5501453    59.239703  0.018016941  0.018301299           19 
  275000   0.83048887    -7.585649    59.290626  0.017966856   0.01823501            8 
  276000   0.82300836   -7.5408915     59.43814  0.017946298  0.018169176           12 
  277000   0.83291683   -7.5642725    59.668459    0.0179508   0.01810439            5 
  278000   0.81965355   -7.5941506    59.551806  0.017851261  0.018039425           15 
  279000   0.81673671    -7.567589    59.627371  0.017809848  0.017974803            7 
  280000    0.8294716   -7.5771564    59.441045  0.017690787  0.017909773            8 
  281000   0.80628068   -7.6119543    59.453925   0.01763165  0.017844624           10 
  282000   0.82126529   -7.5801586    59.639667  0.017624015  0.017780008           14 
  283000   0.81027762   -7.6075488    59.591713  0.017547619  0.017715617           11 
  284000   0.80614029   -7.6195936    59.482493  0.017453783  0.017650663           14 
  285000   0.84320234    -7.614531    59.605113  0.017428396  0.017586118            5 
  286000   0.80594386   -7.6243359    59.715186   0.01739953  0.017522056           16 
  287000   0.82701238   -7.6398202     59.74641   0.01734797  0.017458056           13 
  288000   0.81486648   -7.6519411    59.719719  0.017280011  0.017394316           10 
  289000   0.80853535   -7.6214078      59.6767  0.017207814  0.017330323           12 
  290000    0.8096721   -7.5947404    59.879977   0.01720689  0.017266827           14 
  291000   0.81144371   -7.6486985     59.81754   0.01712988  0.017203688           22 
  292000   0.81039285   -7.6400443    59.710298   0.01704061  0.017139975           15 
  293000   0.80608768   -7.6669039    59.782948  0.017003114  0.017076271           11 
  294000   0.80620291   -7.6289581    59.724528  0.016928721  0.017012824           18 
  295000   0.79481182   -7.6614489    59.764487  0.016882623  0.016949459           30 
  296000   0.80825029   -7.6753972    59.844279  0.016848052   0.01688664           13 
  297000   0.79451618   -7.6530464    59.974405  0.016827835  0.016823947           24 
  298000   0.79153872   -7.6536273    59.868705  0.016741808  0.016761766           16 
  299000   0.77934777   -7.6451529    60.072288  0.016742555  0.016699719            7 
  300000   0.79404449    -7.665182     60.11186  0.016697739  0.016638333           16 
  301000   0.78942597   -7.6939739    60.076412  0.016632451  0.016577176           18 
  302000   0.80500073   -7.6921519    60.022439  0.016562483  0.016516214           19 
  303000   0.79707559   -7.6747749    60.092282   0.01652703   0.01645506           21 
  304000   0.78801742   -7.6821549    59.978976  0.016441605  0.016394416            7 
  305000   0.77413438   -7.6764029    59.974113   0.01638637  0.016333484            9 
  306000    0.7901606   -7.7033847    60.098995  0.016366829  0.016272737           12 
  307000   0.77776743   -7.7346606    60.071653  0.016306095  0.016212207           13 
  308000   0.77686757   -7.7463081    60.056757  0.016249123  0.016151931           11 
  309000   0.76941909    -7.737536    60.178069  0.016229253  0.016091656           13 
  310000   0.77562272   -7.7216979    60.157294  0.016171316  0.016031966           13 
  311000   0.75827667   -7.7240518    60.030849  0.016085436  0.015972196           11 
  312000   0.75518031   -7.7599103    60.009972  0.016028305   0.01591239           22 
  313000   0.74143142   -7.7338701    60.243401  0.016039244  0.015853207           17 
  314000   0.76015247   -7.7289404     60.23802  0.015986736  0.015794036           23 
  315000   0.75612497   -7.7729721    60.108693  0.015901771  0.015735267           23 
  316000   0.77520618   -7.7733304    60.266417  0.015893043  0.015676381           15 
  317000   0.76513464    -7.775492    60.136541  0.015808765   0.01561783           17 
  318000   0.75220366   -7.7903153    60.218668  0.015780573  0.015559451           17 
  319000   0.75834845   -7.7865381    60.217339  0.015730757  0.015501356           16 
  320000   0.78231415   -7.8187342    60.052275  0.015638613  0.015443405           22 
  321000   0.75124183   -7.7687518    60.271862  0.015646901  0.015385657           17 
  322000   0.76154637    -7.824778    60.251729  0.015593098  0.015328037           35 
  323000   0.74185705   -7.8004192    60.303627  0.015558211  0.015270753           20 
  324000    0.7402856   -7.8204004    60.265793  0.015500461  0.015213919           24 
  325000   0.74289222   -7.8522041     60.24077  0.015446351  0.015157022           25 
  326000   0.75443816    -7.799864    60.352169  0.015427446  0.015100354           30 
  327000   0.73923635   -7.8183113    60.240739   0.01535187  0.015043748           19 
  328000   0.74390674   -7.8330516    60.341989   0.01533079  0.014987679           15 
  329000   0.73039973   -7.8271232    60.440925  0.015309252  0.014931793           15 
  330000   0.73321911   -7.8475373    60.144021  0.015187884   0.01487582           16 
  331000   0.73328888   -7.8772285    60.150088  0.015143527  0.014819733           37 
  332000   0.73921136   -7.8191727    60.364719  0.015151787  0.014764024           42 
  333000   0.73148455    -7.846129    60.368414  0.015107211    0.0147088           42 
  334000   0.75318186   -7.8656351    60.392485  0.015067985  0.014653538           37 
  335000   0.75061958   -7.8624109    60.208386   0.01497721  0.014598178           48 
  336000   0.73465938   -7.8964236    60.151438  0.014918511  0.014543051           50 
  337000   0.71815166   -7.8528893    60.247426  0.014897979  0.014488078           24 
  338000   0.72094703   -7.8898307    60.001855  0.014793357  0.014433356           29 
  339000   0.72382201   -7.9131397    60.102557  0.014774473  0.014378823           32 
  340000   0.71746683   -7.8808606    60.258631  0.014769272  0.014324439           25 
  341000   0.73415971   -7.9024498    60.180825  0.014706946  0.014270356           21 
  342000   0.71533533   -7.8793691    60.358311  0.014707191  0.014216196           40 
  343000   0.72451312   -7.9087372     60.21703  0.014629988   0.01416247           38 
  344000   0.71086132   -7.8922491    60.217771  0.014587638  0.014109074           38 
  345000    0.7161796   -7.9043729    60.237811  0.014550196  0.014055703           16 
  346000   0.70567776   -7.9125954    60.230164  0.014506302  0.014002693           19 
  347000   0.70871013    -7.909962    60.197938  0.014456757  0.013949924           36 
  348000   0.71398168   -7.9242868    60.191711  0.014413724  0.013897149           36 
  349000   0.70703542   -7.8942519    60.473119  0.014439618  0.013844388           30 
  350000   0.70508521   -7.9169977    60.255784  0.014346615   0.01379203           48 
  351000   0.71044286    -7.931887    60.199756   0.01429244  0.013739755           39 
  352000   0.71214575   -7.9180642    60.189526  0.014249414  0.013687539           42 
  353000   0.70398299   -7.9491499    60.147282  0.014199075  0.013635592          122 
  354000   0.70422645   -7.9501975    60.035959  0.014132759  0.013583784          106 
  355000   0.70145281   -7.9732613    60.174217  0.014125403  0.013532239           88 
  356000    0.6922901   -7.9630059    60.139829  0.014077675  0.013480988           67 
  357000   0.69401099   -7.9830138     60.15434  0.014041629   0.01342978          111 
  358000   0.69275869   -7.9865926    60.183533  0.014009202  0.013378556          148 
  359000   0.68136806     -7.97891    60.141076  0.013960324  0.013327444          130 
  360000   0.69214163   -7.9944622    60.096163  0.013911149    0.0132767          159 
  361000   0.69515881   -8.0051145    60.110497  0.013875923  0.013226053          165 
  362000   0.67966069   -7.9800519    60.199152     0.013858  0.013175542          144 
  363000   0.68786468    -8.000194    60.068688  0.013789873  0.013125277          123 
  364000   0.70316691    -7.997885    60.207315  0.013783726  0.013075059          159 
  365000    0.6888988   -8.0073256    60.042846  0.013708412  0.013025049          149 
  366000   0.68940817   -7.9927802    60.111319  0.013686548  0.012975315          139 
  367000   0.66805071   -7.9757144    60.118164  0.013650809   0.01292591           81 
  368000    0.6879205   -8.0280587    59.959053  0.013577684  0.012876638          136 
  369000    0.6869713   -8.0110659    60.159049  0.013586054  0.012827448          110 
  370000   0.69730415   -8.0457923    60.022112  0.013518494  0.012778461          180 
  371000   0.68695029   -8.0320941     59.90735  0.013456278  0.012729663          124 
  372000   0.68323729   -8.0353357    59.994691  0.013439671  0.012681135           74 
  373000   0.66879513   -8.0354901    60.027402  0.013410948   0.01263292           79 
  374000   0.68121091     -8.05345    60.015218  0.013372375  0.012584921           58 
  375000   0.65014212   -8.0501246    60.058818  0.013346404  0.012537002           43 
  376000   0.67150654    -8.017822    59.980221  0.013293489  0.012489324          103 
  377000   0.65862641   -8.0447595    60.176948  0.013301713  0.012441995          128 
  378000   0.65990184   -8.0526403    59.988197  0.013224911    0.0123949          112 
  379000   0.66891427   -8.0487689    60.031067  0.013199443  0.012347864           70 
  380000   0.65401787   -8.0535693    59.942715  0.013145332  0.012301123           63 
  381000     0.650361   -8.0666301    60.102608  0.013145802  0.012254526          129 
  382000   0.65596101   -8.0736498    60.061801  0.013102487  0.012208216           97 
  383000   0.64909408   -8.0768243    59.926987  0.013038944  0.012162027          151 
  384000   0.67238689   -8.0639382    60.001503  0.013021159  0.012116096          137 
  385000    0.6419995   -8.0736985     59.88151  0.012961366  0.012070249          107 
  386000   0.64673288   -8.0836644    60.034984  0.012960921  0.012024796          120 
  387000   0.65025092   -8.0779451    59.900888  0.012898555  0.011979427          169 
  388000   0.63920386   -8.0993236    59.947625  0.012875349  0.011934192          145 
  389000   0.64386789    -8.103291    60.169103  0.012889696  0.011889181          142 
  390000   0.65078071   -8.0959283    59.896322  0.012798359  0.011844314          181 
  391000    0.6452066   -8.0912872    59.982494  0.012783993  0.011799697          205 
  392000   0.63469763   -8.1254579     60.02647  0.012760729  0.011755316          218 
  393000    0.6359063   -8.1112879     59.94605  0.012711207  0.011711142          266 
  394000   0.63633091   -8.1363718    59.878637  0.012664686  0.011666959          216 
  395000   0.63369834   -8.1116818    59.881159  0.012633156  0.011622984          257 
  396000   0.64010357   -8.1216583    59.751484  0.012573966  0.011579294          210 
  397000   0.62386148   -8.1239577    59.851124  0.012563208  0.011535588          210 
  398000   0.63561944   -8.1393839    59.859043  0.012533301   0.01149225          157 
  399000   0.64169214   -8.1301436    59.850308  0.012500064   0.01144898          240 
  400000   0.63944833   -8.1453568    59.832833  0.012465174  0.011405824          272 
  401000   0.61663989   -8.1439772    59.739286  0.012414648  0.011362788          161 
  402000   0.62619223   -8.1215371    59.766402  0.012389387  0.011319974          194 
  403000   0.62293054   -8.1526186    59.801266  0.012365853  0.011277316          188 
  404000   0.60279003   -8.1343768    59.761987  0.012327142  0.011234844          224 
  405000   0.62399098   -8.1373676     59.87144  0.012319226  0.011192641          175 
  406000   0.61108887   -8.1654936    59.717678  0.012257323   0.01115061          241 
  407000   0.62824152   -8.1805019    59.716471   0.01222696  0.011108758          233 
  408000    0.6137583   -8.1665891    59.748944  0.012203624  0.011067125          251 
  409000   0.61312198   -8.1640624    59.758772  0.012175789  0.011025595          292 
  410000   0.62146202   -8.1646895    59.596253  0.012113059   0.01098418          298 
  411000   0.61521866   -8.1639419     59.76583   0.01211797  0.010942941          268 
  412000   0.61442107   -8.1900431    59.682827  0.012071769   0.01090188          235 
  413000   0.60567982   -8.1778118    59.885964  0.012083528  0.010861019          217 
  414000   0.60237983   -8.1909808    59.726338   0.01202221  0.010820381          241 
  415000   0.60844968   -8.1782686    59.782712  0.012004561  0.010780027          214 
  416000   0.60447177    -8.195533       59.658  0.011950721  0.010739754          260 
  417000   0.62116965   -8.2019257    59.568541  0.011904185  0.010699638          182 
  418000   0.60899838   -8.1781807    59.806886  0.011923223  0.010659778          184 
  419000   0.58849928    -8.219217    59.638568   0.01186129  0.010620005          164 
  420000   0.60513686    -8.207065    59.563034  0.011818062  0.010580355          175 
  421000   0.58458544   -8.2025843    59.596851  0.011796685  0.010540886          161 
  422000   0.58230003   -8.1947214    59.786605  0.011806202   0.01050161          183 
  423000   0.59604767   -8.2151484    59.699619  0.011761154  0.010462547          173 
  424000   0.59773087   -8.2223327    59.579681  0.011709843  0.010423656          217 
  425000    0.5905228   -8.2435468    59.651173  0.011696308   0.01038494          179 
  426000    0.5802964   -8.2253078    59.672913  0.011673105  0.010346418          231 
  427000   0.59436145    -8.224972    59.586189  0.011628843  0.010308149          225 
  428000   0.59482117   -8.2377894    59.601843   0.01160472  0.010270009          201 
  429000   0.58406276   -8.2407151    59.569475  0.011571382  0.010232006          196 
  430000   0.56878501   -8.2653721    59.458041  0.011522876   0.01019416          176 
  431000   0.58269235   -8.2522522    59.595232  0.011522667  0.010156391          205 
  432000   0.58669796   -8.2594501    59.593853  0.011495728  0.010118884          214 
  433000   0.57462631   -8.2344719    59.571335  0.011464845  0.010081411          224 
  434000   0.56230457   -8.2738708    59.402863   0.01140608    0.0100441          286 
  435000   0.57671286    -8.254435    59.604986   0.01141858  0.010006986          200 
  436000   0.56926607   -8.2769199    59.522232  0.011376573 0.0099701535          259 
  437000   0.58136096   -8.2795896    59.444506  0.011335718  0.009933436          213 
  438000   0.57421913   -8.2706812      59.5762  0.011334893 0.0098969088          185 
  439000   0.56088045   -8.2546445    59.483382  0.011291454 0.0098605966          283 
  440000   0.57284561    -8.288855     59.68862  0.011304663 0.0098243601          263 
  441000   0.56645531   -8.2551678     59.56019   0.01125476 0.0097882858          261 
  442000   0.56023064   -8.2845964    59.445771  0.011207725 0.0097524162          259 
  443000   0.56342008   -8.2905743    59.431273  0.011179698 0.0097166444          236 
  444000   0.55688867   -8.2695713    59.442905  0.011156701 0.0096810754          190 
  445000    0.5637241   -8.2874011    59.347509  0.011113766 0.0096455631          210 
  446000   0.54259161   -8.3053655    59.369903  0.011093031 0.0096101985          319 
  447000   0.55550515   -8.3016224    59.388862  0.011071749 0.0095750824          231 
  448000   0.55398518   -8.2945973    59.473897  0.011062853  0.009540189          277 
  449000   0.55812587   -8.3042883    59.451318  0.011034023 0.0095054286          309 
  450000   0.55761189    -8.307605    59.377375   0.01099581 0.0094708878          318 
  451000    0.5489279   -8.2991167    59.443806  0.010983704 0.0094363671          212 
  452000   0.55314804   -8.3085532    59.297877  0.010932499 0.0094020651          277 
  453000   0.53762332   -8.3048076    59.479156  0.010941714 0.0093678749          282 
  454000   0.54164375    -8.310344     59.39755  0.010902634 0.0093337917          329 
  455000   0.54522549   -8.3078772    59.311885  0.010862983 0.0092998683          211 
  456000   0.53420244   -8.3169653    59.276787  0.010832746 0.0092660278          220 
  457000   0.53731618   -8.3294873    59.272651  0.010808288 0.0092323495          339 
  458000    0.5366214     -8.30751    59.276815  0.010785447 0.0091989011          258 
  459000   0.52891395   -8.3284571    59.315792  0.010769025 0.0091655771          257 
  460000   0.54275517   -8.3264488    59.363754  0.010754303 0.0091324307          346 
  461000   0.52936781   -8.3515708    59.325416  0.010724045 0.0090994235          323 
  462000   0.53137304   -8.3213177    59.424275  0.010718664  0.009066544          229 
  463000   0.51556076   -8.3189252    59.281232  0.010669768 0.0090338513          296 
  464000   0.52133071   -8.3384781    59.346505  0.010658496  0.009001327          301 
  465000   0.52056558   -8.3408242    59.199461  0.010609222 0.0089689255          316 
  466000   0.52117174   -8.3328001     59.14817  0.010577284 0.0089366578          311 
  467000   0.51485335   -8.3241506    59.282714  0.010578643 0.0089045817          217 
  468000   0.50981294   -8.3243303    59.264037  0.010552713 0.0088726801          383 
  469000   0.52046387   -8.3511998    59.149812  0.010509917 0.0088408815          329 
  470000   0.51548659   -8.3399269    59.228867  0.010501572 0.0088091924          316 
  471000   0.50981966   -8.3564181    59.154044  0.010466037 0.0087776657          278 
  472000   0.50776437   -8.3426717    59.306487  0.010470778 0.0087463009          327 
  473000   0.51718311   -8.3584076    59.226083  0.010434476 0.0087151458          224 
  474000   0.50350074   -8.3714888    59.314836  0.010428065 0.0086840948          314 
  475000   0.50707463   -8.3654549    59.242683  0.010393453 0.0086531807          239 
  476000   0.50383256   -8.3779022    59.154589  0.010356195 0.0086224409          428 
  477000   0.49167006   -8.3614098    59.164235   0.01033617 0.0085918047          247 
  478000   0.49883484    -8.363679    59.043217  0.010293448 0.0085612753          224 
  479000   0.50555005   -8.3695543     59.14257  0.010289243 0.0085308936          258 
  480000   0.50477291   -8.3710362    59.167109  0.010272067 0.0085006933          368 
  481000   0.50981257   -8.3887103    59.071796  0.010234199 0.0084706152          212 
  482000   0.49821742   -8.3625283    59.125097  0.010222181 0.0084407138          279 
  483000   0.49252672   -8.3768428    59.154061  0.010206015 0.0084109045          261 
  484000   0.49345234   -8.3791411    59.135961  0.010181812 0.0083812319          254 
  485000   0.48381684   -8.4008611    59.059316  0.010147649  0.008351626          202 
  486000   0.49127962   -8.3825911      58.9703  0.010111505 0.0083221668          298 
  487000   0.49655995   -8.3863627    59.142669  0.010120238 0.0082928966          255 
  488000   0.49598214   -8.3816605    58.996682   0.01007457 0.0082637593          213 
  489000   0.49717892   -8.3945625    59.049192  0.010062916 0.0082347453          217 
  490000   0.48438794   -8.3751346     59.12613  0.010055464 0.0082058673          316 
  491000   0.47793577   -8.4012759     59.03486  0.010019494 0.0081770712          288 
  492000   0.47669691    -8.403433    59.119903  0.010013534 0.0081484342          365 
  493000   0.47707724   -8.4239608    59.127401 0.0099944896 0.0081198926          268 
  494000    0.4926839   -8.4030012    59.126734 0.0099741454 0.0080915335          273 
  495000   0.47324736   -8.4190417    59.072757 0.0099449085 0.0080632861          226 
  496000    0.4770644   -8.4277388    58.995428 0.0099118662 0.0080351325          274 
  497000   0.46514203   -8.4180242    58.939644 0.0098825694 0.0080070747          344 
  498000   0.46142515   -8.4274519    59.065772 0.0098838307 0.0079791242          221 
  499000   0.47438414    -8.424324    59.060861 0.0098632033 0.0079513826          296 
  500000   0.46700162   -8.4286893    59.042886 0.0098404809 0.0079237399          219 
  501000   0.46767336   -8.4323793    58.917152 0.0097999254 0.0078962604          333 
  502000    0.4715799   -8.4353842    59.011772 0.0097961109 0.0078688679          291 
  503000   0.47108116     -8.42402    58.956642  0.009767502 0.0078415759          308 
  504000   0.47714003   -8.4265193     59.02329 0.0097591418 0.0078144146          261 
  505000   0.45963486   -8.4291169    58.990713 0.0097344411 0.0077873488          320 
  506000   0.47865814   -8.4439235    58.929825 0.0097051753 0.0077604163          373 
  507000   0.45333043   -8.4642432    58.880515 0.0096779282 0.0077336134          210 
  508000    0.4506162   -8.4473375    58.937975 0.0096683029 0.0077069564          315 
  509000   0.44179654   -8.4359367    59.025549 0.0096636458 0.0076803921          265 
  510000    0.4445739    -8.462394    58.876371 0.0096203221 0.0076539612          279 
  511000   0.45008647   -8.4613156    58.878754 0.0096018842 0.0076276615          360 
  512000   0.45114774    -8.465696    58.854828 0.0095792363 0.0076014866          391 
Loop time of 1316.83 on 48 procs for 500000 steps with 4000 atoms

Performance: 65612.156 tau/day, 379.700 timesteps/s
99.4% CPU use with 48 MPI tasks x no OpenMP threads

MPI task timing breakdown:
Section |  min time  |  avg time  |  max time  |%varavg| %total
---------------------------------------------------------------
Pair    | 94.713     | 103.1      | 115.65     |  47.5 |  7.83
Neigh   | 9.2838     | 9.5557     | 9.9216     |   4.9 |  0.73
Comm    | 83.364     | 94.656     | 103.94     |  47.5 |  7.19
Output  | 1.1035     | 1.1042     | 1.1229     |   0.3 |  0.08
Modify  | 1088.8     | 1096.2     | 1102.3     |   7.3 | 83.24
Other   |            | 12.25      |            |       |  0.93

Nlocal:        83.3333 ave          90 max          77 min
Histogram: 3 1 4 11 4 6 14 3 0 2
Nghost:        2416.21 ave        2432 max        2402 min
Histogram: 2 5 4 7 5 9 7 4 2 3
Neighs:        16799.5 ave       19958 max       14778 min
Histogram: 5 8 5 6 7 6 6 3 1 1
FullNghs:      33599.6 ave       36375 max       31077 min
Histogram: 3 2 5 9 4 10 10 3 0 2

Total # of neighbors = 1612783
Ave neighs/atom = 403.19575
Neighbor list builds = 26658
Dangerous builds = 0

#clear
#
#next RN
#
#jump SELF
Total wall time: 0:22:00
