
units lj                  # Use reduced LJ style units
atom_style atomic         # Uncharged point particles
atom_modify map hash      # Needed for indexing of clusters etc
                          # Used to be able to find where atoms are in relation to each other.

lattice fcc 1.0 spacing 1 1 1
Lattice spacing in x,y,z = 1.5874011 1.5874011 1.5874011
region box block 0 10 0 10 0 10 units lattice
create_box 2 box
Created orthogonal box = (0.0000000 0.0000000 0.0000000) to (15.874011 15.874011 15.874011)
  3 by 4 by 4 MPI processor grid
create_atoms 1 box
Created 4000 atoms
  using lattice units in orthogonal box = (0.0000000 0.0000000 0.0000000) to (15.874011 15.874011 15.874011)
  create_atoms CPU = 0.015 seconds
set type 1 type/fraction 2 0.02 78393
Setting atom values ...
  77 settings made for type/fraction
mass 1 1.0
mass 2 1.0
pair_style lj/cut  3.5
pair_modify tail  yes
pair_coeff 1  1  1.0  1.0   # Intearaction between 1 and 1 set with epsilon = 1 and sigma = 1
pair_coeff 1  2  1.5  0.8
pair_coeff 2  2  0.5  0.88

write_data data.0
System init for write_data ...
Neighbor list info ...
  update every 1 steps, delay 10 steps, check yes
  max neighbors/atom: 2000, page size: 100000
  master list distance cutoff = 3.8
  ghost atom cutoff = 3.8
  binsize = 1.9, bins = 9 9 9
  1 neighbor lists, perpetual/occasional/extra = 1 0 0
  (1) pair lj/cut, perpetual
      attributes: half, newton on
      pair build: half/bin/atomonly/newton
      stencil: half/bin/3d
      bin: standard
WARNING: Not all mixed pair coeffs generated from mixing. Use write_data with 'pair ij' option to store all pair coeffs. (../write_data.cpp:312)


#############################
#   M E L T   S Y S T E M   #
#############################

velocity all create 2.4 9580093 mom yes dist gaussian # Assign velocities
                                                    # Temperature 2.4, random number seed, zero linear momentum
                                                                                # Gaussian distribution

timestep 0.002   # simulation timestep
thermo 1000       # output thermodynamic data every 1000 steps bf 100

# Define a fix  in this case with index 1 applied to all
# particles in the simulation. This fix is for simulations
# in the anisotropic NPT ensemble. Note that we use the MTK
# correction.
fix 1 all npt temp 2.4 2.4 0.1 iso 5.68 5.68 0.5 mtk yes tchain 5 pchain 5 # Use NPT ensemble
                                                                         # Set temperature and pressure and damping
                                                                         # Numbers of thermostats in chain and in barostat
run 10000          # run for 10000 steps
Per MPI rank memory allocation (min/avg/max) = 3.642 | 3.644 | 3.648 Mbytes
Step Temp E_pair E_mol TotEng Press Volume 
       0          2.4   -8.2581388            0   -4.6590388   -2.3989133         4000 
    1000    2.3775631   -4.4412744            0  -0.87582135    5.8895326    5096.9179 
    2000    2.4386978   -4.4257272            0   -0.7685951    5.7578856    5141.2404 
    3000    2.4206716   -4.3449275            0  -0.71482778    5.9444199    5161.9374 
    4000    2.4219221   -4.3605047            0  -0.72852967    5.7544939    5177.8972 
    5000    2.4569957   -4.3355296            0  -0.65095745    5.7677679    5195.2289 
    6000    2.3975052   -4.4549892            0   -0.8596304    5.3832076    5165.7675 
    7000    2.4051535   -4.4153341            0  -0.80850575    5.7288995    5145.7976 
    8000    2.4437797   -4.3895919            0  -0.72483879    5.9296678    5131.1541 
    9000    2.3813005   -4.3803282            0  -0.80927039    5.4639102    5213.6858 
   10000    2.4060082     -4.39103            0  -0.78292005     5.396251    5211.8442 
Loop time of 2.0608 on 48 procs for 10000 steps with 4000 atoms

Performance: 838510.360 tau/day, 4852.491 timesteps/s
99.6% CPU use with 48 MPI tasks x no OpenMP threads

MPI task timing breakdown:
Section |  min time  |  avg time  |  max time  |%varavg| %total
---------------------------------------------------------------
Pair    | 0.85522    | 0.91477    | 1.0469     |   3.5 | 44.39
Neigh   | 0.16667    | 0.17263    | 0.1922     |   1.1 |  8.38
Comm    | 0.57569    | 0.72979    | 0.81334    |   5.0 | 35.41
Output  | 0.00023784 | 0.00024502 | 0.00030538 |   0.0 |  0.01
Modify  | 0.20753    | 0.22931    | 0.26332    |   3.8 | 11.13
Other   |            | 0.01406    |            |       |  0.68

Nlocal:        83.3333 ave          92 max          76 min
Histogram: 3 3 3 14 3 9 6 4 2 1
Nghost:        1381.06 ave        1407 max        1353 min
Histogram: 2 0 6 3 7 18 6 2 2 2
Neighs:        7303.77 ave        8391 max        6508 min
Histogram: 4 3 9 8 7 6 4 4 2 1

Total # of neighbors = 350581
Ave neighs/atom = 87.645250
Neighbor list builds = 903
Dangerous builds = 222

# Equilibrate just above the melting temperature to avoid step fn in T

fix 1 all npt temp 1.25 1.25 0.1 iso 5.68 5.68 0.5 mtk yes tchain 5 pchain 5
run 2000
Per MPI rank memory allocation (min/avg/max) = 3.642 | 3.644 | 3.648 Mbytes
Step Temp E_pair E_mol TotEng Press Volume 
   10000    2.4060082     -4.39103            0  -0.78292005     5.396251    5211.8442 
   11000    1.2749909   -5.9035205            0   -3.9915123    5.5683682    4287.9714 
   12000    1.2480892    -5.890995            0   -4.0193292    5.7047632     4280.918 
Loop time of 0.454608 on 48 procs for 2000 steps with 4000 atoms

Performance: 760215.915 tau/day, 4399.398 timesteps/s
99.6% CPU use with 48 MPI tasks x no OpenMP threads

MPI task timing breakdown:
Section |  min time  |  avg time  |  max time  |%varavg| %total
---------------------------------------------------------------
Pair    | 0.19842    | 0.20969    | 0.23784    |   1.5 | 46.13
Neigh   | 0.030554   | 0.031807   | 0.03491    |   0.4 |  7.00
Comm    | 0.12913    | 0.1583     | 0.17387    |   2.2 | 34.82
Output  | 5.0254e-05 | 5.2361e-05 | 6.6492e-05 |   0.0 |  0.01
Modify  | 0.042589   | 0.050333   | 0.058177   |   1.9 | 11.07
Other   |            | 0.004428   |            |       |  0.97

Nlocal:        83.3333 ave          94 max          73 min
Histogram: 1 2 8 4 7 12 9 2 2 1
Nghost:        1566.31 ave        1579 max        1555 min
Histogram: 5 3 5 6 7 8 3 4 3 4
Neighs:        8886.35 ave       10152 max        7723 min
Histogram: 1 2 6 8 8 9 8 4 1 1

Total # of neighbors = 426545
Ave neighs/atom = 106.63625
Neighbor list builds = 142
Dangerous builds = 7

#############################
# L I N E A R  Q U E N C H  #
#############################

# Define solid atoms. This closely follows ten Wolde  Ruiz-Montero and Frenkel  Faraday Discuss  1996  104  93-110
# Compute components of the per-atom q6 vector
compute q6 all orientorder/atom degrees 1 6 components 6 nnn NULL cutoff 1.3 # compute the Q6 parameter.
                                                                             # Use all neighbours within 1.3 unit cell.

# get number of connections
compute coord_number all coord/atom orientorder q6 0.5

# An atom is solid if it has 8 or more connections (of a possible 14)
variable is_solid atom c_coord_number>=8
group solid dynamic all var is_solid    # Must be dynamic to update
dynamic group solid defined

# do clustering
compute cluster solid cluster/atom 1.3 # Create a cluster where all atoms within are solid and max 1.3 units from another member

# define chunks one chunk per cluster
compute clus_chunks solid chunk/atom c_cluster nchunk every compress yes  # Says which atoms are in which chunk

# count the size of each chunk
compute size_chunks solid property/chunk clus_chunks count


# Find the maximum entry in the vector of chunk sizes
variable max_n equal max(c_size_chunks)


# Thermo style which includes this variable
# thermo_style custom step temp pe vol v_max_n

thermo ${N}  # Print the thermo information every 100 steps
thermo 1000  

# Reset the npt fix at a lower temperature (below freezing)
fix 1  all npt temp  ${temp} ${temp}  0.1  iso  5.68  5.68  0.5  mtk yes tchain  5  pchain  5
fix 1  all npt temp  0.45 ${temp}  0.1  iso  5.68  5.68  0.5  mtk yes tchain  5  pchain  5
fix 1  all npt temp  0.45 0.45  0.1  iso  5.68  5.68  0.5  mtk yes tchain  5  pchain  5

dump dmp2 all dcd ${N} traj.dcd
dump dmp2 all dcd 1000 traj.dcd


compute msd all msd com yes
variable twopoint equal c_msd[4]/6/(step*dt+1.0e-6)
fix 9 all vector 10 c_msd[4]
variable fit equal slope(f_9)/6/(10*dt)
thermo_style custom step temp pe c_msd[4] v_twopoint v_fit v_max_n

fix 1 all npt temp 1.25 ${temp} 0.1 iso 5.68 5.68 0.5 mtk yes tchain 5 pchain 5
fix 1 all npt temp 1.25 0.45 0.1 iso 5.68 5.68 0.5 mtk yes tchain 5 pchain 5
run 5000000 # 5000000  # Run for this many steps
Neighbor list info ...
  update every 1 steps, delay 10 steps, check yes
  max neighbors/atom: 2000, page size: 100000
  master list distance cutoff = 3.8
  ghost atom cutoff = 3.8
  binsize = 1.9, bins = 9 9 9
  4 neighbor lists, perpetual/occasional/extra = 1 3 0
  (1) pair lj/cut, perpetual
      attributes: half, newton on
      pair build: half/bin/atomonly/newton
      stencil: half/bin/3d
      bin: standard
  (2) compute orientorder/atom, occasional
      attributes: full, newton on
      pair build: full/bin/atomonly
      stencil: full/bin/3d
      bin: standard
  (3) compute coord/atom, occasional
      attributes: full, newton on
      pair build: full/bin/atomonly
      stencil: full/bin/3d
      bin: standard
  (4) compute cluster/atom, occasional
      attributes: full, newton on
      pair build: full/bin/atomonly
      stencil: full/bin/3d
      bin: standard
Per MPI rank memory allocation (min/avg/max) = 9.731 | 9.736 | 9.740 Mbytes
Step Temp PotEng c_msd[4] v_twopoint v_fit v_max_n 
   12000    1.2480892    -5.890995 1.0663427e-30 7.4051575e-33 8.3333333e+20            3 
   13000    1.2513457   -5.9081381   0.55996325 0.0035895079  0.045953735            3 
   14000    1.2148501   -5.9098175    1.1027785 0.0065641577  0.045050498            5 
   15000    1.2457375   -5.9009538      1.69514 0.0094174439  0.046385895            5 
   16000    1.2749269   -5.8809233    2.2701078  0.011823478  0.047102168            1 
   17000    1.2534011   -5.9022999    2.8691603  0.014064511  0.047583381            2 
   18000    1.2681771   -5.9088655    3.3818643  0.015656779  0.047685596            5 
   19000    1.2690641   -5.9029732    3.9586124  0.017362335  0.047297756            3 
   20000    1.2278176    -5.902324    4.6169376   0.01923724  0.047493068            2 
   21000    1.2103212   -5.8837458    5.2774844  0.020942398  0.048024782            4 
   22000    1.2172344    -5.915202    5.8348686  0.022101774  0.048623484            3 
   23000    1.2452939   -5.8568118     6.347672  0.022998811  0.048607221            3 
   24000    1.2713024   -5.9119542    6.8000831  0.023611399  0.048406656            4 
   25000    1.2431512   -5.9109448    7.3642435  0.024547478  0.048004335            4 
   26000    1.2799472   -5.9059504    7.9100141  0.025352609  0.047680324            2 
   27000    1.2526139   -5.9164202    8.5158417  0.026283462  0.047523648            2 
   28000    1.2581721   -5.8884212    9.0246682  0.026859131  0.047388136            2 
   29000    1.2476228   -5.9481536     9.674555  0.027800445  0.047272222            4 
   30000    1.2569699   -5.9103465    10.263185  0.028508847  0.047315449            3 
   31000    1.2370004   -5.9560972    10.792838  0.029013006  0.047370667            2 
   32000    1.2830008   -5.8963373    11.307119  0.029445622  0.047329948            3 
   33000    1.2430374   -5.8997386    11.810182  0.029823691  0.047173396            3 
   34000     1.258843   -5.8974319    12.356877  0.030286464  0.047027225            3 
   35000    1.2857614   -5.9204653    13.050898  0.031073565  0.046981549            2 
   36000    1.2245092   -5.8953588     13.52546  0.031308935  0.046971516            1 
   37000    1.2089773    -5.921711    14.252101  0.032099326  0.047028398            3 
   38000    1.2490346   -5.8984538     14.70807   0.03225454  0.047050009            2 
   39000    1.2406346   -5.9022739    15.278482  0.032646329  0.047042579            3 
   40000     1.243873   -5.9787813     15.78693  0.032889437  0.047039314            4 
   41000    1.2578578   -5.9493206    16.357014  0.033245963  0.047029768            2 
   42000    1.2362997   -5.9068732    16.895858  0.033523527  0.046984418            6 
   43000    1.2568992   -5.8781063    17.475526  0.033867298  0.046968583            1 
   44000    1.2601272   -5.9214424    17.986788  0.034065887  0.046938559            2 
   45000    1.2515794   -5.9268907    18.466417  0.034197068  0.046892011            2 
   46000    1.2123893   -5.9090658    19.101532  0.034604225  0.046844124           10 
   47000     1.218909   -5.9693532    19.699599  0.034928367  0.046828322            2 
   48000    1.2508935    -5.890532    20.283925  0.035215147  0.046812331            3 
   49000    1.2417411   -5.9089784    20.885636  0.035519788  0.046807931            2 
   50000      1.23513   -5.8745737    21.591156   0.03598526  0.046848248            3 
   51000    1.2724417   -5.9400419    21.843401  0.035691831  0.046846225            4 
   52000    1.2310053   -5.8819552     22.26461  0.035680464  0.046784817            3 
   53000    1.2373833   -5.9103976    22.621599  0.035568551  0.046676273            3 
   54000    1.2404419   -5.9407802    23.155601  0.035733952  0.046564518            2 
   55000    1.2508122    -5.889613     23.72242   0.03594306  0.046481094            3 
   56000    1.2614276    -5.913398    24.269749  0.036115697  0.046383361            2 
   57000    1.2412228   -5.9342623    24.630819  0.036009969  0.046274281            3 
   58000    1.2345889   -5.9097384    25.244004   0.03627012  0.046171044            4 
   59000    1.2427718   -5.9406303    25.636826  0.036210205  0.046057922            3 
   60000      1.22597   -5.9501188    26.096608  0.036245288  0.045933602            3 
   61000    1.2190549    -5.898907    26.682891  0.036452036  0.045824333            2 
   62000    1.2565072   -5.9030514    27.347763  0.036757746  0.045745591            2 
   63000    1.2511433    -5.901474    27.834388  0.036817973  0.045678585            2 
   64000    1.2248284   -5.9036548    28.507621  0.037119298  0.045625559            3 
   65000    1.2453219   -5.9502884    28.995057   0.03717315  0.045572672            4 
   66000    1.2612725   -5.8977444    29.615846  0.037393745  0.045525545            2 
   67000    1.2264518   -5.9023839    30.111799  0.037452485  0.045490498            2 
   68000    1.2374201   -5.9328195    30.621013   0.03752575  0.045452764            7 
   69000      1.23052   -5.8956355    31.293946   0.03779462  0.045425609            4 
   70000    1.2524413   -5.9166246    31.784979   0.03783926  0.045413669            4 
   71000    1.2288452   -5.9336954    32.465655  0.038105229  0.045411035            4 
   72000    1.2475388    -5.888295    33.021751  0.038219618  0.045407045            1 
   73000    1.2238225   -5.9280933    33.729703  0.038504226  0.045409534            2 
   74000    1.2472882   -5.9281846    34.269864  0.038592189  0.045410377            2 
   75000    1.2378196      -5.9446    34.926598  0.038807331  0.045435147            1 
   76000    1.2368548   -5.9046469    35.369689  0.038782553  0.045457974            2 
   77000    1.2128595   -5.9354146    35.946074  0.038902677  0.045477543            2 
   78000    1.2488848     -5.92325    36.416636  0.038906662  0.045493571            3 
   79000    1.2407971   -5.9637836    37.139345  0.039176525  0.045511936            5 
   80000    1.2257075   -5.9267041    37.622898  0.039190518  0.045540977            4 
   81000    1.2475986   -5.9348482    37.979881  0.039073952  0.045553538            5 
   82000    1.2347358   -5.9615988    38.598928  0.039226552  0.045557982            5 
   83000    1.2411579   -5.9261955    38.905041  0.039061286  0.045540405            5 
   84000    1.2390947   -5.8986897     39.25394    0.0389424  0.045512371            1 
   85000    1.2606383   -5.9432484    39.726535  0.038947583  0.045480726            2 
   86000    1.2437222   -5.9203436    40.195794  0.038949413  0.045444908            6 
   87000    1.2439828   -5.9705677    40.689116  0.038974249   0.04540845            4 
   88000    1.2568605   -5.9178572    41.182125  0.038998224  0.045367411            4 
   89000    1.2481112   -5.8908079    41.727723  0.039070902  0.045322754            6 
   90000    1.2222873   -5.9284041     42.12914  0.039008462  0.045279758            2 
   91000    1.2491677   -5.9179874    42.595226  0.039006617  0.045223794            4 
   92000     1.227177   -5.9508647    43.284877  0.039207315  0.045176703            2 
   93000    1.2419392    -5.953438    43.635632  0.039100028  0.045143435            5 
   94000    1.2570757   -5.9455011    44.298139  0.039271399  0.045104544            3 
   95000     1.275625   -5.9487631    44.501067  0.039036023  0.045059728            5 
   96000    1.2314608   -5.9596917    44.984253   0.03904883  0.045006335            6 
   97000    1.2538453   -5.9484599    45.495738  0.039085686   0.04494331            5 
   98000     1.221346   -5.9482773    45.981764   0.03910014  0.044884275            4 
   99000    1.2398577    -5.924126    46.642276  0.039261175  0.044828845            4 
  100000    1.2518286   -5.9743233    46.762893  0.038969078   0.04477897            1 
  101000    1.2297113   -5.8923965    47.619851  0.039290306  0.044719104            5 
  102000     1.248691   -5.9329571    48.085054  0.039285175  0.044668593            2 
  103000    1.2243554   -5.9846181    48.608046  0.039326898  0.044623039            7 
  104000    1.2147342   -5.9107842    49.170271  0.039399255  0.044583584            1 
  105000    1.2323375   -5.9376022    49.514846  0.039297497  0.044541363            4 
  106000    1.2109699   -5.9512906    50.275452  0.039524726  0.044499112            3 
  107000    1.2206002   -5.9646511    50.892487  0.039635893  0.044468672            1 
  108000    1.2401128   -5.9223958    51.552177  0.039777914  0.044446358            5 
  109000    1.2369902   -5.8986325    52.144225  0.039865615  0.044439502            4 
  110000    1.2230344   -5.9537793      52.7347   0.03995053  0.044425385            2 
  111000    1.2200622   -5.9520738    53.299873   0.04001492  0.044418224            3 
  112000    1.2295201    -5.942708    54.039094  0.040207659  0.044414755            2 
  113000    1.2532053   -5.8968166    54.387076  0.040108463  0.044417574            7 
  114000    1.2333926   -5.9258888    54.873559  0.040112251  0.044417908            7 
  115000    1.2505653   -5.9519927    55.474594  0.040198981  0.044410602            5 
  116000    1.2620893   -5.9392716    55.904914  0.040161576  0.044401125            5 
  117000    1.2274309   -5.9430015    56.481548  0.040229023  0.044393219            3 
  118000    1.2541757   -5.9221342    56.829883  0.040134098  0.044388965            1 
  119000    1.2241295   -5.9512925    57.231817  0.040078303  0.044374831            2 
  120000    1.2309822   -5.9185381    57.788391  0.040130827  0.044360559            5 
  121000    1.1909455   -5.9535291    58.355601  0.040189808  0.044344992            2 
  122000    1.2447429   -5.9356918    58.797715  0.040162373  0.044326809            3 
  123000    1.2408638   -5.9475947     59.30422  0.040179011  0.044304101            3 
  124000    1.2219505   -5.9147801    59.532882  0.040008657  0.044279957            3 
  125000    1.2439362   -5.9138214    60.341305  0.040227536  0.044254931            3 
  126000    1.2535179    -5.932257    60.505646  0.040016962  0.044229331            3 
  127000    1.2458606   -5.9674234    60.879757  0.039947347  0.044204618            3 
  128000    1.2263761   -5.9158857    61.465743   0.04001676  0.044176076            1 
  129000    1.2242745    -5.953902    62.205731  0.040184581  0.044149396            2 
  130000    1.2267077   -5.9741207    62.248728  0.039903031  0.044119608            3 
  131000    1.2364893   -5.9059329    62.957826  0.040049508  0.044087836            5 
  132000    1.2293139   -5.9597704    63.293123   0.03995778  0.044059713            3 
  133000    1.2256002   -5.9363077    63.996177  0.040097855  0.044030217            5 
  134000    1.2416531   -5.9954925    64.132135  0.039883168   0.04399832            4 
  135000    1.2294431   -5.8827005    64.835635  0.040021997  0.043963615            7 
  136000    1.2552918   -5.9269821    65.312661  0.040020013  0.043929914            4 
  137000    1.2477801   -5.9857447     65.79894  0.040023686   0.04389677            4 
  138000    1.2469731   -5.9374905    66.196496  0.039973729  0.043863998            5 
  139000    1.2170418   -5.9520989    66.807907  0.040052702  0.043829435            3 
  140000    1.1982566   -5.9267928    67.421966  0.040132122  0.043802056            3 
  141000    1.2642274   -5.8921382    68.209622  0.040313015  0.043776779            2 
  142000    1.2430424   -5.9435317    68.596023  0.040255882  0.043761152            9 
  143000    1.2426933   -5.9065132    69.435872  0.040463795  0.043746028            2 
  144000    1.2298205   -5.9179798    70.213629  0.040632887  0.043734327            3 
  145000    1.2174681   -5.9541398    70.375145  0.040445486  0.043729106            3 
  146000    1.2516281   -5.9568142    71.105107  0.040585107  0.043723349            2 
  147000     1.229448   -5.9642741    71.932023  0.040777791  0.043719659            4 
  148000    1.2189031   -5.9768676    72.230658  0.040670416  0.043715234            5 
  149000    1.2180676   -5.9326311    73.087099  0.040876454  0.043713241            2 
  150000    1.2465202   -5.9223171    73.490254  0.040827919   0.04371654            2 
  151000    1.2139619   -5.9348329    73.819071  0.040739002  0.043711055            3 
  152000    1.2215001   -5.9160836    74.089302  0.040619135   0.04370429            1 
  153000    1.2464682   -5.9474601    74.609995  0.040637252  0.043694674            5 
  154000    1.2236191   -5.9291796    74.934837  0.040549154  0.043683431            2 
  155000    1.2057282   -5.9423355    75.685866  0.040691326  0.043674758            5 
  156000     1.189725   -5.9842383    76.003187  0.040599993   0.04367042            3 
  157000    1.2352202   -5.9254004    76.855704  0.040793898  0.043667595            2 
  158000    1.2086414   -5.9658375    77.617619  0.040937562  0.043664507            1 
  159000    1.2092671   -5.9826945    78.018252  0.040890069  0.043666133            8 
  160000    1.1985342   -5.9478108    78.657003  0.040967189  0.043667544            3 
  161000    1.2159656   -5.9238853    79.321704  0.041056782   0.04366907            3 
  162000    1.2194816   -5.9265154    79.744839  0.041021008  0.043672726            5 
  163000    1.2200557   -5.9464421    80.259695  0.041032564  0.043675345            3 
  164000    1.2282447   -5.9470921    80.871276  0.041093128  0.043681917            3 
  165000    1.2188349   -5.9334923    81.336193  0.041078885  0.043685793            1 
  166000    1.2176049   -5.9797862    81.979256  0.041154245  0.043690706            3 
  167000    1.2359308   -5.9730482    82.794743  0.041314742  0.043694694            3 
  168000    1.2243599   -5.9496745    82.887423  0.041114793  0.043699128            2 
  169000    1.2412739   -5.9809215    83.289604  0.041069824  0.043699043            3 
  170000    1.2332348   -5.9400594    83.892493  0.041123771   0.04369947            3 
  171000    1.2170856   -5.9193765    84.539232  0.041198456  0.043702558            4 
  172000    1.2254028   -5.9654744    84.738786  0.041055613  0.043701376            4 
  173000    1.2021732   -5.9194454    85.427846  0.041150215  0.043700203            2 
  174000    1.2202501    -5.967802    85.753845  0.041069849  0.043698245            4 
  175000    1.1986212    -5.936772    86.525673  0.041202701  0.043693949            2 
  176000    1.2542691   -5.9533345    87.070214  0.041226427  0.043694978            3 
  177000    1.2051734     -5.93686    87.501275  0.041196457   0.04369478            2 
  178000    1.2071273   -5.9250645    88.192696  0.041288715  0.043694816            2 
  179000    1.2049671   -5.9779898    88.620846  0.041257377  0.043697415            3 
  180000    1.2278967   -5.9613676    89.388616  0.041383618  0.043702472            4 
  181000    1.2157965   -5.9665744    90.202446  0.041529671  0.043710408            5 
  182000    1.2136216   -5.9556033    90.138485    0.0412722  0.043714234            4 
  183000    1.2276571   -5.9575625    90.861474  0.041375899  0.043716402            3 
  184000    1.1948399   -5.9243603    90.813996  0.041129527  0.043713963            3 
  185000    1.2341783   -5.9694483    91.265032  0.041110375  0.043711403            2 
  186000    1.2431215   -5.9602485    92.219684  0.041317063  0.043710129            3 
  187000    1.2138476   -5.9744736    93.056773   0.04146915  0.043708469            3 
  188000    1.2178428   -5.9703831    93.320704   0.04136556  0.043707287            3 
  189000     1.223622   -5.9715825    93.190721  0.041089383  0.043703414            6 
  190000    1.2207005   -5.9595985    93.825165  0.041151388  0.043695985            3 
  191000    1.2124639   -5.9405963    94.739149  0.041334707  0.043689497            4 
  192000    1.2469616   -5.9445146    95.120584  0.041284976   0.04368484            2 
  193000    1.2181313   -5.9518458    95.842098  0.041382598  0.043682119            3 
  194000     1.235302   -5.9518033    96.071785  0.041267949  0.043676904            4 
  195000    1.2339746   -5.9499918    96.656575  0.041306229  0.043670914            3 
  196000    1.1985217   -5.9070815    97.409591  0.041415642  0.043668089            2 
  197000    1.2074351   -5.9426456    97.260417  0.041142308  0.043660838            3 
  198000    1.2403302   -5.9511763    97.868788  0.041190567  0.043650631            2 
  199000    1.2230205   -5.9697374    98.138289  0.041096436  0.043639916            3 
  200000    1.2338372   -5.9413532     98.95794  0.041232475  0.043630716            3 
  201000    1.2289813   -5.9616848    99.431826  0.041223808  0.043623323            4 
  202000     1.209101   -5.9856767    99.993763  0.041251552  0.043615991            5 
  203000    1.1954087   -5.9588895    100.70699  0.041341128  0.043609905            2 
  204000    1.1987728   -5.9115366    101.41051  0.041425862  0.043603171            3 
  205000     1.229429     -5.93209    101.70019  0.041341541  0.043595163            3 
  206000    1.2143969     -5.94052    102.20602  0.041345476  0.043586005            3 
  207000    1.2042875   -5.9325789    102.88682  0.041419815  0.043579173            3 
  208000    1.2383554    -5.992116    102.94217  0.041242858  0.043573214            6 
  209000    1.1920418   -5.8982494    103.65547  0.041329934  0.043567191            1 
  210000     1.233498   -5.9556498    103.95644  0.041252557  0.043559704            4 
  211000    1.2182554   -5.9586768    104.84486  0.041407922  0.043553728            2 
  212000    1.2320932   -5.9324915    105.13466  0.041326518  0.043548952            3 
  213000    1.2252185   -6.0021323    106.05875  0.041494035  0.043547515            4 
  214000    1.2390461   -5.9720256    106.46521  0.041458415  0.043546987            4 
  215000    1.2255442    -5.959532    107.21184  0.041554978  0.043548067            3 
  216000     1.194844   -5.9426121    108.00389  0.041668167  0.043550578            4 
  217000    1.2121629   -5.9475409    108.83517  0.041795382  0.043554833            3 
  218000     1.229739   -5.9440888    108.98431   0.04166067  0.043556912            5 
  219000     1.237748   -5.9576204    109.41182  0.041633112  0.043555904            3 
  220000    1.2269596   -5.9613025    109.77773  0.041582474  0.043552118            3 
  221000     1.187135   -5.9681186    110.48716  0.041661825  0.043550688            1 
  222000    1.2192392   -5.9014922    110.90105  0.041629524  0.043552302            4 
  223000    1.2299407   -5.9835333    111.23636  0.041568148  0.043551124            2 
  224000     1.221764   -5.9574525    111.29889  0.041405837   0.04354731            3 
  225000    1.2442871   -5.9615926    112.24761  0.041573188  0.043543651            2 
  226000    1.2214722   -5.9591099    112.19299  0.041369097   0.04353912            4 
  227000    1.2238531   -5.9633267    112.89863    0.0414459  0.043532435            2 
  228000    1.2120842   -5.9589673    113.36044   0.04143291  0.043526087            3 
  229000    1.1877547   -6.0006461    113.73512  0.041388326    0.0435198            3 
  230000    1.1852206   -5.9563187    114.42049  0.041456699    0.0435121            5 
  231000    1.2020219   -5.9453018    114.76734   0.04140236    0.0435028            6 
  232000    1.2210838   -5.9923059    114.96313  0.041294228  0.043494353            2 
  233000    1.2106892   -5.9488821    115.27436  0.041228312  0.043481937            3 
  234000    1.2106972   -5.9783236    115.70401  0.041205132   0.04347033            4 
  235000    1.2106715   -5.9701267    115.87463  0.041090294   0.04345939            2 
  236000    1.2049615   -5.9333609    117.02337  0.041321813  0.043448549            2 
  237000    1.2177304   -5.9610034    117.35562  0.041264284  0.043438089            2 
  238000    1.2129819   -5.9536887    118.52053  0.041498784  0.043429215            3 
  239000    1.2012281   -5.9448896    118.77716  0.041414631    0.0434218            2 
  240000    1.2197504   -5.9598613    119.44315  0.041473317  0.043416034            6 
  241000    1.2199578   -5.9838237    119.93652  0.041471824  0.043409769            2 
  242000    1.2185263   -5.9700512    120.31606   0.04143115  0.043403639            3 
  243000    1.2264446   -5.9283063    121.13048  0.041539944   0.04339919            1 
  244000     1.193927   -5.9588918    121.41408  0.041466557  0.043394118            4 
  245000    1.2096929   -5.9685146    122.00077  0.041496859  0.043389136            2 
  246000    1.2306015   -5.9656253    122.11819  0.041367949  0.043382397            6 
  247000    1.1969481   -5.9444428    123.18497   0.04156038   0.04337597            4 
  248000    1.2092935   -5.9375632    122.88277  0.041291253  0.043369171            1 
  249000    1.2280227   -6.0060474     123.9287  0.041475469  0.043360987            9 
  250000    1.2472645   -5.9535545    124.06493  0.041354975  0.043352846            2 
  251000    1.1981681   -5.9704734    124.64861  0.041384002  0.043343999            3 
  252000    1.2384424   -5.9655317    125.03722  0.041348288  0.043333995            3 
  253000    1.2198311   -5.9643514    125.00937  0.041175683  0.043322984            3 
  254000    1.1970327   -5.9396134    126.39193  0.041467168   0.04331177            4 
  255000    1.2420834   -5.9712041    126.38987   0.04130388  0.043302367            2 
  256000    1.1994718   -5.9391246    127.30352  0.041439948  0.043294202            2 
  257000     1.217584   -5.9547128    127.25458  0.041262835  0.043284477            2 
  258000    1.2182312   -5.9648471    128.14744  0.041391292  0.043272914            5 
  259000    1.1995614    -5.941285    128.94409  0.041487802  0.043263783            5 
  260000     1.200713   -5.9446027    129.51305  0.041510593  0.043257919            4 
  261000    1.2095365   -5.9812874    130.15342  0.041556008   0.04325127            3 
  262000    1.2069822    -6.034299    130.09109  0.041377575   0.04324432            3 
  263000    1.1866842   -5.9633594    130.43896  0.041330467  0.043236605            4 
  264000    1.2096138   -5.9871276    131.28923  0.041442309  0.043228653            5 
  265000    1.1991043   -5.9372231    131.63163  0.041393593  0.043222011            4 
  266000    1.2113243   -6.0174895    132.19783  0.041415361  0.043218094            5 
  267000    1.2117972   -5.9724605    133.43036  0.041644931  0.043213385            2 
  268000    1.2382568   -5.9783254    133.60709  0.041544493  0.043210403            2 
  269000    1.2177903   -6.0048367    134.60627  0.041699586  0.043208598            4 
  270000    1.2098789   -5.9615907    135.11934    0.0417035  0.043206786            4 
  271000    1.1967779   -5.9781093    135.65149  0.041713249  0.043205096            3 
  272000    1.1951576   -6.0061251    135.98972  0.041663517   0.04320174            5 
  273000    1.1955788   -5.9787723    136.18067  0.041569191  0.043197872            2 
  274000    1.2094121   -5.9824782    136.56633  0.041534773  0.043192293            3 
  275000    1.1833617    -6.022367    136.72003  0.041430311  0.043185719            9 
  276000    1.2098931   -6.0033152    137.66692    0.0415661  0.043179154            6 
  277000    1.2221173    -5.956345    137.87544  0.041478772   0.04317245            3 
  278000    1.1754818   -5.9911748    138.38913  0.041483551  0.043165567            2 
  279000     1.198435   -6.0218942    138.59714  0.041396994  0.043158866            5 
  280000    1.2137615   -5.9754698      139.192  0.041426191   0.04315237            4 
  281000    1.1827603   -5.9792941    139.79902  0.041458784  0.043145274            1 
  282000    1.2066642   -5.9689598    140.42843  0.041497762   0.04313788            5 
  283000    1.1967461   -5.9867395    140.72156  0.041437444  0.043132054            3 
  284000    1.2022352   -5.9840841    141.36506  0.041480358  0.043125278            4 
  285000    1.2027533   -5.9624441    141.91562  0.041495794  0.043119344            5 
  286000    1.2226683   -5.9868542    142.19978  0.041433502  0.043113885            5 
  287000    1.1914276   -5.9550832    143.60609  0.041697471  0.043109015            3 
  288000    1.1998892   -5.9933549    142.92483  0.041355563  0.043103883            4 
  289000    1.2143332   -5.9963444    143.64902  0.041421285  0.043097877            2 
  290000    1.1889134   -5.9625792     144.4198  0.041499944  0.043090542            3 
  291000    1.1883387   -6.0026764    144.44395  0.041364246  0.043083684            4 
  292000    1.2182105   -5.9740355    145.09209  0.041407559  0.043077894            8 
  293000     1.213718   -5.9721989     145.9405  0.041507538  0.043071992            3 
  294000    1.2022979   -5.9795481    145.50761  0.041243653   0.04306237            2 
  295000    1.1909637     -6.02057    145.86622  0.041205146   0.04305099            4 
  296000    1.1873426   -5.9909373    146.51944  0.041249843  0.043039525            8 
  297000    1.2158911   -5.9967879     147.3004   0.04133008  0.043028247            3 
  298000     1.228288   -5.9860872    147.25001  0.041177295  0.043016777            3 
  299000    1.1785033   -6.0054424    147.66126  0.041154196  0.043004603            4 
  300000    1.1949358   -6.0125391    148.53278  0.041259105  0.042993012            7 
  301000    1.1973198   -5.9650068    150.03805  0.041538774  0.042985126            2 
  302000    1.1996747   -5.9779029      150.265  0.041463853  0.042978833            4 
  303000    1.1718221   -6.0149737    150.77451  0.041467136  0.042972478            4 
  304000    1.2168856   -5.9876555    151.44083  0.041513386  0.042964904            3 
  305000    1.2042579   -5.9976977    152.21489  0.041588768  0.042959115            5 
  306000    1.1772969   -5.9578513    152.42263   0.04150943  0.042953131            2 
  307000    1.2018379   -5.9890605    153.39194  0.041637333  0.042948127            2 
  308000    1.2176363   -5.9974614    153.32467  0.041483948  0.042944635            4 
  309000    1.2212648   -5.9487789    153.92049  0.041510379  0.042941028            2 
  310000    1.2139295   -5.9776399    154.65854  0.041574875  0.042937134            4 
  311000    1.1975714   -6.0075941    155.16711  0.041577467  0.042933808            3 
  312000    1.2004598   -5.9732264    155.51604  0.041537404  0.042929818            3 
  313000     1.187392   -6.0201027    155.35488  0.041361789  0.042925335            9 
  314000    1.1915451   -5.9843726    156.59699  0.041559711  0.042920502            2 
  315000    1.1883641    -5.942285    157.54805  0.041679379  0.042915842           10 
  316000    1.2190058   -6.0181889    157.16521  0.041446522  0.042910935            5 
  317000    1.1747991    -5.968628    157.97268  0.041528044  0.042906029            2 
  318000    1.2236337   -6.0177694      158.437  0.041519131  0.042901248            4 
  319000     1.211688   -6.0031268    158.52371  0.041411626  0.042895386            3 
  320000    1.2152343   -5.9641526    159.31868   0.04148924    0.0428886            1 
  321000    1.1933417   -6.0168123    159.25723  0.041344036  0.042882601            6 
  322000    1.1937193   -5.9769036    159.91405  0.041385623  0.042875713            3 
  323000    1.2145091   -5.9948735     159.8472  0.041240248   0.04286804            6 
  324000    1.1873642   -5.9899651    160.70744  0.041334217   0.04285974            3 
  325000    1.2005655   -5.9740382    161.37771    0.0413789  0.042850814            4 
  326000    1.2162405   -5.9811111     161.1985  0.041206161  0.042840906            2 
  327000    1.2059573   -5.9838737    162.06205  0.041300217  0.042831838            1 
  328000     1.177763   -5.9635401     162.8799  0.041382088  0.042823661            2 
  329000    1.1844925   -5.9732846    162.89731  0.041260717  0.042815584            2 
  330000    1.2191248   -5.9746844    163.70257  0.041339033  0.042807453            2 
  331000    1.1842682   -5.9826887    164.16794  0.041331305  0.042800689            6 
  332000    1.1646297   -6.0154289    164.51429  0.041293748  0.042793751            6 
  333000    1.1754108   -5.9531587    165.38382  0.041387343  0.042786345            5 
  334000     1.199901   -5.9883686    165.80022   0.04136732  0.042778876            2 
  335000    1.2197653   -6.0152692    166.04103  0.041303738  0.042772436            3 
  336000    1.1960195   -6.0076585    166.54079  0.041304759  0.042765128            7 
  337000     1.183548   -6.0076869    167.02395  0.041301668  0.042757715            4 
  338000    1.1845296   -6.0179671    167.76108  0.041361213  0.042749977            4 
  339000    1.2074401   -5.9995419    168.43964  0.041406008  0.042742365            3 
  340000    1.2094119   -6.0305574    168.49819  0.041298575  0.042735426            6 
  341000     1.201017   -5.9530672    169.71971  0.041475981  0.042728686            3 
  342000    1.2252012   -5.9905117    170.26073  0.041486532  0.042723845            5 
  343000    1.1846077   -5.9942422    170.71168  0.041475141  0.042718716            4 
  344000    1.2060276   -6.0191652     171.0938   0.04144714  0.042713527            7 
  345000    1.2002469   -6.0189132     172.3459  0.041629446  0.042709048            3 
  346000    1.1825909   -6.0150248    172.14188  0.041459989  0.042703667            2 
  347000    1.2005947   -5.9766876    172.79999  0.041498556  0.042699588            6 
  348000    1.1979262   -6.0075079    173.57331  0.041564489  0.042696086            3 
  349000    1.1903972   -5.9937137    174.08842   0.04156839  0.042692607            4 
  350000    1.1880817   -6.0227633    174.46704  0.041539771  0.042689705            3 
  351000    1.2026685   -6.0109988    174.81013  0.041502879  0.042686848            5 
  352000     1.213276   -5.9873239    174.95783   0.04141994    0.0426827            3 
  353000     1.195225    -5.993145     176.2294  0.041602786  0.042679165            3 
  354000    1.2130255   -6.0082604    176.15042  0.041466671   0.04267578            2 
  355000    1.1815685   -5.9895374    176.90603  0.041527238  0.042672722            3 
  356000    1.2073671   -6.0181265    177.19771  0.041478865  0.042667391            5 
  357000    1.1895348    -6.004335    178.03317  0.041557695  0.042663408            2 
  358000    1.1932648   -5.9910466    178.36452  0.041518743  0.042660374            5 
  359000    1.1926024   -6.0040724    178.88059  0.041522886  0.042657081            3 
  360000      1.18796   -6.0080007    179.60222  0.041574588  0.042653065            2 
  361000    1.1817235   -5.9926245    179.87885  0.041523279  0.042648317            2 
  362000    1.1786268   -5.9896908     180.0844  0.041455894   0.04264266            3 
  363000    1.1691062   -5.9962674    179.92846   0.04130589  0.042637226            5 
  364000    1.1990223     -5.99278    180.62598  0.041352102  0.042630061            5 
  365000    1.2061208   -6.0170959    181.36974  0.041408616  0.042623266            4 
  366000    1.1863019   -5.9829682    181.19708  0.041256165  0.042615719            5 
  367000    1.1824716   -6.0151491    181.63289  0.041242709  0.042607372            4 
  368000    1.1892754   -5.9746247    182.01978  0.041218247  0.042599566            3 
  369000    1.2239264   -6.0117284    183.13048   0.04135738  0.042592239            4 
  370000    1.1563982   -5.9677592     183.4671  0.041321419  0.042584416            2 
  371000    1.2083884   -6.0130633    183.31633  0.041176175  0.042576761            8 
  372000    1.1731986   -6.0107047    184.45614   0.04132082  0.042568842            2 
  373000    1.1720929   -6.0154644    184.62232  0.041247168   0.04256216            8 
  374000    1.1942452   -6.0307269    185.58012  0.041350293   0.04255422            5 
  375000    1.1964406   -5.9750987    186.40731  0.041423847  0.042547118            2 
  376000    1.1908293   -5.9724393    185.93305  0.041208566  0.042540804            3 
  377000    1.2190131   -5.9982034    186.84043  0.041299829  0.042534079            2 
  378000    1.2239357   -6.0083669    188.11489  0.041471536  0.042528541            2 
  379000    1.2050749   -5.9836187    188.07872   0.04135416  0.042524217            3 
  380000    1.2134822   -6.0141549    188.91537   0.04142881  0.042519649            3 
  381000     1.166071     -5.97908    188.89002  0.041314528  0.042514756            5 
  382000     1.193566   -6.0309842    189.70335  0.041383803  0.042508993            3 
  383000    1.2170612   -5.9961399    189.74795  0.041285456  0.042502835            4 
  384000    1.2039548   -5.9819536    190.46143  0.041332775  0.042497097            8 
  385000    1.1841218   -5.9901953    191.15978  0.041376575  0.042491402            3 
  386000    1.2151759   -6.0084263    191.80445  0.041408561  0.042486361            4 
  387000    1.1905275   -6.0160927    191.38905  0.041212113   0.04248114            4 
  388000    1.1572084   -6.0328364    192.04204  0.041246143  0.042476095            3 
  389000    1.1882902   -6.0256582    192.84355  0.041311815  0.042470479            4 
  390000    1.1709862   -6.0457749     192.9728  0.041233504  0.042464577            1 
  391000    1.2012234   -6.0128983    193.05926  0.041146475  0.042457023            3 
  392000    1.1815358   -6.0161257    193.25728  0.041083605  0.042448408            3 
  393000    1.2097256   -5.9962695    193.90681  0.041116796   0.04243882            2 
  394000    1.1715005   -5.9906609    194.44746  0.041126789  0.042428934            2 
  395000    1.1903141   -6.0135963    194.13728  0.040957232  0.042419047            4 
  396000    1.2098425   -6.0063125    195.49511  0.041139543  0.042409465            5 
  397000    1.1827492   -5.9642732    195.56062  0.041049667  0.042400085            5 
  398000    1.2061341   -6.0663076    194.85773  0.040799356  0.042388549            7 
  399000    1.1996492   -6.0135765    195.50948  0.040833224  0.042376619            3 
  400000    1.1677386   -5.9924015    196.06079  0.040845998  0.042364685            4 
  401000    1.1809332    -5.997597     196.7552  0.040888446  0.042352084            7 
  402000    1.1681363   -6.0142505    197.33132   0.04090616  0.042340692            4 
  403000    1.1810969   -6.0107165    198.03332  0.040949818  0.042329365            3 
  404000    1.1972841   -5.9985923     198.2537  0.040893915  0.042318763            3 
  405000    1.1868712   -6.0281963     199.1712  0.040981728  0.042308121            6 
  406000    1.2152316   -5.9817246    199.45116  0.040938252   0.04229752            4 
  407000    1.1689531   -6.0292126     199.8935  0.040928236  0.042287262            5 
  408000    1.2086693   -6.0170453    199.89941  0.040829129  0.042276743            2 
  409000    1.1722535   -6.0057569    200.56961  0.040865854  0.042265211            2 
  410000    1.1603358   -6.0276827    200.95272  0.040844048  0.042253235            3 
  411000    1.1683877   -6.0311997    200.99228  0.040752693  0.042241154            4 
  412000    1.2086258   -5.9833932    201.90898  0.040839195  0.042229293            4 
  413000    1.1789483   -6.0002918    202.23215  0.040805519  0.042217105            1 
  414000    1.1552283   -6.0227189    202.79499  0.040820247  0.042205227            6 
  415000    1.1815249   -6.0236751    203.05189  0.040773472  0.042193535            3 
  416000    1.1887173   -6.0342248    203.61705  0.040788671  0.042181761            4 
  417000     1.179836   -6.0405709    203.74401  0.040716229  0.042169578            2 
  418000    1.1865439   -6.0070191    204.07998  0.040685802  0.042158333            1 
  419000    1.1686994   -6.0071682     205.0333  0.040778301  0.042147144            3 
  420000    1.2265822   -6.0535767    205.89676  0.040852531  0.042136605            3 
  421000    1.1649257   -6.0096499    206.40024  0.040855154  0.042126333            5 
  422000    1.1661811   -5.9768794    206.59893  0.040797577  0.042116351            3 
  423000     1.146008    -5.980447    208.21624  0.041019747  0.042107746            2 
  424000    1.1684171   -6.0439248    208.45226  0.040969391  0.042099356            3 
  425000    1.1470644    -6.024064    208.38428  0.040859663  0.042091025            3 
  426000    1.1702044   -6.0113655    209.76475  0.041033792  0.042084187            2 
  427000    1.1763438    -6.026498    209.87087  0.040958406  0.042077532            3 
  428000    1.1572115   -6.0307167    211.20975  0.041123394  0.042071084            4 
  429000    1.1848829   -6.0269746    211.48282  0.041080578  0.042064622            3 
  430000    1.1815785   -5.9790178    211.29439  0.040948525  0.042058462            4 
  431000    1.1894852   -6.0229806    213.54142  0.041287978  0.042052866            1 
  432000    1.1428853   -5.9891171    214.04232  0.041289028   0.04204838            1 
  433000    1.2029449   -5.9751662     215.1583   0.04140845   0.04204508            2 
  434000    1.1794185   -6.0401927    215.39573  0.041358628  0.042041793            5 
  435000    1.1868213   -6.0149022     214.3504  0.041063295   0.04203795            5 
  436000    1.1600218   -5.9991937    215.93673   0.04127231   0.04203442            5 
  437000    1.1905674   -6.0565011    215.26686  0.041050125   0.04203027            4 
  438000    1.1838055   -6.0366136    215.45878  0.040992919  0.042025334            1 
  439000    1.2113336   -5.9917445    217.05481  0.041202508  0.042020921            5 
  440000    1.1816939   -6.0403101     217.3475  0.041164298  0.042016033            3 
  441000     1.152718   -6.0318693    217.54273  0.041107849  0.042011198            6 
  442000    1.1567719   -6.0039802    217.72688  0.041049563  0.042006007            4 
  443000    1.1900678    -6.027275    219.59478  0.041308273  0.042001793            2 
  444000     1.192964   -6.0212889    219.20888  0.041142808  0.041998202            1 
  445000    1.1692321   -6.0729594    219.88321   0.04117663  0.041994917            3 
  446000    1.1658768   -6.0289632    220.87489  0.041269598  0.041991184            3 
  447000    1.2072015    -5.996468    221.50094  0.041293986  0.041987964            3 
  448000    1.1844065   -6.0525067    220.66643  0.041046583  0.041984272            4 
  449000    1.1804036   -6.0159225    222.02075  0.041206524  0.041981012            4 
  450000    1.1657063   -6.0371148    222.51041  0.041205631  0.041977592            2 
  451000    1.1908154   -6.0197016    223.06477  0.041216698  0.041973588            2 
  452000     1.163483   -6.0139829     223.3445  0.041177082  0.041970618            4 
  453000    1.1777571   -6.0159249    223.99713  0.041206242  0.041967269            3 
  454000    1.1893763   -6.0495999    223.99895  0.041115814  0.041963089            7 
  455000    1.1891389   -6.0111143    223.88681   0.04100491  0.041957752            4 
  456000    1.1558295   -6.0155424    223.90934  0.040919104  0.041952313            5 
  457000    1.1766766   -6.0313127    224.27346  0.040895963   0.04194622            4 
  458000    1.2005461   -6.0475332    225.43992  0.041018908  0.041941121            6 
  459000    1.1812769   -6.0519305    225.98086  0.041027752  0.041935386            3 
  460000    1.1671592    -6.061713    225.96886  0.040936388  0.041929507            5 
  461000    1.1612639   -6.0668329    226.35529  0.040917442  0.041923385            2 
  462000    1.1887212    -6.064349    226.89085  0.040925477  0.041916938            7 
  463000    1.1614802   -6.0112333    227.50935  0.040948407  0.041911124            5 
  464000    1.1350866   -6.0518269     228.9727  0.041122971  0.041905806            3 
  465000    1.1938227   -6.0477693    228.98415  0.041036586  0.041899629            3 
  466000     1.156729   -6.0430654    229.72158  0.041080397  0.041894106            2 
  467000    1.1615451   -6.0934733    229.90887  0.041025851  0.041889216            3 
  468000    1.1657025   -6.0352918    231.09281  0.041149004  0.041884593            5 
  469000    1.2027171   -6.0435343    230.77269  0.041004386   0.04188025            5 
  470000    1.1832228   -6.0402166    231.90066  0.041117137  0.041876097            2 
  471000    1.1940589    -6.043806    231.63263  0.040982419  0.041870909            3 
  472000    1.1986231   -6.1025146    232.83031  0.041107047  0.041866192            3 
  473000    1.2004737    -6.046828    232.30961  0.040928402  0.041861308            5 
  474000    1.2122852   -6.0259221    233.46376  0.041044965  0.041856306            4 
  475000    1.1951372   -6.0108035    234.15687  0.041080153  0.041851313            2 
  476000    1.1874115   -6.0498865    233.98929  0.040964511  0.041846471            2 
  477000    1.1909891   -6.0294762     234.6743  0.040998306  0.041841328            3 
  478000    1.1981175   -6.0411906    234.54689  0.040890323  0.041836728            2 
  479000    1.1452202   -6.0085676    235.94354  0.041047937  0.041832259            2 
  480000     1.152679   -6.0421004    235.82527  0.040941887  0.041826795            3 
  481000    1.1821974   -6.0249441    236.85864    0.0410358  0.041821111            4 
  482000    1.1404597   -6.0311677     236.7123  0.040925362  0.041815691            3 
  483000    1.1890285   -6.0052199    237.48047  0.040973167  0.041810252            2 
  484000    1.1556587   -6.0392937    238.13277  0.041000822  0.041805365            2 
  485000    1.1865858   -5.9892578    239.10672  0.041083629  0.041800586            2 
  486000    1.1514753   -6.0058366    239.11308  0.041000185  0.041796194            3 
  487000    1.1749572   -6.0193637    239.85549  0.041043034  0.041791805            6 
  488000    1.1703814   -6.0279783     240.0061  0.040984648  0.041788366            3 
  489000    1.1666381   -6.0260356    241.46555  0.041149548  0.041784969            6 
  490000    1.1937633   -6.0280879    241.39294   0.04105322  0.041781434            3 
  491000    1.1914376   -6.0099752    242.11193  0.041091638  0.041778158            5 
  492000    1.1688424   -6.0506083    243.08714  0.041173295  0.041774921            4 
  493000    1.1791749   -6.0544266    243.03953  0.041081733  0.041771893            3 
  494000     1.160245   -6.0455328    243.64892   0.04110137  0.041768955            3 
  495000    1.1966856   -5.9884725    244.93441   0.04123475  0.041766407            5 
  496000    1.1621329   -6.0106826    245.23853   0.04120271   0.04176393            3 
  497000    1.1698336   -6.0788522    245.91379  0.041233031  0.041761451            3 
  498000    1.1891191   -6.0186235    246.39295  0.041230413   0.04175942            2 
  499000    1.1811421   -6.0713388    246.73425  0.041204785  0.041758429            8 
  500000    1.1687683   -6.0394689    247.04399  0.041173999  0.041757361            2 
  501000    1.1580191   -6.0517151    247.36208  0.041144724  0.041755995            9 
  502000    1.1815885   -6.0528463    248.38691  0.041232887  0.041754151            3 
  503000    1.1738243   -6.0271205    248.21473  0.041122387  0.041752469            5 
  504000    1.1832112   -6.0513619    248.97285  0.041166146  0.041750662            2 
  505000    1.1702866   -6.0653346    249.13759  0.041111813  0.041749401            9 
  506000    1.1768686    -6.007637    250.49539  0.041254182   0.04174813            3 
  507000    1.1776003   -6.0446349    250.42837  0.041161797  0.041745993            5 
  508000    1.1705838   -6.0648439    250.38261  0.041073264  0.041743052            3 
  509000    1.1568589   -6.0692421    250.93603  0.041083175  0.041740338            2 
  510000    1.1656042   -6.0386747     252.6231  0.041278285  0.041737651            2 
  511000    1.1844557   -5.9976297    252.96776  0.041253712  0.041735608            2 
  512000    1.1388078   -6.0422232     253.4707  0.041254997  0.041733389            3 
  513000    1.1601634   -6.0442009    253.45853    0.0411726  0.041730804            2 
  514000    1.1540685   -5.9991075    254.14405   0.04120364   0.04172832            4 
  515000    1.1592924   -6.0387597    254.69763  0.041213209  0.041726247            3 
  516000    1.2233156   -6.0222507    255.15289  0.041206862  0.041724317            4 
  517000    1.1765021   -6.0184479     255.6524  0.041207673  0.041722171            3 
  518000    1.1629573    -6.035321    255.40294  0.041087989  0.041719024            3 
  519000     1.159687   -6.0197654    255.75639  0.041065572  0.041715662            3 
  520000    1.1599352    -6.084131     256.0209   0.04102899  0.041712584            3 
  521000    1.1657578   -6.0457167     257.0154  0.041109309  0.041709714            3 
  522000    1.1822843   -6.0009891    256.96811  0.041023007  0.041706815            2 
  523000    1.1684952   -6.0454888    258.45956  0.041182211  0.041703096            2 
  524000    1.1883384   -6.0855467    257.47341   0.04094679  0.041699806            9 
  525000    1.1945915   -6.0445362    259.10774  0.041128213  0.041696695            2 
  526000    1.1695776   -6.0636919    258.41936  0.040940963  0.041692658            5 
  527000    1.1704756   -6.0406141    259.67758  0.041062236  0.041688818            4 
  528000    1.1974908   -6.0661985    259.16655  0.040903811  0.041684542            2 
  529000    1.1704084   -6.0488134     259.6324  0.040899873  0.041680092            7 
  530000    1.1502853   -6.0279552    259.77236  0.040844711  0.041675362            4 
  531000    1.1784722   -6.0313806    260.19431   0.04083401  0.041670224            2 
  532000     1.165237     -6.03068    260.57318  0.040816601  0.041664938            4 
  533000    1.1941344   -6.0422828    261.73116  0.040921069  0.041659437            8 
  534000    1.1700273    -6.035253    262.30721  0.040934334  0.041654417            2 
  535000    1.1721131   -6.0340875     262.7777  0.040931105  0.041649177            3 
  536000    1.1493197   -6.0085288    263.01066  0.040890961  0.041643877            3 
  537000    1.1672413   -6.0197095    264.12623  0.040987931  0.041639233            2 
  538000    1.1802165   -6.0219983    264.88678  0.041029551   0.04163457            5 
  539000    1.1813089   -6.0743999    264.29932  0.040862603  0.041629537            4 
  540000    1.1643538   -6.0306694    265.22045  0.040929082  0.041623867            6 
  541000    1.1592151   -6.0223306    265.32683  0.040869814    0.0416185            4 
  542000    1.1821118   -6.0409359    265.82498     0.040871  0.041614068            8 
  543000    1.1617272   -6.0393792    266.20974  0.040854779  0.041609407            3 
  544000    1.1716355   -6.1091377    267.01024  0.040902304  0.041604607            5 
  545000    1.1521983   -6.0475784    267.09034  0.040839502  0.041599576            8 
  546000    1.1659558   -6.0871827    267.96753  0.040898586  0.041594299            4 
  547000    1.1745745     -6.02421    268.78572  0.040948464  0.041589165            2 
  548000    1.1641191   -6.0404223    268.76312  0.040870304  0.041584765            4 
  549000    1.1753009   -6.0574015    269.69765  0.040937712  0.041580216            3 
  550000    1.1600311   -6.0505022    269.34797  0.040810298  0.041575274            3 
  551000    1.1556432   -6.0315085    269.39453  0.040743274  0.041569403            2 
  552000    1.1702342   -6.0378092    270.26329  0.040800617  0.041563625            5 
  553000    1.1617135   -6.0477505    271.53508  0.040918487  0.041558185            6 
  554000    1.1729084   -6.0169062    271.40141  0.040824519  0.041553086            3 
  555000    1.1548311   -6.0568006    270.90625  0.040676615  0.041547544            5 
  556000    1.1497184   -6.0629396    272.11392  0.040784461  0.041542716            1 
  557000    1.1691702   -6.1126573    272.47044  0.040764577  0.041537294           11 
  558000    1.1839492   -6.0459672    273.84905  0.040897409  0.041532354            4 
  559000    1.1759771   -6.0676976    273.46979  0.040767708  0.041527372            5 
  560000    1.1560122   -6.0491834    273.42008  0.040687512  0.041521955            5 
  561000     1.142501   -6.0586193    273.59012  0.040640243  0.041516675            2 
  562000    1.1489093   -6.0267433    275.43176  0.040841008  0.041511987            3 
  563000      1.16319   -6.0395142    275.82636  0.040826874  0.041506594            4 
  564000    1.1338755   -6.0809889    275.60144  0.040721253  0.041501919            3 
  565000    1.1744485   -6.0849093    277.72686  0.040962664  0.041496658            3 
  566000    1.1665512   -6.0794855    276.65812  0.040732939   0.04149183            6 
  567000    1.1803969   -6.0726324    277.27623  0.040751944  0.041486785            2 
  568000    1.1617694   -6.0467662    277.65023  0.040735069  0.041481807            3 
  569000    1.1776283   -6.0447717    277.93104  0.040704604  0.041476985            2 
  570000    1.1586958   -6.0022968    279.36527  0.040842875  0.041472188            3 
  571000    1.1581961   -6.0546026    279.41505  0.040778612  0.041467401            4 
  572000    1.1770931   -6.0270612    279.90694  0.040778983  0.041462558            2 
  573000    1.1439211    -6.050839    280.41886  0.040782266  0.041457678            6 
  574000    1.1806314   -6.0626999     281.4578   0.04086205  0.041452853            3 
  575000    1.1444384   -6.0558575     281.6546  0.040819507  0.041448753            3 
  576000     1.163033   -6.0527777    281.88884  0.040782529  0.041443791            4 
  577000    1.1768025   -6.0689255    281.95128  0.040720866  0.041438566            3 
  578000     1.163826   -6.1048144    281.23041  0.040546483  0.041433408            4 
  579000    1.1876441   -6.1029984    282.69963  0.040687915  0.041427738            4 
  580000     1.135185   -6.0971979    283.33463  0.040708999  0.041422662            4 
  581000    1.1786691   -6.0710863    283.43947  0.040653969   0.04141745            4 
  582000    1.1606191   -6.0619718     284.6372  0.040755613  0.041412506            5 
  583000    1.1533437   -6.0569724    285.46718  0.040804342  0.041407624            5 
  584000    1.1476857   -6.0685296    284.89766  0.040653205  0.041402633            3 
  585000    1.1417124   -6.0405666    286.05968  0.040749242  0.041397902            3 
  586000    1.1550904   -6.0455557    286.17746  0.040696454  0.041393245            5 
  587000    1.1412928   -6.1036515    286.91938  0.040732451  0.041388008            2 
  588000    1.1440085   -6.0958487    287.62789  0.040763589  0.041383262            2 
  589000    1.1358563   -6.0498598     288.3365  0.040794638  0.041378753            3 
  590000    1.1528339    -6.060771    288.55717  0.040756663  0.041373938            4 
  591000    1.1684693   -6.0520035    289.13223  0.040768786   0.04136947            3 
  592000    1.1599996   -6.0612058    288.94425  0.040673458  0.041364815            4 
  593000    1.1594535   -6.0778731    288.28785  0.040512627  0.041360116            4 
  594000    1.1687257   -6.0777996    289.22011  0.040575212   0.04135443            7 
  595000    1.1591375   -6.0700542    289.66519  0.040569355  0.041348777            2 
  596000    1.1533487   -6.0584586    289.96788  0.040543607  0.041342531            3 
  597000    1.1602344   -6.1123503    289.93356  0.040470905  0.041335769            2 
  598000    1.1793587   -6.0743025    289.33245  0.040319461  0.041328383            8 
  599000    1.1394736    -6.108708    289.29942  0.040247555  0.041320307            5 
  600000    1.1492405    -6.074867    290.09003  0.040290282  0.041311733            4 
  601000    1.1359797   -6.0671675    291.11004  0.040364676  0.041303416            4 
  602000    1.1476718   -6.0853609    291.55602  0.040359361  0.041295427            4 
  603000    1.1484277   -6.0849358    291.91814  0.040342474     0.041288            2 
  604000    1.1412371   -6.0699356    293.56618   0.04050306   0.04128123            6 
  605000    1.1542009   -6.0879948     293.6756  0.040451185  0.041274432            3 
  606000    1.1790424   -6.0643019     294.0228  0.040432178  0.041267776            4 
  607000    1.1369148   -6.0765957    295.27387  0.040537324   0.04126201            3 
  608000    1.1527376   -6.0711752    294.74911  0.040398726  0.041255666            5 
  609000    1.1617281   -6.0885934    294.36163   0.04027937  0.041248822            3 
  610000     1.138521    -6.064048    296.47692  0.040502312  0.041242053            4 
  611000    1.1474625   -6.0651715    296.97659  0.040504172   0.04123503            4 
  612000    1.1416977   -6.0511765    296.61308  0.040388491   0.04122845            4 
  613000    1.1716346   -6.0673488    297.49323  0.040442255  0.041221839            5 
  614000     1.162567   -6.1017331    297.08304  0.040320716   0.04121515            4 
  615000    1.1552823   -6.0705047    298.60414  0.040461265  0.041208202            4 
  616000    1.1309505   -6.1028761    297.81514  0.040288845  0.041201172            5 
  617000    1.1395001   -6.0687087    298.71751  0.040345422  0.041193933            3 
  618000    1.1471911   -6.0856199    298.97288  0.040314574  0.041187029            2 
  619000    1.1365673   -6.0740908    299.72926  0.040351273  0.041180006            4 
  620000    1.1488319    -6.089149    299.16954  0.040210959  0.041172997            4 
  621000    1.1468258   -6.0311308    301.28297  0.040429814  0.041166077            2 
  622000    1.1502658   -6.0941132    300.04528  0.040198993  0.041158898            5 
  623000    1.1464237   -6.0941869    299.73252  0.040092632  0.041151654            6 
  624000    1.1583358   -6.0916242    301.60119  0.040277936  0.041144018            2 
  625000    1.1173969   -6.0792591    302.11509  0.040282012  0.041136191            5 
  626000    1.1604742   -6.0622601     302.4864  0.040267092  0.041128819            2 
  627000    1.1337111    -6.048594    302.31563  0.040180174  0.041121368            5 
  628000    1.1577065   -6.0800356    302.07303  0.040084001  0.041113109            5 
  629000    1.1589914   -6.0634568    303.27213  0.040179137  0.041105757            3 
  630000    1.1724695   -6.1005256    303.91115  0.040199888  0.041098583            3 
  631000    1.1922612   -6.1000597    304.20767  0.040175339  0.041091417            7 
  632000     1.149836   -6.0363976    306.13309   0.04036565  0.041084001            5 
  633000    1.1727519   -6.0788397    305.62334  0.040234774  0.041076719            2 
  634000    1.1519714   -6.0563237    306.77932  0.040323254  0.041070014            1 
  635000    1.1585867   -6.0791074    306.71482  0.040251288  0.041063411            5 
  636000    1.1459643   -6.0496305    307.55961  0.040298691    0.0410563            8 
  637000    1.1618531   -6.0981982    307.35322  0.040208428  0.041049178            3 
  638000    1.1495959   -6.0705249    308.01118  0.040231345  0.041042237            3 
  639000     1.152559   -6.0690095    307.54805  0.040107988  0.041034858           10 
  640000    1.1596184   -6.0571453    308.28905  0.040141803  0.041027303            5 
  641000    1.1627947   -6.1177156    308.28146  0.040078192  0.041019692            2 
  642000    1.1563485   -6.0944978    308.79323  0.040082195  0.041011919            3 
  643000    1.1592108   -6.1049605    308.38139  0.039966484  0.041003677            3 
  644000    1.1475086    -6.044677    309.37013  0.040032367  0.040995767            3 
  645000    1.1573485   -6.0993399    311.34691  0.040225698  0.040988578            2 
  646000    1.1703697   -6.0456634    312.53979   0.04031731  0.040981723            7 
  647000    1.1383164   -6.0717391    311.69228  0.040145837  0.040974695            6 
  648000    1.1018658   -6.1195913    311.28909  0.040032033  0.040967314            4 
  649000    1.1491308   -6.0799506    312.32692  0.040103611  0.040959725            9 
  650000    1.1501888   -6.0989071     311.9047  0.039987782  0.040952222            2 
  651000    1.1658662   -6.0595253    314.03798  0.040199434  0.040945284            4 
  652000    1.1631802   -6.0522332    314.55429   0.04020377  0.040938519            4 
  653000    1.1376997   -6.0806172    315.60848  0.040276733  0.040932371            6 
  654000    1.1435641   -6.0764384     315.5203  0.040203912  0.040926065            3 
  655000    1.1549398   -6.1159013    315.45699  0.040134478  0.040919965            3 
  656000    1.1561364   -6.0747041     316.2116  0.040169157  0.040913631            2 
  657000    1.1264787    -6.074651    316.92088  0.040197981  0.040907386            3 
  658000    1.1410639   -6.0779507    317.97754  0.040270712  0.040901415            6 
  659000    1.1434506   -6.0577724    318.43416  0.040267344  0.040895313            3 
  660000     1.160924    -6.085664    317.34363   0.04006864  0.040889651            2 
  661000    1.1558626   -6.1117067    318.42262  0.040144052  0.040883479            4 
  662000    1.1575267   -6.0982049    319.77902  0.040254156  0.040877546            3 
  663000    1.1333996   -6.0933023    320.04324  0.040226652  0.040872062            5 
  664000    1.1393402   -6.0671496    321.14881   0.04030482  0.040867023            6 
  665000    1.1385378   -6.1002446    322.02314  0.040353776  0.040861665            4 
  666000    1.1674054   -6.1024766     322.0246  0.040293369  0.040856885            2 
  667000    1.1449118   -6.1127282    323.19891  0.040379674  0.040852194            3 
  668000    1.1194862   -6.1156746    324.36572  0.040464785  0.040846963            7 
  669000    1.1402759   -6.1089634     323.7596  0.040328799  0.040841999            3 
  670000    1.1415167   -6.0913391    324.30548  0.040336503  0.040837138            6 
  671000    1.1550611   -6.1073626    324.97211  0.040359179  0.040832598            3 
  672000    1.1342152   -6.1148438    324.42624  0.040231429  0.040827515            9 
  673000    1.1267081   -6.0964773    324.98289  0.040240576  0.040822487            2 
  674000    1.1704473   -6.0838747    324.83831  0.040162996  0.040817284            5 
  675000    1.1281837    -6.049774    327.16663  0.040390942  0.040812349            3 
  676000    1.1578191   -6.0742137    327.42132  0.040362589  0.040807825            4 
  677000     1.155943    -6.114752    327.71809  0.040339499  0.040803119            3 
  678000    1.1284569    -6.045732    327.22569   0.04021948   0.04079859            3 
  679000     1.137813   -6.0978456    327.69703  0.040218094  0.040793706            3 
  680000    1.1305779   -6.1058696    328.59695  0.040269234  0.040789073            3 
  681000    1.1286894   -6.0815653     328.9808  0.040257073  0.040784511            2 
  682000    1.1388684   -6.0761264    330.07378  0.040331595  0.040779716            1 
  683000    1.1486869   -6.1125153    329.34291  0.040183371  0.040775106            4 
  684000    1.1189147   -6.1004485    330.07248  0.040213509  0.040770586            3 
  685000    1.1554706   -6.0426419    331.45206  0.040322635  0.040766086            2 
  686000    1.1437332   -6.0861949    332.61648  0.040405307  0.040762063            4 
  687000    1.1127319   -6.0849347    333.32443  0.040432367  0.040757634            3 
  688000    1.1369206   -6.0526344    332.23518  0.040241664  0.040753566            3 
  689000    1.1492352   -6.0773521    332.93638  0.040268067  0.040749067            3 
  690000    1.1754059   -6.1123028    333.38285  0.040263629  0.040744466            4 
  691000    1.1227313   -6.1198507    334.00548  0.040280449  0.040739842            4 
  692000     1.138399   -6.0683105    333.88936  0.040208256  0.040734941            5 
  693000    1.1490945   -6.1192908    333.80175    0.0401397  0.040730422            3 
  694000    1.1388602   -6.1201021    334.79355  0.040200954  0.040725163            4 
  695000    1.1418998   -6.0851525     335.6743  0.040248717  0.040719983            4 
  696000    1.1570724   -6.1143729    336.09557  0.040241328  0.040715223            4 
  697000    1.1339858    -6.078663    336.91578  0.040281657  0.040710559            6 
  698000    1.1501447   -6.0678088    336.81777  0.040212246  0.040705429            2 
  699000    1.1210366   -6.0934483    335.25833  0.039968804  0.040700033            9 
  700000    1.1384458   -6.0517889    337.72339  0.040205165  0.040694299            2 
  701000     1.144235   -6.0923621    336.92275  0.040052633  0.040688641            4 
  702000    1.1558551   -6.0794553    338.67446  0.040203521  0.040683483            7 
  703000     1.118307   -6.0751402    338.66888  0.040145671  0.040678774            2 
  704000    1.1412166   -6.1105251    339.69318  0.040209894  0.040674236            5 
  705000    1.1636364   -6.1171569    340.40796  0.040237348  0.040670045            6 
  706000     1.149438   -6.0779791    340.88814  0.040237033  0.040665707            3 
  707000    1.1339449   -6.0795373    341.59985  0.040264008  0.040661651            5 
  708000    1.1461294   -6.0990996    341.78006  0.040228349   0.04065751            4 
  709000    1.1340981   -6.1230351     341.8324  0.040177762  0.040653191            3 
  710000    1.1253908   -6.0715174    343.98481  0.040373804  0.040648345            4 
  711000    1.1452041   -6.0692425    342.22713  0.040111009   0.04064344            1 
  712000    1.1260542   -6.1094549      342.686   0.04010838  0.040638561            3 
  713000    1.1589524   -6.0669489    342.89563  0.040076628  0.040633565            4 
  714000    1.1487876   -6.1218796    343.19054  0.040054918  0.040628781            4 
  715000    1.1404763   -6.0791228    344.56324  0.040158886  0.040623917            5 
  716000     1.127716   -6.0966777     344.6314  0.040110731  0.040618785            5 
  717000    1.1489355   -6.0763356      344.315  0.040018014  0.040613429            2 
  718000    1.1213626   -6.0969873    344.91668  0.040032112  0.040608419            4 
  719000    1.1361905   -6.0900617    345.49304  0.040043236  0.040603526            7 
  720000    1.1405068   -6.1276257    345.47531  0.039985568   0.04059813            8 
  721000    1.1318964   -6.0941788    346.79965  0.040083178  0.040592534            4 
  722000     1.140361   -6.0863938    346.28317  0.039968048  0.040587019            7 
  723000    1.1077459   -6.0765105    348.50792  0.040169193   0.04058155            9 
  724000    1.1473988   -6.0778365    347.61987  0.040011495  0.040575983            4 
  725000    1.1238851   -6.0997282    348.85729  0.040098539  0.040570783            8 
  726000    1.1293984   -6.0956586    349.15246  0.040077187  0.040565284            6 
  727000    1.1147094   -6.0872959    349.19513  0.040026952  0.040559628            4 
  728000    1.1256055   -6.1111826    348.02005   0.03983746    0.0405534            7 
  729000    1.1198926   -6.0978347    351.39669  0.040168803   0.04054778            4 
  730000    1.1363821   -6.1154491    349.45568  0.039892201  0.040541819            7 
  731000    1.1043942   -6.0788528    349.60764  0.039854952   0.04053625            2 
  732000     1.116348   -6.0804566     350.1297  0.039859938  0.040530108            3 
  733000    1.1336087   -6.0589919    350.73343  0.039874196  0.040524124            7 
  734000    1.0974325   -6.0736942    349.58766  0.039689789  0.040517744            4 
  735000    1.1303678   -6.1428476    351.42502  0.039844106  0.040511695            3 
  736000    1.1325915   -6.1002811    350.94693  0.039735839  0.040505133            6 
  737000    1.1297375   -6.1150554    353.03676  0.039918222  0.040499018            5 
  738000    1.1397086    -6.111808    353.43719  0.039909348  0.040492664            3 
  739000    1.1182441   -6.1130994    354.26159  0.039948307   0.04048686            3 
  740000    1.1480933   -6.1168488    354.37921  0.039907569  0.040481018            4 
  741000    1.1128377   -6.0817831    355.23886  0.039950389  0.040475045            3 
  742000    1.1081208   -6.0774611    355.39835   0.03991446   0.04046899            2 
  743000    1.1469011   -6.0959411    355.68962  0.039893407   0.04046297            5 
  744000    1.1404772   -6.0452747    354.95396  0.039757388  0.040456825            3 
  745000    1.1255528   -6.1248457    355.43484  0.039757812  0.040450207            2 
  746000    1.1418338   -6.0795057    355.01593  0.039657723  0.040443171            4 
  747000    1.1348378    -6.082724    356.72699  0.039795514  0.040436131            7 
  748000    1.1154207   -6.0997287    356.85927  0.039757049  0.040429007            4 
  749000    1.1183776   -6.1012356    357.15179  0.039736514  0.040422563            3 
  750000    1.1366152   -6.0998752    357.16868  0.039685409  0.040415978            2 
  751000    1.1287131   -6.1195208     357.1501  0.039630504  0.040409277            3 
  752000    1.1433282   -6.1334112    357.30258  0.039594701  0.040402346            6 
  753000    1.1120047   -6.1189548    358.97726  0.039727453  0.040395719            5 
  754000    1.1135671   -6.1332929    358.62959  0.039636338  0.040389102            7 
  755000     1.139709   -6.1277238    360.04035  0.039739553  0.040382378            7 
  756000    1.1289739   -6.1077082    360.90043  0.039781793   0.04037581            5 
  757000    1.1195144   -6.0923477    362.14254  0.039865977  0.040369736            4 
  758000    1.1397444   -6.1030119    360.48335  0.039630975  0.040363625            2 
  759000    1.1145967   -6.0831468    361.72078  0.039714622   0.04035729            3 
  760000    1.1456507   -6.1496565    362.19829  0.039714725  0.040351338            3 
  761000    1.1445556   -6.1025679    363.10541  0.039761872  0.040345021            4 
  762000    1.1411139   -6.0959342      362.707   0.03966612  0.040338729            7 
  763000    1.1303547   -6.1004547    363.40676  0.039690559  0.040332206           11 
  764000    1.1452195    -6.126165    364.00253  0.039703591  0.040325619            4 
  765000    1.1238697   -6.1150791    363.50885  0.039597914  0.040319235            4 
  766000    1.1334174   -6.1587594    364.86813  0.039694096  0.040312581            4 
  767000    1.1329722     -6.11221    364.62788  0.039616241  0.040305787            2 
  768000    1.1103077   -6.1106454    365.18524  0.039625135  0.040299202            4 
  769000    1.1233465   -6.1343078    366.14557  0.039677673   0.04029235            6 
  770000    1.1298427   -6.1152761    367.73746  0.039798426  0.040286312            3 
  771000    1.1090978    -6.088702    367.08559   0.03967635  0.040280091            7 
  772000     1.151378   -6.1266686    368.37699  0.039764356  0.040273671            9 
  773000    1.1435629   -6.1205607    368.15141  0.039688595  0.040267196            5 
  774000     1.140116   -6.1313372    368.38548  0.039662519  0.040260529            8 
  775000    1.1373493   -6.1540248    367.06521  0.039469377  0.040253757            4 
  776000     1.146011   -6.1324583    367.77736  0.039494991  0.040246885            2 
  777000    1.1257914    -6.127802    367.52718  0.039417329  0.040239912            5 
  778000    1.1413995    -6.153688    369.89185  0.039619949  0.040232847            3 
  779000    1.1248751   -6.1300216    369.73249  0.039552042  0.040225931            3 
  780000    1.0952357   -6.1011765    370.49986  0.039583318  0.040218956            3 
  781000    1.1343983   -6.1381275    369.77556  0.039455352  0.040211823            7 
  782000    1.1041131   -6.1210578    370.38779  0.039470139  0.040204976            3 
  783000    1.1176165   -6.0710491    371.03949   0.03948909  0.040198111            4 
  784000    1.1118913   -6.1271312    371.50647  0.039488358  0.040191289            6 
  785000    1.1155867    -6.090349    371.88785   0.03947854  0.040184078            2 
  786000    1.1210827   -6.1438526    372.34701  0.039476994  0.040177031            3 
  787000    1.1334615   -6.1475305    373.24903  0.039522346  0.040170082            2 
  788000    1.1229289    -6.130165    373.64662  0.039514237  0.040163564            6 
  789000    1.1168532   -6.1096852    374.26971  0.039529965  0.040157118            3 
  790000    1.1224564   -6.1385978    374.39937  0.039493604  0.040150383            3 
  791000    1.1482818   -6.1391404    375.80468  0.039591728  0.040143897            3 
  792000    1.1345698   -6.1314571    374.90276  0.039446839  0.040137418            5 
  793000    1.1372065   -6.1387507    375.79928  0.039491308  0.040130737            3 
  794000    1.1427547   -6.1337002      374.646  0.039320529  0.040123998            4 
  795000    1.1373524   -6.1392569    375.33921  0.039343732  0.040116797            3 
  796000    1.1434327   -6.1074389    375.76419  0.039338797  0.040109767            4 
  797000    1.1071727   -6.0851114    377.93264  0.039516169  0.040102376            5 
  798000    1.1090758   -6.1151487    377.58372  0.039430213  0.040095388            5 
  799000    1.1139215   -6.1557516    377.76058  0.039399309  0.040088327            4 
  800000    1.1247502   -6.0614145    378.62624  0.039440233  0.040081109            6 
  801000    1.1022636   -6.1260398    377.81623  0.039306724  0.040073941            9 
  802000    1.1225138   -6.1662007    377.45395   0.03922007  0.040066155            6 
  803000     1.106686   -6.1192928    378.77104  0.039307912    0.0400584            6 
  804000    1.1398256   -6.0894031    379.37348  0.039321464  0.040050697            5 
  805000    1.1363046   -6.1319016    379.33561  0.039268697   0.04004309            5 
  806000    1.1095798    -6.146732    380.15131  0.039304312  0.040035999            6 
  807000    1.1096631   -6.0915626    380.61097  0.039303074  0.040028102            4 
  808000    1.1423333   -6.1057431    380.30756  0.039223139  0.040020267            6 
  809000    1.1225497   -6.1315318    380.17109  0.039160598  0.040012275            3 
  810000    1.1024599   -6.1211075    381.20043  0.039218152  0.040004255            4 
  811000    1.1266825   -6.0936062    381.67571   0.03921863    0.0399964            4 
  812000    1.1276398   -6.1039481    381.02666  0.039103721  0.039988462            6 
  813000    1.1337539   -6.1299485    382.50401  0.039207053  0.039980301            3 
  814000    1.1255008   -6.0898553    383.75488  0.039286945  0.039972389            4 
  815000    1.1021839   -6.1210936    382.99734  0.039161282  0.039964427            3 
  816000    1.1413493   -6.1307486    383.00639  0.039114214  0.039956152            3 
  817000    1.1284002   -6.1415213    383.33257   0.03909961  0.039948414            3 
  818000    1.1321322   -6.1030951    385.28019  0.039250223  0.039940462           11 
  819000    1.1335431    -6.130054    385.35112  0.039209516  0.039932295            5 
  820000    1.1098888   -6.1247003    383.24981  0.038948152  0.039924359            6 
  821000    1.0964354   -6.1178816    385.26603  0.039105362  0.039915892            4 
  822000    1.1536917   -6.0815148     385.3252  0.039063788  0.039907527            5 
  823000    1.1252244   -6.1539874    384.51495  0.038934281  0.039899099            2 
  824000    1.0995113   -6.1374884    386.69196  0.039107197  0.039890615            5 
  825000    1.1233461   -6.1136074    386.19629  0.039009727  0.039882431            4 
  826000    1.1327805   -6.0850612    388.10524  0.039155089  0.039874645            4 
  827000    1.1579553   -6.1343186    387.45263  0.039041982  0.039866333            4 
  828000    1.1298386   -6.1469241     386.7752   0.03892665  0.039857669            4 
  829000    1.1107533   -6.1291306    387.31529  0.038933986  0.039848844            6 
  830000      1.08833    -6.107844     387.8052  0.038936265  0.039840354            4 
  831000    1.1068414   -6.1104992     388.5403  0.038963126  0.039831513            3 
  832000    1.1021575   -6.1300873    388.47183  0.038909438  0.039822377            6 
  833000    1.0991845   -6.1404105    389.04716  0.038920284  0.039813086            4 
  834000    1.1032753   -6.1171852    389.76826  0.038945669  0.039804283            3 
  835000    1.1164947   -6.1439994    390.84967  0.039006953  0.039795468            3 
  836000    1.1022386   -6.1076372    390.04355   0.03887994  0.039786643            3 
  837000    1.1240346   -6.1098595    390.74839  0.038903663  0.039777377            5 
  838000     1.116281   -6.0916881    391.20592  0.038902736  0.039768107            3 
  839000    1.1134434   -6.1003977    390.83333  0.038819361  0.039759208            3 
  840000    1.1126235   -6.1518682    390.65574  0.038755529  0.039750116            4 
  841000    1.1028014   -6.1521368    392.86326  0.038928187  0.039741145            3 
  842000    1.1289013     -6.11733    392.00879  0.038797386  0.039732594            3 
  843000    1.1164235   -6.1533526    394.30133  0.038977989  0.039724399            4 
  844000    1.1276392   -6.1315172    395.02946  0.039003698  0.039716387            3 
  845000    1.1359598   -6.1059146    396.37001  0.039089745  0.039708219            3 
  846000    1.0903126   -6.1322307    396.21453  0.039028224  0.039700135            5 
  847000    1.1413614    -6.127706    396.46079  0.039006374  0.039692376            3 
  848000    1.1055547   -6.1406877    395.90172  0.038905437  0.039684377            8 
  849000     1.121711   -6.1237399    396.73448   0.03894135  0.039676511           10 
  850000    1.1053657   -6.0826926    397.99188  0.039018811  0.039668409            5 
  851000    1.1311554   -6.1689632    396.58072  0.038834775   0.03966039           11 
  852000    1.1501615   -6.0999666    397.95488  0.038923599  0.039652086            7 
  853000    1.1193777   -6.1475451    396.07364  0.038694181   0.03964361            3 
  854000    1.1232684   -6.1342375    398.18469  0.038854868  0.039635226            4 
  855000    1.1048691    -6.146406    397.63063  0.038755422  0.039626872            3 
  856000    1.1257715   -6.1134966    398.43856  0.038788801  0.039618151            7 
  857000    1.1009827   -6.1527147    399.51827  0.038848529  0.039609622            5 
  858000    1.1084229   -6.1466347    399.39011  0.038790803  0.039601087            5 
  859000    1.1314054   -6.1513897    400.08758  0.038813308  0.039592694            3 
  860000    1.0650155   -6.1613614    399.99092   0.03875881  0.039584305            6 
  861000    1.1152021   -6.1572531    400.38444  0.038751882  0.039575736            7 
  862000    1.1127608   -6.1762316     400.2482  0.038693755  0.039566857            4 
  863000    1.1103578   -6.1424434    401.23416  0.038744125  0.039558194            7 
  864000    1.0934084   -6.1240567    401.56295  0.038730995  0.039549197            5 
  865000    1.1052408   -6.1574406    400.82252  0.038614886  0.039540139            2 
  866000      1.13237   -6.1549967    401.07643  0.038594729  0.039531016            4 
  867000    1.1478474   -6.1604666    401.71156  0.038611261  0.039521863           10 
  868000    1.0982787   -6.1559234    402.74218  0.038665724  0.039512817            6 
  869000    1.0935378   -6.1281431    403.51746  0.038695575  0.039503889            4 
  870000    1.1284078   -6.1315226    402.32497  0.038536875  0.039495021            8 
  871000    1.1343502   -6.1419439    405.19957  0.038767658  0.039486053            5 
  872000    1.1188149   -6.1350566    404.16939  0.038624751  0.039477454            5 
  873000    1.1006771   -6.1544178    406.21398  0.038775676  0.039468972            6 
  874000    1.1259946    -6.131902    406.45728  0.038754508  0.039460863            4 
  875000    1.1056925   -6.1067876    407.01601  0.038763429  0.039452811            4 
  876000    1.1011136   -6.1415544    405.62615  0.038586962   0.03944415            5 
  877000    1.1168715   -6.1510493     406.7267  0.038647539  0.039435505            8 
  878000    1.1215252   -6.1619675    406.94256  0.038624009  0.039427059            3 
  879000     1.118723   -6.1803885    407.39291  0.038622764   0.03941846            9 
  880000    1.0988379   -6.1496878    407.05046  0.038546445  0.039410033            5 
  881000    1.0896085   -6.1202529    409.06467  0.038693215   0.03940184            2 
  882000     1.129833   -6.1324602    409.84916  0.038723465  0.039393679            3 
  883000     1.112701   -6.1680734    408.89039  0.038589127  0.039385412            7 
  884000    1.1050971   -6.1451262     409.3902   0.03859259  0.039376865            9 
  885000    1.1133278   -6.1525641    409.64238  0.038572729   0.03936847            9 
  886000      1.12378   -6.1325258    410.81972  0.038639928  0.039360128            5 
  887000    1.1089185   -6.1232327    410.59286  0.038575052  0.039351611            5 
  888000    1.0986587   -6.1324724    411.58996  0.038625184  0.039342983            4 
  889000    1.1002767   -6.1670488    411.59695  0.038582391  0.039334772            5 
  890000    1.1101785   -6.1094849    412.21215  0.038596643  0.039326671            3 
  891000    1.0820269   -6.1463954    412.74039   0.03860273  0.039318471            6 
  892000    1.1217407   -6.1159203    413.03063  0.038586568  0.039310339            3 
  893000    1.0959001   -6.1625673    413.69191  0.038605068  0.039302084           10 
  894000    1.1123837     -6.13025    413.28053  0.038523539  0.039293647            4 
  895000    1.1017681    -6.158664    412.71145  0.038427509  0.039285034            2 
  896000     1.097234   -6.1633965    413.64026  0.038471006  0.039276248            3 
  897000    1.1252973   -6.1327495    414.99241  0.038553736  0.039267303            5 
  898000    1.0922679   -6.1357112     414.4936  0.038464514  0.039258662            7 
  899000    1.1029168   -6.1768639    415.15739  0.038483258  0.039249832            5 
  900000    1.1068772   -6.1988484    414.01191  0.038334436  0.039240768            5 
  901000    1.1265253   -6.1179747    417.20998  0.038587679  0.039231909            3 
  902000    1.1209274   -6.1890304    414.88645  0.038330234  0.039223143            3 
  903000     1.107026   -6.1251644    416.99476  0.038482352  0.039214233            6 
  904000    1.0961313   -6.1517252    416.08679  0.038356083  0.039205348            4 
  905000    1.1184334   -6.1486295    416.65583  0.038366099  0.039196481            4 
  906000    1.1069462   -6.1687296    417.79597  0.038428621  0.039187696            6 
  907000    1.0944398   -6.1671288    417.74328  0.038381412  0.039179001            4 
  908000    1.0986302   -6.1582316    417.92786  0.038356081  0.039170266            2 
  909000    1.0895375   -6.1321625    418.28293  0.038346436  0.039161224            5 
  910000    1.1067399   -6.1616224    418.14744   0.03829189  0.039152494            8 
  911000    1.0891643   -6.1647873     418.6635  0.038297064  0.039143636            3 
  912000    1.0911835   -6.1818767    418.82906  0.038270199  0.039134663            6 
  913000    1.1202641   -6.1500184    421.18881  0.038443666  0.039125971            6 
  914000    1.1131337   -6.1665242    418.89423  0.038192399  0.039116952            5 
  915000    1.0823572   -6.1363845    420.41405  0.038289075  0.039108148            4 
  916000    1.0983709   -6.1386541    420.96456  0.038297358  0.039099519            3 
  917000    1.1170466   -6.1311468    420.37238  0.038201779  0.039090749            6 
  918000    1.0828861   -6.1605403     421.8807  0.038297086  0.039081923            4 
  919000    1.0829482   -6.1716233    422.67354  0.038327307  0.039073194            9 
  920000    1.1064769   -6.1296159    423.48664  0.038359297  0.039064577            3 
  921000    1.1367674   -6.1560491    423.18398  0.038290262  0.039055914            5 
  922000     1.104808   -6.1425754    424.43588  0.038361883  0.039047192            3 
  923000    1.0961523   -6.1490511    422.39379  0.038135951   0.03903831            3 
  924000    1.0905638   -6.1289984    423.42164  0.038187378  0.039029673            4 
  925000    1.1116127   -6.1678661     423.9614  0.038194721  0.039021346            3 
  926000    1.0804421   -6.1701919    425.42331  0.038285035  0.039012706            6 
  927000    1.0925812   -6.1419773    425.89521  0.038286157  0.039004013            3 
  928000    1.0904127   -6.1951735    424.59083  0.038127769  0.038995349            5 
  929000    1.0967242   -6.1570368    424.99323  0.038122823  0.038986663            6 
  930000    1.0963505   -6.1504544    426.97338  0.038259263  0.038978181            5 
  931000    1.0950685   -6.1813992     427.4859  0.038264044  0.038969759            3 
  932000    1.0921802   -6.1457341    427.40146  0.038215438  0.038961472            4 
  933000    1.0857836   -6.1856713    428.24875  0.038250156  0.038953458            2 
  934000    1.1336353   -6.1523726    428.36184  0.038219293  0.038945074            4 
  935000    1.0931854   -6.1582768    428.46351  0.038187479  0.038936479            4 
  936000    1.0709499   -6.1371958     430.1899  0.038300383   0.03892791            2 
  937000    1.1089706   -6.1480635    429.24099  0.038175115  0.038919401            3 
  938000    1.1094844   -6.1514105    428.54681  0.038072745  0.038910919            3 
  939000    1.1070625   -6.1396777    431.14117   0.03826244    0.0389024            8 
  940000    1.1021067   -6.1708765     429.8418  0.038106542  0.038893497            3 
  941000    1.1166422   -6.1677151    431.10898  0.038178266    0.0388848            3 
  942000    1.1089857   -6.1439493    431.05588   0.03813304  0.038876278            3 
  943000    1.0899953   -6.1444581    430.44196  0.038038349  0.038867642            2 
  944000     1.107473   -6.1825475     431.8574  0.038123005  0.038858779            3 
  945000    1.1004589   -6.1408992    431.36376  0.038039132  0.038849895            2 
  946000    1.0951747   -6.1609064    431.27409  0.037991022  0.038841371            4 
  947000    1.1012544   -6.1452954    432.91838  0.038095599  0.038832762            3 
  948000    1.1051476   -6.1898336    433.25723    0.0380852  0.038824193            4 
  949000    1.1243958   -6.1420496    433.33391  0.038051801  0.038815733            4 
  950000    1.0908178   -6.1556002    434.14679  0.038083052  0.038807088            4 
  951000    1.1271121   -6.1449623    435.36483   0.03814974  0.038798607            4 
  952000    1.0852153    -6.149945    435.70137  0.038139126  0.038790221            4 
  953000    1.0898606   -6.1813816    435.01651  0.038039219  0.038781607            6 
  954000    1.1070556   -6.1648302    436.75729  0.038151405  0.038773199            6 
  955000    1.1042199   -6.1526642    436.10399  0.038054449  0.038764656            4 
  956000    1.0716556    -6.146035    437.88071  0.038169518  0.038756217            4 
  957000    1.0905575   -6.1554739    437.41991  0.038089508  0.038747861            5 
  958000    1.1095524   -6.1799677    436.32671  0.037954654  0.038739175            2 
  959000    1.0937321   -6.1715754    437.25454  0.037995702  0.038730552            1 
  960000    1.0861415   -6.1807917    436.37107  0.037879433  0.038721952            4 
  961000    1.1122612   -6.1638212    437.99309   0.03798067  0.038713344            4 
  962000    1.1009429   -6.1615623     437.8569  0.037929392  0.038704715            3 
  963000    1.0886512   -6.1383979    438.47752   0.03794371  0.038696078            7 
  964000    1.1075503   -6.1736512    438.14268  0.037875405  0.038687282            5 
  965000    1.1078468   -6.2033252    437.35695  0.037768303  0.038678401            6 
  966000    1.0780984   -6.1498578    439.46833  0.037911346  0.038669344            6 
  967000    1.0962555   -6.1444584    439.24434  0.037852838  0.038660301            2 
  968000    1.0834174   -6.1637576    439.04151  0.037796273  0.038651291            2 
  969000     1.095056   -6.1732645    440.74848  0.037904066  0.038642075            8 
  970000    1.0972162   -6.1473049    441.23353  0.037906661  0.038633142            4 
  971000       1.0822   -6.1819623     440.3627  0.037792885  0.038624425            7 
  972000    1.0846143   -6.1376952    441.50142  0.037851631  0.038615366            6 
  973000    1.1030986   -6.1989993    441.65933  0.037826253  0.038606302            4 
  974000    1.0981835   -6.1716942    441.43729  0.037768419  0.038596757            4 
  975000    1.1169323   -6.1717504    443.71552  0.037924403  0.038587337            3 
  976000     1.088011   -6.1807104    441.64443  0.037708712  0.038577959            2 
  977000    1.0998396   -6.1724384    442.36025  0.037731171  0.038568386            3 
  978000    1.0826639   -6.1499476    443.39018  0.037780349  0.038559112            3 
  979000    1.1092837   -6.1857281     444.7163  0.037854639  0.038550165            4 
  980000     1.100924   -6.1977019    444.84005  0.037826535  0.038541357            5 
  981000     1.089977   -6.1599134    445.53134  0.037846699  0.038532633            5 
  982000    1.0776276   -6.1479213    445.01954  0.037764727  0.038523758            6 
  983000      1.08186   -6.1977036    446.47206  0.037849446  0.038514934            7 
  984000    1.1069724   -6.1595756    446.84786  0.037842807  0.038506275            5 
  985000      1.06579   -6.1909546    446.99078  0.037816479   0.03849787            3 
  986000    1.0851053   -6.1686104    448.15157  0.037876231  0.038489729            4 
  987000    1.0778805   -6.1951749    447.49994  0.037782839   0.03848115            4 
  988000    1.1058947   -6.1905545    448.24755  0.037807654  0.038472788            3 
  989000    1.1027884   -6.1510671    448.67041  0.037805056  0.038464505            4 
  990000    1.1071858   -6.1612064    448.59399  0.037760437  0.038456318            6 
  991000    1.0750579   -6.1723413    450.11685  0.037850391  0.038447851           10 
  992000    1.0918386   -6.1805416    448.59151  0.037684099  0.038439396            5 
  993000    1.0887408   -6.1815051    448.74944  0.037659403  0.038430899            5 
  994000    1.0953352   -6.1887323    449.57559  0.037690777  0.038422344            2 
  995000    1.0996327   -6.2102235    450.01517  0.037689713  0.038413685            5 
  996000    1.0765345   -6.1844639    449.75737  0.037630302  0.038404973            3 
  997000    1.0909867   -6.2045136    450.41091  0.037647184  0.038396067            3 
  998000    1.1064216   -6.1964219    450.74542  0.037637393  0.038387017            5 
  999000    1.0810428   -6.2061229    452.72281  0.037764666  0.038377922            3 
 1000000    1.1332334   -6.1693858    451.94224  0.037661854  0.038368929            5 
 1001000    1.1078088   -6.1977109    450.45093  0.037500077  0.038359784            6 
 1002000    1.0888715   -6.1916598    450.74381   0.03748701  0.038350198            6 
 1003000    1.0839436   -6.1664854    451.81812  0.037538893  0.038340765            2 
 1004000     1.079155   -6.1726185     452.0772  0.037523008  0.038331348            7 
 1005000    1.1271192   -6.1922412    451.74714  0.037458304   0.03832155            6 
 1006000    1.1093157   -6.1699656    452.43404  0.037477969  0.038311887            6 
 1007000    1.1077173   -6.1926398    453.19288  0.037503548  0.038302245            4 
 1008000    1.1008726   -6.1994134    451.80493  0.037351598  0.038292683            6 
 1009000    1.0699959   -6.1891625    451.70563  0.037306378  0.038283189            6 
 1010000    1.0941773   -6.1881363    453.59158  0.037425048  0.038273617            5 
 1011000    1.0743472   -6.1613413    453.99797  0.037421527  0.038264201            3 
 1012000    1.0965551   -6.2023875    454.48634  0.037424765  0.038254747            6 
 1013000    1.0586835   -6.2045899    454.49424   0.03738847  0.038245112            4 
 1014000    1.0825821   -6.1827557    457.11402  0.037566898  0.038235776            3 
 1015000    1.0943497   -6.1726107    456.11371   0.03744776  0.038226727            3 
 1016000    1.1102831   -6.1767623    456.01204  0.037402563  0.038217904            3 
 1017000    1.0854656   -6.1398194     458.0047  0.037529065  0.038209072            5 
 1018000    1.0833365   -6.1727325    458.22796  0.037510474  0.038200462            6 
 1019000    1.0949274   -6.1556419    459.29723  0.037561108  0.038191599            6 
 1020000    1.0720385   -6.1641099    458.96986  0.037497537  0.038183008            4 
 1021000    1.1008051   -6.2009557    458.50557  0.037422916  0.038174334            6 
 1022000    1.0993842    -6.179979    461.50897  0.037631194  0.038165908            3 
 1023000    1.1129076   -6.1724914    459.71076  0.037447928  0.038157238            3 
 1024000    1.0856779   -6.2064548    459.41625   0.03738739  0.038148519            4 
 1025000    1.0761798   -6.1614323    460.33164  0.037425336  0.038139596            4 
 1026000    1.0936375   -6.2107051    460.28523   0.03738509  0.038130777            3 
 1027000    1.0566266   -6.1729433    461.14403  0.037418373  0.038121867            5 
 1028000    1.1081753   -6.1810107    462.11582  0.037460751  0.038112713            5 
 1029000     1.078197    -6.210537    461.35536   0.03736276  0.038103961            4 
 1030000    1.0903484   -6.1709452    463.11257  0.037468655  0.038094897            5 
 1031000    1.0998358     -6.17852     465.3612  0.037614064   0.03808605            5 
 1032000    1.0751069   -6.1870668    462.76084  0.037367639  0.038077109            5 
 1033000    1.0802328   -6.2049689    462.37251  0.037300138  0.038068127            6 
 1034000    1.0950932    -6.190221    463.67911  0.037369368  0.038059127            4 
 1035000    1.0975492   -6.1843805    464.75123  0.037419584  0.038049983            4 
 1036000    1.1037139   -6.1957946     462.9743  0.037240533  0.038040771            2 
 1037000    1.0803615   -6.1965283    463.71184  0.037263889  0.038031166            6 
 1038000    1.0555671   -6.2028353     463.2082  0.037187556  0.038021699            5 
 1039000    1.0878579   -6.1954603    463.90895  0.037207968  0.038012467           10 
 1040000    1.0877545   -6.1931722    465.05889  0.037264334  0.038003167           12 
 1041000    1.1006404   -6.1843508    464.60579  0.037192266  0.037993895            5 
 1042000    1.0760036   -6.2048285    467.13607   0.03735893  0.037984766            2 
 1043000    1.0853592   -6.2018196    465.45138  0.037188509  0.037975679            4 
 1044000    1.0998742   -6.1753423     466.5233   0.03723845  0.037966399            8 
 1045000    1.0842883   -6.1709562    466.03389  0.037163787  0.037957282            2 
 1046000    1.1031144   -6.1940591    466.53092  0.037167856  0.037948025            3 
 1047000    1.0948942   -6.1673905    466.11629  0.037099354  0.037938697            4 
 1048000    1.0793858   -6.2106271    466.86835  0.037123756  0.037929508            5 
 1049000    1.1012822   -6.1516353    467.96445   0.03717544  0.037920375            4 
 1050000    1.0813148   -6.2065947    468.02618  0.037144935  0.037910921            4 
 1051000    1.1005438   -6.1651099    470.24112  0.037285214  0.037901659            3 
 1052000    1.0796906   -6.1329052    468.54114  0.037115109  0.037892642            2 
 1053000    1.0818194   -6.1678844    470.50405  0.037235205  0.037883613            3 
 1054000    1.0781886   -6.2155047    470.28922  0.037182892  0.037874844            4 
 1055000    1.0836383   -6.1965785    472.02146  0.037284476  0.037866022            3 
 1056000    1.0824883    -6.192175    470.71761  0.037146276  0.037857135            6 
 1057000    1.0851328   -6.1658094    472.07328  0.037218013  0.037848227            4 
 1058000    1.0894172   -6.1841486     470.6944  0.037074228  0.037839363            4 
 1059000    1.0580705   -6.2342272    471.62889  0.037112755  0.037830376            4 
 1060000    1.0806847   -6.2002596    472.81564  0.037171041  0.037821397            5 
 1061000    1.0834424   -6.1829253    472.30666   0.03709603  0.037812626            3 
 1062000    1.0993799    -6.204664    472.34016  0.037063729  0.037803674            4 
 1063000    1.0787759   -6.2115433    473.42381  0.037113814  0.037794618            2 
 1064000    1.0658969   -6.2028487    473.22731  0.037063543  0.037785496            4 
 1065000    1.0846768   -6.1714844    472.02442  0.036934618  0.037776231            5 
 1066000    1.0730807   -6.2128241    472.87226   0.03696625  0.037767067            3 
 1067000    1.0809503   -6.2167267    474.15592  0.037031859  0.037757631            5 
 1068000    1.0886409   -6.2113683    474.21642  0.037001905  0.037748362            7 
 1069000     1.086009    -6.202971    475.40266  0.037059764  0.037738979            3 
 1070000     1.099654   -6.1980002    473.63532  0.036887486  0.037729619            5 
 1071000     1.082111   -6.2121417    475.56112  0.037002888  0.037720276            4 
 1072000    1.0587431   -6.2144367    474.69939  0.036901383  0.037710797            3 
 1073000     1.073909   -6.1925541    475.96046  0.036964931  0.037701568            4 
 1074000    1.0842256   -6.2240679    475.87107  0.036923578  0.037692227            8 
 1075000    1.0824618   -6.1700225    476.48653  0.036936941  0.037682845            6 
 1076000    1.0732909   -6.1948957    476.62045  0.036912984  0.037673832            4 
 1077000    1.0818382   -6.1906757     477.5073  0.036947331  0.037664872            9 
 1078000    1.0689325   -6.1995419    478.65104  0.037001472  0.037655652            6 
 1079000    1.0962341   -6.2000556    477.55616   0.03688262  0.037646445            3 
 1080000    1.0672682   -6.1756139    478.13943  0.036893474  0.037637432            4 
 1081000    1.0653706   -6.1877263    478.59653  0.036894583   0.03762846            5 
 1082000    1.1007632   -6.1965649    479.04002  0.036894641  0.037619453            3 
 1083000    1.0684747   -6.2042299    479.28072  0.036879095   0.03761041            7 
 1084000     1.111992    -6.177055    481.96063  0.037051094  0.037601416            8 
 1085000       1.0724   -6.1843839    481.65162  0.036993212  0.037592432            7 
 1086000    1.0800162   -6.2347049    480.64964  0.036882262  0.037583204            5 
 1087000    1.0805385     -6.19502    481.54961  0.036917326  0.037574355           10 
 1088000    1.0725669    -6.150537    482.64927  0.036967622  0.037565336            4 
 1089000    1.0677242   -6.2077131    481.78141  0.036867265  0.037556334            4 
 1090000    1.0511483   -6.2079367    484.94225  0.037075096  0.037547445            4 
 1091000    1.0915893   -6.2359498    482.43436  0.036849554    0.0375387            6 
 1092000    1.1126094   -6.1833739    483.84626  0.036923555  0.037529894            7 
 1093000    1.0913986   -6.2257882    484.08246  0.036907781  0.037521022            2 
 1094000    1.0880402   -6.2232219    484.59239  0.036912888  0.037512243            6 
 1095000    1.0718221   -6.1648802    486.01991  0.036987817    0.0375034            7 
 1096000    1.0726141   -6.2288991     483.2049  0.036740032  0.037494513            4 
 1097000    1.0791021   -6.1660236    484.58457  0.036811347  0.037485547            4 
 1098000    1.0655785   -6.2373614     485.0723  0.036814838  0.037476501            8 
 1099000    1.0906028   -6.2116515    485.08885  0.036782594  0.037467569            7 
 1100000    1.0749581   -6.1600414    486.24968  0.036837097  0.037458785            8 
 1101000    1.0578395   -6.2412655    486.63539  0.036832833  0.037450144            4 
 1102000    1.0841998   -6.2368322    487.56245  0.036869514   0.03744171            3 
 1103000    1.0824093   -6.2144246    488.76192  0.036926709  0.037433371            3 
 1104000    1.0933389   -6.2060421    487.82401  0.036822464  0.037425042            4 
 1105000    1.0854817   -6.2004418    489.42613  0.036909964  0.037416648            2 
 1106000    1.0710772   -6.1831078    489.31465  0.036868192  0.037408249            6 
 1107000    1.0837403   -6.1777267    489.11722  0.036820025  0.037399958            2 
 1108000    1.0533497   -6.2084382    490.12913  0.036862901  0.037391738            3 
 1109000    1.0886702   -6.1940835    491.19548   0.03690979  0.037383387            5 
 1110000    1.0755963   -6.2354982    490.27827  0.036807678  0.037375087            3 
 1111000    1.0722922   -6.2320063    490.73476  0.036808788  0.037366566            5 
 1112000    1.0637167   -6.2421996    491.19402  0.036810103  0.037357935            2 
 1113000    1.0580842   -6.2093955    490.43506  0.036720205  0.037349587            9 
 1114000    1.0697676      -6.1854      491.452  0.036763316   0.03734117            5 
 1115000     1.079232   -6.1829883    492.73049  0.036825896  0.037332877            9 
 1116000    1.0766224    -6.207431    491.68516  0.036714841  0.037324604            2 
 1117000    1.0685524   -6.2391461    492.34794  0.036731419  0.037316269            3 
 1118000    1.0697036   -6.2203034    492.36246  0.036699647  0.037307916            8 
 1119000    1.0488079   -6.2368424    494.45992   0.03682305  0.037299688            8 
 1120000    1.0642052   -6.2466249    494.46216  0.036790339   0.03729155           15 
 1121000    1.0560527   -6.1930285    495.26859  0.036817469  0.037283185            5 
 1122000    1.0773667   -6.2186248     495.0012  0.036764795  0.037274918            3 
 1123000    1.0463849   -6.1903202    495.31551  0.036755381  0.037266635            3 
 1124000    1.0770392   -6.2143709    495.16191  0.036711292  0.037258347           13 
 1125000    1.0701612   -6.2111891    494.56654  0.036634558  0.037249852            2 
 1126000    1.0573179   -6.2204184    494.90717  0.036627232  0.037241156            4 
 1127000    1.0594073   -6.2174676    495.50618  0.036639026  0.037232506            2 
 1128000    1.0769116   -6.2106517     496.1835  0.036656583  0.037223702            4 
 1129000    1.0812818   -6.2129057    495.15201  0.036547979  0.037214935            6 
 1130000    1.0860865   -6.2179097    496.50802  0.036615636  0.037206307            4 
 1131000    1.0476048    -6.196219    497.90991  0.036686554  0.037197968            7 
 1132000    1.0645301   -6.1838139    496.71153  0.036565925  0.037189489            6 
 1133000    1.0606199   -6.2054887    498.25749  0.036647359  0.037181146            3 
 1134000     1.060884   -6.2117324    499.27776  0.036690018  0.037172768            5 
 1135000    1.0570234   -6.2053816    497.70126  0.036541943  0.037164026            3 
 1136000    1.0822416   -6.1833697    497.93259  0.036526745  0.037155478            4 
 1137000    1.0450625   -6.1933506    498.17202  0.036512168  0.037146795            8 
 1138000    1.0663907       -6.225    499.51506  0.036578432  0.037138232            6 
 1139000    1.0656506   -6.1643875    500.12385  0.036590858  0.037129726            7 
 1140000     1.081493    -6.230986    499.98625  0.036548702  0.037120971            3 
 1141000    1.0760075   -6.2312858    498.67493  0.036420898  0.037112059            4 
 1142000    1.0890703   -6.1890713    499.74336   0.03646697  0.037103157            4 
 1143000    1.0864973   -6.2173432    501.58083  0.036569031  0.037094326            3 
 1144000    1.0778596   -6.1969113    500.29179  0.036443167  0.037085502            5 
 1145000    1.0620584   -6.2021631    501.56531  0.036504026  0.037076608            4 
 1146000    1.0746017    -6.208782    502.20711  0.036518842  0.037067774            3 
 1147000    1.0405008   -6.2164319    502.52671  0.036510223     0.037059            3 
 1148000    1.1011134   -6.2181796    501.26739  0.036387005  0.037050089            6 
 1149000    1.0468314   -6.2206828    502.04285  0.036411579  0.037041074            7 
 1150000    1.0506377   -6.1973532    503.72146  0.036501555  0.037032452            3 
 1151000    1.0490494   -6.2275657    503.39741  0.036446381  0.037023538            6 
 1152000    1.0797695   -6.1860825    503.57393  0.036427513  0.037014789            9 
 1153000    1.0406842   -6.2094976    502.87487  0.036345394  0.037005918            6 
 1154000    1.0652519   -6.1959081    503.19971  0.036337356  0.036997015            3 
 1155000    1.0662036   -6.1880315    503.98608  0.036362632  0.036987941            4 
 1156000    1.0694599   -6.2105374    504.48198  0.036366925  0.036978908            6 
 1157000    1.0610642   -6.2434693    503.83441  0.036288851  0.036969765            3 
 1158000    1.0660035   -6.2214319    504.55896  0.036309655  0.036960949            3 
 1159000    1.1096076   -6.2155242    507.73564  0.036506733  0.036951987            3 
 1160000    1.0753599   -6.1880848    506.28452  0.036371014  0.036943382            5 
 1161000    1.0941049   -6.2055483    506.18029  0.036332206  0.036934795            6 
 1162000    1.0719663   -6.2348584    505.72553  0.036268326  0.036926151            3 
 1163000    1.0661895   -6.2234364    507.45508  0.036361069  0.036917388            4 
 1164000    1.0631429   -6.2285653    507.78329  0.036353329  0.036908827            6 
 1165000    1.0682245   -6.2218996    509.18979  0.036422731  0.036900306            4 
 1166000    1.0863576   -6.2490238    509.02922  0.036380018  0.036891957            2 
 1167000    1.0629924   -6.2123398    509.92565  0.036412857  0.036883471            9 
 1168000    1.0689336   -6.2670041    509.10519  0.036323145  0.036875088            5 
 1169000    1.0627454   -6.2285317    509.99896  0.036355785  0.036866656            2 
 1170000    1.0658226   -6.2463424    510.77276  0.036379826  0.036858206            5 
 1171000    1.0399793   -6.2345648    509.69158  0.036271817  0.036849556            5 
 1172000    1.0565108   -6.2545905    510.68459  0.036311475  0.036841104            6 
 1173000    1.0764338   -6.2322249    511.16074  0.036314346  0.036832458            7 
 1174000    1.0877818   -6.2541367    510.47358  0.036234638  0.036823761            5 
 1175000    1.0606077   -6.2149622    511.68986  0.036290061  0.036815118            4 
 1176000    1.0696623   -6.2275595    513.04806  0.036355446  0.036806649            3 
 1177000    1.0600827   -6.2389338    512.25336  0.036268292  0.036798298            5 
 1178000    1.0641729   -6.1796447    514.63242  0.036405802  0.036790023            5 
 1179000    1.0747932   -6.2299921     513.5904  0.036301272  0.036781757           11 
 1180000    1.0364988   -6.2318935    513.89611  0.036292098  0.036773359            6 
 1181000    1.0498493   -6.2090706    513.15555  0.036209113  0.036765056            6 
 1182000    1.0805894   -6.1950492    515.14416   0.03631868  0.036756712           11 
 1183000    1.0677839   -6.2245014    514.53345   0.03624496  0.036748372            8 
 1184000      1.06152   -6.2410493    516.25109   0.03633524  0.036740147            8 
 1185000     1.058061   -6.1962957    514.90325  0.036209793  0.036732089            3 
 1186000    1.0522299    -6.236007    515.67506  0.036233492  0.036723841            4 
 1187000    1.0637453   -6.2389992    516.16424   0.03623731  0.036715423            6 
 1188000    1.0536579   -6.1958953    516.07843  0.036200788  0.036707072            6 
 1189000    1.0731684   -6.2345869    515.81941  0.036152187  0.036698576            5 
 1190000    1.0594028   -6.2282672    516.65872  0.036180583  0.036690044            4 
 1191000    1.0647371   -6.2476381    516.41971  0.036133481  0.036681513            8 
 1192000    1.0539403   -6.2221626    516.74525  0.036125926  0.036673052            3 
 1193000    1.0576028   -6.2453536    517.85089  0.036172876   0.03666452            4 
 1194000     1.056668   -6.1889878    517.16964  0.036095034  0.036656036            5 
 1195000    1.0595075    -6.225507    516.40367  0.036011413  0.036647234            3 
 1196000     1.066197   -6.1897469    517.08337  0.036028663  0.036638586            7 
 1197000    1.0555988   -6.2229476    515.84554  0.035912388  0.036629709            4 
 1198000    1.0670623    -6.219113     518.0865  0.036038293  0.036620728            7 
 1199000    1.0359487   -6.2499564     517.7256  0.035983153  0.036611775            5 
 1200000    1.0631805   -6.2387242    517.45832  0.035934606  0.036602696            8 
 1201000    1.0721834   -6.2736197    516.56331  0.035842583  0.036593586            6 
 1202000    1.0682127   -6.2271119    517.75737  0.035895547  0.036584274            9 
 1203000    1.0558046   -6.2209684    519.86251  0.036011534  0.036575266            5 
 1204000    1.0651929   -6.2630207     519.7686  0.035975125  0.036566139            5 
 1205000    1.0716273   -6.2631934    520.77965   0.03601519  0.036556966            9 
 1206000    1.0695045   -6.2492843    519.74704  0.035913974  0.036548019            8 
 1207000    1.0756187   -6.2264139    521.61908  0.036013469  0.036539113            6 
 1208000    1.0350879   -6.2156605    520.39409  0.035899151  0.036530347            3 
 1209000    1.0450017   -6.2791066    520.74485  0.035893635  0.036521406            7 
 1210000    1.0606484   -6.2541786    520.68194  0.035859638  0.036512376           16 
 1211000    1.0815749   -6.2539758    522.30385  0.035941636  0.036503449            5 
 1212000    1.0160629   -6.2242462    521.63045   0.03586568  0.036494547            2 
 1213000    1.0628179   -6.2398016    521.73253  0.035843125  0.036485546            9 
 1214000    1.0493134   -6.2296865    521.79027  0.035817564   0.03647655            6 
 1215000    1.0780314   -6.2421011    522.15606  0.035813173  0.036467522            6 
 1216000    1.0509012   -6.2183883    522.60383  0.035814408  0.036458542            5 
 1217000    1.0580615   -6.2162578    524.18088  0.035892966  0.036449476           13 
 1218000    1.0928628   -6.2020793    523.53404  0.035819242  0.036440462            4 
 1219000    1.0473117   -6.2555975    524.18471  0.035834339  0.036431546            6 
 1220000    1.0586175   -6.2918429    522.60088  0.035696781  0.036422382            6 
 1221000    1.0415271   -6.2353263     523.3902  0.035721417  0.036413305            5 
 1222000    1.0714795    -6.269601    524.79646  0.035788084  0.036404111            5 
 1223000    1.0589005   -6.2166956    525.22975  0.035788345  0.036395121            2 
 1224000    1.0680739   -6.2496621    524.85546  0.035733623  0.036386248            7 
 1225000    1.0586094   -6.2448214    525.18553  0.035726907  0.036377129            3 
 1226000    1.0423424   -6.2671738    527.29318  0.035841026  0.036368458            5 
 1227000    1.0520158   -6.2448117    526.91466  0.035786108  0.036359778            6 
 1228000    1.0572696   -6.2544367    528.53724  0.035867077  0.036351035            6 
 1229000    1.0669093   -6.2434281    528.10748  0.035808752  0.036342184           10 
 1230000    1.0795424   -6.2187604    527.57948  0.035743867  0.036333516            8 
 1231000     1.044101   -6.2212517    528.50327  0.035777367  0.036324736            3 
 1232000    1.0423126   -6.2554335    528.76195  0.035765824  0.036315877            7 
 1233000    1.0972835   -6.2641265    528.27398  0.035703838   0.03630711            5 
 1234000    1.0540559   -6.2566253    529.53958  0.035760372  0.036298517            5 
 1235000    1.0642962   -6.2426433    529.39828  0.035721881   0.03629018            4 
 1236000    1.0364027   -6.2045561    530.96285  0.035798466  0.036281629            2 
 1237000    1.0494815   -6.2605262    530.52542  0.035740058  0.036273102            9 
 1238000    1.0326253   -6.2404594    532.39979  0.035837358  0.036264724            7 
 1239000    1.0382458   -6.2400133    533.06781  0.035853363  0.036256484            8 
 1240000    1.0559451   -6.2734321    532.09604  0.035759142  0.036248033           10 
 1241000    1.0709937   -6.2614112    530.69644  0.035636344  0.036239391            4 
 1242000    1.0631334   -6.2592689    532.18906  0.035707801  0.036230869           14 
 1243000    1.0730495   -6.2179757    533.75373  0.035783972  0.036222415            4 
 1244000    1.0751082   -6.2181006    534.19285  0.035784623  0.036213971            3 
 1245000    1.0491541   -6.2569225     533.9266  0.035738059  0.036205485           11 
 1246000    1.0712282   -6.2771821    533.25587  0.035664518  0.036196919            3 
 1247000    1.0837664   -6.2443689    533.34723  0.035642023  0.036188331            5 
 1248000    1.0443183   -6.2204881    533.60745  0.035630839  0.036179665            4 
 1249000     1.068742   -6.2205894    534.40231  0.035655345  0.036171124            6 
 1250000    1.0472169   -6.2351294    536.32581  0.035755054  0.036162675            4 
 1251000    1.0503391   -6.2405703    536.30793  0.035725282    0.0361543            2 
 1252000    1.0520221    -6.268762    535.77894  0.035661538  0.036146042            5 
 1253000    1.0514685   -6.2271702    536.65862  0.035691581  0.036137812            3 
 1254000    1.0588371   -6.2758539    536.16534  0.035630339  0.036129345            8 
 1255000    1.0646094   -6.2658063    535.03605  0.035526962  0.036120746            7 
 1256000    1.0414804   -6.1885186    538.57024  0.035733164  0.036112238            5 
 1257000    1.0642526   -6.2244817    536.22105  0.035548995  0.036104026            5 
 1258000    1.0579279   -6.2420053    537.32359  0.035593772  0.036095542            6 
 1259000    1.0464711   -6.2251604    538.84832  0.035666423  0.036087041            4 
 1260000    1.0640134   -6.2074245    538.84513  0.035637905  0.036078641            4 
 1261000    1.0646779   -6.2519292    538.11743  0.035561554  0.036069959            5 
 1262000    1.0619886    -6.246314    538.78337  0.035577349  0.036061324            3 
 1263000    1.0317218   -6.2440219    536.66237  0.035409235  0.036052563            6 
 1264000    1.0709931   -6.2668638    537.25696  0.035420422   0.03604375            7 
 1265000     1.046705   -6.2405096    539.36783  0.035531477  0.036034782            7 
 1266000    1.0597663   -6.2857335      537.083  0.035353015   0.03602578            7 
 1267000    1.0840107   -6.2539293    539.45553  0.035481158   0.03601665            5 
 1268000    1.0435857   -6.2456354    538.33218   0.03537935  0.036007669            6 
 1269000    1.0500851   -6.2569427    539.35723  0.035418783  0.035998764            6 
 1270000    1.0377391   -6.2348014    540.98508  0.035497709  0.035989824            3 
 1271000    1.0379622   -6.2343194    539.94831  0.035401804  0.035980951            3 
 1272000    1.0458329   -6.2611426    540.26835  0.035394939  0.035972124            5 
 1273000    1.0414131   -6.2638466    539.96303  0.035347147  0.035963332           12 
 1274000    1.0761941   -6.2483269    540.46946  0.035352529  0.035954429            7 
 1275000     1.050175   -6.2278003    541.35335  0.035382572  0.035945455            6 
 1276000    1.0409551   -6.2678428    540.51056  0.035299801  0.035936468            3 
 1277000    1.0408373   -6.2460134    542.18256  0.035381269  0.035927563            7 
 1278000    1.0278342   -6.2474745    541.64023   0.03531822  0.035918648            3 
 1279000    1.0670222   -6.2495828    541.25529  0.035265526  0.035909485            8 
 1280000    1.0517606   -6.2562802    542.12619  0.035294674  0.035900306            6 
 1281000    1.0055928   -6.2615938    542.36191  0.035282456   0.03589133            6 
 1282000    1.0516727   -6.2724084    542.90379  0.035290158  0.035882285            7 
 1283000    1.0502021   -6.2363143    541.96316  0.035201556  0.035873251            7 
 1284000     1.038069   -6.2677867    544.37161  0.035330452   0.03586407            6 
 1285000    1.0418345   -6.2743587    542.59574  0.035187791  0.035854995            5 
 1286000    1.0443303   -6.2923677    543.77333  0.035236737  0.035845677           10 
 1287000    1.0452572   -6.2784997    543.67244  0.035202826  0.035836544            5 
 1288000    1.0768226   -6.2484354    544.75286  0.035245397  0.035827399            3 
 1289000    1.0326411   -6.2591763    545.51192  0.035267127  0.035818276            3 
 1290000    1.0489969   -6.2427474    546.50746    0.0353041  0.035809181            9 
 1291000    1.0645426   -6.2575363    543.50185  0.035082742  0.035800184            5 
 1292000    1.0468864   -6.2526799     545.8067   0.03520425  0.035791024            5 
 1293000    1.0329546   -6.2539831    545.62413  0.035165257  0.035781909            8 
 1294000    1.0354647   -6.2486073    547.02237  0.035228128  0.035772865           11 
 1295000    1.0458756   -6.2750012    545.58395  0.035108362  0.035763756            5 
 1296000    1.0454898   -6.2491373    546.16497  0.035118632   0.03575471            4 
 1297000    1.0555019   -6.2682212    547.83826  0.035199066  0.035745707            4 
 1298000     1.037329   -6.2825555    548.59602  0.035220597  0.035736634            4 
 1299000    1.0671552   -6.2717583    548.47103  0.035185465  0.035727594            5 
 1300000     1.029328   -6.2682794    548.23317  0.035143152  0.035718433            8 
 1301000    1.0274571   -6.2837117    549.09705  0.035171474  0.035709249            5 
 1302000    1.0507431   -6.2600325    549.05623  0.035141848   0.03570012            4 
 1303000    1.0198879     -6.29705    547.30835  0.035003092  0.035690881            4 
 1304000    1.0460126   -6.2533878    549.53888  0.035118794  0.035681749            4 
 1305000    1.0466619   -6.2374588    549.52877  0.035091237  0.035672709            4 
 1306000    1.0368447   -6.2905033    549.46895   0.03506055  0.035663578            4 
 1307000    1.0360545   -6.2510313    549.83321   0.03505695  0.035654569            8 
 1308000    1.0226206   -6.2823927    549.25452   0.03499328   0.03564559            7 
 1309000    1.0211585   -6.2838558    550.97353  0.035075982  0.035636475            4 
 1310000    1.0698496   -6.2982463     550.6498  0.035028613  0.035627092            5 
 1311000    1.0287409   -6.2492689    551.95435  0.035084818  0.035617976           10 
 1312000    1.0487864   -6.2576508     552.2201  0.035074955  0.035608994           12 
 1313000    1.0588295   -6.2382367    551.23024  0.034985418  0.035599942            5 
 1314000    1.0298138   -6.2489215    551.09976  0.034950518  0.035590909            4 
 1315000    1.0321689   -6.2302371    551.55786  0.034952969  0.035581628            5 
 1316000    1.0443835   -6.2492168    551.70378   0.03493565  0.035572189            8 
 1317000    1.0236478    -6.280572    551.64986  0.034905712  0.035563035            5 
 1318000    1.0493039   -6.2808602    553.14169  0.034973551  0.035553785            3 
 1319000     1.062725   -6.2588382     552.7013  0.034919213  0.035544663            3 
 1320000     1.029658   -6.2961979    554.10782  0.034981554  0.035535461            5 
 1321000    1.0650259   -6.3170703    552.86334  0.034876567  0.035526017            5 
 1322000     1.054234   -6.2661058    553.15105  0.034868322  0.035516671            4 
 1323000    1.0386499   -6.2857559    553.35745  0.034854967  0.035507409            7 
 1324000    1.0278419   -6.2661017    555.52472   0.03496505  0.035498104            5 
 1325000     1.023328   -6.2791029    555.43234  0.034932852   0.03548887            6 
 1326000    1.0478641   -6.2402028    554.78374  0.034865745  0.035479582            5 
 1327000     1.039697   -6.2923628    554.59819  0.034827819  0.035470397            5 
 1328000    1.0223877   -6.2707635    555.84457  0.034879805  0.035461109            3 
 1329000     1.035519   -6.2463162    555.22715  0.034814845  0.035451757            2 
 1330000    1.0482726   -6.2941322     555.3009  0.034793289  0.035442468            9 
 1331000    1.0613439   -6.2793269    556.48901  0.034841536  0.035433207            4 
 1332000    1.0606847   -6.2876494    558.73614  0.034955965  0.035424169            5 
 1333000    1.0470302   -6.2781938    557.43621  0.034848475  0.035414942            5 
 1334000    1.0319354   -6.2539936    556.53722  0.034766193   0.03540566            5 
 1335000    1.0311119   -6.2646895    557.12059  0.034776566    0.0353965            7 
 1336000    1.0360986   -6.2715715    558.05831  0.034809026  0.035387516            9 
 1337000     1.039676   -6.2874997    558.20132  0.034791905  0.035378474            5 
 1338000    1.0404048   -6.2370528    561.67269  0.034982106  0.035369515            6 
 1339000    1.0324962   -6.2678149    558.13515   0.03473582  0.035360355            7 
 1340000    1.0266424   -6.3146167    557.10106  0.034645589  0.035351084            4 
 1341000    1.0373277   -6.2898027    558.11452  0.034682732  0.035341747            6 
 1342000     1.033917   -6.2767177    558.70928   0.03469382  0.035332409            3 
 1343000    1.0547143   -6.2506286     559.7433  0.034732148  0.035323343            4 
 1344000    1.0358734   -6.2480729    560.65591  0.034762891  0.035314222            5 
 1345000    1.0361375   -6.2743506    561.16297  0.034768462  0.035305084            5 
 1346000    1.0389661   -6.2655455    559.45153  0.034636672  0.035295804           11 
 1347000    1.0435905   -6.2682263    561.05247  0.034710002   0.03528653            6 
 1348000    1.0285365   -6.2251776    563.60346  0.034841955  0.035277446            7 
 1349000     1.040605   -6.2718344    562.92215  0.034774039  0.035268268            5 
 1350000    1.0401636   -6.3273631    561.41585    0.0346553  0.035258965            5 
 1351000    1.0246526   -6.2938224    562.86617  0.034719107  0.035249619            4 
 1352000    1.0652569   -6.2719523    562.92786   0.03469723  0.035240592            9 
 1353000    1.0407465   -6.2615462    562.79115  0.034663165  0.035231474            5 
 1354000    1.0068978   -6.2759021    562.77306  0.034636451  0.035222402           15 
 1355000    1.0663304   -6.2643632    565.26871  0.034764373  0.035213422            7 
 1356000    1.0246573   -6.2739209    563.10954  0.034606043  0.035204237            4 
 1357000    1.0622424   -6.2799219    562.61524  0.034550187  0.035194883            3 
 1358000     1.040466   -6.2728226    564.70583  0.034653033  0.035185679            6 
 1359000    1.0311844   -6.2357306    564.67062  0.034625375  0.035176582            8 
 1360000    1.0210654   -6.2943275    563.91828  0.034553816  0.035167496            7 
 1361000     1.048043   -6.2706108    564.96211  0.034592341  0.035158421            5 
 1362000    1.0234366   -6.2848658    565.42431  0.034595222  0.035149434            6 
 1363000     1.037528   -6.2784925    566.22206  0.034618614  0.035140535            7 
 1364000    1.0200012   -6.2621355    567.23872  0.034655347  0.035131665            4 
 1365000    1.0332355   -6.2737857    566.89468  0.034608955  0.035122741            9 
 1366000    1.0149304   -6.2770872    569.09703  0.034717974  0.035113981            4 
 1367000    1.0460173   -6.2769769    566.38891  0.034527488  0.035105143            4 
 1368000    1.0330508   -6.2560486    568.43415  0.034626837  0.035096196            5 
 1369000    1.0211539    -6.267466    567.91056  0.034569671  0.035087295            4 
 1370000    1.0242612   -6.2677604    568.74078  0.034594938  0.035078446            5 
 1371000    1.0584945   -6.2899675    567.89314  0.034518183  0.035069699            5 
 1372000     1.016822   -6.2867217    568.92469  0.034555679  0.035060791            2 
 1373000    1.0338091   -6.2986239    569.45316  0.034562586  0.035052057            7 
 1374000     1.018162   -6.3023667    570.00338  0.034570802  0.035043327            5 
 1375000    1.0338591   -6.2657406     569.4579    0.0345126  0.035034711            3 
 1376000    1.0160364   -6.2626457    572.25628  0.034656994   0.03502607            5 
 1377000    1.0336384   -6.2757943    570.74712  0.034540494  0.035017345            8 
 1378000     1.029038   -6.3107408    571.70434  0.034573315  0.035008537            5 
 1379000    1.0363217   -6.2957866    571.03026  0.034507509  0.034999866            4 
 1380000      1.02504   -6.2813548    573.90029  0.034655815  0.034991371            7 
 1381000    1.0201229   -6.2900002    572.84965  0.034567321  0.034982779            5 
 1382000    1.0283539   -6.3172664    570.07855  0.034375214  0.034974128           16 
 1383000    1.0581772   -6.2991123    572.16583  0.034476129  0.034965314            5 
 1384000    1.0319363   -6.2599225    573.04833  0.034504355  0.034956381            4 
 1385000    1.0394187   -6.2978981      572.704  0.034458725  0.034947642            3 
 1386000    1.0445725   -6.2771641    574.43672  0.034538042  0.034939015            8 
 1387000    1.0554436   -6.2644294    574.51388  0.034517777  0.034930409            7 
 1388000    1.0207896   -6.3005458    573.93746  0.034458301  0.034921693            5 
 1389000    1.0244669   -6.2690979     575.8139   0.03454607  0.034913014            2 
 1390000    1.0116563   -6.2891931    572.42177  0.034317852  0.034904472            7 
 1391000    1.0368943   -6.2777386    573.56605  0.034361733  0.034895759            6 
 1392000    1.0114257   -6.2950655     574.4406  0.034389404  0.034887026            3 
 1393000    1.0424941   -6.2676225     576.5948  0.034493587  0.034878413            3 
 1394000    1.0277278   -6.2633724    576.57861  0.034467875  0.034869919            6 
 1395000    1.0247335   -6.2797946    577.88892  0.034521441  0.034861569            5 
 1396000    1.0399479   -6.2781809     577.2752  0.034460077   0.03485331            4 
 1397000     1.047224   -6.2953453    579.75357  0.034583248  0.034845031            3 
 1398000    1.0294557   -6.2715642    578.39662  0.034477624  0.034836762            6 
 1399000     1.040788   -6.3100234    578.25379  0.034444472  0.034828316            4 
 1400000    1.0243686   -6.3214417    576.48591  0.034314637  0.034819978            6 
 1401000    1.0175678   -6.2758264    579.38613  0.034462653  0.034811577            7 
 1402000    1.0242764   -6.2689219    579.23963  0.034429365  0.034803256            3 
 1403000    1.0012645   -6.2636031    578.55578  0.034364207  0.034794812            2 
 1404000    1.0613809   -6.2764021    579.85155   0.03441664  0.034786266            9 
 1405000    1.0454364   -6.3456087    580.74373  0.034445061  0.034777874            5 
 1406000    1.0170039    -6.330522    579.56046  0.034350431   0.03476937           11 
 1407000    1.0157968     -6.27694    580.39397  0.034375383  0.034760802            7 
 1408000    1.0204411   -6.3006796    579.95003  0.034324694  0.034752093            7 
 1409000     1.028411   -6.2915071    579.46124  0.034271424  0.034743305            6 
 1410000    1.0215056   -6.3082305    580.31929   0.03429783  0.034734572            5 
 1411000    1.0293928   -6.2876905    579.32563  0.034214838  0.034725783            8 
 1412000    1.0230766   -6.2869111    582.08373  0.034353384   0.03471696            5 
 1413000     1.009087   -6.2935399    581.00089  0.034265209  0.034708234            8 
 1414000    1.0301901   -6.2831646    579.90892  0.034176622  0.034699483            8 
 1415000    1.0325681    -6.287638     581.9967  0.034275424  0.034690878            5 
 1416000    1.0277346   -6.3110914    579.08955  0.034080129  0.034682138            6 
 1417000    1.0397504     -6.32862     579.6687  0.034090138  0.034673065           20 
 1418000   0.98939663   -6.3004866      580.713  0.034127468   0.03466416            3 
 1419000    1.0140371   -6.3171254    581.29605  0.034137659  0.034655236            5 
 1420000    1.0193353   -6.2906196    581.86024  0.034146728  0.034646252            3 
 1421000    1.0094916   -6.3167377    582.56848  0.034164232  0.034637234            5 
 1422000    1.0228553   -6.3174994    581.36521  0.034069691  0.034628395            4 
 1423000   0.99989287   -6.2829194    583.94214  0.034196658  0.034619528            3 
 1424000     1.024423   -6.2834429    581.99264  0.034058558  0.034610549            4 
 1425000    1.0340618   -6.3154872     582.4724  0.034062713  0.034601406            3 
 1426000    1.0248706   -6.2855857    583.43862  0.034095291  0.034592241           13 
 1427000    1.0290414   -6.3069432    583.77061  0.034090785  0.034583061            6 
 1428000    1.0353729   -6.2883802    583.66269  0.034060614  0.034573812            6 
 1429000    1.0033633   -6.3189448    582.56342  0.033972675  0.034564533            3 
 1430000    1.0218087   -6.3231045    583.55492  0.034006697  0.034555339           15 
 1431000    1.0205433   -6.3197457    581.98778  0.033891671  0.034546293            7 
 1432000    1.0161913   -6.3107397    584.88712  0.034036727  0.034537218            3 
 1433000     1.034429   -6.3026968     582.8723  0.033895807  0.034528167            4 
 1434000     1.035259   -6.3071075    586.69379  0.034094246  0.034519219            7 
 1435000    1.0060582   -6.3141611    588.11655   0.03415311  0.034510392            6 
 1436000    1.0153322   -6.3034896    585.74882  0.033991923  0.034501617            5 
 1437000    1.0321737   -6.2647955    586.82973  0.034030952  0.034492949            5 
 1438000    1.0192993   -6.3257116    585.65166  0.033939016  0.034484146            4 
 1439000    1.0350459   -6.3089818    587.35923  0.034014317   0.03447524            6 
 1440000    1.0193092   -6.3310889    586.76716  0.033956433  0.034466054            5 
 1441000    1.0167944   -6.3119076    587.22565  0.033959383  0.034457136            7 
 1442000    1.0270705   -6.2851019    588.05949   0.03398402  0.034448208            5 
 1443000     1.024675   -6.2798809    587.64034  0.033936264  0.034439214            6 
 1444000    1.0275845   -6.2671209    588.60711  0.033968555  0.034430326            4 
 1445000   0.99648985   -6.3083191    586.85868  0.033844214  0.034421428            4 
 1446000    1.0119616   -6.2724272    589.34284  0.033963972  0.034412528            4 
 1447000    1.0362281    -6.254404      589.971  0.033976676  0.034403662            9 
 1448000    1.0205565   -6.3253193     588.6583  0.033877665  0.034394803            9 
 1449000    1.0232872    -6.315209    590.35398  0.033951805  0.034385882           12 
 1450000    1.0224731   -6.2938609    590.91242  0.033960484  0.034377021            4 
 1451000    1.0385124   -6.3176879     590.6033  0.033919326  0.034368315            5 
 1452000    1.0140296   -6.2931271    588.69778  0.033786603  0.034359432            3 
 1453000   0.99782204   -6.2975821    590.19983  0.033849497  0.034350648            2 
 1454000     1.004327   -6.3038657    592.14832  0.033937891  0.034341822            4 
 1455000    1.0003344   -6.3164667    589.15864  0.033743336   0.03433289            4 
 1456000    1.0094105   -6.2791276    593.03965  0.033942288  0.034324042           10 
 1457000     1.027399    -6.321662    591.06265  0.033805917  0.034315171            3 
 1458000    1.0186156   -6.2767582    592.52089  0.033866077  0.034306299            4 
 1459000    1.0041422   -6.3136479    590.94661  0.033752948  0.034297438            4 
 1460000    1.0332436   -6.2789883    591.51127  0.033762059  0.034288428            5 
 1461000    1.0084149   -6.2911125    592.26353  0.033781858  0.034279478            8 
 1462000    1.0126531     -6.34252    592.49269  0.033771813  0.034270549            6 
 1463000     1.029285   -6.3081929    592.24024   0.03373435  0.034261261            6 
 1464000    1.0146324   -6.3383352    592.48187  0.033725061  0.034252113           10 
 1465000    1.0117787    -6.316615    592.58021  0.033707634  0.034242959            5 
 1466000    1.0204354   -6.2980439    594.48055  0.033792664  0.034233888            5 
 1467000    1.0264623   -6.3211042    593.11474  0.033692044  0.034224919            5 
 1468000    1.0339911   -6.3354758    593.29049  0.033679069   0.03421587            6 
 1469000    1.0146894    -6.275198    592.25418  0.033597355  0.034206918            6 
 1470000    1.0185679    -6.302157    595.31429  0.033747976  0.034197742           11 
 1471000    1.0547746   -6.3241335    595.76986  0.033750842  0.034188586            6 
 1472000     1.029945   -6.3539423    595.00084  0.033684377  0.034179411           10 
 1473000    1.0267887   -6.3221122    594.36198  0.033625367   0.03417019            3 
 1474000    1.0470065   -6.3036993    594.00376  0.033582302  0.034160861            5 
 1475000     1.008468   -6.3208981    593.54034  0.033533353  0.034151522            9 
 1476000   0.99989578   -6.3268648    596.06457  0.033653149  0.034142293           17 
 1477000    1.0039394   -6.3010024    595.92861  0.033622693  0.034133112           12 
 1478000    1.0119888   -6.3097524    597.31217  0.033677953  0.034124035            5 
 1479000    1.0056848   -6.3201916    596.05747  0.033584486  0.034114846            5 
 1480000   0.99886084   -6.3190486    595.96628   0.03355666  0.034105678            7 
 1481000    1.0087791   -6.3019153    595.70737  0.033519433  0.034096362            6 
 1482000    1.0101008    -6.300611    596.66685  0.033550768  0.034087254            4 
 1483000    1.0173421   -6.3377854     597.4589  0.033572651  0.034078325            5 
 1484000    1.0192283   -6.3287148    598.15584  0.033589164  0.034069276            6 
 1485000    1.0230695    -6.285419    600.50385  0.033698308   0.03406034            7 
 1486000    1.0132847   -6.3069116    600.12377  0.033654317  0.034051488            7 
 1487000   0.99629699   -6.3292765    598.61024  0.033546864  0.034042567            4 
 1488000    1.0155125   -6.2901176    600.04131  0.033604464  0.034033705            3 
 1489000    1.0166575   -6.3322024    598.36105  0.033487858  0.034024752           10 
 1490000    1.0146499    -6.298449    599.37973  0.033522356  0.034015796            1 
 1491000     1.005155   -6.3037302    599.27894   0.03349424  0.034006989            4 
 1492000   0.98439515   -6.3076177    599.68772  0.033494623  0.033998029            5 
 1493000    1.0255452   -6.3152224    600.01703  0.033490569  0.033989044            4 
 1494000    1.0098555   -6.3211825    598.83923  0.033402456  0.033979937            6 
 1495000   0.99843476    -6.344155    601.07626  0.033504808   0.03397083            4 
 1496000    1.0421711   -6.3072836    601.75396  0.033520162  0.033961883            2 
 1497000   0.99130929   -6.3307844    601.03852  0.033457945  0.033952919            9 
 1498000    1.0169427   -6.3131867    601.10039  0.033439051  0.033943846            3 
 1499000    1.0409629   -6.3129825    601.98632  0.033465995  0.033934795            2 
 1500000    1.0097898   -6.3019026    603.03131  0.033501739  0.033925869            3 
 1501000    1.0379458   -6.3286009    601.95818  0.033419841  0.033916946           12 
 1502000      1.02217   -6.3300493    602.88716  0.033449132   0.03390808            5 
 1503000   0.99209894   -6.2860205    602.76849  0.033420298  0.033899295            5 
 1504000    1.0155826   -6.3490477    604.23357  0.033479253  0.033890417            8 
 1505000    1.0037643   -6.3248029    603.01306  0.033389428  0.033881538            5 
 1506000    1.0158723    -6.317216    604.26768   0.03343668  0.033872784            4 
 1507000   0.99096715   -6.3292791    605.16594  0.033464164  0.033864172            7 
 1508000    1.0249243   -6.2984295    604.75127  0.033419058  0.033855527            7 
 1509000    1.0400494   -6.3066287     606.5601  0.033496803  0.033846751           11 
 1510000     1.009382   -6.3095343    605.63476  0.033423552  0.033838073            5 
 1511000   0.99802102   -6.3302762    606.13175  0.033428841  0.033829352            6 
 1512000    1.0188093     -6.30344    606.86106  0.033446928  0.033820612            8 
 1513000   0.99799472   -6.3307282    606.31033  0.033394488  0.033811904            5 
 1514000    1.0216751   -6.3288663    605.21122  0.033311934  0.033803056            6 
 1515000   0.99281685   -6.3258284    606.11834  0.033339843  0.033794167            7 
 1516000   0.99860075   -6.2862925    605.58277  0.033288411  0.033785207            3 
 1517000    1.0276376   -6.3216915    606.36347  0.033309354  0.033776255           11 
 1518000   0.98113012   -6.3125621    606.80486  0.033311642  0.033767308            5 
 1519000    1.0107382   -6.3262644    606.03782  0.033247631  0.033758384            4 
 1520000    1.0165205   -6.3498612    607.33777  0.033297027  0.033749346            2 
 1521000     1.011893   -6.3382995    608.20365  0.033322576  0.033740353            8 
 1522000    1.0067978    -6.303054    607.31296  0.033251914  0.033731343            4 
 1523000    1.0212923   -6.2764016    608.51145  0.033295658  0.033722609            4 
 1524000    1.0064314   -6.3380125    607.47311  0.033217034  0.033713814            6 
 1525000    1.0095372   -6.3125422     608.8634  0.033271224  0.033704922            8 
 1526000   0.99619751   -6.3046576    608.24269  0.033215525  0.033695981            8 
 1527000    1.0209177   -6.3121254    606.19144   0.03308183  0.033686933            7 
 1528000    1.0147802   -6.3104976    608.70898  0.033197479   0.03367792            5 
 1529000     1.017681   -6.3481837    608.53022  0.033166025  0.033668742            6 
 1530000   0.97394403    -6.299354    609.80314  0.033213678  0.033659632            7 
 1531000    1.0190114   -6.3495337      608.593  0.033126116  0.033650392            5 
 1532000   0.97936128   -6.3357989    609.66059  0.033162565  0.033641234            4 
 1533000   0.98828667   -6.3608171    609.10775   0.03311088  0.033632064            5 
 1534000    1.0202847   -6.3519177    608.83401  0.033074425  0.033622759            6 
 1535000   0.99997074    -6.346844    609.29633  0.033077977  0.033613506            7 
 1536000    1.0003554   -6.3454373    610.41237  0.033116991   0.03360435            6 
 1537000   0.99285668   -6.3277003    611.81336  0.033171403  0.033595229            4 
 1538000    1.0077809   -6.3206879    610.35447  0.033070788  0.033586254            4 
 1539000    0.9770549   -6.3315727    610.34108  0.033048575  0.033577206            8 
 1540000     1.000157   -6.3300466    610.87933  0.033056241  0.033568196            5 
 1541000   0.99678454   -6.3294776    612.52118  0.033123576  0.033559068            9 
 1542000    1.0123316   -6.3300758    611.76267  0.033061104   0.03354992            4 
 1543000   0.98198717    -6.339633    611.66051   0.03303416  0.033540712            7 
 1544000   0.99732773   -6.3260639    611.01744  0.032978057  0.033531641            5 
 1545000    1.0295992   -6.3222181    613.25459  0.033077378  0.033522597            4 
 1546000    1.0251695   -6.3154262    610.97366  0.032933035  0.033513394            6 
 1547000     1.007396   -6.3555279     611.7766  0.032954999  0.033504306            8 
 1548000   0.99504499   -6.3392394    612.18681  0.032955793  0.033495028            8 
 1549000   0.99740005   -6.3275313    612.73339  0.032963923  0.033485701            6 
 1550000   0.99842323   -6.2964342    615.22313  0.033076512  0.033476411            8 
 1551000    1.0197906   -6.3422179    614.86531  0.033035961  0.033467305            4 
 1552000    1.0135729   -6.3607095    613.74177  0.032954348   0.03345815            9 
 1553000    1.0076761   -6.3254654    614.50823  0.032974256   0.03344903            7 
 1554000    1.0194671   -6.3100524    612.36899   0.03283832  0.033439888            6 
 1555000   0.99545363   -6.3174134    615.25185  0.032971696  0.033430889            6 
 1556000    1.0155241   -6.3147224    615.94035  0.032987379  0.033421856            6 
 1557000   0.96986263   -6.3253844    614.94604  0.032912976  0.033412843            5 
 1558000   0.99190573   -6.3396794    614.76319  0.032882071  0.033403729            3 
 1559000    1.0013419   -6.3005125    615.95913  0.032924905  0.033394637            4 
 1560000   0.98359467   -6.3440157    616.40941  0.032927853  0.033385508            4 
 1561000   0.99683989   -6.3166596    617.28066   0.03295327  0.033376418           14 
 1562000    1.0017558   -6.3266873    615.94225  0.032860769  0.033367289            4 
 1563000    1.0049616   -6.3297937    616.45712  0.032867196  0.033358246            2 
 1564000   0.97844003   -6.3402245    616.37604  0.032841861  0.033349057           12 
 1565000   0.99462351   -6.3108287    616.33675  0.032818783  0.033339927            7 
 1566000   0.98887575   -6.3257538    617.33376  0.032850881  0.033330675            7 
 1567000    1.0143098   -6.3399868    619.11059  0.032924409  0.033321459            4 
 1568000   0.99578676   -6.3388214    616.73518  0.032777167  0.033312204            4 
 1569000   0.98405063    -6.371829    615.58134  0.032694994  0.033302972            5 
 1570000    1.0038602   -6.3551472     618.7692  0.032843376  0.033293837            4 
 1571000   0.99028141     -6.39443    618.93128  0.032831067  0.033284726            6 
 1572000   0.99584599    -6.335171    620.14411  0.032874475  0.033275667            3 
 1573000     1.004115   -6.3459796    619.17164  0.032802058  0.033266654            3 
 1574000   0.99242895   -6.3633939    620.28217  0.032840013  0.033257617            5 
 1575000   0.99884236   -6.3527927    621.11448    0.0328632  0.033248496            4 
 1576000   0.98944607   -6.3754241    619.04743  0.032733049   0.03323936           10 
 1577000    1.0080058   -6.3593542    618.05211  0.032659697  0.033230273            8 
 1578000   0.99131986   -6.3457961    619.19441  0.032699325  0.033221197            4 
 1579000   0.99884972   -6.3365147    619.56042  0.032697932  0.033212126            5 
 1580000   0.98992767   -6.3547708    621.46731  0.032777812  0.033203057            9 
 1581000   0.99922958   -6.3217032    619.33466  0.032644669  0.033193958            9 
 1582000   0.99408292   -6.3288821     622.7191  0.032802312  0.033184929            7 
 1583000    1.0101618     -6.34771    619.96277   0.03263649  0.033175839            8 
 1584000    1.0095656   -6.3399816    622.22696  0.032735004  0.033166839            6 
 1585000   0.99968497   -6.3539473     621.5951   0.03268113  0.033157905            5 
 1586000    1.0114721   -6.3306662    622.41216  0.032703455  0.033148958            5 
 1587000   0.98562544   -6.3627009    621.02072  0.032609784  0.033140005           10 
 1588000    1.0146021   -6.3704221    621.62872  0.032621154  0.033130999            5 
 1589000    0.9926228   -6.3439956    623.81756  0.032715416  0.033122022            5 
 1590000    0.9883055    -6.341083    624.23528  0.032716734   0.03311316            7 
 1591000     0.982841   -6.3688588    622.94041  0.032628348  0.033104253            5 
 1592000   0.97750191   -6.3448886    625.56253  0.032745107  0.033095307           16 
 1593000   0.97744007   -6.3374204    623.39994  0.032611422   0.03308639           11 
 1594000    0.9910685   -6.3188592     623.5703  0.032599869  0.033077465            2 
 1595000   0.99122565   -6.3262481    625.22576  0.032665923  0.033068514            4 
 1596000   0.99887044    -6.347257    623.44522  0.032552486  0.033059542            7 
 1597000   0.98237201   -6.3171566    625.14718  0.032620913  0.033050566            6 
 1598000   0.99234132   -6.3932522    622.95001  0.032485921  0.033041512            7 
 1599000    0.9881963   -6.3620787     625.3584  0.032591119  0.033032333            6 
 1600000   0.98560448   -6.3736246    625.21158  0.032563103  0.033023288            9 
 1601000   0.99519869   -6.3375774    626.50767  0.032610226  0.033014344           16 
 1602000    0.9773544   -6.3498918     625.4428  0.032534478  0.033005286           14 
 1603000   0.99443818   -6.3187066    626.84774  0.032587219  0.032996356            6 
 1604000   0.99163208   -6.3468595    626.64524  0.032556382  0.032987355            7 
 1605000    1.0075985   -6.3568195    624.77089  0.032438779  0.032978288            9 
 1606000   0.97714726   -6.3596347    626.69956  0.032518657  0.032969157            5 
 1607000   0.98157148   -6.3863787    625.75526  0.032449454  0.032960014           14 
 1608000   0.99021741   -6.3531171    625.88375  0.032435932  0.032950837           10 
 1609000   0.98909891   -6.3641139     627.7579  0.032512839  0.032941767            6 
 1610000   0.99876826   -6.3579475    627.16463  0.032461937  0.032932855            5 
 1611000    1.0156105   -6.3696177    627.03269  0.032434962  0.032923795            6 
 1612000    1.0031244   -6.3338045     628.0742  0.032468683  0.032914804            5 
 1613000   0.99876638   -6.3755732    629.47443  0.032520894  0.032905781            3 
 1614000   0.98972085   -6.3571441    628.88876  0.032470506  0.032896612            7 
 1615000   0.99595649   -6.3390436    629.43112  0.032478386  0.032887529           14 
 1616000   0.98229557   -6.3048378    626.69159  0.032317017   0.03287844            4 
 1617000    1.0011626   -6.3271922    630.17137  0.032476364   0.03286945            9 
 1618000   0.98751704   -6.3568797    629.62507  0.032428156  0.032860531            5 
 1619000   0.98884057   -6.3558951    630.42137  0.032449113  0.032851392            5 
 1620000   0.99457052    -6.348999    630.37023  0.032426452  0.032842222            3 
 1621000   0.97823054    -6.361247    629.43904  0.032358577  0.032833044            4 
 1622000    1.0022393    -6.343794    628.68979  0.032300133  0.032823997            7 
 1623000   0.98875233   -6.3388224    629.64204  0.032329125  0.032814783            6 
 1624000   0.99519193   -6.3414056    630.71819  0.032364439  0.032805806            8 
 1625000   0.99007253   -6.3483542    630.78641  0.032348021  0.032796682            4 
 1626000   0.97897688   -6.3409615    630.43695  0.032310217  0.032787594            6 
 1627000    1.0109764   -6.3476527    630.59794  0.032298604  0.032778507            8 
 1628000   0.99452989   -6.3229821     631.6098  0.032330559  0.032769359            9 
 1629000   0.99742146   -6.3641251    630.65633  0.032261936  0.032760209            7 
 1630000   0.99573199   -6.3334231      632.426  0.032332617  0.032751093            3 
 1631000   0.99917318   -6.3625816    630.41302  0.032209944  0.032741848            5 
 1632000   0.99000873    -6.398099    631.89326  0.032265791  0.032732607            3 
 1633000   0.99913425   -6.3652774    630.74123  0.032187244  0.032723395            4 
 1634000   0.98612242   -6.3617938    631.64632  0.032213705  0.032714092            6 
 1635000   0.97918005   -6.3742539    631.79211  0.032201433  0.032704861            9 
 1636000    1.0003747    -6.378864     632.0698  0.032195894  0.032695628            7 
 1637000    0.9987567   -6.3476992    631.78428  0.032161692  0.032686464            4 
 1638000    1.0130623   -6.3602977    630.81781  0.032092888  0.032677215            2 
 1639000   0.99382342   -6.3581415    631.71607  0.032118979  0.032668048            7 
 1640000   0.97922356   -6.3393724    631.27964  0.032077218  0.032658837            5 
 1641000   0.99650797   -6.3826915    633.07077  0.032148627  0.032649596            5 
 1642000   0.98451994   -6.3750959    633.52626  0.032152165  0.032640293            5 
 1643000    1.0066228   -6.3541563    631.92642  0.032051452  0.032630981            4 
 1644000   0.99406802   -6.3416257    633.05453  0.032089139  0.032621589           19 
 1645000   0.97956661   -6.3677691    632.64761  0.032049018   0.03261234           11 
 1646000   0.99329186   -6.3596157    632.47943  0.032021032  0.032602984            6 
 1647000   0.98318096   -6.3493686    636.07199  0.032183363  0.032593666            6 
 1648000   0.96521596    -6.319897    635.55689  0.032137788  0.032584495            4 
 1649000   0.98924445   -6.3566204    635.55822  0.032118366  0.032575498            5 
 1650000   0.99971112   -6.3668341    634.95621  0.032068496  0.032566325            5 
 1651000   0.97655833   -6.3805194    637.02983  0.032153737  0.032557293            5 
 1652000   0.98194023   -6.3651908    636.18336  0.032091574  0.032548167            5 
 1653000   0.98669305   -6.3611538    636.55397  0.032090843  0.032538993            5 
 1654000   0.98805309   -6.3441698    636.48771  0.032068103  0.032529866            7 
 1655000   0.98044902   -6.3755615    637.95786  0.032122752   0.03252071           10 
 1656000   0.97470851   -6.3745309     635.0328   0.03195616  0.032511471            8 
 1657000   0.99078917   -6.3761279    637.63918  0.032067953   0.03250227            7 
 1658000   0.98898505    -6.365536    637.62555  0.032047927  0.032493173            9 
 1659000   0.98947443    -6.369806    637.88407  0.032041595  0.032483991            7 
 1660000   0.97756387   -6.4127671     637.3287  0.031994412  0.032474802            9 
 1661000    1.0177489    -6.351122    637.03923  0.031960627  0.032465603           16 
 1662000   0.99679039   -6.3707032    638.36459  0.032007852  0.032456621            5 
 1663000   0.99467565    -6.359016    639.50677  0.032045839  0.032447614            8 
 1664000    0.9948018   -6.3511391    638.85738  0.031994059  0.032438613            5 
 1665000   0.97316979   -6.3689346    639.93136  0.032028597  0.032429495            6 
 1666000   0.97172585   -6.3857317    639.66483   0.03199604  0.032420333            8 
 1667000   0.97536643   -6.3769419    638.81054   0.03193414  0.032411169            4 
 1668000   0.99344123   -6.3674184    638.17622  0.031883304  0.032402026            3 
 1669000   0.97106749   -6.4029483    638.21311  0.031866043  0.032392866            9 
 1670000   0.99798282   -6.4037827    639.51817  0.031912085  0.032383706            9 
 1671000   0.99654996   -6.3619748     639.7926  0.031906673  0.032374548            6 
 1672000    1.0098057   -6.3809281    638.88498  0.031842353  0.032365322           13 
 1673000   0.99871792    -6.349203    639.88631  0.031873198  0.032356076            6 
 1674000   0.99196166   -6.3557133    642.55207  0.031986861  0.032347014            2 
 1675000    0.9887569   -6.3381746    641.76448  0.031928581  0.032338067            4 
 1676000     1.004888   -6.3675497    644.00245  0.032020806  0.032329089            5 
 1677000   0.98143443   -6.3633077    642.80859  0.031942387  0.032320078            6 
 1678000    1.0112964   -6.3471656    641.66298  0.031866457  0.032311149           10 
 1679000   0.97742426   -6.3615621     639.8028  0.031755152  0.032302111           11 
 1680000   0.99320479   -6.3972156    640.29876  0.031760851  0.032293069            3 
 1681000   0.97483433     -6.35515    642.35646  0.031843965  0.032284029           11 
 1682000   0.98744638   -6.3740215    642.86963  0.031850457  0.032274998           10 
 1683000    1.0022837   -6.3714606    644.38395  0.031906514  0.032265812            6 
 1684000   0.97664154   -6.3567458     641.9844  0.031768824  0.032256764           14 
 1685000   0.97293499   -6.3830237    643.82509  0.031841004  0.032247734            9 
 1686000    1.0071236   -6.3535514    644.25075  0.031843157  0.032238653            5 
 1687000   0.97919873   -6.3943281    641.93856  0.031710065  0.032229611            4 
 1688000   0.98768815   -6.3825339    644.15058  0.031800483  0.032220455            4 
 1689000   0.98558973   -6.3769857    642.82068  0.031716039  0.032211297            6 
 1690000   0.97822176   -6.3784517    645.39316  0.031824121  0.032202171           10 
 1691000   0.98817191   -6.3870545    646.13004  0.031841615  0.032193253            8 
 1692000   0.96166476   -6.3579319    645.14871  0.031774464  0.032184269            6 
 1693000   0.98772536   -6.3938225    643.68646   0.03168372  0.032175197            8 
 1694000    1.0038117   -6.3549702    647.18274   0.03183701  0.032166285            8 
 1695000    1.0010746   -6.3641187    646.99107  0.031808804  0.032157356            4 
 1696000   0.97226315   -6.4208663    646.36867  0.031759467  0.032148333            4 
 1697000   0.97493864   -6.3656573    646.36494  0.031740569  0.032139379            6 
 1698000   0.99401754   -6.3607871    647.89459  0.031796947  0.032130582            8 
 1699000   0.97421842   -6.3375566    647.76627  0.031771938  0.032121871            7 
 1700000   0.96790782   -6.3869446    647.50956  0.031740665  0.032113022            4 
 1701000   0.97655598    -6.382817    647.78016  0.031735262  0.032104238           10 
 1702000   0.97491002   -6.4072605    647.71891  0.031713617  0.032095394           13 
 1703000   0.96779021   -6.3862103    647.50841  0.031684694  0.032086537            9 
 1704000   0.98157765   -6.4012385     645.9075  0.031587808  0.032077696            4 
 1705000   0.97649489   -6.3740633    648.78289  0.031709819  0.032068869            8 
 1706000    0.9754551   -6.3649011    650.05032  0.031753142  0.032060121            4 
 1707000   0.98164051   -6.4041083    650.13785  0.031738813  0.032051489            6 
 1708000   0.96477017   -6.3706458    648.70204  0.031650178  0.032042665            4 
 1709000   0.98676289   -6.3778701    649.63156  0.031676982  0.032033909            6 
 1710000   0.99072885   -6.3843137    649.97096  0.031674998  0.032025196            5 
 1711000   0.98123234   -6.4045531    650.81556  0.031697621  0.032016516            6 
 1712000   0.97122487   -6.3784104    652.02476  0.031737965  0.032007817            4 
 1713000   0.97236954    -6.346552    650.33005  0.031636994  0.031999068            6 
 1714000    0.9844432   -6.3488212    652.39346  0.031718857  0.031990357           12 
 1715000   0.96432168   -6.3631476     652.8618   0.03172312  0.031981708            3 
 1716000   0.97562441   -6.4064049      651.714  0.031648893  0.031973136            4 
 1717000   0.96686517   -6.3637505    652.66342  0.031676539  0.031964527            6 
 1718000    0.9729939   -6.3644954    652.17908  0.031634608  0.031955883            8 
 1719000    1.0004066   -6.3589375    652.95801  0.031653966  0.031947227            6 
 1720000   0.96932842   -6.3623792    654.02008  0.031687019  0.031938607           10 
 1721000   0.96475524   -6.3964755     652.7909  0.031609088  0.031929938            4 
 1722000   0.95507434   -6.3959377    653.49445   0.03162478  0.031921264            6 
 1723000   0.96941399   -6.4055963    654.28515  0.031644668  0.031912545            7 
 1724000   0.98247774   -6.3969202    652.65593   0.03154756  0.031903749            8 
 1725000   0.98347635   -6.3824526    651.91012  0.031493242   0.03189499            6 
 1726000   0.96851974   -6.3741453    652.49457  0.031503214  0.031886354            8 
 1727000    0.9608779   -6.4081031    654.36265  0.031575113  0.031877666            5 
 1728000   0.99829851   -6.3850415    651.81305  0.031433886  0.031868889            4 
 1729000   0.97408856   -6.4114195     654.4124  0.031540987  0.031859994            8 
 1730000    0.9737059   -6.3846503     654.2003  0.031512538  0.031851194            7 
 1731000   0.96787845   -6.4103879     654.8776   0.03152694  0.031842392            9 
 1732000   0.97502692   -6.4074077    652.08482  0.031374366  0.031833545            5 
 1733000    0.9685983   -6.4163609    656.17918  0.031553144  0.031824769            5 
 1734000   0.97067529   -6.3853366    655.84255  0.031518769  0.031816023            4 
 1735000   0.97716708   -6.3998469    654.19435  0.031421438  0.031807373            6 
 1736000   0.94752774   -6.3999051    656.36699  0.031507632  0.031798668           10 
 1737000   0.97042245    -6.389084    658.06556  0.031570982  0.031790009           14 
 1738000    0.9719097   -6.3817878    657.54506  0.031527861  0.031781441            8 
 1739000   0.97599065   -6.3890398    656.57666  0.031463325  0.031772826           22 
 1740000   0.97432092   -6.3920846    657.77981  0.031502864  0.031764311            4 
 1741000   0.98513252   -6.3974743    657.73322   0.03148254  0.031755743            4 
 1742000    0.9729458   -6.3806097      658.807  0.031515835  0.031747175            5 
 1743000   0.96123738   -6.3754805    658.70494  0.031492873  0.031738587            8 
 1744000   0.97126194   -6.4158916    658.54529  0.031467187  0.031729988            4 
 1745000   0.97168894    -6.382741    658.87545  0.031464921  0.031721338            4 
 1746000   0.96113289   -6.3959818    657.84661  0.031397795  0.031712805            9 
 1747000   0.97538163   -6.4053496    657.98779  0.031386557  0.031704173            6 
 1748000    0.9910366   -6.3680346    659.29173  0.031430765  0.031695737            3 
 1749000    0.9513076   -6.4147411    660.44607  0.031467794  0.031687289           10 
 1750000   0.95451308   -6.4071635    658.87722  0.031375105  0.031678927           14 
 1751000   0.98334123   -6.3873917    660.15479  0.031417989  0.031670477            4 
 1752000   0.98114978   -6.3951078     660.2454  0.031404366  0.031662071            4 
 1753000   0.96964234   -6.3928605    661.52811  0.031447429  0.031653709           10 
 1754000   0.94228094   -6.3683183    662.81566  0.031490672  0.031645389            5 
 1755000   0.97812686   -6.3664139    660.34919  0.031355612  0.031636984            8 
 1756000   0.98018019   -6.3938777    659.83938  0.031313562  0.031628484            2 
 1757000     0.984853   -6.3701392    661.98426   0.03139747  0.031619944            8 
 1758000   0.95926841   -6.4131941    661.57187  0.031360062  0.031611481            4 
 1759000   0.95586811   -6.3979345    661.44357  0.031336155  0.031603018            7 
 1760000   0.95736431   -6.4030223    661.79358  0.031334923  0.031594562            9 
 1761000   0.97234245   -6.3860153    663.25911  0.031386481  0.031585957            8 
 1762000   0.97121455    -6.382043    664.05143   0.03140614  0.031577387            9 
 1763000   0.95241231   -6.3988004    663.87189   0.03137984  0.031568858           10 
 1764000   0.94936211   -6.4013106      663.816   0.03135941  0.031560409            6 
 1765000   0.97081176   -6.4006045     662.5169  0.031280307  0.031551965            9 
 1766000   0.96913327   -6.3915552    660.77156  0.031180236  0.031543357            5 
 1767000   0.97142142   -6.4065768    662.39749   0.03123927  0.031534729            8 
 1768000   0.98258899   -6.3947718    662.27934  0.031216032  0.031526065            7 
 1769000   0.96543715   -6.4113886     663.7694  0.031268579  0.031517586            3 
 1770000   0.98963179   -6.4161211    662.07001  0.031170904   0.03150907            8 
 1771000    0.9726434   -6.3987472    663.48666  0.031219963  0.031500601            7 
 1772000   0.97137799   -6.4368157    664.40506  0.031245535  0.031492065           14 
 1773000    0.9687993   -6.4111318    664.79887  0.031246422  0.031483602            3 
 1774000   0.95933669   -6.4085653    666.45813  0.031306752  0.031475142            9 
 1775000   0.96643901   -6.3885438     665.4879  0.031243564  0.031466644            8 
 1776000   0.96278856   -6.4024386    664.21265  0.031166134  0.031458122            5 
 1777000   0.97213427   -6.4093405     664.2401  0.031149883  0.031449442            3 
 1778000   0.96749006   -6.4201936    664.78031  0.031157682  0.031440801           10 
 1779000    0.9657363   -6.4398243    667.04024   0.03124603  0.031432198            5 
 1780000   0.96217673   -6.3901007    664.31698  0.031100982  0.031423615           10 
 1781000   0.95104336   -6.4142269    665.32719  0.031130787   0.03141509            6 
 1782000   0.96756011   -6.4002858    665.98762  0.031144202  0.031406444            7 
 1783000   0.99834694   -6.3924058    666.74123  0.031161957  0.031397986            9 
 1784000   0.97647945   -6.4006666    666.66621  0.031140985  0.031389492            7 
 1785000    0.9358407   -6.4238713    666.90176  0.031134536  0.031381067            3 
 1786000   0.98112952   -6.3838999    666.06599  0.031078107  0.031372617            8 
 1787000   0.98495403   -6.4259425    666.79701  0.031094806  0.031364239            6 
 1788000   0.96773462   -6.4262655    667.68177  0.031118651  0.031355744           17 
 1789000   0.96743478   -6.3891647     669.9113   0.03120511  0.031347345            7 
 1790000   0.96526198   -6.4207157    669.53065  0.031169956  0.031338983            4 
 1791000   0.96126013   -6.4098863    667.39728  0.031053289  0.031330581            4 
 1792000    0.9553358    -6.419454    667.52423  0.031041863  0.031322039            8 
 1793000   0.95676889    -6.433928    667.81774  0.031038192  0.031313567            3 
 1794000   0.95054569   -6.3796605    669.10218  0.031080555  0.031305159            5 
 1795000   0.98022051   -6.3820954    667.75105  0.031000513  0.031296734            7 
 1796000   0.95991586   -6.4246585    667.99933  0.030994772  0.031288179            5 
 1797000   0.94249668   -6.4145912     669.4405  0.031044356  0.031279635            9 
 1798000   0.96877852   -6.3988797    670.20936  0.031062725  0.031271207            6 
 1799000   0.97405572   -6.4158884    668.88301  0.030984019  0.031262745           11 
 1800000   0.95288207   -6.3969828    668.84219  0.030964916  0.031254181            3 
 1801000   0.95877534   -6.4027201     672.0925  0.031098117   0.03124574           13 
 1802000   0.97441563   -6.4250872    670.23273  0.030994854  0.031237159            9 
 1803000   0.93926704    -6.411827    669.56429  0.030946769  0.031228612            6 
 1804000   0.96985631   -6.4030827    671.12447  0.031001685   0.03122016            6 
 1805000   0.94276919   -6.3934039    670.50158  0.030955751   0.03121171           12 
 1806000   0.96176449   -6.3987242    672.30273  0.031021721  0.031203361            8 
 1807000   0.93737356   -6.3966694    670.71999  0.030931562  0.031194861            9 
 1808000   0.95670025   -6.4201372    668.23635  0.030799979  0.031186309            5 
 1809000   0.97420197   -6.4137907    672.41109  0.030975267  0.031177825            5 
 1810000   0.95888229   -6.4101558    672.57065  0.030965499  0.031169283            7 
 1811000   0.95198239   -6.3999529    673.25522  0.030979902  0.031160862           12 
 1812000   0.95796904   -6.4226799    672.49276  0.030927739  0.031152481            3 
 1813000   0.97328646   -6.4044027    671.08275   0.03084587  0.031144085            7 
 1814000   0.96303026   -6.4033098     672.5779  0.030897551  0.031135688            6 
 1815000   0.95575753   -6.3777505    674.30706   0.03095992  0.031127384           16 
 1816000   0.94994694    -6.427766    674.97261  0.030973413  0.031119078            8 
 1817000   0.95895523   -6.4317665    671.50614  0.030797383  0.031110792            6 
 1818000   0.97083443   -6.4058837    673.99791   0.03089466  0.031102357            6 
 1819000   0.98562659   -6.4120615    676.01706  0.030970179  0.031093959            5 
 1820000   0.95433907   -6.4264254    675.36684   0.03092339  0.031085593            9 
 1821000   0.96642867   -6.4211236    674.89891  0.030884995  0.031077271           13 
 1822000   0.96875027   -6.4289434    674.37466  0.030844066  0.031068959            9 
 1823000   0.97672291   -6.4123511    676.33393  0.030916709  0.031060635            4 
 1824000   0.96497241   -6.4639418    675.27285  0.030851282  0.031052279           13 
 1825000   0.96110471   -6.4410868    676.87492  0.030907531  0.031043829            4 
 1826000   0.95684283   -6.4161758    675.20385  0.030814342  0.031035517           18 
 1827000   0.96601611   -6.3823926    678.65837  0.030955044  0.031027264            4 
 1828000   0.95090762   -6.3810198    676.63049  0.030845664  0.031019041           11 
 1829000   0.95565595   -6.4055555    678.54179  0.030915882  0.031010799            8 
 1830000   0.99030924   -6.4264816    677.83623  0.030866859  0.031002679            5 
 1831000   0.96423081   -6.4203115    679.43412  0.030922725  0.030994547            5 
 1832000    0.9709651   -6.4235008    678.11624  0.030845899    0.0309864           11 
 1833000   0.97975031    -6.412823    679.31499  0.030883569   0.03097833           11 
 1834000   0.97518023   -6.4173552    679.51085  0.030875629  0.030970298            8 
 1835000   0.95083775   -6.4147695    679.36953  0.030852386  0.030962302            6 
 1836000   0.94895745   -6.3986907    679.02705  0.030820037  0.030954227            6 
 1837000   0.93687996    -6.408567     680.0899  0.030851474  0.030946227            6 
 1838000   0.96390883   -6.4110712    680.83672  0.030868549  0.030938219            5 
 1839000   0.96175254     -6.42634    680.48642   0.03083589  0.030930199           12 
 1840000   0.93500477   -6.4087099     680.5321    0.0308212  0.030922229            8 
 1841000   0.98738256   -6.3971264    682.97471  0.030915024  0.030914256            2 
 1842000   0.95747284   -6.3822477    680.96373  0.030807263  0.030906307           11 
 1843000   0.94912694   -6.4113444    680.79674  0.030782996  0.030898316            5 
 1844000   0.95910427   -6.4012371    681.52438  0.030799185  0.030890339            7 
 1845000   0.98188024   -6.4049575    681.25623  0.030770381   0.03088241            6 
 1846000   0.96697521   -6.4275793    681.41543  0.030760899  0.030874407            5 
 1847000   0.94704095    -6.415534    682.44242   0.03079058  0.030866435            8 
 1848000   0.99476023   -6.4281993     683.2111  0.030808581  0.030858576            8 
 1849000   0.97148854   -6.4379692    683.62653  0.030810642  0.030850744           11 
 1850000   0.94240868   -6.4094319    685.02718   0.03085708  0.030842872            9 
 1851000   0.95532695   -6.4390575    685.39211  0.030856839  0.030835002            9 
 1852000   0.95546517     -6.43018    683.79315   0.03076823  0.030827197            4 
 1853000   0.95139663   -6.3804605    685.19168  0.030814521  0.030819365            4 
 1854000   0.95091437   -6.4453609    682.15795   0.03066154   0.03081148            3 
 1855000   0.94784554   -6.4341066    685.41407  0.030791288  0.030803591            5 
 1856000   0.95850423   -6.4423698    684.97847   0.03075514  0.030795677            5 
 1857000   0.95492289   -6.4137101    684.93388  0.030736577  0.030787761            8 
 1858000   0.97304912    -6.393062    686.68719  0.030798672  0.030779953           11 
 1859000   0.94906362   -6.4249136    684.38185  0.030678763  0.030772022           10 
 1860000   0.96071114   -6.4318823      686.324  0.030749283  0.030764077            9 
 1861000   0.96354665   -6.4004927    686.82741  0.030755302  0.030756161           10 
 1862000   0.97031424    -6.416995    685.90417  0.030697465  0.030748309           12 
 1863000    0.9535313    -6.412603    685.79731  0.030676208  0.030740424            7 
 1864000   0.94331438    -6.423903    685.96243  0.030667133  0.030732709            8 
 1865000   0.95127885   -6.4149712    686.17204  0.030660055   0.03072502            8 
 1866000   0.95964897   -6.4087086    686.97584  0.030679521  0.030717175            6 
 1867000   0.95331987   -6.4310781    688.26234  0.030720511  0.030709403            6 
 1868000   0.93572008   -6.4539394    688.29209  0.030705393  0.030701469            8 
 1869000   0.93935682   -6.4089631    688.97921  0.030719601  0.030693672            3 
 1870000   0.95056828   -6.4205896    687.12199   0.03062041  0.030685788           16 
 1871000   0.94904946   -6.4200472     687.7265  0.030630968  0.030677954            8 
 1872000   0.94471133   -6.4615263    685.39948  0.030511017  0.030670059            7 
 1873000   0.96568505   -6.4580718    688.20769  0.030619669  0.030662218           17 
 1874000   0.95221139   -6.4566975    687.01451  0.030550272   0.03065441            6 
 1875000   0.93413233   -6.3864841     692.3829  0.030772573  0.030646715            8 
 1876000   0.94146429   -6.4165319    690.16591   0.03065769     0.030639            7 
 1877000   0.95004224   -6.4132597    691.03758  0.030680056  0.030631298           11 
 1878000   0.92064895   -6.4104166    692.54846  0.030730762  0.030623559            4 
 1879000   0.95197579   -6.4462282     691.5901  0.030671905   0.03061586           11 
 1880000   0.97511282    -6.454519     689.4981  0.030562859  0.030608176            9 
 1881000   0.93955693   -6.4243322    689.91624  0.030565136  0.030600406           13 
 1882000   0.95771288   -6.4430765    689.89415  0.030547917    0.0305926           10 
 1883000   0.96315649   -6.4519806     687.5503  0.030427965  0.030584652            8 
 1884000   0.95468112   -6.4500888    688.97216  0.030474706  0.030576737           10 
 1885000   0.95434604   -6.4383517    689.59796  0.030486205  0.030568833           10 
 1886000   0.95924684   -6.4464189    691.41143  0.030550169  0.030560971            7 
 1887000    0.9505295   -6.4475104    691.16494  0.030523094  0.030553116           15 
 1888000   0.95781504   -6.4361278    691.98451  0.030543102  0.030545368           11 
 1889000   0.97114552   -6.4215759    691.31141  0.030497239  0.030537617            7 
 1890000   0.95303126   -6.4203789    689.18265  0.030387242  0.030529776           22 
 1891000   0.94797423   -6.4265952    694.62255    0.0306109  0.030521995           11 
 1892000   0.94601401   -6.4039644    692.56249  0.030503986  0.030514238            4 
 1893000   0.95713216   -6.4208179     692.5894  0.030489056  0.030506362            6 
 1894000   0.95276974   -6.4454963    692.80822  0.030482586  0.030498578            7 
 1895000   0.95338471   -6.4328663    691.83665  0.030423775  0.030490751            8 
 1896000   0.93520469    -6.462054     690.8442  0.030364109  0.030482931            8 
 1897000   0.93731486   -6.4670486    691.56114  0.030379597  0.030475097            6 
 1898000   0.96228892   -6.4284123    692.92233  0.030423355  0.030467352            5 
 1899000   0.95088331   -6.4365108    693.81842  0.030446657   0.03045961           13 
 1900000   0.96686872   -6.4465472    695.60506  0.030508994  0.030452035            4 
 1901000   0.94676975   -6.4125647    695.78348  0.030500766  0.030444448            5 
 1902000   0.95846935   -6.4206179    694.67948   0.03043636   0.03043689            4 
 1903000   0.93479461   -6.4381228    694.43362    0.0304096  0.030429323           10 
 1904000   0.93456681   -6.4286226     694.3981  0.030392074  0.030421636           11 
 1905000   0.94889147    -6.446165    695.19583  0.030411016  0.030414001            7 
 1906000   0.94647221   -6.4530849    695.90518  0.030426075  0.030406285           10 
 1907000   0.95833112   -6.4306015    695.32822  0.030384907  0.030398513           12 
 1908000   0.93728737   -6.4254297    695.14809  0.030361115  0.030390807            7 
 1909000   0.96236945   -6.4910681    696.40916   0.03040026  0.030383119           12 
 1910000   0.93961073   -6.4638995    695.56022  0.030347304  0.030375313           10 
 1911000   0.92613113   -6.4067949    697.10692  0.030398871  0.030367492            5 
 1912000   0.93639977   -6.4369229     696.5617   0.03035921  0.030359819            3 
 1913000   0.92613547      -6.4189    696.64715  0.030347062  0.030352143            6 
 1914000   0.94746022   -6.4557913    696.39676  0.030320305  0.030344432            7 
 1915000   0.94170411   -6.4822053    699.10935  0.030422513  0.030336781            6 
 1916000   0.96719719   -6.4432455    697.80469  0.030349891  0.030329037            3 
 1917000   0.95740899    -6.408883     698.7363  0.030374557  0.030321243            6 
 1918000   0.94225715   -6.4728439    697.54387  0.030306911   0.03031358           10 
 1919000   0.95701647   -6.4419276    697.95384  0.030308921  0.030305865            3 
 1920000   0.94631415   -6.4368626    697.60221  0.030277874  0.030298161            7 
 1921000    0.9367231   -6.4498991    696.85634  0.030229756  0.030290487           29 
 1922000   0.93449122   -6.4574939     698.2275  0.030273478   0.03028278            8 
 1923000   0.94734754   -6.4884135    698.67652  0.030277193  0.030275054           18 
 1924000   0.94128829   -6.4495633    698.45004  0.030251648  0.030267333            9 
 1925000   0.94043059   -6.4339674    700.25933  0.030314257  0.030259528            5 
 1926000    0.9689543   -6.4383331    697.98354  0.030200049  0.030251736            8 
 1927000    0.9396625   -6.4399438    700.48364  0.030292495  0.030243959           13 
 1928000   0.93635577   -6.4592534    700.78968   0.03029001  0.030236246            4 
 1929000   0.92924974   -6.4522723    699.15223   0.03020357   0.03022851            9 
 1930000    0.9364233   -6.4654249    698.79096  0.030172321  0.030220746            4 
 1931000   0.95664409   -6.4488845    701.61752  0.030278678     0.030213           12 
 1932000   0.95443626   -6.4460998      702.493  0.030300768  0.030205287            5 
 1933000   0.94269824   -6.4862444    699.69978  0.030164674  0.030197599            7 
 1934000   0.95602321    -6.435111    700.41456  0.030179876  0.030189958            8 
 1935000   0.94602926   -6.4412592    701.08342  0.030193084  0.030182198            8 
 1936000   0.95062364   -6.4613086     700.6111  0.030157158  0.030174488           11 
 1937000   0.94900906   -6.4443354     701.5095   0.03018024  0.030166762            8 
 1938000   0.92996664   -6.4758983    701.60729  0.030168872  0.030159029            9 
 1939000    0.9338533   -6.4448234     702.2848  0.030182431  0.030151266           11 
 1940000   0.95571548   -6.4744136    702.34078  0.030169277  0.030143546            5 
 1941000   0.93055679    -6.458447    702.34669  0.030153988  0.030135721            5 
 1942000   0.93278066   -6.4958437    699.11989  0.029999995  0.030127879            9 
 1943000   0.92959092   -6.5033698    701.31762  0.030078814  0.030119958            5 
 1944000   0.91836949   -6.4748456    699.83587  0.029999823  0.030112021            5 
 1945000   0.95312556   -6.4399049    701.71777  0.030065028  0.030104195            3 
 1946000   0.93347814   -6.4655453     702.4728  0.030081912   0.03009637            9 
 1947000   0.96281366   -6.4732178     702.1287  0.030051733  0.030088514            6 
 1948000   0.93499906   -6.4560587    702.28416  0.030042957  0.030080649            9 
 1949000   0.95156477   -6.4475829    702.87706  0.030052893  0.030072816            8 
 1950000   0.91651544   -6.4571936    702.98935   0.03004228  0.030064993            5 
 1951000    0.9418814   -6.4364156    703.77012   0.03006023  0.030057246            7 
 1952000   0.93413759   -6.4743499    704.11124  0.030059394   0.03004955            3 
 1953000   0.93669826   -6.4366208    705.26569  0.030093262  0.030041854            8 
 1954000   0.91874721   -6.4598038    704.04107  0.030025634  0.030034122            5 
 1955000   0.93359898   -6.4734588    704.66839  0.030037016  0.030026375           14 
 1956000    0.9461696   -6.4587425     705.9325  0.030075516   0.03001864            7 
 1957000   0.92560253   -6.4506847    706.04369  0.030064882  0.030010843            6 
 1958000   0.96490787   -6.4519336    704.98125  0.030004309  0.030003097            5 
 1959000   0.93445669   -6.4488458    703.59101  0.029929854  0.029995314            7 
 1960000   0.93794764   -6.4407636    706.55808  0.030040735  0.029987565            9 
 1961000   0.91858867   -6.4396084     704.2575  0.029927652  0.029979823            8 
 1962000    0.9522983    -6.450246    706.76987  0.030019108  0.029972038           13 
 1963000   0.92612281   -6.4500914    705.11018  0.029933358  0.029964262           18 
 1964000   0.95335321    -6.464035    705.03221  0.029914809  0.029956478            5 
 1965000   0.94136325   -6.4801759     704.7896  0.029889296  0.029948636           15 
 1966000   0.96069923   -6.4673747    706.08698  0.029929085  0.029940796           13 
 1967000   0.94402819   -6.4708217    708.16103  0.030001738  0.029933007            4 
 1968000   0.94352717   -6.4691118    706.83179  0.029930208   0.02992526           13 
 1969000   0.93279861   -6.4786512    705.82512  0.029872402  0.029917445            7 
 1970000   0.92900927   -6.4552859    707.53689  0.029929649  0.029909706            6 
 1971000   0.93276357    -6.456983    707.02138  0.029892668  0.029901954            9 
 1972000   0.95192991   -6.4654508    709.12338  0.029966336  0.029894219           11 
 1973000   0.96762705   -6.4415423    708.23747   0.02991373  0.029886543           15 
 1974000   0.94249162   -6.4506935     707.2075  0.029855095  0.029878763            7 
 1975000   0.91694476   -6.4738081    708.94802  0.029913419  0.029871003            8 
 1976000   0.94895474   -6.4897533    707.71268  0.029846183  0.029863268           19 
 1977000    0.9325826   -6.4876719    706.77111  0.029791397  0.029855421            9 
 1978000   0.94990392   -6.4534124    709.11491  0.029875081  0.029847584           10 
 1979000   0.95444356   -6.4386213    707.42467  0.029788811  0.029839741           11 
 1980000   0.91418718   -6.4532325    707.55125  0.029779093  0.029831858           10 
 1981000   0.92598373   -6.4604656    707.89617   0.02977857  0.029823962            4 
 1982000   0.94614007   -6.4560606    709.89256  0.029847484  0.029816082            7 
 1983000   0.92387941   -6.4834763    708.34007  0.029767191  0.029808253            8 
 1984000   0.95683558   -6.4487052    708.90419  0.029775882  0.029800464            4 
 1985000   0.93268857   -6.4675491    708.23734  0.029732886  0.029792604            5 
 1986000   0.93974408   -6.4361966    708.42895  0.029725955  0.029784775            6 
 1987000   0.91357516   -6.4717001    708.11226  0.029697713  0.029776925           15 
 1988000   0.93622851   -6.4530453    709.63478  0.029746595  0.029769012            6 
 1989000   0.94482043    -6.460728    708.60198  0.029688368  0.029761208            5 
 1990000   0.92328033   -6.5023762    708.84935  0.029683809  0.029753344            5 
 1991000   0.93462297   -6.4624717    711.15268  0.029765306  0.029745439           10 
 1992000   0.91897211   -6.4460627    708.55705  0.029641778  0.029737523            6 
 1993000     0.944728    -6.451272    708.92518  0.029642297  0.029729664           22 
 1994000   0.93957195   -6.4791844    710.50119  0.029693296  0.029721788            9 
 1995000   0.91741499   -6.4615696    710.04104  0.029659191  0.029713889           11 
 1996000   0.93728968   -6.4571747     710.4687  0.029662187  0.029706065            5 
 1997000   0.92229522   -6.4763005    713.95284  0.029792724  0.029698214            9 
 1998000    0.9401638   -6.4792631    711.61518  0.029680313  0.029690289           12 
 1999000   0.91219922   -6.4531067     711.8717  0.029676159  0.029682388           12 
 2000000   0.94346052   -6.4513577    712.47885  0.029686619  0.029674536            7 
 2001000   0.94034548   -6.4878679    710.81879  0.029602648  0.029666641            7 
 2002000    0.9389343   -6.5199029    711.01982   0.02959623  0.029658776            7 
 2003000   0.93057731   -6.4803869    711.66146  0.029608149  0.029650957            4 
 2004000    0.9368016   -6.4348928    712.19124  0.029615404  0.029643121            7 
 2005000   0.94124432   -6.4975321    712.72497  0.029622817  0.029635271            8 
 2006000   0.93400618   -6.4818749    712.21136  0.029586713  0.029627357            6 
 2007000   0.95967175   -6.4939809    712.52003  0.029584788  0.029619516           12 
 2008000   0.92029914   -6.4515141    712.71885  0.029578305  0.029611687            3 
 2009000   0.93087936   -6.4566623     713.3769  0.029590878  0.029603889           11 
 2010000   0.93297458   -6.5049286    712.73298   0.02954946  0.029596073            7 
 2011000   0.92655182   -6.4842648     712.6897  0.029532973  0.029588236            9 
 2012000   0.92315677   -6.4699984    712.56423  0.029513097  0.029580402           10 
 2013000    0.9362844   -6.4811043    714.86763  0.029593792  0.029572649           12 
 2014000   0.93097925   -6.4861044    714.94544  0.029582317  0.029564905            2 
 2015000   0.91817053   -6.4538664    714.56489  0.029551898  0.029557186            4 
 2016000    0.9148867   -6.4895211    713.70898  0.029501859  0.029549354           11 
 2017000   0.94214178   -6.4715553    715.62177  0.029566261  0.029541509            7 
 2018000   0.95386738   -6.4505862    716.09176  0.029571018  0.029533737            6 
 2019000    0.9304709    -6.479233    715.52958  0.029533167  0.029525926            7 
 2020000   0.92885815   -6.4870238    713.06583  0.029416907  0.029518117           12 
 2021000   0.90970102   -6.4894933    715.00023  0.029482114  0.029510335            7 
 2022000   0.92445705   -6.4787039    717.87505  0.029586014  0.029502631            5 
 2023000   0.90849288   -6.4599274    714.98588  0.029452376  0.029494979            8 
 2024000   0.91712042   -6.4858384    716.94192   0.02951836  0.029487271            6 
 2025000   0.93203954     -6.45803     715.4924  0.029444131  0.029479511            5 
 2026000   0.93746002   -6.4972709    716.18324  0.029458014  0.029471731            5 
 2027000    0.9282941   -6.4619447    715.71372  0.029424179  0.029463897            9 
 2028000   0.89205463   -6.5051472    716.31636  0.029434433  0.029456075            9 
 2029000   0.94350368   -6.4706754     716.7638  0.029438303  0.029448192            7 
 2030000   0.92489501   -6.4825258    716.07226  0.029395413  0.029440432            8 
 2031000   0.91078351   -6.4790628    717.98012   0.02945922  0.029432617            8 
 2032000   0.92010692   -6.4952074    716.63763  0.029389666  0.029424843            6 
 2033000   0.90377686   -6.4914472    716.79309  0.029381583  0.029417042            4 
 2034000   0.92856779   -6.4649409     715.2852  0.029305359   0.02940915            4 
 2035000   0.92809708   -6.4746626    719.21952  0.029452069   0.02940142           10 
 2036000   0.92444776    -6.484907    717.97009  0.029386464  0.029393637            4 
 2037000   0.91105731   -6.4853476    715.95765  0.029289709  0.029385888           12 
 2038000   0.92465837   -6.4931226    717.17547  0.029325134  0.029378088           14 
 2039000   0.93003736   -6.5036627    715.89546  0.029258438  0.029370232           11 
 2040000   0.93177689   -6.5005048    717.04748  0.029291155  0.029362398            6 
 2041000   0.95046184   -6.4955701    719.32148   0.02936965  0.029354514            7 
 2042000   0.93103465   -6.5085908    718.72984  0.029331123  0.029346695            3 
 2043000   0.91171097   -6.4702612    718.40951    0.0293037  0.029338888            9 
 2044000   0.92097556   -6.4776409    719.31579  0.029326312  0.029331122            6 
 2045000   0.92182483   -6.5228378    718.31024  0.029270996  0.029323336            8 
 2046000   0.88856401   -6.4907104    720.84461  0.029359914  0.029315595           10 
 2047000   0.93033164   -6.4822497    720.19309  0.029319048  0.029307811            9 
 2048000   0.93517357   -6.4752532    722.07906  0.029381472   0.02930017           11 
 2049000   0.93413385   -6.4693716    720.68485   0.02931043  0.029292573           11 
 2050000   0.92576216   -6.4765326    722.52494  0.029370932  0.029284886            5 
 2051000   0.93129377   -6.4902111    720.70394  0.029282624  0.029277267            6 
 2052000   0.93572926   -6.4696193    722.99712  0.029361481  0.029269674            6 
 2053000   0.91656366   -6.4792134    723.65773  0.029373994   0.02926202            3 
 2054000   0.94242199   -6.4754734    721.88208  0.029287653  0.029254318            9 
 2055000   0.90272786   -6.5071997    721.33789  0.029251334   0.02924658            7 
 2056000   0.91640264   -6.4682663    721.94428  0.029261684   0.02923888           12 
 2057000   0.91160688   -6.4580641    724.00408  0.029330906  0.029231254            5 
 2058000   0.93047864   -6.4882339    720.65977  0.029181235  0.029223606            7 
 2059000   0.92021382   -6.4953476    723.11697  0.029266512   0.02921598            7 
 2060000   0.92541284   -6.4774283    721.85866  0.029201402  0.029208338           16 
 2061000   0.91797235   -6.5045066    720.84302  0.029146168  0.029200667            6 
 2062000   0.93783144   -6.4883299    722.53313  0.029200337  0.029193056           20 
 2063000   0.91988292   -6.5161222     722.5367  0.029186326  0.029185413            6 
 2064000   0.91687819   -6.5061005    724.27788  0.029242486  0.029177736            3 
 2065000   0.90706343    -6.484943    724.46059  0.029235698  0.029170101            6 
 2066000   0.93428173   -6.4979636    724.88714  0.029238752  0.029162536            6 
 2067000   0.91118363   -6.4650953    725.19151  0.029236878  0.029154906            7 
 2068000   0.94217995   -6.4629869    724.04781  0.029176652  0.029147289            6 
 2069000   0.92084491   -6.5064965    725.33466  0.029214381  0.029139715            5 
 2070000   0.91910582   -6.4914423    725.58847  0.029210486  0.029132168           11 
 2071000   0.92071971    -6.468942    725.59654  0.029196706  0.029124629            4 
 2072000   0.91539385     -6.48336    724.89393  0.029154357   0.02911702            4 
 2073000   0.91604635   -6.4927545    725.39058  0.029160258  0.029109497            5 
 2074000   0.92096302   -6.4881588    727.66552  0.029237605  0.029102007            5 
 2075000   0.92633029   -6.4917776    725.50008  0.029136549  0.029094395            8 
 2076000   0.92577249   -6.5087578    727.84287  0.029216557  0.029086868           18 
 2077000   0.93409271    -6.483696    728.56528  0.029231475  0.029079348           11 
 2078000   0.93088659   -6.4700638    726.78354  0.029145955  0.029071792           12 
 2079000   0.92358902   -6.4893224    726.87448  0.029135581  0.029064187           10 
 2080000   0.92723441   -6.4735693    725.32541  0.029059512  0.029056527            5 
 2081000   0.89552614   -6.4871575    726.73004  0.029101796  0.029048935            8 
 2082000   0.93392364   -6.4809499    726.58943   0.02908219  0.029041297            9 
 2083000   0.92262664   -6.4908332    725.18141  0.029011898  0.029033677           10 
 2084000   0.92679804   -6.5052669    726.88435  0.029066073  0.029026003            3 
 2085000   0.92138284   -6.4957366    727.11743  0.029061448  0.029018267            6 
 2086000   0.90182212   -6.5056041    726.47208  0.029021735  0.029010578            9 
 2087000   0.91374237   -6.4859161     728.6761  0.029095835   0.02900292           13 
 2088000   0.91560837   -6.4957782    729.23858  0.029104349  0.028995343           14 
 2089000   0.93152613    -6.479526    727.84654  0.029034887  0.028987716           11 
 2090000   0.95253835    -6.501014    727.93841  0.029024657  0.028980105            9 
 2091000   0.94319656   -6.4949688    728.33697  0.029026661  0.028972505            5 
 2092000    0.9000147   -6.5015287     727.6546  0.028985604  0.028964938           12 
 2093000   0.92582596   -6.5017062    728.77357  0.029016307  0.028957375           11 
 2094000   0.90953073   -6.5047436    729.93757  0.029048773  0.028949843           10 
 2095000   0.92163837    -6.482389    729.95987  0.029035794  0.028942286            7 
 2096000   0.92911331   -6.4888465    729.38434  0.028999059  0.028934868            6 
 2097000    0.9136087   -6.4929435    729.58722  0.028993293   0.02892743            6 
 2098000   0.91399092   -6.4744724    731.72612  0.029064431  0.028920011            5 
 2099000   0.90812344   -6.4882337    731.84138   0.02905516  0.028912604            9 
 2100000   0.90225973   -6.5176182    728.58931  0.028912274  0.028905068            4 
 2101000   0.90361836   -6.5192782    729.88279  0.028949817  0.028897523            6 
 2102000   0.88916903   -6.4726105    730.97529  0.028979356  0.028890056           11 
 2103000   0.93317697   -6.5049442    731.71005  0.028994692  0.028882548            5 
 2104000   0.91499154   -6.5093099    732.63855  0.029017687   0.02887501            8 
 2105000    0.9103396   -6.5063273    732.38905  0.028994024   0.02886756           12 
 2106000   0.90682346   -6.5016765    733.63093  0.029029397  0.028860087            7 
 2107000   0.90118197   -6.5206305    733.25287  0.029000667  0.028852623            6 
 2108000   0.89988512   -6.5511702    729.55548  0.028840745  0.028845098           12 
 2109000   0.93217616    -6.509117    732.87989  0.028958428  0.028837553            7 
 2110000   0.88991701   -6.5187706    732.74215  0.028939263  0.028830113           10 
 2111000   0.92511272   -6.4822326    733.10989  0.028940072  0.028822711           12 
 2112000   0.93243544   -6.5171221    731.33901  0.028856495  0.028815306            9 
 2113000   0.91554596   -6.4903285    732.40789  0.028884993   0.02880788            3 
 2114000   0.89744919   -6.4837758    734.39942  0.028949835  0.028800481            8 
 2115000   0.91903229   -6.5081998    734.19568   0.02892812  0.028793066           20 
 2116000   0.91541302   -6.5205657    734.28646  0.028918024  0.028785639            6 
 2117000   0.92422111   -6.5277256    735.34654  0.028946093  0.028778203            6 
 2118000   0.93037697    -6.468191     734.4678  0.028897852  0.028770804            7 
 2119000   0.90915544   -6.4838513    734.39127  0.028881204  0.028763401           11 
 2120000   0.88738153   -6.5369771    734.41013  0.028868323   0.02875604            3 
 2121000    0.9106209   -6.4995783    735.12283  0.028882714  0.028748662            7 
 2122000   0.91195084   -6.5123209    733.02306  0.028786642   0.02874124           19 
 2123000   0.91524321    -6.527284    735.35658   0.02886468  0.028733864            6 
 2124000   0.90569761   -6.5184705    736.89767  0.028911553   0.02872643            5 
 2125000     0.910887   -6.5112167    735.88903  0.028858393  0.028719066            8 
 2126000   0.89777563   -6.5150989     734.3818   0.02878574  0.028711684            5 
 2127000    0.9213741   -6.4806078     736.5372  0.028856653  0.028704307            9 
 2128000   0.92572733    -6.500596    737.88428  0.028895844  0.028696988            7 
 2129000   0.90699135    -6.497067    735.72792  0.028797868  0.028689564            5 
 2130000   0.88922255   -6.5027478     735.4287  0.028772641  0.028682214            9 
 2131000   0.92283429   -6.5362338    735.89844  0.028777508  0.028674777           13 
 2132000   0.92320084   -6.5189324    735.43002  0.028745701  0.028667324            5 
 2133000   0.91088943   -6.5250882    736.67339  0.028780801  0.028659979            6 
 2134000   0.90979461    -6.525392    737.74422  0.028809131  0.028652607            7 
 2135000   0.92019364   -6.5039424    739.16606  0.028851134  0.028645285           11 
 2136000   0.92377921    -6.505476    737.05619  0.028755313   0.02863796            7 
 2137000   0.91752351   -6.4944981    737.69667  0.028766833    0.0286306            8 
 2138000   0.89676191   -6.5251014    737.25736  0.028736255  0.028623259            7 
 2139000   0.88753069   -6.5265314    737.44325  0.028730063   0.02861592            9 
 2140000     0.910834   -6.5333705    740.22239  0.028824859  0.028608603            9 
 2141000   0.90751594   -6.5089263    738.15812  0.028731049  0.028601274            9 
 2142000   0.91821716    -6.500578    739.58474  0.028773138  0.028594033           14 
 2143000    0.9027619   -6.5356864    738.67959  0.028724513  0.028586727            6 
 2144000   0.91190003   -6.5363329    739.26787  0.028733981  0.028579386            6 
 2145000    0.9122929   -6.5483931    740.18796  0.028756331  0.028572024            5 
 2146000   0.87354121   -6.5203017    740.64343  0.028760618  0.028564741            5 
 2147000   0.90127273   -6.4981092    740.28211  0.028733198  0.028557465           16 
 2148000   0.90475463   -6.4985368    739.34296  0.028683386  0.028550274            8 
 2149000   0.90670433   -6.4998984     739.2468   0.02866631  0.028543011           14 
 2150000   0.92122654   -6.5262362    737.89543  0.028600598  0.028535732           11 
 2151000   0.89863284   -6.5214615    740.09456    0.0286725  0.028528405           22 
 2152000   0.91087737   -6.5493186    741.35703  0.028708063  0.028521134           14 
 2153000   0.90582454   -6.5140926    741.23059  0.028689835  0.028513819           15 
 2154000   0.90270048   -6.5149739    741.94418  0.028704123  0.028506491            5 
 2155000   0.89330609   -6.5370119    740.31189  0.028627683  0.028499171            6 
 2156000   0.91207794   -6.5275547    741.96763  0.028678402  0.028491857           10 
 2157000   0.89380894   -6.5224386    741.72057  0.028655562  0.028484583           10 
 2158000   0.88676543   -6.5169749    741.03734    0.0286159  0.028477245            6 
 2159000   0.90104233   -6.5291366    740.04901  0.028564498  0.028469878            5 
 2160000   0.90241228    -6.482158    741.22794  0.028596757  0.028462485           10 
 2161000   0.91689663   -6.5424747    740.05875  0.028538437  0.028454977            7 
 2162000   0.89654711    -6.532479    741.06091  0.028563865  0.028447479            5 
 2163000   0.89921423   -6.4979333    741.26529  0.028558533  0.028440081            8 
 2164000   0.90201161   -6.5127102    742.63776  0.028598188  0.028432649            5 
 2165000   0.90424805   -6.5399071    741.72774  0.028549951  0.028425191           16 
 2166000   0.91101612   -6.4989506    743.22015  0.028594189  0.028417762            7 
 2167000   0.91733858   -6.5198928    744.20002  0.028618675  0.028410365           11 
 2168000   0.90921754   -6.5518517    740.79537  0.028474607  0.028402902            5 
 2169000   0.89820789   -6.5422935     741.3949  0.028484513   0.02839547           16 
 2170000    0.9071163   -6.5006707     743.6417  0.028557669  0.028388021            8 
 2171000   0.89862829   -6.5516148    740.75085   0.02843355  0.028380584            9 
 2172000   0.89326865   -6.5269931    743.18223  0.028513744   0.02837307            6 
 2173000   0.91311486   -6.4859547    743.73077  0.028521659  0.028365689           17 
 2174000   0.89796848    -6.515806    743.17319  0.028487166  0.028358302            9 
 2175000   0.91844941   -6.5349481    743.94724  0.028503726  0.028350933           16 
 2176000    0.8914076   -6.5581873    742.56822  0.028437815  0.028343573           15 
 2177000   0.89986478    -6.521117    741.86355  0.028397778   0.02833617           20 
 2178000   0.91006646   -6.4741972    744.67275  0.028492223  0.028328877            7 
 2179000   0.92377358   -6.5104769    744.96591  0.028490359  0.028321562            6 
 2180000   0.89232604   -6.5408679    743.13616  0.028407345  0.028314137            6 
 2181000   0.92147981   -6.5268767    744.20152  0.028435027  0.028306732            6 
 2182000   0.91133522   -6.5149645    743.25673  0.028385913  0.028299279           11 
 2183000   0.90997384   -6.4977818    743.85095  0.028395593  0.028291901            7 
 2184000   0.89535103    -6.498652    743.52413  0.028370121  0.028284498           21 
 2185000   0.91103525   -6.5168461    744.66075  0.028400486  0.028277075           12 
 2186000   0.86966051   -6.5376218    743.81247  0.028355157  0.028269635           14 
 2187000   0.89879297   -6.5426373    743.53758  0.028331717  0.028262096            8 
 2188000   0.89988662     -6.53686    745.53049  0.028394671  0.028254698           11 
 2189000    0.9112609    -6.519116    744.93831  0.028359156  0.028247233            4 
 2190000   0.89969783   -6.5413075    743.75255  0.028301086  0.028239788           13 
 2191000   0.88679292   -6.5418949    745.85655  0.028368194  0.028232297           10 
 2192000   0.89023429   -6.5430786    746.03051  0.028361865  0.028224796           14 
 2193000   0.90110042   -6.5303252    745.38654  0.028324462  0.028217365           15 
 2194000     0.908912   -6.5178542    747.54318  0.028393466  0.028209919           13 
 2195000   0.91865473   -6.5223902    746.64285   0.02834635  0.028202497            7 
 2196000   0.91061757   -6.5458951    746.47772  0.028327175  0.028195127            9 
 2197000   0.91598784   -6.5597675     745.4136  0.028273919  0.028187638            6 
 2198000   0.89819058   -6.5427292    745.07907  0.028248372  0.028180193           21 
 2199000   0.89236436   -6.5242306    747.63241  0.028332288  0.028172727           12 
 2200000    0.9149663   -6.5135844    745.61463  0.028242978  0.028165304           27 
 2201000   0.90956704   -6.5098711    746.57743  0.028266599  0.028157895            5 
 2202000   0.89306434   -6.5492416    747.09981  0.028273532  0.028150364            7 
 2203000   0.90260908   -6.5280859    745.69966  0.028207734  0.028142893           14 
 2204000   0.87932249   -6.5064586    747.05205   0.02824607  0.028135442           11 
 2205000   0.89319747   -6.5535757    745.84809  0.028187758  0.028128012           16 
 2206000   0.89347221   -6.5353457    745.93151  0.028178132  0.028120581            8 
 2207000   0.92272321   -6.5197176    747.60999  0.028228741  0.028113167            6 
 2208000   0.89451219    -6.535812    746.90979   0.02818953  0.028105763           19 
 2209000   0.90742871   -6.5243143    749.68588  0.028281495  0.028098431            6 
 2210000   0.90055822   -6.5365564    747.34568  0.028180456  0.028091007            7 
 2211000   0.90202062   -6.5284768     748.0594   0.02819461    0.0280836            6 
 2212000   0.90669831   -6.5025062    749.91253  0.028251678  0.028076256            5 
 2213000    0.9146495   -6.5689575    747.53405  0.028149347  0.028068936            4 
 2214000   0.90217488   -6.5230333     749.9837  0.028228835  0.028061525           14 
 2215000     0.892225   -6.5450567    748.97185  0.028178023  0.028054117            7 
 2216000     0.903186   -6.5354965     748.3966  0.028143675  0.028046726            9 
 2217000   0.88510698   -6.5390449    748.87297  0.028148886  0.028039356           11 
 2218000   0.90778896   -6.5115292    750.85161  0.028210535  0.028031978            9 
 2219000   0.92430245   -6.5771372    747.90118   0.02808702  0.028024567            6 
 2220000   0.89598475   -6.5105081      750.225  0.028161599  0.028017167           15 
 2221000   0.89395159   -6.5241373    750.87123  0.028173166  0.028009866            9 
 2222000   0.89305609   -6.5395776    748.96121  0.028088854  0.028002623            5 
 2223000   0.87231247    -6.544152    748.27396  0.028050456  0.027995233            7 
 2224000   0.90150661   -6.5222555    752.13715  0.028182597   0.02798786           10 
 2225000   0.89607668   -6.5632101    749.70519  0.028078846  0.027980502            3 
 2226000   0.88506535   -6.5308588    751.87496   0.02814746  0.027973097            9 
 2227000   0.88636291   -6.5462785    750.86712  0.028097108  0.027965744            7 
 2228000   0.88135189   -6.5438237    749.77448   0.02804363  0.027958395           10 
 2229000   0.90101129   -6.5283088    750.31114  0.028051112  0.027951032           10 
 2230000   0.88709751   -6.5345321    749.14262  0.027994866  0.027943628            8 
 2231000   0.88746081   -6.5330035    751.09116  0.028055101  0.027936215           12 
 2232000   0.86742348   -6.5604283    749.44062  0.027980907  0.027928822            6 
 2233000    0.8959162    -6.538092     751.4863  0.028044719  0.027921449            5 
 2234000   0.91036672   -6.5110389    752.31015  0.028062897   0.02791409           11 
 2235000   0.91989656   -6.5488202     750.6738  0.027989329  0.027906733            8 
 2236000    0.8986424   -6.5382989    751.85389  0.028020792  0.027899325            9 
 2237000   0.89664757   -6.5315698    750.95541  0.027974795  0.027891887           14 
 2238000   0.89230823   -6.5434136    752.26036  0.028010886    0.0278844           10 
 2239000   0.89393546   -6.5479393    750.90135  0.027947795  0.027876865           15 
 2240000   0.89305005   -6.5548982    748.80178  0.027857209  0.027869328           18 
 2241000    0.8945643   -6.5304888    750.43019  0.027905332  0.027861808           12 
 2242000   0.90396939   -6.5450465    752.57114  0.027972463  0.027854304            5 
 2243000   0.89887272   -6.5312579    752.15615  0.027944574  0.027846856            8 
 2244000   0.88840639   -6.5372935    751.68779  0.027914728  0.027839404            6 
 2245000   0.90708986   -6.5518613     751.7205  0.027903508  0.027831921           12 
 2246000   0.91716034   -6.5310859    750.28797  0.027837933   0.02782441            5 
 2247000   0.89177861    -6.527298    753.19568  0.027933381  0.027816961            9 
 2248000   0.87919729   -6.5692134    751.95522  0.027874971  0.027809479           12 
 2249000   0.91579729   -6.5282533    752.71884  0.027890872     0.027802            7 
 2250000   0.88892324   -6.5520844    751.88125  0.027847454  0.027794539           13 
 2251000   0.89065238    -6.558034    752.26103  0.027849142  0.027786937           14 
 2252000   0.89546581   -6.5535952    749.47674  0.027733746  0.027779297           23 
 2253000   0.90094083   -6.5455578    752.33446  0.027827136  0.027771711            5 
 2254000   0.88144228    -6.540562    752.23217  0.027811009  0.027764216            9 
 2255000   0.88918254    -6.567506    751.13232  0.027758031  0.027756641            7 
 2256000   0.88850713   -6.5568762    753.09737  0.027818313  0.027749112            5 
 2257000   0.89847859   -6.5376266    754.46814    0.0278566    0.0277416           12 
 2258000   0.88084302   -6.5495595    753.71573  0.027816494  0.027733989            7 
 2259000   0.91774888   -6.5344882    753.62921  0.027800989  0.027726495           10 
 2260000   0.89682468   -6.5269573    752.64728  0.027752481  0.027718944           17 
 2261000   0.89085965   -6.5286678    753.47306  0.027770642  0.027711366           16 
 2262000   0.88459032   -6.5516691    753.22298  0.027749152  0.027703813           22 
 2263000   0.88900243   -6.5619387     753.7327   0.02775566  0.027696282            4 
 2264000   0.89530804   -6.5413519    754.50202  0.027771717  0.027688744           16 
 2265000   0.87807728   -6.5800964    753.71997  0.027730683  0.027681149            9 
 2266000   0.87733737    -6.553307    754.04254  0.027730308  0.027673556           20 
 2267000   0.91829047   -6.5431336    753.29043  0.027690429  0.027665995           14 
 2268000   0.88937251   -6.5432184    754.59694  0.027726225  0.027658422            9 
 2269000   0.89210219   -6.5638634    755.11682  0.027733099  0.027650945           10 
 2270000   0.87976883   -6.5318125    755.90373   0.02774977  0.027643473            8 
 2271000   0.88198608    -6.567276    754.08908  0.027670963  0.027635953           12 
 2272000   0.88017495   -6.5274297    755.86073  0.027723765  0.027628498            5 
 2273000    0.8753021   -6.5601408    758.09384  0.027793439  0.027621116            5 
 2274000    0.8840287   -6.5394776    754.95538  0.027666204  0.027613744           12 
 2275000    0.8874893   -6.5284629    756.42373  0.027707829  0.027606346            7 
 2276000   0.89520991   -6.5575355     756.0948  0.027683612  0.027598975           12 
 2277000   0.89444486   -6.5519442    758.22524  0.027749423  0.027591613           10 
 2278000   0.86224487   -6.5463328    756.66906  0.027680314  0.027584227            8 
 2279000   0.87720967    -6.538185    759.67861  0.027778214  0.027576867            4 
 2280000    0.8716586   -6.5507885    759.58876  0.027762747  0.027569504           12 
 2281000   0.86458564   -6.5539578    759.31633  0.027740623  0.027562134            7 
 2282000   0.90321934   -6.5420537    758.64233  0.027703854  0.027554784            8 
 2283000   0.88863861   -6.5676625    759.88383  0.027737036  0.027547441            9 
 2284000   0.88781913   -6.5384324    757.63961   0.02764301  0.027540065           14 
 2285000   0.86023489   -6.5342152    759.18861  0.027687404  0.027532755           12 
 2286000   0.89066623   -6.5773328    758.69754  0.027657391  0.027525398            9 
 2287000   0.87273446   -6.5434846    759.62104  0.027678948  0.027518032           15 
 2288000    0.8837566   -6.5271396    760.34043  0.027693052  0.027510721           11 
 2289000    0.8996686   -6.5507858    759.92094  0.027665682  0.027503356           10 
 2290000   0.89974386   -6.5636367    758.71036  0.027609547  0.027496001           16 
 2291000   0.89024682   -6.5552811    760.31882  0.027656002  0.027488658           14 
 2292000   0.87343258   -6.5637151    760.20725  0.027639879  0.027481365           30 
 2293000   0.89337893   -6.5444219    760.54205  0.027639993  0.027474039           19 
 2294000   0.89231929   -6.5450604    759.45843   0.02758858  0.027466681            4 
 2295000   0.88291805   -6.5429386    759.66514  0.027584065  0.027459403            8 
 2296000   0.86921331   -6.5541343    760.85088  0.027615087  0.027452072           10 
 2297000   0.88848443   -6.5100051    760.44717  0.027588419   0.02744476            6 
 2298000   0.90172785   -6.5757333    761.09542  0.027599921   0.02743746            9 
 2299000   0.86671799   -6.5468363    760.64118  0.027571451  0.027430152           25 
 2300000   0.88773435   -6.5511867    762.73423  0.027635298  0.027422864           21 
 2301000   0.88785717    -6.566686     761.1673   0.02756654  0.027415577           13 
 2302000   0.88721152   -6.5604114     760.8019  0.027541337  0.027408288            7 
 2303000   0.88827228   -6.5732012    762.63822  0.027595825  0.027401015            5 
 2304000   0.87380929   -6.5666437    761.50941   0.02754302  0.027393731            8 
 2305000   0.87684081   -6.5458231    761.56523  0.027533088  0.027386427            8 
 2306000   0.85585054   -6.5727446     761.3049  0.027511741  0.027379151            8 
 2307000   0.90811728   -6.5679496    763.89344  0.027593319  0.027371877           12 
 2308000   0.89332367   -6.5528726    764.25658  0.027594475  0.027364637            9 
 2309000   0.87862819   -6.5293069    762.89363  0.027533334  0.027357383           18 
 2310000   0.89805963   -6.6114341    763.81142  0.027554524  0.027350107            8 
 2311000   0.88553433   -6.5815377    762.33124  0.027489227  0.027342796            7 
 2312000   0.89319575   -6.5461805    763.28887  0.027511854   0.02733551            9 
 2313000   0.87961349   -6.5335607    764.65418  0.027549149  0.027328235           12 
 2314000   0.87953985   -6.5639766    763.62452  0.027500163  0.027320965           17 
 2315000   0.86633325   -6.5920681    762.46891  0.027446685  0.027313691           13 
 2316000   0.85895861   -6.5241761    765.43311  0.027541491  0.027306498            7 
 2317000   0.87628456   -6.5754676    763.09278  0.027445432  0.027299284           15 
 2318000   0.88200427   -6.5775002    764.84163  0.027496463  0.027292067           10 
 2319000   0.88289973   -6.5756591    764.01725  0.027454982  0.027284845           11 
 2320000   0.88329183   -6.5550935    764.91125  0.027475261  0.027277616            9 
 2321000   0.87417855   -6.5419105    764.34005  0.027442914  0.027270451           12 
 2322000   0.87378224   -6.5599162    766.19636  0.027497716  0.027263254           11 
 2323000   0.89154215   -6.5526245    763.96849  0.027405958  0.027256034            6 
 2324000   0.86743454   -6.5810884    763.02782  0.027360435   0.02724881            6 
 2325000   0.88138704   -6.5524708    764.36548  0.027396612  0.027241563            9 
 2326000   0.88933249   -6.5482604    762.64989   0.02732337  0.027234325            7 
 2327000   0.88159721   -6.5851361    764.18766  0.027366697  0.027227076           12 
 2328000   0.87227506    -6.557295     766.0177   0.02742045  0.027219791           15 
 2329000   0.88717324   -6.5560775    765.30415  0.027383145  0.027212548           12 
 2330000   0.89659651   -6.5787788    764.48434  0.027342072  0.027205275           12 
 2331000   0.87335672   -6.5685542    765.82204  0.027378165  0.027198004            8 
 2332000   0.87387042   -6.5886799    762.72035  0.027255587  0.027190759            5 
 2333000   0.86921057   -6.5524547    768.16797   0.02743849  0.027183539            2 
 2334000   0.89771242   -6.5676276    766.86444  0.027380193  0.027176343            7 
 2335000   0.88072829   -6.5473404    766.88662  0.027369258  0.027169199           12 
 2336000   0.86421854   -6.5425938    769.46086  0.027449374  0.027162126            5 
 2337000   0.86797183   -6.5840323    767.94923  0.027383726  0.027155016            7 
 2338000   0.86132131   -6.5900638    765.64351  0.027289831  0.027147826           11 
 2339000   0.87487503    -6.581293    767.68563   0.02735092  0.027140674           12 
 2340000   0.87370613     -6.60005     767.9194  0.027347557  0.027133466            9 
 2341000   0.86795082   -6.5770618    767.38207  0.027316748  0.027126334           12 
 2342000   0.87166449   -6.5670365    767.48716  0.027308823  0.027119152            8 
 2343000   0.87569213   -6.5909318    769.14702  0.027356203  0.027111963           12 
 2344000   0.87795182   -6.5559432    768.08955  0.027306938  0.027104839           10 
 2345000   0.87269694    -6.601845    770.38242  0.027376774  0.027097717            7 
 2346000   0.87989287   -6.5785705    768.81282   0.02730935  0.027090629            5 
 2347000   0.85194172   -6.5838929    767.93231   0.02726645   0.02708352            6 
 2348000   0.88185157   -6.5806846    767.82502   0.02725103  0.027076338            7 
 2349000   0.87640769   -6.6004177    767.52651  0.027228839  0.027069216            9 
 2350000   0.86923149   -6.5550714    769.07263  0.027272079  0.027062095            9 
 2351000   0.86515325   -6.5969516    768.20591  0.027229757   0.02705493            8 
 2352000     0.874158   -6.6059435    770.65327  0.027304892  0.027047744           11 
 2353000    0.8600273   -6.5879348    769.33903  0.027246743  0.027040628           11 
 2354000   0.85986109   -6.5583166    769.35761  0.027235826  0.027033492            8 
 2355000   0.86314397   -6.5948346    768.46081  0.027192527  0.027026352           16 
 2356000   0.87133208    -6.571071     769.2998  0.027210661  0.027019187           34 
 2357000   0.86485675    -6.557167    769.73403  0.027214469  0.027012023           10 
 2358000   0.87614984   -6.5688705    768.22734   0.02714968  0.027004851           10 
 2359000   0.88900081   -6.5755464    768.71231  0.027155303  0.026997693            8 
 2360000   0.87956174   -6.6003904    769.38303   0.02716748   0.02699047           14 
 2361000   0.86787489   -6.5832756    769.88702  0.027173762  0.026983275           11 
 2362000   0.88586834   -6.5824403    770.48399  0.027183319  0.026976118            5 
 2363000   0.87362332   -6.5672886    772.05604  0.027227255  0.026968945           10 
 2364000   0.87897656   -6.5812344     773.1046    0.0272527  0.026961901           12 
 2365000    0.8600005   -6.5808786    771.95882  0.027200804   0.02695483            5 
 2366000   0.85252454   -6.5889834    770.69632  0.027144841  0.026947676            7 
 2367000   0.88603849   -6.5799361    770.42886  0.027123957  0.026940502           12 
 2368000    0.8645369   -6.5892357    770.98732  0.027132155  0.026933418            9 
 2369000   0.86738253   -6.5972707    771.06791  0.027123537  0.026926319            9 
 2370000    0.8667779   -6.5935129    771.57915  0.027130069  0.026919186           13 
 2371000    0.8731826   -6.5865511    772.51313  0.027151453  0.026912065           10 
 2372000   0.87393528    -6.590786    772.66781   0.02714544  0.026904888           14 
 2373000   0.88420916   -6.5950082    772.34088   0.02712252   0.02689779            9 
 2374000   0.86620822    -6.601722    772.23266  0.027107296  0.026890702           15 
 2375000   0.87660592   -6.5519247    773.84251  0.027152369  0.026883609            8 
 2376000   0.87270968   -6.5595164    774.66546  0.027169804  0.026876515           10 
 2377000   0.86117138   -6.5939461    772.29416   0.02707524  0.026869393           12 
 2378000   0.87190056   -6.5973649    771.54279  0.027037524  0.026862265           17 
 2379000   0.88084486   -6.5813707    772.16903  0.027048096  0.026855105            7 
 2380000   0.87638075   -6.5845064    773.16775    0.0270717  0.026847983            7 
 2381000   0.87600393    -6.587661    771.85291  0.027014312  0.026840836           34 
 2382000   0.85785212   -6.5813614    773.19978   0.02705009  0.026833747           17 
 2383000   0.87124104   -6.5836185    773.85038   0.02706149  0.026826616           22 
 2384000   0.87589824   -6.6060813    772.54843  0.027004629  0.026819531           14 
 2385000   0.84757411    -6.590665    775.87829  0.027109654  0.026812503           23 
 2386000    0.8722331   -6.5864232    775.03511  0.027068843  0.026805458           14 
 2387000   0.88958227   -6.6191937    775.01202  0.027056697  0.026798367           23 
 2388000   0.86784393   -6.5804444    773.69455  0.026999391  0.026791256            6 
 2389000   0.85990616   -6.5794057    776.35878  0.027081024   0.02678417            6 
 2390000   0.86786251   -6.6202796    775.42048  0.027036976  0.026777051           11 
 2391000   0.87202968   -6.5885238    774.15571  0.026981588  0.026769926           17 
 2392000   0.85038689   -6.6019502    773.68529  0.026953919  0.026762807           12 
 2393000   0.86540027   -6.5858114    774.93008  0.026986004  0.026755682           20 
 2394000   0.87583204   -6.6148466    773.71822  0.026932547  0.026748523           24 
 2395000   0.87574072   -6.5748637    774.22818  0.026939046   0.02674137           13 
 2396000    0.8750212   -6.5741012    776.43671  0.027004616   0.02673419            6 
 2397000   0.87373469    -6.579939    775.37878   0.02695657  0.026727063           15 
 2398000   0.86523268   -6.5790109    773.80602  0.026890673  0.026719935           13 
 2399000   0.86973663   -6.5946875    774.35264  0.026898452  0.026712793            8 
 2400000    0.8570073   -6.6066173    774.15564  0.026880404  0.026705589           16 
 2401000   0.86188483   -6.5986566    774.34246  0.026875693   0.02669844           16 
 2402000   0.86817051   -6.5627635    774.82652  0.026881298  0.026691308           19 
 2403000   0.86601551   -6.6132349    774.05312   0.02684329  0.026684176           20 
 2404000   0.86929174    -6.581364    772.65364  0.026783612  0.026676954           29 
 2405000   0.85807551   -6.6031478    775.33498  0.026865384  0.026669688           12 
 2406000   0.85448534   -6.6136054    774.95128  0.026840928  0.026662477           13 
 2407000    0.8602211   -6.5968724    774.84601  0.026826133  0.026655308           17 
 2408000   0.84345735   -6.6108256    774.78154  0.026812761  0.026648083            8 
 2409000   0.87510113   -6.6045109     775.3607  0.026821665  0.026640913           24 
 2410000   0.86461587   -6.6095535    774.95003  0.026796336  0.026633731           13 
 2411000   0.86519325   -6.6246883    775.34302  0.026798805  0.026626587           11 
 2412000   0.85491526   -6.5792782    777.48999  0.026861871  0.026619444           15 
 2413000   0.85236026   -6.6111026    777.59086  0.026854222  0.026612273           11 
 2414000   0.87934551   -6.6040556    776.44997  0.026803713  0.026605089           10 
 2415000   0.85214893   -6.5728331    775.74999  0.026768461  0.026597894           11 
 2416000   0.85319179   -6.5765606    776.17912  0.026772183    0.0265907           13 
 2417000   0.87124867   -6.5887947    776.88167  0.026785329  0.026583506            3 
 2418000    0.8596544    -6.585605    774.72162  0.026699808  0.026576232           10 
 2419000   0.87161119   -6.5795414    778.13741  0.026806442  0.026568988           25 
 2420000   0.85767239   -6.6079174    777.48364  0.026772853  0.026561749           11 
 2421000   0.85811042   -6.6190564    776.79478  0.026738083  0.026554575            6 
 2422000   0.86093001   -6.6083572     777.4449  0.026749412  0.026547392            9 
 2423000   0.88439742   -6.5774966    778.24372  0.026765845  0.026540246            9 
 2424000   0.85668197   -6.5879965    777.99612  0.026746291  0.026533136            9 
 2425000   0.86729066   -6.5735974    779.59805  0.026790311  0.026525976           10 
 2426000   0.86501219   -6.5982203    779.12142  0.026762896  0.026518835           12 
 2427000   0.86485505   -6.5845061    779.78301  0.026774585   0.02651169            6 
 2428000    0.8636455   -6.6111311    778.52021  0.026720216  0.026504563            9 
 2429000   0.86828333   -6.5959622    779.50813  0.026743109  0.026497438            8 
 2430000   0.86728175   -6.6034501    781.63213  0.026804943   0.02649032           19 
 2431000   0.87121545   -6.6197073     779.1698  0.026709509   0.02648322            7 
 2432000   0.85094124   -6.6219079    779.01946  0.026693375  0.026476157           14 
 2433000   0.86885829   -6.6185409    781.35513  0.026762403  0.026469055           16 
 2434000   0.86601231   -6.5981281    779.33687  0.026682309  0.026461981            7 
 2435000   0.85552591    -6.630193    780.67906  0.026717285  0.026454911            8 
 2436000   0.86648792   -6.6062249    780.08136   0.02668587   0.02644782           11 
 2437000   0.85030209   -6.6080355     779.8805  0.026668052  0.026440753           12 
 2438000   0.84808279   -6.5965172    780.41687  0.026675447  0.026433674           11 
 2439000   0.86664348   -6.6070201    779.87217  0.026645899  0.026426594           16 
 2440000   0.87797202   -6.6207307    780.84019  0.026668039  0.026419478           11 
 2441000   0.85509201   -6.6060595    778.82152  0.026588199  0.026412362            7 
 2442000   0.87165081   -6.5816098    781.55021  0.026670428  0.026405272            6 
 2443000   0.86914542   -6.5989669    781.45265  0.026656183  0.026398198            8 
 2444000   0.85673463   -6.6054637    782.77074  0.026690219  0.026391115            7 
 2445000    0.8571665   -6.6023104    781.99909  0.026653002  0.026384061           24 
 2446000   0.84685373   -6.5974319    782.09719  0.026645448  0.026377003           17 
 2447000   0.84751293   -6.5674726    782.30637  0.026641683  0.026369936           25 
 2448000   0.87512535   -6.6136468    779.61923  0.026539326  0.026362872           13 
 2449000   0.86362313   -6.5835966    780.64335  0.026563337  0.026355808            9 
 2450000   0.86280785   -6.6212429    781.48764  0.026581212   0.02634873           14 
 2451000   0.87210666   -6.5690479     783.5816  0.026641561  0.026341629            9 
 2452000    0.8687305   -6.6333569    781.24133   0.02655116  0.026334545            9 
 2453000   0.84791256   -6.5836087     782.9201  0.026597367  0.026327507           11 
 2454000   0.86762866   -6.5806485    783.33961  0.026600775  0.026320473           10 
 2455000   0.86501038   -6.6542736    780.10429  0.026480118  0.026313388           16 
 2456000    0.8591733   -6.6361413    782.17412  0.026539567  0.026306269           11 
 2457000   0.85019742   -6.6272037    781.75536  0.026514562  0.026299212           31 
 2458000   0.86422584    -6.613509     784.7356  0.026604814  0.026292215            5 
 2459000   0.86075079   -6.5945959    782.00064   0.02650131  0.026285231            8 
 2460000   0.86324737   -6.6096817    785.03303   0.02659326  0.026278222            5 
 2461000   0.85139055   -6.6178391    781.03898  0.026447209  0.026271183           10 
 2462000   0.86265941   -6.5997705    783.65475  0.026525005   0.02626418            8 
 2463000   0.84075219   -6.6170136    783.67174   0.02651481  0.026257107            6 
 2464000   0.86167585   -6.6128005    782.91966  0.026478614  0.026250063           12 
 2465000   0.85085257   -6.6151705    782.65213  0.026458828  0.026243008            8 
 2466000   0.85495266   -6.6291868    782.58407  0.026445799  0.026235881           12 
 2467000   0.85576806   -6.6176943    783.03453  0.026450295  0.026228807            7 
 2468000   0.85441413   -6.5939053    784.29691  0.026482203  0.026221767           12 
 2469000   0.83704452   -6.6103543    782.07281  0.026396409  0.026214676           11 
 2470000    0.8685132   -6.5849977    783.66779  0.026439534  0.026207611            9 
 2471000   0.85396722   -6.5822409    783.64814  0.026428172  0.026200588            6 
 2472000   0.85131167   -6.6355661     785.6523  0.026485042  0.026193511            7 
 2473000   0.84423761   -6.5979105    783.82426  0.026412733  0.026186496            8 
 2474000   0.86337641   -6.6116233    782.48322  0.026356886  0.026179466            6 
 2475000     0.859379     -6.60751    784.73429   0.02642203   0.02617239           10 
 2476000   0.86113372    -6.656078    781.71949  0.026309891  0.026165298           11 
 2477000   0.85973535   -6.6033322    783.34521  0.026353964    0.0261582           11 
 2478000   0.85728222   -6.6431246    784.95186  0.026397359   0.02615109           15 
 2479000    0.8592469   -6.6132078    784.16593  0.026360291  0.026144029           23 
 2480000   0.85590577   -6.6175068     785.1956  0.026384261   0.02613699           46 
 2481000   0.85003703   -6.6268064    784.98726  0.026366628  0.026129901           12 
 2482000   0.85148446   -6.6439633    785.13664  0.026361021  0.026122751           12 
 2483000    0.8627697   -6.6209819    785.29228  0.026355628  0.026115658           28 
 2484000   0.85961489   -6.6157661    786.80954  0.026395919  0.026108569           18 
 2485000   0.84939058   -6.6505757    786.53299  0.026376023  0.026101488           12 
 2486000    0.8697397   -6.6379694     786.2028  0.026354344  0.026094394           22 
 2487000   0.87533444   -6.6005671    785.75489  0.026328739  0.026087314           15 
 2488000   0.86315628   -6.5916794    785.53357  0.026310744  0.026080243            8 
 2489000   0.84308352   -6.6115019     786.2429  0.026323922  0.026073134           10 
 2490000   0.87226693   -6.6037822    787.92162  0.026369532  0.026066085           10 
 2491000   0.84450038   -6.5987582    787.10581  0.026331654  0.026059038           13 
 2492000   0.85353237   -6.6484927     787.0443  0.026319031  0.026051984            5 
 2493000   0.85247869   -6.6369218    785.66497  0.026262367  0.026044883            8 
 2494000    0.8390165   -6.6104194    786.04931  0.026264679  0.026037789           10 
 2495000   0.84512212    -6.629222    788.47595  0.026335202  0.026030673            7 
 2496000   0.83683945   -6.6270778    785.69527  0.026231813  0.026023541            6 
 2497000   0.83195459   -6.6075383    786.51278  0.026248591  0.026016441           14 
 2498000   0.85477802   -6.6406351    785.52468   0.02620512  0.026009304           13 
 2499000   0.86214449   -6.6242284    787.44057  0.026258522  0.026002224            8 
 2500000   0.86557378   -6.6436874    785.21909   0.02617397  0.025995129           13 
 2501000   0.85776661   -6.6379519    787.93545  0.026254013  0.025988073           16 
 2502000   0.82970156   -6.6073877    787.65726  0.026234255  0.025981041           29 
 2503000   0.84941161   -6.6426758    787.88742  0.026231436  0.025973975           13 
 2504000   0.85232093   -6.6590086     785.6397  0.026146156  0.025966843           11 
 2505000    0.8370893   -6.6204716    789.58356  0.026266918  0.025959738            7 
 2506000   0.85017601    -6.662428    785.41959   0.02611797  0.025952616           12 
 2507000   0.83307278   -6.6469467    786.70159  0.026150166  0.025945558            6 
 2508000   0.83948145   -6.6133427    787.70298  0.026173012  0.025938535           12 
 2509000   0.87734463   -6.6556022     786.8695  0.026134898  0.025931488           13 
 2510000   0.83509251   -6.6449808    787.62141  0.026149449  0.025924413            8 
 2511000   0.84176377   -6.5773096    789.17187  0.026190491  0.025917392            5 
 2512000   0.84871519   -6.6257372    788.84217  0.026169127  0.025910387           10 
 2513000    0.8578608    -6.625552    789.79893  0.026190441  0.025903335           11 
 2514000    0.8452697   -6.6265528    789.14597  0.026158379  0.025896318           17 
 2515000    0.8474561   -6.6130732    789.03358  0.026144254  0.025889243            4 
 2516000   0.85322752    -6.658159    789.10679  0.026136287  0.025882183            7 
 2517000   0.84196056   -6.6189696    788.73604  0.026113629  0.025875121            8 
 2518000   0.85484946   -6.6473518    788.87673  0.026107914  0.025868054           25 
 2519000   0.84670791   -6.6425549    790.18148  0.026140713   0.02586099            4 
 2520000   0.85482937   -6.6173065    788.28877   0.02606775  0.025853938            6 
 2521000   0.86376816    -6.634501    790.11521  0.026117784  0.025846863           16 
 2522000    0.8337852   -6.6128014    788.97138  0.026069633  0.025839768            9 
 2523000   0.83540161   -6.6287874    788.85487  0.026055452  0.025832665            9 
 2524000    0.8572343   -6.6477696    787.47738  0.025999649  0.025825586           10 
 2525000   0.85751713   -6.6488614    788.41046  0.026020147  0.025818431            9 
 2526000   0.82851701   -6.6004858    789.94109  0.026060342  0.025811361           32 
 2527000   0.84825254   -6.6249625    790.01265  0.026052389  0.025804246            6 
 2528000   0.84827879   -6.6370646    788.85316  0.026003862  0.025797179           23 
 2529000   0.83397561    -6.641439    789.08972  0.026001375  0.025790113            9 
 2530000    0.8383355   -6.6354154    789.69395     0.026011  0.025783066           11 
 2531000    0.8350256    -6.640132    791.59486   0.02606331     0.025776            6 
 2532000   0.84013543   -6.6463874    792.92684  0.026096855  0.025768937            7 
 2533000   0.84653885   -6.6076761     791.9554  0.026054593  0.025761907           11 
 2534000   0.86166381   -6.6493643    790.60073  0.025999761  0.025754901            7 
 2535000   0.84243402   -6.6316471    789.58602  0.025956148  0.025747815           10 
 2536000   0.84074336   -6.6732916    789.32108  0.025937207  0.025740724           10 
 2537000   0.82820275   -6.6419414    790.55182   0.02596741  0.025733644           15 
 2538000   0.85047188   -6.6333295    789.23972  0.025914096  0.025726606            9 
 2539000   0.85942562   -6.6554739    790.57657  0.025947767  0.025719506           21 
 2540000   0.84795281   -6.6374966    790.89281  0.025947927  0.025712383            6 
 2541000   0.84045387   -6.6383631    790.52514  0.025925657  0.025705306           20 
 2542000   0.84567922   -6.6087375    790.75993  0.025923155  0.025698246           13 
 2543000    0.8537771   -6.6384106    791.65445  0.025942275  0.025691212           11 
 2544000   0.84050175   -6.6342313    790.21211  0.025884831   0.02568412           10 
 2545000   0.86200676   -6.6234991    792.19145  0.025939471  0.025677075           20 
 2546000   0.84861856   -6.6221479    792.37965  0.025935443  0.025669985           14 
 2547000   0.84392921   -6.6514338     793.5347  0.025963051  0.025662919            9 
 2548000   0.85671947   -6.6205246    791.21745  0.025877075  0.025655881           15 
 2549000   0.85808059   -6.6411258    791.95993  0.025891197  0.025648876           14 
 2550000   0.85269661   -6.6325082    792.31777  0.025892737  0.025641864           10 
 2551000   0.84471546   -6.6338233    791.07341  0.025841938  0.025634842           13 
 2552000   0.83835525   -6.6131092    791.41056  0.025842821  0.025627761           12 
 2553000   0.82820798   -6.6739479     791.9223  0.025849403  0.025620654           44 
 2554000   0.82747424   -6.6759388    791.89419  0.025838364   0.02561355            9 
 2555000   0.83969763   -6.6394212    793.10681  0.025867802  0.025606489           12 
 2556000   0.85966379   -6.6147939    791.38868  0.025801665  0.025599495           12 
 2557000   0.82463895   -6.6478179    792.02694  0.025812376  0.025592419           11 
 2558000   0.85980488   -6.6881933    790.94989  0.025767197  0.025585263           18 
 2559000   0.85161115   -6.6544974    790.87799  0.025754787  0.025578115           18 
 2560000   0.83454733    -6.666715    792.02434  0.025782042  0.025571023           11 
 2561000   0.82472619   -6.6340064    793.25547  0.025812035  0.025563923           17 
 2562000   0.84493353   -6.6610429    793.44173  0.025808019  0.025556786           19 
 2563000   0.84849523   -6.6574389    791.66142  0.025740064  0.025549654           12 
 2564000    0.8519687   -6.6526378    792.94919   0.02577188  0.025542528           23 
 2565000   0.85275427   -6.6918354    791.99054  0.025730687  0.025535392           18 
 2566000   0.84286183   -6.6569832    791.78196  0.025713885  0.025528311           13 
 2567000   0.82020859   -6.6445953    793.95563  0.025774433  0.025521255            8 
 2568000   0.83920027   -6.6245213    792.06785  0.025703136  0.025514232           14 
 2569000   0.84248605   -6.6287381    794.11843  0.025759648  0.025507169           16 
 2570000   0.84482236   -6.6505607    796.51818  0.025827438  0.025500173           15 
 2571000   0.83997815    -6.662735    792.78556  0.025696407  0.025493125           10 
 2572000   0.83693094    -6.659817    795.09584   0.02576127  0.025486059            7 
 2573000   0.85276775   -6.6698771    795.46371  0.025763172  0.025479021           17 
 2574000   0.84162219   -6.6516133    794.59532  0.025725049  0.025471956           13 
 2575000   0.83047538   -6.6623537    794.31765  0.025706073  0.025464915           20 
 2576000   0.85789284   -6.6355384    796.22019  0.025757641  0.025457956            9 
 2577000   0.83615583   -6.6546512    795.92527  0.025738109  0.025450909           10 
 2578000   0.83429489   -6.6669611    793.65702  0.025654804  0.025443857           13 
 2579000   0.84256686   -6.6344261     795.7187  0.025711474  0.025436841            9 
 2580000   0.83079508     -6.63442    795.12628  0.025682373  0.025429848           13 
 2581000   0.83472809    -6.667799    796.07346  0.025703005   0.02542285           14 
 2582000   0.83173842   -6.6465565    795.70605  0.025681192  0.025415848           49 
 2583000   0.83327701   -6.6635932    793.43772  0.025598068  0.025408795           15 
 2584000    0.8299045   -6.6413446    796.86842  0.025698801  0.025401786            7 
 2585000     0.835322    -6.642876    795.60786  0.025648222  0.025394827            4 
 2586000   0.82374607   -6.6671566    795.55324  0.025636544  0.025387841           15 
 2587000   0.83430729   -6.6772498    795.74893  0.025632938  0.025380818           11 
 2588000   0.83422911   -6.6502956    795.52334   0.02561577  0.025373771            6 
 2589000   0.84344152   -6.6490726    794.76155  0.025581355   0.02536675           11 
 2590000   0.83554939   -6.6422521    796.21651  0.025618292  0.025359751           19 
 2591000   0.84124465    -6.649207    797.15002  0.025638428  0.025352707           13 
 2592000   0.85506068   -6.6741683    797.61512   0.02564349  0.025345667            9 
 2593000   0.82380481   -6.6455819    797.02942  0.025614778  0.025338677           11 
 2594000   0.83228038   -6.6232621    798.12731  0.025640173  0.025331745            9 
 2595000   0.84679671   -6.6217007    798.82747  0.025652777  0.025324791           10 
 2596000   0.83300657    -6.650234    797.59889  0.025603457  0.025317805            6 
 2597000   0.84096203   -6.6693666    797.67523  0.025596048  0.025310828            9 
 2598000   0.82929703   -6.6530959    796.52024  0.025549148  0.025303844           18 
 2599000   0.84816951   -6.6568434    797.89332  0.025583344  0.025296877            9 
 2600000   0.83573769   -6.6518924    798.29981  0.025586532  0.025289912           12 
 2601000   0.81734344    -6.665063    796.68242  0.025524876  0.025282954            9 
 2602000   0.84049145   -6.6799895    796.91026  0.025522363  0.025275981           15 
 2603000   0.83922748   -6.6565854    796.76188  0.025507808  0.025269032           12 
 2604000   0.83980001   -6.6416321    798.27762  0.025546519   0.02526202           17 
 2605000   0.83799261   -6.6752691     798.4903  0.025543516  0.025255085           32 
 2606000   0.82757417    -6.654126    798.16058   0.02552317  0.025248095           24 
 2607000   0.83969592   -6.6517896     798.3728  0.025520164  0.025241114           22 
 2608000   0.84710281    -6.669836    798.69642  0.025520719  0.025234168           16 
 2609000   0.81938168   -6.6541606    798.31249  0.025498674  0.025227202           32 
 2610000   0.82315453   -6.6542016    797.58718  0.025465746  0.025220246           13 
 2611000   0.82964629   -6.6627156    800.85339  0.025560238  0.025213328            8 
 2612000   0.83132507   -6.6782289    799.46676  0.025506214  0.025206415           13 
 2613000   0.85677146   -6.6733905       799.43   0.02549528  0.025199521           11 
 2614000   0.83142874   -6.6413047    801.96026   0.02556619  0.025192619           10 
 2615000   0.82756653   -6.6440369    800.17932   0.02549966  0.025185745           12 
 2616000   0.84827843   -6.6523717    801.52316   0.02553272  0.025178849           29 
 2617000   0.82374561   -6.6442596    801.19232  0.025512429  0.025171958           37 
 2618000    0.8300343   -6.6630741     798.9521  0.025431376  0.025165074            8 
 2619000   0.83510496   -6.6682553    801.25682  0.025494999  0.025158182           15 
 2620000   0.82278536   -6.7129113    800.19093  0.025451365  0.025151316           15 
 2621000   0.81859768   -6.6829151    801.48014  0.025482645  0.025144375           24 
 2622000   0.83125492   -6.6478227    801.23635  0.025465178  0.025137506           18 
 2623000   0.82066091   -6.6485325    799.63607  0.025404628  0.025130622            6 
 2624000   0.81456391   -6.6708188    802.01423  0.025470472  0.025123702           13 
 2625000   0.84736545   -6.6641254    798.78418  0.025358228   0.02511678           22 
 2626000   0.83426555   -6.6537207    801.51306  0.025435169  0.025109855           24 
 2627000   0.82692612   -6.6733036    801.08968  0.025412057  0.025102939           17 
 2628000    0.8407597   -6.6526202    799.46346   0.02535082  0.025096064           29 
 2629000   0.83985704   -6.6883562    802.00942  0.025421879  0.025089144           16 
 2630000   0.83011445   -6.6627414    801.41147  0.025393266  0.025082235           15 
 2631000   0.83872983   -6.6253766    801.27907  0.025379421  0.025075376           22 
 2632000   0.82837396    -6.673408    800.09322  0.025332232  0.025068465           22 
 2633000   0.83706339   -6.6510559    799.26577  0.025296423  0.025061551            8 
 2634000     0.856373   -6.6490718    801.81953  0.025367614  0.025054612           10 
 2635000    0.8452101   -6.6717827    802.05098  0.025365306  0.025047694           15 
 2636000   0.82864528   -6.6763976    803.45976   0.02540022  0.025040757           11 
 2637000   0.82539381   -6.6670251     801.1486  0.025317552  0.025033819           14 
 2638000   0.84158628   -6.6456907    801.60461   0.02532236  0.025026889           31 
 2639000   0.82981985   -6.6656128    801.97907  0.025324589   0.02501994           16 
 2640000   0.81368163   -6.6708579    799.52787  0.025237622  0.025012945           35 
 2641000   0.83287658   -6.6542172    800.11227  0.025246506  0.025005928           17 
 2642000   0.82681166   -6.6704818    801.73104  0.025288009  0.024998946            9 
 2643000   0.82294663   -6.6666403    799.82402  0.025218313  0.024992032           15 
 2644000   0.82049693   -6.6785729    801.74849   0.02526943  0.024985077           12 
 2645000   0.83480708   -6.6750709     801.1776   0.02524189  0.024978134           15 
 2646000   0.82198267   -6.6277627    803.58936  0.025308307  0.024971213            9 
 2647000   0.83406492    -6.641939    804.18626  0.025317537  0.024964325           12 
 2648000   0.82380768   -6.6913708    802.90071   0.02526752    0.0249574            8 
 2649000   0.80787135   -6.6777236    800.73057  0.025189712  0.024950473           10 
 2650000   0.84514154   -6.6795188    801.10162  0.025191875  0.024943488            8 
 2651000   0.81125383   -6.6790219    801.70821   0.02520144   0.02493651            9 
 2652000    0.8248248   -6.6543916    800.99598  0.025169557  0.024929552           11 
 2653000    0.8514197   -6.6752184    802.19973  0.025197881   0.02492263            9 
 2654000   0.82799349   -6.6783124    801.37365  0.025162448   0.02491566           12 
 2655000    0.8175433   -6.6502613    801.90856   0.02516976  0.024908741           10 
 2656000   0.82938553   -6.6698466    802.32305  0.025173289  0.024901812           11 
 2657000   0.83939246   -6.6591013    803.27402   0.02519364    0.0248949            8 
 2658000   0.81518034   -6.6579112    802.74239  0.025167494  0.024888005           14 
 2659000   0.81106758   -6.6386039    802.57592  0.025152812  0.024881121           18 
 2660000   0.83485721   -6.6793145    803.25872  0.025164747  0.024874192           14 
 2661000   0.81247103   -6.6766297    805.02709  0.025210669   0.02486728            8 
 2662000   0.83380772   -6.6778366     802.4404  0.025120223  0.024860353           11 
 2663000    0.8182605    -6.673657    803.05938   0.02513016   0.02485342           25 
 2664000    0.8256912   -6.6507997    803.92075  0.025147671   0.02484648           11 
 2665000   0.83683197   -6.6905136    803.16475  0.025114595  0.024839496           12 
 2666000   0.81863314   -6.6728644    802.68751  0.025090257  0.024832525           20 
 2667000   0.83445089   -6.6909541    801.58401  0.025046369  0.024825569           15 
 2668000   0.84017744   -6.6566792    802.25753  0.025058019  0.024818585           14 
 2669000   0.83030992   -6.6747331     803.4466  0.025085756  0.024811617           24 
 2670000   0.81385234   -6.6774439    803.97595  0.025092882  0.024804637           13 
 2671000   0.83448214   -6.6835861    803.98985  0.025083921  0.024797647            9 
 2672000   0.82732016   -6.6681706     802.3283  0.025022714  0.024790656           11 
 2673000   0.81133482   -6.6524124    803.94713  0.025063821   0.02478367           28 
 2674000   0.83685151   -6.7181406    803.78681  0.025049452  0.024776702           10 
 2675000   0.81969724   -6.6571758    804.41169  0.025059554  0.024769748           13 
 2676000   0.81401073   -6.6566658    803.08175  0.025008774  0.024762812           13 
 2677000   0.82670473   -6.6849022    803.77699  0.025021074  0.024755853            6 
 2678000   0.83774008   -6.6832992    805.69069  0.025071281  0.024748908           14 
 2679000   0.81587508   -6.6880422    805.31462  0.025050225  0.024741951           15 
 2680000    0.8339488    -6.675985    804.97221   0.02503023  0.024734999           11 
 2681000   0.81022526   -6.6508068    804.69506   0.02501228  0.024728098           16 
 2682000   0.84322918   -6.6668064    802.85225  0.024945695  0.024721182           22 
 2683000   0.81433788   -6.6725206    801.41332  0.024891705    0.0247142           14 
 2684000   0.82005233    -6.658761    804.14808   0.02496734  0.024707257           23 
 2685000   0.83135391     -6.70941    804.42094   0.02496651  0.024700339            8 
 2686000   0.81809488   -6.6628349    805.37165   0.02498671  0.024693354           14 
 2687000   0.82773028   -6.6879583    804.11595  0.024938468   0.02468637           13 
 2688000   0.82121952     -6.66552    802.54893  0.024880609  0.024679385           10 
 2689000    0.8293676   -6.6772133     807.3015  0.025018641  0.024672474           20 
 2690000    0.8280727   -6.6862495    806.09903  0.024972089  0.024665539           17 
 2691000   0.81527342   -6.6895167    805.45314  0.024942807  0.024658627           11 
 2692000   0.79275381   -6.6621037    806.53447  0.024967016  0.024651692           17 
 2693000   0.81827632   -6.7114311    808.40633  0.025015668  0.024644824            9 
 2694000   0.82709153   -6.6826584    806.09484  0.024934881  0.024637928           11 
 2695000   0.81099988   -6.6988573    807.11003   0.02495702  0.024631092           21 
 2696000   0.80439522   -6.6883536    806.56913  0.024931044  0.024624236            8 
 2697000   0.80873908   -6.6552518    807.00409   0.02493524    0.0246174           15 
 2698000   0.82588226    -6.689084    808.43915  0.024970322  0.024610565           25 
 2699000   0.82074585    -6.712648    807.11394  0.024920154  0.024603668           40 
 2700000    0.8433693   -6.7115668     806.8186  0.024901809  0.024596803           15 
 2701000   0.81450295   -6.6843719    808.73878  0.024951832   0.02458992            9 
 2702000   0.82021847   -6.6846735    806.77382  0.024881995  0.024583078           24 
 2703000   0.81322552   -6.6786808    806.26085  0.024856975   0.02457621           18 
 2704000   0.83743021   -6.7251585    807.13329   0.02487467  0.024569349           15 
 2705000   0.82136525    -6.669977    806.24157  0.024838003  0.024562453           12 
 2706000   0.81614096   -6.6572045    807.14421  0.024856621   0.02455561           13 
 2707000   0.82731573   -6.7111506    807.20937  0.024849445  0.024548764            6 
 2708000   0.80608429   -6.6813565    807.61437  0.024852732  0.024541942           11 
 2709000   0.82281435   -6.6797414    810.16982  0.024922168  0.024535082            7 
 2710000   0.83845574   -6.6850908    809.59843  0.024895401  0.024528266           16 
 2711000   0.83069628   -6.6860456    809.49499  0.024883038  0.024521477           22 
 2712000   0.82431807   -6.6851639    809.65717  0.024878846  0.024514642           19 
 2713000   0.80813497   -6.7039234    808.55446  0.024835805  0.024507809            8 
 2714000   0.82224973   -6.6876999    809.44555  0.024854015  0.024500999           14 
 2715000   0.81885922   -6.7018839    808.76821   0.02482407  0.024494191            7 
 2716000   0.83054686   -6.6884878    809.21841  0.024828743  0.024487372           16 
 2717000   0.83149494   -6.6809586    809.09233  0.024815738  0.024480581           14 
 2718000   0.82725281   -6.6831889    809.13476  0.024807909  0.024473802            7 
 2719000   0.81774448   -6.6922662    809.53231   0.02481097  0.024467014            9 
 2720000   0.82254212   -6.6749795    809.09274  0.024788381  0.024460237            8 
 2721000   0.81394118   -6.6986096    808.37028  0.024757145  0.024453455           13 
 2722000   0.82272762   -6.6883989    808.81047  0.024761526  0.024446684           21 
 2723000   0.82486278   -6.6961964    810.45997  0.024802913  0.024439929           14 
 2724000   0.82284421    -6.704543    811.32316  0.024820214  0.024433147           23 
 2725000    0.8087976   -6.7110367    810.66626  0.024791017  0.024426367           15 
 2726000    0.8228336   -6.7052578    809.16495  0.024736028  0.024419588            7 
 2727000   0.80644519   -6.6697023    812.11836  0.024817209   0.02441283           13 
 2728000    0.8043988   -6.6928942    811.89348  0.024801243  0.024406083           12 
 2729000   0.81570902    -6.700092    810.64368   0.02475399  0.024399325           14 
 2730000   0.81081375   -6.7024434    811.88176  0.024782716   0.02439259           11 
 2731000   0.82510015   -6.6970396    810.40647  0.024728624  0.024385852            9 
 2732000   0.80677386   -6.7016907    811.05366  0.024739314  0.024379147            8 
 2733000   0.81351006   -6.7065034    811.95923  0.024757874  0.024372428           23 
 2734000   0.81919686   -6.6860476    810.30044  0.024698258  0.024365668           36 
 2735000   0.82102446   -6.7273637    811.09303  0.024713377  0.024358935           24 
 2736000    0.8208221   -6.6911613    811.96146  0.024730795  0.024352207           14 
 2737000   0.79326046   -6.7168042    811.41872  0.024705234  0.024345465            9 
 2738000    0.8145248   -6.6999411    813.50555  0.024759726  0.024338815           12 
 2739000    0.8232166   -6.7006844    812.45969  0.024718866  0.024332168            6 
 2740000   0.82847202    -6.690625    810.11068  0.024638403  0.024325465            8 
 2741000   0.79550269   -6.7085792    812.71895  0.024708712  0.024318727           12 
 2742000   0.81901344    -6.689286    813.15088  0.024712828  0.024312029           13 
 2743000   0.82664716   -6.7073252     812.5744  0.024686304   0.02430529           12 
 2744000   0.79712143   -6.7169295    811.61014  0.024648024  0.024298533            8 
 2745000   0.82135685   -6.7074977    812.26094  0.024658802  0.024291801           10 
 2746000   0.81339965   -6.7079359    812.43052  0.024654969  0.024285076           35 
 2747000   0.79903614   -6.7005829    814.18222  0.024699133  0.024278356           36 
 2748000   0.80886777    -6.701887    811.38929  0.024605449  0.024271633           37 
 2749000    0.8225756   -6.7055864    814.04544  0.024677017  0.024264976           42 
 2750000   0.80401807   -6.7054636    813.94606  0.024665032  0.024258292           16 
 2751000    0.8250556   -6.6958352     812.7111  0.024618657  0.024251583           23 
 2752000   0.81578056   -6.6753991    813.78169   0.02464213  0.024244926           43 
 2753000   0.80342175   -6.7052222    815.25047  0.024677639  0.024238252           11 
 2754000   0.82478711   -6.7041292    814.37134  0.024642077  0.024231576           12 
 2755000   0.83143369   -6.7095067    813.66344  0.024611719  0.024224911           11 
 2756000   0.81043449   -6.7197745    814.17706  0.024618319  0.024218255           18 
 2757000   0.80391762   -6.7027861    815.97107  0.024663616  0.024211642           12 
 2758000   0.82645723    -6.689824    815.94214  0.024653799   0.02420505            8 
 2759000   0.80045355   -6.7110216    817.36992  0.024687989  0.024198474           15 
 2760000   0.82030942   -6.7108273     816.9931  0.024667666   0.02419189           23 
 2761000   0.81946246   -6.6821349    813.60776  0.024556554   0.02418528           15 
 2762000   0.80823642   -6.6818913     814.2726  0.024567723  0.024178676           25 
 2763000   0.81785348   -6.6904214    816.07257  0.024613119  0.024172084           10 
 2764000   0.82517331   -6.7233952    814.60699  0.024560028   0.02416545           12 
 2765000   0.80905576    -6.667799    813.50991   0.02451808  0.024158808            6 
 2766000   0.82666294   -6.7379339    814.51406  0.024539469  0.024152132           17 
 2767000   0.81802293   -6.7442434    814.83335  0.024540216   0.02414548           23 
 2768000   0.80648947   -6.7259799    812.81701  0.024470647    0.0241388           10 
 2769000   0.80641731   -6.7268442    815.90827  0.024554841  0.024132157           11 
 2770000   0.82238972   -6.7480128    816.43628  0.024561862  0.024125491            7 
 2771000   0.78708992   -6.7181884    814.84224  0.024505059  0.024118851            6 
 2772000   0.80620879   -6.6644788    815.91935    0.0245286  0.024112247           35 
 2773000    0.8039157   -6.7001865    817.51943   0.02456784  0.024105652            8 
 2774000   0.79161976   -6.7032674    816.50614  0.024528543   0.02409907            9 
 2775000    0.8057115   -6.7098488    816.46768  0.024518549  0.024092511           13 
 2776000   0.79630763   -6.6929115    818.46386   0.02456964   0.02408596           17 
 2777000   0.80418962   -6.7131768    816.49092  0.024501588  0.024079372           14 
 2778000   0.78624973   -6.6891057    817.85396  0.024533656  0.024072819           10 
 2779000   0.81478258   -6.7430159    818.29736  0.024538124  0.024066239           10 
 2780000   0.78934103   -6.7139917     819.0488  0.024551822  0.024059708           14 
 2781000   0.80487526   -6.7147653     818.8454  0.024536899   0.02405317           39 
 2782000   0.80970283   -6.7205453    817.94136  0.024500999  0.024046649           20 
 2783000   0.82670602   -6.7160006    817.45508  0.024477634  0.024040112            8 
 2784000   0.79741976    -6.706224    817.69279  0.024475958  0.024033599            8 
 2785000   0.80762585   -6.6952711     818.3544  0.024486966   0.02402711           29 
 2786000   0.80837258   -6.7247248    817.78217   0.02446106  0.024020619           15 
 2787000   0.82096608   -6.7119499     818.6265  0.024477529  0.024014132           21 
 2788000   0.80078294   -6.7340246    819.13845  0.024484052  0.024007669           19 
 2789000   0.79324391   -6.7010446    818.56148  0.024458034  0.024001239           35 
 2790000   0.80828121   -6.6691436    820.50318  0.024507263  0.023994824           38 
 2791000   0.80121198   -6.7042643    821.49737  0.024528167  0.023988409           27 
 2792000   0.82336498   -6.7139263    818.67128  0.024435031  0.023981985           17 
 2793000   0.79403124   -6.7254391    820.03294   0.02446691  0.023975551           11 
 2794000   0.80220023   -6.7094099    820.68907  0.024477722  0.023969116           24 
 2795000   0.79787737   -6.7061835    820.44123  0.024461575  0.023962653           32 
 2796000   0.79227684   -6.6927791    819.89426  0.024436524  0.023956223           14 
 2797000   0.78439235   -6.7282695    819.87376  0.024427177  0.023949794           20 
 2798000   0.79409846   -6.7313402    820.87421  0.024448243  0.023943334           16 
 2799000   0.81423086   -6.7076407    819.79937  0.024407508  0.023936905           23 
 2800000   0.80534795   -6.7642498    819.71728  0.024396348  0.023930476           21 
 2801000   0.81768849    -6.722117    822.32306  0.024465163  0.023924045            8 
 2802000   0.80504807   -6.6763946    821.60306  0.024435018  0.023917651           18 
 2803000   0.79828914   -6.7366848     822.4517  0.024451531  0.023911263           10 
 2804000   0.80545222   -6.7170273    821.72538  0.024421225  0.023904823           20 
 2805000   0.80855175   -6.7350417    821.36004  0.024401665  0.023898393           26 
 2806000   0.80645585   -6.7154546    821.10074  0.024385268  0.023891971           21 
 2807000   0.80034577   -6.7049481    819.91587  0.024341404  0.023885561           27 
 2808000   0.79580433   -6.7039088    821.78733  0.024388276   0.02387918           17 
 2809000   0.78854254   -6.7256391    823.61433  0.024433794  0.023872769            7 
 2810000   0.81357557   -6.7121452    820.96512  0.024346534  0.023866342           20 
 2811000   0.81146218   -6.7233272    820.79264  0.024332759   0.02385993           34 
 2812000   0.81393757   -6.7016275    821.98242  0.024359365  0.023853507           20 
 2813000   0.81087276   -6.7284081    824.43449  0.024423347  0.023847157           26 
 2814000   0.80414524   -6.6887413    823.27659  0.024380377  0.023840759           13 
 2815000   0.79674063   -6.6939838    821.92152  0.024331602  0.023834417           17 
 2816000   0.78108252   -6.6892232    824.99478  0.024413908  0.023828054            8 
 2817000   0.79007956   -6.7080406    823.97636  0.024375114  0.023821709           19 
 2818000   0.79366781   -6.7096729    822.41892  0.024320408  0.023815348            8 
 2819000   0.81552566   -6.7295545    824.45443  0.024371953  0.023809028            9 
 2820000   0.79108878   -6.7223652      824.771  0.024372666  0.023802685           11 
 2821000   0.80412875   -6.7051781    824.26476  0.024349071  0.023796345            7 
 2822000   0.79673248   -6.7282587    821.76989   0.02426677  0.023790021           18 
 2823000   0.81154928   -6.7356768    823.31575  0.024303807  0.023783655           32 
 2824000   0.78043851    -6.704716    823.56753   0.02430263  0.023777308           28 
 2825000   0.81159843   -6.6983553    824.55721  0.024323222  0.023770969           25 
 2826000   0.78465192   -6.7190136    824.70714  0.024319036  0.023764631           16 
 2827000   0.77835286   -6.7314039    823.96844  0.024288658  0.023758267           14 
 2828000   0.81151116   -6.7592087    823.68747   0.02427179  0.023751901           17 
 2829000    0.7890971   -6.7335469    824.00083  0.024272441  0.023745482           22 
 2830000    0.7861298   -6.7308922    824.64195  0.024282743  0.023739096           15 
 2831000   0.80220811   -6.7003408    825.03161  0.024285635  0.023732771            9 
 2832000   0.78605252    -6.720414    826.21601  0.024311912  0.023726454           19 
 2833000   0.81862114    -6.711553    822.80933  0.024203122  0.023720175           17 
 2834000   0.81756674   -6.7119706    826.71302  0.024309369  0.023713899           18 
 2835000   0.79405607   -6.7115804    825.51604   0.02426561  0.023707597           10 
 2836000     0.800656    -6.749204     826.0213    0.0242719  0.023701293           12 
 2837000   0.81352757   -6.7176586    827.18828  0.024297623  0.023694975           15 
 2838000   0.82068451   -6.7099911    827.45456   0.02429688  0.023688703           18 
 2839000   0.78490321   -6.7466296    825.24785  0.024223549  0.023682457           18 
 2840000   0.81752281   -6.7460003    825.43599   0.02422054  0.023676211           10 
 2841000   0.79518176   -6.7402863    825.90427   0.02422575  0.023669963           20 
 2842000   0.80306524   -6.7040415    828.63749   0.02429737  0.023663746           23 
 2843000   0.79084579   -6.7623244    825.14573  0.024186474  0.023657495           15 
 2844000   0.78171963   -6.7060777    826.44297   0.02421598  0.023651212           42 
 2845000   0.80988801   -6.6788965    826.42045  0.024206809  0.023644959           37 
 2846000   0.80067606   -6.7215229    829.16837  0.024278765  0.023638729           29 
 2847000   0.80311277   -6.7188141    826.91215  0.024204196  0.023632451           19 
 2848000   0.78113514    -6.749247    825.92767  0.024166891  0.023626174            9 
 2849000   0.78790234   -6.7237891    826.71359  0.024181397   0.02361989           16 
 2850000   0.80832803   -6.7289389    828.82549  0.024234663  0.023613644           26 
 2851000   0.78623487   -6.7009475    828.29301  0.024210599   0.02360737           19 
 2852000   0.79371686   -6.7269682    825.45338  0.024119138   0.02360109           20 
 2853000   0.79658546   -6.7351521    826.10386  0.024129684  0.023594768           40 
 2854000   0.80133993   -6.7264981    826.36465  0.024128844  0.023588461           27 
 2855000   0.79725336   -6.7485954    828.20779  0.024174191  0.023582164           19 
 2856000   0.78773226   -6.7469939    826.80155  0.024124695  0.023575851            7 
 2857000   0.78895933   -6.7459309    826.93681  0.024120196   0.02356951           22 
 2858000   0.77437645   -6.7476967    826.85909  0.024109491  0.023563212           22 
 2859000   0.79819656   -6.7382972    826.03051  0.024076907  0.023556944           15 
 2860000   0.81162765   -6.7643595    828.67482  0.024145537  0.023550671           18 
 2861000   0.79126628   -6.7509122    827.63539  0.024106821  0.023544412            5 
 2862000   0.81329995   -6.7212179    827.98393  0.024108547  0.023538139            6 
 2863000   0.80037597   -6.7290121    825.97853  0.024041755  0.023531888           16 
 2864000   0.78373573   -6.7502244    825.87224  0.024030268  0.023525626           18 
 2865000   0.77160127   -6.7541114    827.22727  0.024061294  0.023519345           21 
 2866000   0.78698371   -6.7276206    826.41777  0.024029361  0.023513039           21 
 2867000   0.79826923   -6.7312864    829.08999  0.024098651  0.023506756           17 
 2868000   0.78631505   -6.7533132    827.34447   0.02403953  0.023500475           16 
 2869000    0.7930183   -6.7307863    828.38973  0.024061512   0.02349419            9 
 2870000   0.79891941   -6.7375746    826.83251  0.024007913  0.023487916           11 
 2871000   0.79366571   -6.7183181    830.45461  0.024104685   0.02348167           18 
 2872000    0.7833919   -6.7653133     825.7872  0.023960864  0.023475388           45 
 2873000   0.79734259   -6.7336463    829.72011    0.0240666  0.023469097           13 
 2874000   0.79416401   -6.7529598    828.35284  0.024018582  0.023462805            8 
 2875000   0.78730605   -6.6917361    827.92608  0.023997857  0.023456531           20 
 2876000   0.78543362   -6.7499302    827.78564  0.023985444  0.023450238           14 
 2877000   0.78382573   -6.7196225    827.06612  0.023956266  0.023443914            7 
 2878000    0.7788873   -6.7249962    827.16604  0.023950835  0.023437583           19 
 2879000   0.81337108   -6.7412842    827.94304  0.023965006  0.023431263           31 
 2880000   0.79101024   -6.7242143    829.97771  0.024015559  0.023424967           13 
 2881000   0.77719969   -6.7493896    829.64419  0.023997576  0.023418661           45 
 2882000    0.7850587   -6.7316914    828.62168  0.023959683  0.023412364           16 
 2883000   0.77764347   -6.7311062    828.49392  0.023947679  0.023406076           31 
 2884000   0.77797603   -6.7326236    830.95423  0.024010467  0.023399799           14 
 2885000    0.7904854   -6.7624978    827.94025  0.023915085  0.023393522           17 
 2886000    0.7875884   -6.7454503    827.34062  0.023889484  0.023387238           20 
 2887000   0.77948163   -6.7501517    829.04143  0.023930303  0.023380967           41 
 2888000   0.76762491   -6.7038235    830.66876  0.023968974  0.023374709           43 
 2889000   0.79110919   -6.7265176    828.11488  0.023887011  0.023368444           45 
 2890000   0.77346527   -6.7323862    831.10645  0.023965007  0.023362179           21 
 2891000   0.77176045   -6.7618287    828.89685  0.023893026  0.023355914           67 
 2892000   0.80876347   -6.7259724    829.94725  0.023915032  0.023349621           26 
 2893000   0.78672154    -6.742098    829.04627  0.023880812  0.023343353           10 
 2894000   0.80131827   -6.7629608    828.32704   0.02385185  0.023337072           11 
 2895000   0.78701496   -6.7215653     828.7365  0.023855397  0.023330763           23 
 2896000    0.7855302   -6.7470424     829.8214  0.023878378  0.023324509           20 
 2897000   0.78073592    -6.777039    828.85686  0.023842391   0.02331822           26 
 2898000    0.8024433   -6.7503386    828.75307  0.023831179  0.023311909           28 
 2899000   0.79690318   -6.7686036    829.79081  0.023852789   0.02330557           16 
 2900000   0.78447235   -6.7330676    831.16368  0.023884014  0.023299267           15 
 2901000   0.78458278   -6.7364239    828.52158  0.023799884  0.023292992           24 
 2902000   0.79809156   -6.7718053    830.28713  0.023842382  0.023286713           16 
 2903000   0.79901203   -6.7422266    830.90227  0.023851828  0.023280411           42 
 2904000    0.7940985   -6.7632602    829.50599  0.023803547  0.023274099           43 
 2905000   0.77123082   -6.7540588    828.17379  0.023757137  0.023267758           48 
 2906000   0.79276176   -6.7649985    829.95925  0.023800162    0.0232614           50 
 2907000   0.76355124   -6.7519453    829.60027  0.023781684  0.023255059           57 
 2908000   0.77735308    -6.748661    832.21041  0.023848304  0.023248763           74 
 2909000   0.78483096   -6.7482082    829.90961  0.023774195  0.023242503           37 
 2910000   0.78106317   -6.7550967    830.12351  0.023772151  0.023236232           20 
 2911000   0.78118518   -6.7522222    831.22956  0.023795647  0.023229947           16 
 2912000   0.77312164   -6.7797747    829.22045  0.023729981  0.023223605            8 
 2913000   0.80085566   -6.7697408    830.48406  0.023757983  0.023217281           13 
 2914000    0.7787388    -6.768932    829.13055  0.023711123  0.023210963           43 
 2915000   0.77866886   -6.7725795    830.04416  0.023729107  0.023204596           15 
 2916000   0.78970395   -6.7842886    829.87664  0.023716182  0.023198246           26 
 2917000   0.77814085   -6.7699032    829.21527  0.023689158  0.023191841           38 
 2918000    0.7761189   -6.7693786    829.55873  0.023690848  0.023185437           24 
 2919000   0.78536507   -6.7578486    829.05331  0.023668303  0.023179048           51 
 2920000   0.80524201   -6.7414971    829.39522  0.023669955  0.023172702           68 
 2921000   0.78360773   -6.7530107    831.47732  0.023721252  0.023166387           29 
 2922000   0.79028677   -6.7565163    830.98446  0.023699078   0.02316008           42 
 2923000   0.78741213   -6.7481646    833.60757  0.023765753  0.023153798           36 
 2924000   0.78818429   -6.7838582    830.52441  0.023669756  0.023147493           26 
 2925000   0.79200689   -6.7524116    829.86618  0.023642911  0.023141195           31 
 2926000   0.78843719   -6.7551455    831.20828  0.023673054  0.023134897           42 
 2927000   0.78487311   -6.7228777    832.01685  0.023687987  0.023128586           21 
 2928000   0.79661917   -6.7501315    831.72238  0.023671516  0.023122268           24 
 2929000   0.77369304   -6.7613008    831.62897  0.023660776  0.023115934           15 
 2930000   0.77227157   -6.7379158    830.67965  0.023625701  0.023109589           19 
 2931000   0.76806631   -6.7665007    833.42683  0.023695747  0.023103273            9 
 2932000   0.78730495   -6.7633892     831.9326  0.023645197  0.023096951           21 
 2933000   0.78740658   -6.7634501    831.39223  0.023621782  0.023090646           23 
 2934000   0.77638083   -6.7625458     832.2541   0.02363821  0.023084301           18 
 2935000   0.78239581   -6.7825832    829.75029  0.023559066  0.023077945           12 
 2936000   0.77082177   -6.7886918    829.41384  0.023541492  0.023071595           14 
 2937000   0.79642388   -6.7686815    830.55075  0.023565735  0.023065264           14 
 2938000   0.77020021   -6.7784146    831.51712  0.023585124  0.023058954           31 
 2939000   0.77381002   -6.7671252     832.5834  0.023607332  0.023052671           41 
 2940000   0.79989549   -6.7718226     831.9005  0.023579946  0.023046345           23 
 2941000   0.78981933   -6.7945757    831.00782  0.023546634  0.023040003           59 
 2942000   0.78438805   -6.7795785    830.43901  0.023522519  0.023033603           34 
 2943000   0.77294407   -6.7587451    830.31123  0.023510908  0.023027237           41 
 2944000   0.77231966   -6.7777531    831.08361  0.023524785  0.023020842           26 
 2945000   0.78117841   -6.7752548    830.08592  0.023488566  0.023014508           18 
 2946000   0.78434374   -6.7534876    830.47201  0.023491514  0.023008171           32 
 2947000   0.78407243   -6.7804915    831.15497  0.023502855  0.023001836           30 
 2948000    0.7833484   -6.7938085    832.09979  0.023521591  0.022995471           15 
 2949000   0.78077895   -6.8095395    832.09508  0.023513482  0.022989114           21 
 2950000   0.79495258   -6.7592804    832.00872  0.023503071    0.0229828           12 
 2951000   0.77454829   -6.7718319    832.95962  0.023521959  0.022976439           26 
 2952000   0.77345376   -6.7628233    831.11219  0.023461839  0.022970095           40 
 2953000   0.77927572   -6.7891157    831.42671   0.02346277  0.022963741           17 
 2954000    0.7786294   -6.7908093    832.60843  0.023488164  0.022957414           24 
 2955000   0.79030666   -6.7776487    830.63024  0.023424429   0.02295107           18 
 2956000   0.77711968   -6.7850796    831.07695  0.023429098    0.0229447           29 
 2957000   0.78679016   -6.7570681    830.71209  0.023410892   0.02293834           15 
 2958000    0.7951501   -6.7835694    831.98208  0.023438756  0.022931972           41 
 2959000   0.79140051   -6.7409669     832.8805  0.023456137  0.022925586           35 
 2960000    0.7737499   -6.7878079     830.3679  0.023377475  0.022919259           51 
 2961000   0.78849406   -6.7916725    831.46496  0.023400455  0.022912899           21 
 2962000   0.77209024   -6.7611169    832.26101  0.023414951  0.022906574           14 
 2963000   0.77653075   -6.7772168    834.01705  0.023456436  0.022900228           30 
 2964000   0.77455855   -6.7585962    833.66669  0.023438672  0.022893911           10 
 2965000   0.76149416   -6.7342779    833.53337   0.02342702    0.0228876           14 
 2966000   0.77217017   -6.7617765    832.83842  0.023399596  0.022881308           11 
 2967000   0.77231186   -6.7940212     834.5463  0.023439678  0.022874976           36 
 2968000   0.77061126   -6.7515565    833.27838  0.023396181  0.022868633           37 
 2969000   0.77616338   -6.7569751     833.6838   0.02339968  0.022862352           13 
 2970000       0.7813    -6.747851    834.19498  0.023406144  0.022856053           23 
 2971000   0.77730176   -6.7741091     833.6354   0.02338257  0.022849749           11 
 2972000   0.78045394   -6.7667493    833.86756  0.023381212  0.022843447           29 
 2973000   0.77641956    -6.747993    833.61628  0.023366305   0.02283717           33 
 2974000   0.77878245   -6.7947566    833.04724  0.023342503  0.022830904           10 
 2975000   0.76380496   -6.7780266    832.05897  0.023306974  0.022824596           15 
 2976000   0.77839229   -6.7669872    834.21513  0.023359519  0.022818325           28 
 2977000   0.79051987    -6.780535    832.91507   0.02331528  0.022811998           21 
 2978000   0.76811663   -6.7565171    834.96136  0.023364712   0.02280569           18 
 2979000   0.77408028   -6.7465131     833.1904  0.023307329  0.022799412           16 
 2980000   0.78227085   -6.7830285    834.03454  0.023323113  0.022793144           10 
 2981000   0.76831417   -6.7707117    834.05564  0.023315879   0.02278687            4 
 2982000   0.77366804   -6.7453418    835.23772  0.023341094  0.022780616           37 
 2983000   0.76111177   -6.7493806    834.30843  0.023307309  0.022774355           14 
 2984000   0.75609611   -6.7683682    834.84703  0.023314539  0.022768082           28 
 2985000   0.77135184   -6.7744366    833.69116   0.02327446  0.022761829           15 
 2986000   0.78246931   -6.7458956    835.40155  0.023314399  0.022755572           23 
 2987000   0.77087558   -6.7764331    832.67997  0.023230665  0.022749287           45 
 2988000    0.7640813   -6.7930449    835.90696  0.023312889  0.022743001           60 
 2989000   0.76241136   -6.7745995    834.99629    0.0232797  0.022736719           34 
 2990000   0.77532709   -6.7721958     834.2946  0.023252358  0.022730421           41 
 2991000   0.79114857    -6.785952    834.62614  0.023253821  0.022724123           29 
 2992000     0.785806   -6.7977432    834.56913  0.023244461  0.022717844           41 
 2993000   0.78457674   -6.8119151     834.7613  0.023242045   0.02271157           75 
 2994000   0.76817137   -6.7644967    835.09731  0.023243635  0.022705335           23 
 2995000   0.77559164   -6.7638208    836.01747  0.023261477  0.022699108           27 
 2996000   0.75368149   -6.7983754    837.12376  0.023284484  0.022692867           44 
 2997000   0.77300575   -6.8109219    834.78354  0.023211643  0.022686621           22 
 2998000   0.76840945   -6.7967496    836.45667  0.023250408  0.022680355           27 
 2999000   0.77482367   -6.7630916    836.96519  0.023256785  0.022674105           21 
 3000000   0.75876894   -6.7823174    835.71785  0.023214385  0.022667845           13 
 3001000    0.7728984   -6.7761139    837.18533  0.023247399  0.022661601           28 
 3002000   0.76161938   -6.7817196    835.51356  0.023193248  0.022655368           15 
 3003000   0.76379427   -6.7727699    835.30981  0.023179871  0.022649113           17 
 3004000   0.76193005   -6.7769391    836.91645  0.023216724   0.02264288            8 
 3005000   0.77746268   -6.7995648     835.2262  0.023162124   0.02263664           15 
 3006000   0.77907401   -6.8053099    834.25541  0.023127506  0.022630401           14 
 3007000   0.76900037   -6.7868747    836.53104   0.02318288  0.022624179           20 
 3008000   0.76132623   -6.7742857    837.05601  0.023189717  0.022617959           12 
 3009000   0.75319115   -6.7842445    836.55585  0.023168158  0.022611736           33 
 3010000   0.76857492   -6.8011555    836.00941  0.023145332  0.022605498           34 
 3011000   0.78726664   -6.7876888      836.896  0.023162183    0.0225993           20 
 3012000   0.77357528   -6.7676528    839.51066  0.023226833  0.022593121           28 
 3013000    0.7537538    -6.790702    838.55908  0.023192806  0.022586947           31 
 3014000   0.77666461   -6.7800778    839.01637  0.023197754  0.022580766           16 
 3015000    0.7648748   -6.7779303    837.43277   0.02314629  0.022574581           19 
 3016000   0.76412856   -6.7758183    836.83782  0.023122177  0.022568401           26 
 3017000   0.77080867   -6.7909143    836.42314  0.023103059  0.022562181           29 
 3018000   0.76562709   -6.7494362    839.23943  0.023173167  0.022555953           25 
 3019000   0.77857705   -6.8092862     836.9303  0.023101753  0.022549745           20 
 3020000   0.76473243   -6.7874212     838.2506  0.023130535  0.022543547           17 
 3021000   0.77207787   -6.7905652     838.3514  0.023125659  0.022537368           17 
 3022000   0.76443321   -6.7913765    836.25224  0.023060121  0.022531176           17 
 3023000   0.78452823   -6.7831568    837.26174  0.023080321  0.022524963           40 
 3024000   0.77156463   -6.7926573    837.46796  0.023078372   0.02251876           11 
 3025000   0.75552544   -6.7576355    837.62182  0.023074981  0.022512569           30 
 3026000   0.73878011   -6.7765617    838.16293  0.023082257  0.022506379           35 
 3027000   0.77295788     -6.76678    839.50609  0.023111609  0.022500197           24 
 3028000   0.76652926   -6.8051697    838.24783  0.023069348  0.022493998           45 
 3029000   0.75412744   -6.7678607    840.97466  0.023136752  0.022487805           15 
 3030000   0.76598479   -6.7880813    839.66494  0.023093095  0.022481637           30 
 3031000   0.76869754   -6.7872118    840.47377  0.023107714  0.022475475           12 
 3032000   0.76307303   -6.7695588    839.13963  0.023063424  0.022469275           19 
 3033000   0.75022053   -6.7773432    839.75796  0.023072809  0.022463117           44 
 3034000   0.75451038   -6.7895206    839.94305  0.023070288  0.022456968           37 
 3035000   0.75834776    -6.779295    838.11755  0.023012563  0.022450811           39 
 3036000   0.77694155   -6.7802537    837.71422  0.022993913   0.02244464           28 
 3037000   0.75460776   -6.7957034    837.67564  0.022985283  0.022438435           18 
 3038000   0.77351726   -6.7970398    838.07668  0.022988717  0.022432237           17 
 3039000   0.76811824    -6.804386    840.33947  0.023043201  0.022426058           18 
 3040000   0.76403538   -6.7796209    837.43756  0.022956074  0.022419921           19 
 3041000    0.7560124   -6.7910425     839.8112   0.02301357  0.022413796           37 
 3042000   0.76355535    -6.813044     838.6505  0.022974208  0.022407676           43 
 3043000   0.74898462   -6.7722471    840.93244   0.02302915  0.022401571           28 
 3044000   0.75950479   -6.7906682     838.7595  0.022962098  0.022395446           18 
 3045000   0.76777117   -6.7722477    841.31556  0.023024509  0.022389308           35 
 3046000   0.76309521   -6.7728697    838.48519  0.022939516  0.022383153           31 
 3047000   0.77277254   -6.7822202    842.39821  0.023039006  0.022377007           28 
 3048000   0.76049969   -6.7729489    839.56994  0.022954121  0.022370872           25 
 3049000   0.77216583   -6.7809058    839.59883  0.022947382  0.022364703           54 
 3050000   0.78431712   -6.7721047    840.78125  0.022972165  0.022358559           20 
 3051000   0.75932554   -6.7797037    839.23665  0.022922448  0.022352416           32 
 3052000   0.75989212   -6.8015354    840.05504  0.022937283  0.022346285           15 
 3053000   0.74696964   -6.8130682    840.14841  0.022932318  0.022340122           13 
 3054000   0.76484367   -6.7973073    839.70309  0.022912658  0.022333958           19 
 3055000   0.76358709    -6.786642      838.288  0.022866558  0.022327813           27 
 3056000   0.77874085    -6.778802    840.48989  0.022919118   0.02232167           16 
 3057000   0.77121844   -6.7737873    840.77383  0.022919361  0.022315525           28 
 3058000   0.76328958   -6.7897636    841.64125  0.022935504  0.022309384           15 
 3059000   0.76490422   -6.7834829    841.70483  0.022929738  0.022303223           33 
 3060000   0.75775344   -6.7784828    841.69665  0.022922022  0.022297108           18 
 3061000     0.779475     -6.76044     839.9839  0.022867905  0.022291015           26 
 3062000   0.77562385   -6.7702883    842.23227  0.022921627  0.022284922           32 
 3063000   0.76310636   -6.8002835    840.69333  0.022872275  0.022278771           17 
 3064000   0.76636483   -6.7868245    842.45748  0.022912791  0.022272647           17 
 3065000   0.76529648   -6.8057164     840.4912  0.022851854  0.022266465           15 
 3066000   0.76797008   -6.8016262    840.73783  0.022851104  0.022260298           22 
 3067000   0.76267522    -6.806766     840.1324  0.022827203  0.022254119           15 
 3068000   0.76276406   -6.8066088    839.61153  0.022805615  0.022247929           23 
 3069000   0.76141692   -6.8271476    840.72082  0.022828305  0.022241745           40 
 3070000    0.7667707   -6.8144202    841.16676  0.022832974  0.022235578           31 
 3071000   0.74761271   -6.8109788    841.81949  0.022843251  0.022229405           51 
 3072000   0.76460249    -6.798685    840.40207  0.022797365  0.022223233           58 
 3073000   0.77034759   -6.7942016    841.32745  0.022815041  0.022217056           31 
 3074000   0.76310689   -6.7831271     840.9842  0.022798314  0.022210889           17 
 3075000   0.75132452   -6.7895476    841.65623  0.022809112  0.022204736            9 
 3076000   0.75496401   -6.8091171     841.5804  0.022799642  0.022198581           16 
 3077000   0.75167323   -6.7886148    839.30625  0.022730643  0.022192404           22 
 3078000   0.75972636   -6.7984538     841.0593   0.02277072  0.022186211           19 
 3079000   0.74992657   -6.8001765    839.94542  0.022733177  0.022180025           41 
 3080000   0.73926937   -6.8021846    841.15223  0.022758448  0.022173855           21 
 3081000   0.76785328   -6.7936578     841.2902  0.022754793  0.022167678           26 
 3082000   0.73796211   -6.8087384    841.51788  0.022753566  0.022161509           52 
 3083000   0.77640852   -6.8200731     840.6752  0.022723408  0.022155329           70 
 3084000   0.76676759   -6.7912826    840.66533  0.022715773  0.022149135           25 
 3085000   0.75581077   -6.7754624    843.13889  0.022775227  0.022142972           28 
 3086000   0.76344745   -6.8241232    842.18496  0.022742087  0.022136816           14 
 3087000   0.76673894   -6.7938431    842.08954  0.022732144  0.022130687           10 
 3088000   0.76733215   -6.7971989    841.27675  0.022702848  0.022124551           19 
 3089000   0.76813205   -6.7856706    840.90729  0.022685532  0.022118424           24 
 3090000   0.74689381    -6.801891    841.80907   0.02270251  0.022112272           23 
 3091000   0.76060872   -6.8154672    843.18228  0.022732187  0.022106111           15 
 3092000   0.75123377   -6.8036892    842.21138  0.022698668  0.022099943           11 
 3093000   0.78012987   -6.7900237    841.11355  0.022661751  0.022093777           13 
 3094000   0.75091155    -6.817519     842.1711   0.02268291  0.022087623            7 
 3095000   0.74394393   -6.7926059    841.98293  0.022670515  0.022081463           10 
 3096000   0.74252363   -6.8383486    840.32941  0.022618686  0.022075277           34 
 3097000   0.74656303   -6.8069721    840.71404  0.022621732  0.022069075           22 
 3098000   0.75125507   -6.8141872       841.24  0.022628578  0.022062888           23 
 3099000   0.76011077   -6.8041769     843.0544  0.022670066  0.022056727           30 
 3100000   0.76305431   -6.8083056    842.49921  0.022647828  0.022050581           22 
 3101000   0.73056233   -6.8014118    842.43177  0.022638713  0.022044435           21 
 3102000   0.76481694    -6.811308    843.70566  0.022665637  0.022038262           17 
 3103000   0.74850082   -6.8395005    839.92011  0.022556669   0.02203206           33 
 3104000   0.76007166   -6.8258575    841.10147  0.022581118  0.022025849           41 
 3105000     0.758155   -6.8313687    840.94704    0.0225697  0.022019665           41 
 3106000   0.76047801   -6.8013119    841.85188  0.022586711  0.022013486           62 
 3107000   0.76806361   -6.7794677    842.02803  0.022584166  0.022007318           27 
 3108000   0.73953349   -6.8014652    843.65846  0.022620615  0.022001173           35 
 3109000   0.74914609   -6.8058361    840.94895  0.022540714  0.021995011           36 
 3110000   0.74967982   -6.8190212    841.83103  0.022557101  0.021988829           38 
 3111000   0.76062062   -6.8057858     842.3151  0.022562817  0.021982636           56 
 3112000    0.7646804   -6.8251727    843.70528  0.022592794  0.021976439           26 
 3113000   0.75149679   -6.8209333    842.61301  0.022556296  0.021970273           56 
 3114000   0.75219754   -6.8298092    843.40789  0.022570325  0.021964105           96 
 3115000   0.75942017   -6.8304867    841.14098  0.022502434  0.021957918           29 
 3116000   0.75132021    -6.840827    841.86888  0.022514679  0.021951741           33 
 3117000   0.74882984   -6.8294628    841.48552  0.022497207  0.021945571           23 
 3118000   0.74865398   -6.8205197    839.97492  0.022449618  0.021939362           13 
 3119000   0.76808567   -6.8239644    841.20132  0.022475187   0.02193318           24 
 3120000   0.74075038   -6.8199002    840.17932  0.022440687  0.021926963           23 
 3121000   0.75368115   -6.8119457    842.20011  0.022487453  0.021920754           39 
 3122000   0.76116473   -6.8370993    841.05639  0.022449722  0.021914552           36 
 3123000    0.7462111   -6.8236858     838.8607  0.022383944  0.021908318           39 
 3124000   0.74806094   -6.8084922    839.95261  0.022405906  0.021902088           73 
 3125000     0.740473   -6.8099352    842.89359  0.022477162  0.021895861           36 
 3126000   0.74642449   -6.8195804    841.03561  0.022420442  0.021889643           44 
 3127000   0.72896063   -6.8065288    840.20373  0.022391102  0.021883426           20 
 3128000     0.758402   -6.8188105    843.14315  0.022462254  0.021877227           25 
 3129000   0.73949469   -6.8003985    841.49855  0.022411275  0.021871026           23 
 3130000   0.75314472   -6.7892784    842.73385  0.022437003  0.021864852           19 
 3131000   0.75974222   -6.8190588    843.73554  0.022456498   0.02185866           13 
 3132000   0.75119834   -6.7935452    842.08227  0.022405339  0.021852463           20 
 3133000   0.73915501   -6.8048085    841.47706   0.02238209   0.02184625           35 
 3134000   0.76304212   -6.8464389    841.62936  0.022378998  0.021840027           25 
 3135000   0.75543013   -6.8103232    842.59209  0.022397451  0.021833801           11 
 3136000   0.74087692   -6.8406202    841.70463  0.022366726  0.021827562           23 
 3137000   0.76525697   -6.8211422    842.32019  0.022375948  0.021821361           15 
 3138000   0.74542924   -6.7917495    843.68456   0.02240505  0.021815175           39 
 3139000    0.7437007   -6.8373241    841.66247   0.02234423  0.021808956           53 
 3140000   0.75580525   -6.8148572     839.9833   0.02229255  0.021802737           65 
 3141000    0.7569541   -6.8065346     842.1253  0.022342282  0.021796525           66 
 3142000    0.7446116   -6.8195163    841.76563  0.022325632  0.021790319           60 
 3143000   0.76682367   -6.8332593    840.62737  0.022288349  0.021784096           60 
 3144000    0.7457206   -6.8308127     841.8088  0.022312574  0.021777848           38 
 3145000   0.74518824   -6.8438553      841.684  0.022302173  0.021771595           52 
 3146000   0.75048151   -6.8041925    843.65408  0.022347269  0.021765372           58 
 3147000   0.73794805   -6.8205418    842.22907  0.022302433  0.021759176           37 
 3148000   0.73971084   -6.8223675    843.13084   0.02231922  0.021752979           68 
 3149000   0.75760556   -6.8255478    841.51804  0.022269452  0.021746748           25 
 3150000   0.75606462   -6.8350834     841.8598  0.022271423  0.021740515           44 
 3151000   0.75052533   -6.8297349    842.68194  0.022286098  0.021734282           38 
 3152000   0.75489916   -6.8203782      844.443  0.022325587  0.021728094           28 
 3153000   0.74558096   -6.8610257    839.58102  0.022190005  0.021721895           23 
 3154000   0.74570001   -6.8515825     842.5166  0.022260532  0.021715707           37 
 3155000    0.7437202   -6.8296977    845.29588  0.022326885  0.021709529           16 
 3156000   0.75504479   -6.8212193     843.1332  0.022262706  0.021703362           24 
 3157000   0.75444722    -6.860386    842.64676  0.022242814  0.021697156           24 
 3158000   0.73684765   -6.8340663    842.36763  0.022228405   0.02169096           55 
 3159000    0.7335565   -6.8021093    841.53002  0.022199272  0.021684781           38 
 3160000   0.74456665   -6.8316933    842.79908  0.022225714  0.021678602          117 
 3161000   0.73909983   -6.8450588    843.18281  0.022228799  0.021672413           29 
 3162000   0.75229797   -6.8435853    843.34518  0.022226048  0.021666193           58 
 3163000   0.75385754   -6.8468132    842.70425  0.022202135  0.021659994           14 
 3164000   0.75490392   -6.8369584    844.78044  0.022249801  0.021653809           14 
 3165000   0.75114338   -6.8161992    844.30882  0.022230353   0.02164764          100 
 3166000   0.74174994   -6.8344136    844.29379  0.022222936  0.021641497           70 
 3167000   0.74268173   -6.8234734    843.80082  0.022202948   0.02163536           39 
 3168000   0.74634886   -6.8196398    844.71754  0.022220053  0.021629227           42 
 3169000   0.73732931   -6.8296933    845.19437   0.02222558  0.021623097           37 
 3170000   0.73652887   -6.8118046    844.26137  0.022194042  0.021616952           71 
 3171000   0.73198079   -6.8541897    844.03886  0.022181196  0.021610807           38 
 3172000   0.74479275   -6.8259484    845.73851  0.022218855  0.021604646           37 
 3173000   0.72772139   -6.8270605    842.89388  0.022137144  0.021598485           68 
 3174000   0.74420434   -6.8525777    843.01121   0.02213325  0.021592326           72 
 3175000   0.74731239   -6.8481453    843.80593  0.022147137  0.021586149          143 
 3176000   0.74925019   -6.8583569    843.51267  0.022132469  0.021579958          135 
 3177000   0.75277563      -6.8613    843.27832  0.022119356   0.02157378          163 
 3178000      0.74718   -6.8667281    842.87246  0.022101753  0.021567593          150 
 3179000   0.72688623   -6.8497332    843.28127  0.022105517   0.02156142          129 
 3180000   0.72961546   -6.8718701    846.08408  0.022172015  0.021555266          106 
 3181000   0.72998067   -6.8620771    843.52712  0.022098059  0.021549103           90 
 3182000   0.73233866   -6.8618329    844.74649  0.022123049  0.021542935           51 
 3183000   0.74536175   -6.8222781    845.23219  0.022128814  0.021536792           31 
 3184000   0.72953874   -6.8316941    845.49757   0.02212881  0.021530682           14 
 3185000   0.74909288   -6.8365953    846.25317  0.022141632  0.021524574           28 
 3186000   0.73846381   -6.8445998    844.66257  0.022093078  0.021518454           36 
 3187000   0.73429746   -6.8473419    843.08129  0.022044799  0.021512331           30 
 3188000   0.73865148    -6.846808    843.63425  0.022052338  0.021506225           17 
 3189000   0.74523442   -6.8392087     845.8743  0.022103959  0.021500114           25 
 3190000   0.73401001   -6.8536917    845.37115  0.022083886  0.021494009           28 
 3191000   0.74772407   -6.8553464    844.54056  0.022055274  0.021487894           21 
 3192000   0.75369945   -6.8631945     843.9297  0.022032417  0.021481779           33 
 3193000   0.72674157    -6.831791    845.00976  0.022053705  0.021475687           28 
 3194000   0.75805443   -6.8459946    846.48959   0.02208541  0.021469614           35 
 3195000   0.74811139   -6.8596501    846.71887  0.022084477  0.021463539           47 
 3196000   0.74430415   -6.8072648    847.63946  0.022101571  0.021457472           39 
 3197000   0.74086252   -6.8463929    845.14365  0.022029602  0.021451414           14 
 3198000   0.74697388   -6.8195544    848.30782  0.022105165  0.021445379           10 
 3199000   0.76175364   -6.8183773    848.02696  0.022090939  0.021439363           19 
 3200000   0.72881516   -6.8349929    844.99794  0.022005155  0.021433324           27 
 3201000   0.74595253   -6.8495222     848.0179    0.0220769  0.021427258            7 
 3202000   0.73573892   -6.8402426    846.59254   0.02203291  0.021421204           16 
 3203000   0.74606987   -6.8397112     845.1451  0.021988373  0.021415148           10 
 3204000   0.72970707    -6.850489    846.00655  0.022003916  0.021409091           20 
 3205000   0.74497003   -6.8337141    846.17022  0.022001306  0.021403029           20 
 3206000   0.73378356    -6.855293     845.7713  0.021984074  0.021396961           15 
 3207000   0.72301921   -6.8532517    846.64233  0.021999853  0.021390883           24 
 3208000   0.74239721   -6.8761241    846.19077  0.021981265  0.021384802           38 
 3209000   0.73933493   -6.8491918    848.03647  0.022022345  0.021378744           40 
 3210000   0.74210483   -6.8622586    849.22935  0.022046452  0.021372683           24 
 3211000   0.73541946   -6.8404641     846.3877  0.021965839  0.021366636           31 
 3212000   0.74805752    -6.874705    847.43877  0.021986269  0.021360604           47 
 3213000   0.74262057    -6.832158    846.88432  0.021965046  0.021354565           20 
 3214000   0.73480866   -6.8673195    846.69058  0.021953189  0.021348508           32 
 3215000   0.75436963   -6.8729201    848.96921  0.022005423  0.021342457           52 
 3216000   0.73429689   -6.8938643    845.38993  0.021905834  0.021336409           94 
 3217000   0.73817087   -6.8593086    845.39228  0.021899085  0.021330347           65 
 3218000   0.73379416    -6.892298    846.03323  0.021908878   0.02132426           70 
 3219000   0.73645731   -6.8509718    847.21319  0.021932619  0.021318198           43 
 3220000     0.721039   -6.8427133    845.67733  0.021886059   0.02131212           55 
 3221000   0.72664897    -6.866608    846.40951  0.021898207  0.021306029           37 
 3222000   0.73970531   -6.8535358    847.49076  0.021919376  0.021299968           49 
 3223000   0.74070576   -6.8529352    848.24266  0.021932016   0.02129391           61 
 3224000     0.742587   -6.8518787     848.1464  0.021922725  0.021287867           43 
 3225000   0.72750614   -6.8421462    846.35152  0.021869548  0.021281821           64 
 3226000   0.73898692   -6.8596523    845.74474  0.021847095  0.021275748           37 
 3227000    0.7357869   -6.8477499    846.94643  0.021871357  0.021269688           44 
 3228000    0.7417506   -6.8280908    848.05621  0.021893231   0.02126366           29 
 3229000   0.74095976   -6.8514706    848.57439  0.021899824  0.021257634           47 
 3230000   0.73708531   -6.8356774    848.22058  0.021883916  0.021251629           43 
 3231000    0.7396011   -6.8551176    847.90163  0.021868917  0.021245598           38 
 3232000   0.72402577   -6.8586439    848.04768  0.021865916  0.021239555           31 
 3233000   0.72454812   -6.8668011    847.77134   0.02185203  0.021233496           24 
 3234000   0.72479315   -6.8796571    845.79263  0.021794285  0.021227445           31 
 3235000   0.74616338   -6.8615144    847.56644  0.021833242  0.021221386           33 
 3236000   0.74707331   -6.8439929    846.64352  0.021802728  0.021215339           32 
 3237000   0.71885318   -6.8775818    849.77499  0.021876609  0.021209309           48 
 3238000   0.72666413   -6.8702429    848.38308   0.02183403  0.021203303           20 
 3239000   0.73335122   -6.8461274     848.0415  0.021818501  0.021197285           20 
 3240000   0.74351796   -6.8660948    848.76191  0.021830296  0.021191285           41 
 3241000   0.73794621   -6.8547305    850.03125  0.021856198  0.021185312           23 
 3242000   0.74561021   -6.8351463    851.42478  0.021885276   0.02117934           25 
 3243000   0.73179667   -6.8546772    846.58804  0.021754241   0.02117335           14 
 3244000   0.74562963   -6.8553717    850.11162   0.02183805  0.021167373           39 
 3245000   0.73462332    -6.857525    849.93511  0.021826788    0.0211614           20 
 3246000   0.73031194   -6.8352892    849.13975  0.021799645  0.021155419           17 
 3247000   0.73195135   -6.8706522    850.64555  0.021831577  0.021149458           46 
 3248000   0.72281515   -6.8585613    849.72974  0.021801358  0.021143485           24 
 3249000    0.7239998   -6.8516586    849.29549   0.02178351  0.021137516           22 
 3250000   0.71793086   -6.8425579    850.12361  0.021798041  0.021131558           24 
 3251000   0.72194604   -6.8670582    848.89753  0.021759908  0.021125602           33 
 3252000    0.7387815   -6.8335823     850.1653  0.021785704  0.021119638           22 
 3253000   0.73363196   -6.8565942    847.98474  0.021723146   0.02111366           22 
 3254000   0.72960074   -6.8686567     849.4919  0.021755068  0.021107682           31 
 3255000   0.73567177   -6.8652956    850.07768  0.021763381  0.021101696           73 
 3256000   0.72873658   -6.8701549    849.13531  0.021732579  0.021095719           53 
 3257000   0.73986911    -6.850675    851.14976  0.021777448   0.02108974           86 
 3258000   0.72646903   -6.8552688    846.98096  0.021664134  0.021083765           30 
 3259000   0.72833603   -6.8571231    850.42614   0.02174558  0.021077802           83 
 3260000   0.72614175   -6.8416965     850.8241  0.021749082  0.021071853           73 
 3261000   0.72171419   -6.8667672    848.42176  0.021681022  0.021065894           88 
 3262000   0.72341038   -6.8782191    849.52528  0.021702567  0.021059902           78 
 3263000   0.73039448    -6.866745    850.06412  0.021709677  0.021053905          113 
 3264000   0.71512817   -6.8662606     849.2215  0.021681513  0.021047912           50 
 3265000    0.7296066   -6.8595604    851.45869  0.021731973  0.021041923           58 
 3266000   0.73549199   -6.8650177    849.26539  0.021669356  0.021035927           24 
 3267000   0.72558207   -6.8790111     850.0308  0.021682247   0.02102992           61 
 3268000   0.72115355   -6.8697023    850.58868  0.021689838  0.021023911           27 
 3269000   0.71966816   -6.8887865    850.33868   0.02167683  0.021017924           58 
 3270000   0.73689345   -6.8627505    848.09796  0.021613098  0.021011922           67 
 3271000     0.714633   -6.8854311    848.84164  0.021625437  0.021005909           20 
 3272000   0.73670463   -6.8602734      849.044  0.021623981  0.020999909           76 
 3273000   0.73463432   -6.8858011    849.84951  0.021637884  0.020993909           64 
 3274000   0.71370204   -6.8639391    849.21394  0.021615097  0.020987888           68 
 3275000   0.72363667   -6.8926672    848.22894  0.021583434  0.020981856          132 
 3276000   0.73746099   -6.8886145    850.23265  0.021627815  0.020975804          145 
 3277000   0.71539311   -6.8857495    849.02509  0.021590507  0.020969768          108 
 3278000   0.73636751   -6.8946433    847.96663  0.021557012  0.020963731          112 
 3279000    0.7288467   -6.8855588     849.9928  0.021601931  0.020957703          109 
 3280000   0.72501547   -6.9071428    848.34425  0.021553462  0.020951677          218 
 3281000   0.73298999   -6.8833105    850.55777  0.021603113  0.020945663          265 
 3282000   0.73072512   -6.9020861    850.05767  0.021583833  0.020939645          162 
 3283000    0.7145546   -6.8635691    849.09911  0.021552927  0.020933599          151 
 3284000   0.71126127   -6.8922404    848.61479  0.021534074  0.020927544          175 
 3285000   0.72565205   -6.8735028    849.98325  0.021562234  0.020921513          180 
 3286000    0.7286513   -6.9021203    850.59972  0.021571306  0.020915509          162 
 3287000   0.70793648    -6.872662    849.48836  0.021536567  0.020909519          120 
 3288000   0.71427537   -6.8673809     849.4109  0.021528054   0.02090353          189 
 3289000   0.71764421   -6.8573368    850.45285  0.021547908  0.020897543          175 
 3290000   0.72798048   -6.8810546    848.86559  0.021501155  0.020891564           85 
 3291000   0.72887392   -6.8863761    849.81324  0.021518617  0.020885564          139 
 3292000   0.71895233   -6.9059597    849.37937  0.021501098   0.02087956          114 
 3293000   0.73031281   -6.8680084    850.07866  0.021512265  0.020873566          155 
 3294000   0.72227303    -6.872278    852.10307  0.021556949  0.020867573           95 
 3295000    0.7238863   -6.8934534    849.06584  0.021473592  0.020861582           72 
 3296000   0.72083709   -6.8704025    851.07353  0.021517838  0.020855591           65 
 3297000   0.72493475   -6.8620875    849.17476  0.021463319  0.020849612          117 
 3298000   0.70785965   -6.8598677    851.12305   0.02150604  0.020843651          139 
 3299000   0.71004964   -6.8581724    850.51214   0.02148409  0.020837684          183 
 3300000   0.72575632   -6.8647322    850.17853  0.021469155  0.020831717          173 
 3301000   0.72803469      -6.8382    851.75099  0.021502347  0.020825775          114 
 3302000   0.72047908   -6.8661821    851.69164  0.021494338  0.020819834           87 
 3303000   0.69448322   -6.8763889    851.10455  0.021473018  0.020813881          130 
 3304000    0.7239839   -6.8955727    852.55952  0.021503216  0.020807937           60 
 3305000   0.72327002   -6.8646311    851.04334   0.02145848  0.020802001           46 
 3306000   0.71770993   -6.8682645    852.43854  0.021487158  0.020796057           77 
 3307000   0.73057294   -6.8869734    849.99557    0.0214191  0.020790118           36 
 3308000   0.72377196    -6.863642    851.80348  0.021458169  0.020784167           61 
 3309000   0.72774157   -6.8725576    849.55855  0.021395148  0.020778222           54 
 3310000   0.71253858   -6.8787903    852.34335  0.021458795   0.02077228           30 
 3311000   0.71068728   -6.8766635    850.60209  0.021408489  0.020766323           49 
 3312000   0.73889299   -6.9012647    851.02392  0.021412639  0.020760364           89 
 3313000   0.71701492   -6.8832369    850.71564  0.021398421  0.020754407           76 
 3314000   0.71757571   -6.8956547    850.13876  0.021377458  0.020748434           36 
 3315000   0.71566166   -6.8877694     851.3256  0.021400845   0.02074247           60 
 3316000    0.7163078   -6.9014656    851.12621   0.02138938  0.020736511           71 
 3317000   0.71641537   -6.9050413    849.19495  0.021334412  0.020730527           89 
 3318000   0.72009267   -6.9210235    849.56301  0.021337226  0.020724521           75 
 3319000     0.727486   -6.9136743     850.8893  0.021364098  0.020718494           54 
 3320000   0.71397598   -6.9102581    850.70456  0.021353026   0.02071248           46 
 3321000   0.71895835   -6.9035348    848.74836   0.02129751  0.020706457           93 
 3322000   0.71840329   -6.8954086    850.25343  0.021328854  0.020700445           76 
 3323000   0.72387215   -6.9036921    850.21976  0.021321591   0.02069444          101 
 3324000    0.7154173   -6.8866339    849.81056  0.021304918  0.020688427          228 
 3325000   0.73317661   -6.8920495     849.7015  0.021295777  0.020682429          106 
 3326000   0.71534572   -6.8978566     850.1581  0.021300814  0.020676435          133 
 3327000   0.72650512   -6.8872608    850.64095  0.021306506  0.020670433          106 
 3328000   0.72185957   -6.9105573    849.88754  0.021281239  0.020664452          114 
 3329000   0.71784196   -6.9087963    850.34342  0.021286258  0.020658465          115 
 3330000   0.71901006   -6.8945566    851.56968  0.021310552  0.020652476           83 
 3331000   0.69516703   -6.8984227    849.20935  0.021245105  0.020646484          138 
 3332000   0.71786035    -6.925781    850.32739  0.021266691  0.020640495          128 
 3333000   0.73192522   -6.9132346    851.75886  0.021296101  0.020634517           70 
 3334000   0.72224106   -6.8894967    851.94912  0.021294469  0.020628552          119 
 3335000     0.727326   -6.9074654    851.16942  0.021268601  0.020622572          103 
 3336000    0.7174102    -6.882967    851.59608  0.021272884  0.020616612          317 
 3337000   0.72498914   -6.9175832    851.17289  0.021255941  0.020610633          330 
 3338000   0.72091344   -6.9208904    852.26423  0.021276818  0.020604656          209 
 3339000    0.7150301   -6.8902711    851.98736  0.021263536  0.020598702          173 
 3340000    0.7202761   -6.9102017    851.92283   0.02125556  0.020592775          214 
 3341000   0.70548051   -6.8939372    852.49918  0.021263573   0.02058684          136 
 3342000    0.7170248   -6.8671552    852.46538  0.021256368  0.020580928          101 
 3343000   0.72710164   -6.8999148    852.25213  0.021244694   0.02057501           44 
 3344000   0.71989594   -6.8951747    851.20254  0.021212184  0.020569077          169 
 3345000   0.71250779   -6.8971106    851.93921  0.021224195  0.020563148          125 
 3346000   0.72000685   -6.9085497    850.24123  0.021175564  0.020557233          101 
 3347000   0.71797321   -6.8858728    852.07471  0.021214887   0.02055132          139 
 3348000   0.73123859   -6.8840519    852.57654  0.021221041  0.020545413           74 
 3349000   0.69507033   -6.9007207    851.89978  0.021197865  0.020539513           95 
 3350000   0.70125451   -6.9075116    851.22862  0.021174841  0.020533611          115 
 3351000   0.71796616   -6.9205999    851.46799  0.021174475   0.02052767          115 
 3352000   0.69981821   -6.9004825    850.06329  0.021133236  0.020521734           93 
 3353000   0.71663978   -6.8938463    850.72867   0.02114347  0.020515808           54 
 3354000   0.69961056   -6.9143134    851.87225   0.02116558  0.020509894           69 
 3355000   0.71655518   -6.8960184    851.50538  0.021150159  0.020503995          126 
 3356000   0.72359216   -6.9117747    851.13443  0.021134645  0.020498073           83 
 3357000   0.69581198   -6.9165249    852.41978  0.021160257  0.020492151           63 
 3358000   0.70371726   -6.8925843    852.25542  0.021149876   0.02048624          101 
 3359000    0.7074165   -6.8937773    853.21585  0.021167407  0.020480326          156 
 3360000   0.71646688   -6.9159486    851.89718  0.021128402  0.020474383          167 
 3361000   0.71411487   -6.9142381    849.60264  0.021065225  0.020468445          189 
 3362000   0.71755782   -6.8984462    852.79754   0.02113815  0.020462518          116 
 3363000   0.71687671   -6.8993394    852.79422  0.021131783  0.020456617          155 
 3364000   0.71691694   -6.9151437    851.99032  0.021105587  0.020450702          148 
 3365000   0.70520082   -6.9350201    851.58202  0.021089203  0.020444775          210 
 3366000    0.7172588   -6.9147865    852.68636  0.021110278  0.020438835          226 
 3367000   0.71486282   -6.9211325    849.97692   0.02103695    0.0204329          131 
 3368000   0.70977211   -6.9288101    852.02364  0.021081345  0.020426943          270 
 3369000   0.73180639   -6.9104353     852.2353  0.021080323  0.020421002          200 
 3370000    0.7107684    -6.942086    850.35789  0.021027643  0.020415043          267 
 3371000   0.71544502   -6.9274647    852.90841  0.021084456  0.020409112          235 
 3372000   0.69753007   -6.8952545    851.49192  0.021043197  0.020403189           87 
 3373000   0.71438005   -6.8971802    850.34973  0.021008739   0.02039725          133 
 3374000   0.70672978    -6.922937    850.16354  0.020997914  0.020391295          191 
 3375000   0.69944687   -6.8875066    850.21715  0.020993016  0.020385358          131 
 3376000   0.70558199   -6.9469608    851.37586  0.021015399  0.020379423          216 
 3377000   0.71504231   -6.9086821    850.38626  0.020984756  0.020373502          231 
 3378000   0.71689495   -6.9019761    851.84223  0.021014462  0.020367607          333 
 3379000   0.71680571    -6.894631    854.06756  0.021063124  0.020361712          141 
 3380000   0.72415638   -6.8857872    852.83005  0.021026382  0.020355821          118 
 3381000   0.72995466   -6.9081621    851.91475  0.020997603  0.020349941          186 
 3382000   0.71744973   -6.8939408    852.29708  0.021000815   0.02034404          211 
 3383000   0.71074855   -6.8777017    851.76455  0.020981489  0.020338146          211 
 3384000   0.71496772   -6.9094366    853.71339  0.021023281  0.020332293          188 
 3385000   0.70765757   -6.9234647    852.40317  0.020984815  0.020326403          158 
 3386000   0.72403452   -6.8995804    853.67342  0.021009879  0.020320528          166 
 3387000   0.70278174   -6.9020976    852.80738  0.020982368  0.020314655          188 
 3388000   0.71433045   -6.9193283    852.57361  0.020970425  0.020308778          175 
 3389000   0.71377281    -6.899096    855.19926  0.021028801   0.02030291          215 
 3390000   0.70094571   -6.9074936    852.35532  0.020952687  0.020297048          150 
 3391000   0.72674956   -6.9269251    854.55484  0.021000561  0.020291176          205 
 3392000   0.71625531   -6.9198738    853.16913  0.020960326   0.02028529          243 
 3393000   0.70042106   -6.9210051    854.26778  0.020981132  0.020279412          273 
 3394000   0.71128471   -6.9120871    854.58316  0.020982694  0.020273527          371 
 3395000   0.70320617   -6.9172833    854.07498   0.02096404  0.020267655          336 
 3396000   0.69493242   -6.9415436    853.26263  0.020937933  0.020261746          350 
 3397000   0.70979501   -6.9443748    853.17733  0.020929676  0.020255851          353 
 3398000   0.71347367   -6.9182297    851.76582  0.020888901  0.020249954          407 
 3399000   0.71126717   -6.9317183    852.09395    0.0208908  0.020244062          419 
 3400000   0.71969511   -6.9459763    852.69375  0.020899357  0.020238163          379 
 3401000   0.70498835   -6.9650507    853.01954  0.020901194  0.020232267          468 
 3402000   0.69607664   -6.9483367    853.30917  0.020902145  0.020226362          474 
 3403000   0.71544223   -6.9366609    854.22021  0.020918313  0.020220465          379 
 3404000   0.70972913   -6.9400527    854.08912  0.020908958  0.020214567          464 
 3405000   0.70801366   -6.9401836    852.84134   0.02087228  0.020208667          522 
 3406000   0.69383768   -6.9155211    853.73708  0.020888067   0.02020276          612 
 3407000   0.71821555   -6.9241501    853.05848  0.020865338  0.020196866          502 
 3408000   0.70264915   -6.9499603    849.26458  0.020766446  0.020190942          716 
 3409000   0.70914922   -6.9534309    853.41831  0.020861893  0.020185011          628 
 3410000   0.68966116   -6.9614478    852.38879  0.020830616  0.020179081          798 
 3411000   0.70176308   -6.9705721    850.71285  0.020783564  0.020173138          683 
 3412000    0.7093588   -6.9664599    851.08559  0.020786577  0.020167186          690 
 3413000    0.6990343   -6.9639626    853.57897  0.020841366   0.02016124          748 
 3414000   0.71470846   -6.9769972    852.03386  0.020797546  0.020155277          793 
 3415000   0.69426594   -6.9616283    851.63364   0.02078169  0.020149324          744 
 3416000   0.69860762    -6.966997    849.31113  0.020718948  0.020143366          798 
 3417000   0.70703148   -6.9612783    851.82005  0.020774072   0.02013739          774 
 3418000   0.70454744   -6.9675404    851.71545  0.020765444  0.020131412          861 
 3419000   0.70407977   -6.9625905    852.38484  0.020775686  0.020125434          896 
 3420000   0.69478972   -6.9866203    852.67744  0.020776741  0.020119446         1033 
 3421000   0.69264914   -6.9721951    851.68136  0.020746404   0.02011345         1023 
 3422000   0.69883514   -6.9830528    850.59411  0.020713864  0.020107466         1078 
 3423000   0.68896335   -7.0004582    849.18699  0.020673556  0.020101466         1197 
 3424000    0.7100653   -7.0004172    848.37319  0.020647712  0.020095435         1227 
 3425000   0.71562629   -7.0122855    850.07306  0.020683043    0.0200894         1259 
 3426000   0.69609757   -7.0228767    848.56485   0.02064032  0.020083341         1265 
 3427000   0.70057272   -7.0236308    849.23243  0.020650531    0.0200773         1269 
 3428000   0.70547064   -7.0360066    848.21904  0.020619872  0.020071242         1349 
 3429000   0.69692972   -7.0189758    849.99896  0.020657115  0.020065186         1406 
 3430000   0.70533757   -7.0656291    847.82596  0.020598298  0.020059115         1442 
 3431000    0.7083565   -7.0389867    848.62648  0.020611738  0.020053055         1563 
 3432000   0.69902027   -7.0335282    848.77225  0.020609272  0.020046991         1519 
 3433000     0.707179   -7.0657264    848.54109  0.020597657  0.020040926         1582 
 3434000   0.72231795   -7.0400236    849.69387  0.020619634  0.020034846         1601 
 3435000   0.70600512    -7.040448     849.3267  0.020604724  0.020028796         1624 
 3436000    0.7038944   -7.0571522     850.0453  0.020616155  0.020022729         1728 
 3437000   0.71284867   -7.0563972    847.89834  0.020558102  0.020016642         1797 
 3438000   0.69648401   -7.0569773     847.9278  0.020552836   0.02001055         1856 
 3439000   0.70263867   -7.0720687    848.74967  0.020566775  0.020004448         1880 
 3440000     0.697782   -7.0761564    848.17258  0.020546816  0.019998343         1922 
 3441000   0.70335028   -7.0826536    847.51084  0.020524819  0.019992218         1902 
 3442000   0.68970608   -7.0939225    848.14711  0.020534261  0.019986087         2014 
 3443000   0.69271532   -7.0911037    846.88234  0.020497685  0.019979945         2032 
 3444000   0.69528565   -7.0930901    845.56415  0.020459837  0.019973776         2145 
 3445000   0.70163019   -7.1159963     845.7031  0.020457259  0.019967616         2151 
 3446000   0.69074615   -7.1420883    846.21905    0.0204638  0.019961432         2239 
 3447000   0.70641878   -7.1132482    846.75076  0.020470717  0.019955243         2178 
 3448000   0.71181182    -7.129856    845.35808  0.020431121  0.019949035         2311 
 3449000   0.69839021   -7.1348042    844.64816  0.020408045  0.019942826         2271 
 3450000   0.73004265   -7.1262028    847.13648  0.020462234   0.01993661         2298 
 3451000   0.68979347   -7.1567244     845.2506  0.020410765   0.01993039         2397 
 3452000   0.69986341   -7.1593276    845.30707  0.020406215  0.019924145         2510 
 3453000   0.69816553   -7.1780798    846.16206   0.02042094  0.019917914         2418 
 3454000   0.69097408   -7.1740507    844.08607  0.020364941  0.019911664         2525 
 3455000   0.71682773   -7.1786657    844.43954  0.020367572  0.019905403         2527 
 3456000   0.71086483   -7.1735207    842.84434  0.020323214  0.019899133         2630 
 3457000   0.70765514   -7.1547056    843.90748  0.020342963  0.019892858         2596 
 3458000   0.68669309   -7.1715056     843.5251  0.020327865  0.019886595         2704 
 3459000   0.70486411   -7.1557333    844.28988  0.020340413  0.019880327         2619 
 3460000   0.72016291   -7.1635606    845.59029  0.020365855  0.019874056         2581 
 3461000   0.69706744   -7.1872747    842.10702  0.020276101  0.019867791         2627 
 3462000   0.68858451   -7.1744163    842.40151  0.020277333  0.019861525         2663 
 3463000   0.69889434   -7.1777739    844.80788  0.020329384  0.019855242         2743 
 3464000   0.68960599   -7.1639822     843.2187  0.020285284  0.019848966         2770 
 3465000   0.71229268   -7.1823161     842.6487  0.020265721  0.019842691         2745 
 3466000   0.69041237   -7.1730639    842.20004  0.020249087  0.019836414         2786 
 3467000   0.70121451   -7.1859815    841.96842   0.02023768  0.019830115         2793 
 3468000   0.67929806   -7.1825196    842.32376  0.020240383  0.019823795         2758 
 3469000   0.70900744   -7.2153709     842.0894  0.020228918  0.019817472         2854 
 3470000   0.71015376   -7.2010394    842.98326  0.020244555  0.019811151         2906 
 3471000   0.70845408   -7.2222507    842.21265  0.020220221  0.019804807         2871 
 3472000    0.7090523   -7.1977405    840.57414  0.020175071  0.019798467         2916 
 3473000   0.67040762   -7.2212625    842.85278  0.020223936  0.019792119         2918 
 3474000   0.68010475   -7.2356535    842.50551  0.020209785  0.019785779         2861 
 3475000   0.69416053   -7.2146315    841.29494  0.020174939  0.019779429         2874 
 3476000   0.70113908   -7.2091235    841.03294  0.020162853  0.019773079         2923 
 3477000      0.70241   -7.2260015    842.04102  0.020181215  0.019766738         2838 
 3478000   0.69634813   -7.2349055    841.83946  0.020170583  0.019760386         2889 
 3479000   0.71731505   -7.2291102    841.94904   0.02016741  0.019754014         2891 
 3480000   0.69360836   -7.2321199    841.71733  0.020156066  0.019747664         2887 
 3481000   0.70113466   -7.2268609     841.2072  0.020138064  0.019741313         2917 
 3482000    0.6853318   -7.2069992    842.20972  0.020156273  0.019734962         2844 
 3483000   0.71644806     -7.24039    840.09935  0.020099994  0.019728612         2960 
 3484000   0.68888366   -7.2381155    841.82394  0.020135475  0.019722256         2900 
 3485000   0.66649513     -7.22817    842.34466  0.020142149  0.019715902         2930 
 3486000   0.68980726   -7.2469918    841.88264  0.020125326  0.019709544         3005 
 3487000   0.72039578   -7.2573442    841.43182  0.020108781  0.019703179         3012 
 3488000   0.68788561   -7.2352298    840.39463  0.020078236  0.019696814         3082 
 3489000   0.68226981   -7.2437769    839.72574  0.020056505  0.019690442         3106 
 3490000   0.69504976    -7.265046    840.59843  0.020071596  0.019684054         3131 
 3491000   0.70695806   -7.2649525    841.43232  0.020085752  0.019677661         3187 
 3492000   0.69132108   -7.2635727    839.00756  0.020022135  0.019671252         3236 
 3493000   0.69644548   -7.2702644    839.67852  0.020032411  0.019664831         3217 
 3494000   0.68326845   -7.2646722     839.4541  0.020021325  0.019658402         3271 
 3495000   0.68554465   -7.2877751    838.58289  0.019994823  0.019651957         3350 
 3496000    0.6860236   -7.2778613    839.60291  0.020013418  0.019645519         3349 
 3497000   0.69244439   -7.3091875    838.03628  0.019970362  0.019639078         3426 
 3498000   0.69629149   -7.3051888    838.46786  0.019974935  0.019632618         3391 
 3499000   0.70018887   -7.3229972    838.12639  0.019961093  0.019626151         3438 
 3500000   0.69468092   -7.3420576    835.08527  0.019882983  0.019619671         3468 
 3501000   0.69107785   -7.3174739     836.6088  0.019913568  0.019613146         3472 
 3502000   0.69898921   -7.3433894    835.29867  0.019876705  0.019606632         3559 
 3503000    0.6905947   -7.3431529    837.37091  0.019920328  0.019600113         3485 
 3504000    0.6946562   -7.3380146    836.69075  0.019898467  0.019593606         3491 
 3505000   0.67739108   -7.3738845    835.69193  0.019869043  0.019587077         3530 
 3506000   0.69736392   -7.3654855    835.15163  0.019850533  0.019580539         3577 
 3507000   0.68765166   -7.3723675    835.04941  0.019842444  0.019573994         3578 
 3508000   0.68586296   -7.3683716    836.08613  0.019861415  0.019567447         3570 
 3509000   0.66877046    -7.369534    837.52543  0.019889936  0.019560896         3652 
 3510000   0.69905263     -7.39238    834.41546  0.019810433  0.019554339         3671 
 3511000   0.70505087   -7.3601393    833.57704  0.019784891  0.019547776         3668 
 3512000   0.69141818   -7.4054723    833.44683  0.019776168  0.019541214         3664 
 3513000   0.68287142   -7.3799314    834.00489  0.019783777  0.019534631         3746 
 3514000    0.6895963    -7.406679    834.11949  0.019780864  0.019528033         3770 
 3515000   0.67943341   -7.3798162    832.33881  0.019733021  0.019521427         3840 
 3516000   0.67267623   -7.4139565    834.40028  0.019776268  0.019514818         3799 
 3517000   0.69442973   -7.4214986    833.24797  0.019743341  0.019508202         3818 
 3518000   0.69536945   -7.4134004    833.62652  0.019746696  0.019501587         3783 
 3519000   0.68872205   -7.4015144    834.71814  0.019766935  0.019494972         3813 
 3520000   0.68270255   -7.4204566    833.63539  0.019735686  0.019488353         3844 
 3521000   0.67545086   -7.3805397    833.91531  0.019736706  0.019481732         3832 
 3522000   0.69084874   -7.4230331    834.58849   0.01974703  0.019475115         3794 
 3523000     0.701599   -7.4384671    832.74589   0.01969784  0.019468493         3860 
 3524000   0.69045074     -7.42352    831.48375  0.019662404  0.019461875         3823 
 3525000   0.68270034   -7.4127673     833.1966  0.019697319  0.019455265         3846 
 3526000   0.67791503   -7.4379026    834.54142  0.019723516  0.019448655         3855 
 3527000   0.70328813   -7.4259015    833.79074  0.019700188  0.019442043         3841 
 3528000   0.67323883    -7.418387    833.06755  0.019677521  0.019435434         3841 
 3529000   0.68948401   -7.4230216    832.62278  0.019661443  0.019428821         3869 
 3530000   0.69923705   -7.4349317    834.20379  0.019693196  0.019422215         3817 
 3531000   0.67469582   -7.4274253    832.99453   0.01965908  0.019415607         3860 
 3532000   0.68591417   -7.4369429     832.9243  0.019651857  0.019408996         3864 
 3533000   0.68387663   -7.4232569     833.4797  0.019659395  0.019402396         3847 
 3534000   0.68460401   -7.4192037    831.96702  0.019618162  0.019395792         3852 
 3535000   0.69117869   -7.4355981     832.8596  0.019633654  0.019389186         3864 
 3536000   0.69324755   -7.4339219    834.06813  0.019656583  0.019382565         3863 
 3537000   0.68585068   -7.4303166    833.37421  0.019634677  0.019375956         3860 
 3538000   0.67957586   -7.4170935    833.31151   0.01962765  0.019369342         3817 
 3539000   0.69151614   -7.4247219     834.1296  0.019641368  0.019362743         3851 
 3540000   0.67569184   -7.4476727    832.22327  0.019590943   0.01935615         3839 
 3541000   0.71051067   -7.4402461    832.92021  0.019601812  0.019349551         3831 
 3542000   0.67366025    -7.414169    832.11899  0.019577428  0.019342947         3841 
 3543000   0.67897558    -7.440852    833.00775  0.019592806  0.019336349         3848 
 3544000   0.68134483   -7.4340971    833.05753  0.019588448  0.019329743         3844 
 3545000   0.69548308   -7.4248556    831.59053  0.019548437  0.019323141         3849 
 3546000   0.68323906   -7.4163039     831.5849  0.019542792  0.019316542         3851 
 3547000   0.67431161   -7.4480261    833.45653  0.019581255  0.019309946         3840 
 3548000   0.70063806   -7.4482134    833.29661   0.01957198  0.019303345         3859 
 3549000    0.6764091   -7.4513582    834.45399  0.019593641  0.019296741         3876 
 3550000   0.68215766   -7.4599148    830.46222  0.019494418  0.019290141         3850 
 3551000   0.68389119   -7.4515594    831.92117  0.019523167  0.019283541         3854 
 3552000    0.6901123     -7.43984    832.54157  0.019532225   0.01927694         3873 
 3553000   0.69578232   -7.4475288    832.46959   0.01952504  0.019270347         3846 
 3554000   0.67768069   -7.4434551    831.33644  0.019492976  0.019263749         3867 
 3555000   0.69089137    -7.439567    831.99872  0.019503017  0.019257156         3874 
 3556000   0.67229621   -7.4441661    831.42652  0.019484124   0.01925056         3881 
 3557000   0.67575238   -7.4446555    833.53387  0.019528017  0.019243967         3848 
 3558000   0.68521974   -7.4392793    833.52519  0.019522325  0.019237378         3888 
 3559000   0.67416354   -7.4739876    832.58244  0.019494765  0.019230776         3884 
 3560000   0.67184656   -7.4756682    830.78335  0.019447176   0.01922417         3861 
 3561000   0.69265245   -7.4687623    831.84984  0.019466672  0.019217561         3870 
 3562000   0.68732047   -7.4524206    832.30629  0.019471886   0.01921096         3870 
 3563000   0.68634349   -7.4743507     832.4762  0.019470395  0.019204368         3857 
 3564000   0.66347423   -7.4645932    832.14897   0.01945728  0.019197764         3891 
 3565000   0.68212059   -7.4992787    831.70039  0.019441337  0.019191172         3872 
 3566000   0.68564948   -7.4822283    831.13544  0.019422683  0.019184576         3860 
 3567000    0.6817411   -7.4684429    832.01928  0.019437886  0.019177981         3867 
 3568000   0.69005629   -7.4651513    831.64327  0.019423656  0.019171388         3840 
 3569000   0.68013281   -7.4640603    829.61968  0.019370965  0.019164787         3834 
 3570000   0.68421891   -7.4762118    831.72008  0.019414568  0.019158192         3865 
 3571000   0.68754886   -7.4737431    830.91575  0.019390361    0.0191516         3858 
 3572000   0.67736872   -7.4686284    831.61354  0.019401212  0.019145013         3838 
 3573000   0.69676973   -7.4627326    830.63709  0.019373008  0.019138428         3863 
 3574000   0.68301572   -7.4642369     831.2012   0.01938074  0.019131836         3881 
 3575000   0.67555674    -7.490796    832.46298  0.019404731  0.019125253         3854 
 3576000   0.68174324   -7.4740051    833.35043  0.019419986   0.01911867         3840 
 3577000   0.67805159   -7.5057031    831.80279  0.019378501   0.01911208         3862 
 3578000   0.67691256   -7.4557171    830.83612  0.019350571  0.019105487         3873 
 3579000   0.67940149   -7.4658227    831.31966  0.019356423  0.019098897         3885 
 3580000   0.69146334   -7.4901588    830.87359  0.019340633  0.019092308         3881 
 3581000   0.66516959   -7.4751765    830.07535  0.019316656  0.019085714         3870 
 3582000   0.67865597   -7.5074227    830.78251  0.019327715  0.019079118         3877 
 3583000    0.6868037    -7.473209    829.12702  0.019283817  0.019072525         3857 
 3584000   0.68266653   -7.4930637    830.53426  0.019311157  0.019065935         3877 
 3585000   0.68985575   -7.4798737    832.54508  0.019352512  0.019059356         3874 
 3586000   0.68733689   -7.4845264    830.29543  0.019294837  0.019052771         3859 
 3587000   0.67814462   -7.4656465    831.92677  0.019327357  0.019046193         3876 
 3588000   0.66986876   -7.4769607    830.40374  0.019286597  0.019039622         3869 
 3589000   0.66532712    -7.493176    831.28659  0.019301723  0.019033043         3870 
 3590000   0.67444798   -7.4669893    831.55779  0.019302641  0.019026458         3873 
 3591000   0.68046154   -7.4764176    832.26999  0.019313794   0.01901987         3875 
 3592000   0.67914714   -7.5012016    831.48088   0.01929011  0.019013292         3891 
 3593000   0.67193326   -7.4930273    830.85581  0.019270243  0.019006706         3885 
 3594000     0.706671   -7.5028027    830.06052  0.019246441  0.019000126         3870 
 3595000   0.67686255   -7.5037608    831.08394  0.019264811  0.018993531         3867 
 3596000   0.67688011     -7.47811    830.28232  0.019240877  0.018986951         3882 
 3597000   0.66056698   -7.5135181     829.5445  0.019218434  0.018980369         3901 
 3598000   0.66087842   -7.5114729     830.2663  0.019229811  0.018973774         3878 
 3599000   0.67322809   -7.5027386     831.4234   0.01925126  0.018967192         3896 
 3600000   0.67701244   -7.4795928    829.66307  0.019205164   0.01896061         3892 
 3601000   0.67596932   -7.5233045    829.11505  0.019187148  0.018954021         3889 
 3602000   0.66105308   -7.4963739    828.52048  0.019168066  0.018947428         3896 
 3603000   0.67088977   -7.4967285    829.28174  0.019180353  0.018940838         3902 
 3604000   0.66962224     -7.50288    831.13888  0.019217973  0.018934246         3871 
 3605000   0.66489256    -7.527569    828.78553  0.019158241  0.018927653         3896 
 3606000   0.68057509   -7.5078951    829.10021  0.019160201  0.018921059         3880 
 3607000   0.68732726   -7.5180572    829.00366  0.019152658  0.018914464         3862 
 3608000    0.6699009   -7.5342971    828.53593  0.019136547  0.018907866         3891 
 3609000   0.67711546   -7.5104122    832.08958    0.0192133  0.018901282         3869 
 3610000   0.68724582   -7.5132063    829.85195  0.019156324  0.018894692         3866 
 3611000   0.67092492    -7.534287    830.70645  0.019170739  0.018888104         3887 
 3612000   0.67728401   -7.5382801    829.09287  0.019128204  0.018881518         3886 
 3613000   0.68019088   -7.5330767    829.48525   0.01913196  0.018874943         3883 
 3614000   0.67450306    -7.526466    829.09661  0.019117705  0.018868362         3887 
 3615000   0.67573522   -7.5343024    829.50458  0.019121821  0.018861779         3884 
 3616000   0.65012599   -7.5196954    828.60509  0.019095803  0.018855196         3887 
 3617000   0.68128729   -7.5264444    827.64631  0.019068434  0.018848617         3887 
 3618000   0.67968647   -7.5285979    828.74302  0.019088424   0.01884203         3874 
 3619000   0.65364278   -7.5200336    828.61257  0.019080146  0.018835449         3883 
 3620000   0.66629604   -7.5095008    828.61669   0.01907497   0.01882886         3900 
 3621000   0.67686436   -7.5199117    829.16898  0.019082412  0.018822278         3886 
 3622000   0.66014701   -7.5208131    829.96999  0.019095573  0.018815709         3895 
 3623000   0.66061417    -7.520486    828.51401  0.019056813  0.018809136         3898 
 3624000   0.67900843   -7.5407996    829.39323  0.019071772  0.018802569         3898 
 3625000   0.67573162   -7.5450648    827.31258   0.01901868  0.018796005         3892 
 3626000   0.66142686   -7.5219071    830.34157  0.019083048  0.018789437         3886 
 3627000    0.6695954   -7.5224335    830.64014  0.019084646  0.018782878         3878 
 3628000   0.68425346   -7.5318382    830.32077   0.01907205  0.018776315         3881 
 3629000   0.66230641   -7.5180274    828.78526  0.019031534  0.018769759         3901 
 3630000   0.68052723   -7.5129041    828.54963  0.019020882  0.018763192         3890 
 3631000   0.68320757   -7.5375609    828.83748   0.01902225  0.018756638         3902 
 3632000   0.67308315   -7.5274724    828.93326   0.01901921   0.01875008         3890 
 3633000    0.6720794   -7.5143952    828.79467  0.019010796  0.018743531         3899 
 3634000   0.67429771   -7.5443972    829.64981  0.019025174  0.018736981         3920 
 3635000   0.68706683    -7.543081    830.87834  0.019048105  0.018730433         3915 
 3636000   0.65726006   -7.5203573    829.39693  0.019008914  0.018723884         3889 
 3637000   0.66404909   -7.5205799    829.05692  0.018995897  0.018717343         3904 
 3638000   0.66850081   -7.5245598     829.4687  0.019000108  0.018710799         3900 
 3639000   0.67827327   -7.5189322    827.96727  0.018960503  0.018704254         3901 
 3640000   0.66172254   -7.5260583    828.00559  0.018956172  0.018697717         3900 
 3641000   0.65735379   -7.5194446    829.54407  0.018986178  0.018691177         3911 
 3642000   0.66799817   -7.5161752    829.69743  0.018984474  0.018684637         3902 
 3643000   0.66177058   -7.5380964    828.64983  0.018955299  0.018678104         3902 
 3644000   0.67533399   -7.5397905    830.86476  0.019000749  0.018671568         3913 
 3645000   0.66020637   -7.5198845    830.21862  0.018980764  0.018665031         3901 
 3646000   0.67216968   -7.5360822    828.91224  0.018945699  0.018658506         3898 
 3647000    0.6774874   -7.5299985    829.03096  0.018943217  0.018651975         3893 
 3648000   0.66635772   -7.5306218    829.28346  0.018943792  0.018645446         3899 
 3649000   0.67338063   -7.5294879    828.03504   0.01891009  0.018638919         3903 
 3650000   0.65920287   -7.5481036    830.29518  0.018956511  0.018632398         3905 
 3651000   0.64624094   -7.5488206    827.97221  0.018898297  0.018625884         3902 
 3652000   0.66246379   -7.5394784    830.53153  0.018951523  0.018619361         3903 
 3653000   0.64774599   -7.5447219    829.52464  0.018923365  0.018612842         3910 
 3654000   0.66320446   -7.4993362    827.68198  0.018876163  0.018606336         3899 
 3655000   0.67482745   -7.5512455    828.90507  0.018898884  0.018599828         3918 
 3656000   0.65946089   -7.5492684    830.40208  0.018927837  0.018593313         3906 
 3657000   0.67373626   -7.5382365    830.16098  0.018917168  0.018586808         3911 
 3658000   0.66119675   -7.5405786    827.94507  0.018861515    0.0185803         3910 
 3659000   0.67153222   -7.5349275    828.60245  0.018871332  0.018573793         3904 
 3660000   0.66355529   -7.5285691    829.23687  0.018880621  0.018567283         3893 
 3661000   0.67137758   -7.5242559    829.56436  0.018882918  0.018560782         3910 
 3662000   0.65709875   -7.5376348    828.36029  0.018850361  0.018554279         3903 
 3663000   0.66075135    -7.539283    829.11105  0.018862295  0.018547785         3910 
 3664000    0.6752792   -7.4947089    827.71347  0.018825361  0.018541292         3905 
 3665000   0.67957559   -7.5587896    830.06248  0.018873635   0.01853479         3898 
 3666000    0.6520855   -7.5424875    829.44395  0.018854427  0.018528289         3905 
 3667000   0.66606616   -7.5223827    828.92981  0.018837601  0.018521801         3892 
 3668000   0.66042952    -7.548545    829.73158  0.018850681  0.018515318         3922 
 3669000    0.6645606   -7.5192553     828.4626  0.018816721  0.018508835         3916 
 3670000   0.65417811   -7.5369783    829.93239  0.018844968  0.018502353         3894 
 3671000   0.65951125   -7.5462322    829.04029  0.018819583  0.018495871         3902 
 3672000   0.66866646   -7.5324815    827.89107  0.018788378  0.018489386         3906 
 3673000     0.678281   -7.5371879    826.99844   0.01876301  0.018482911         3879 
 3674000   0.66763348   -7.5365432    827.97592  0.018780074  0.018476434         3918 
 3675000     0.658453   -7.5473482    828.62292  0.018789635   0.01846996         3905 
 3676000   0.66149395   -7.5469191    829.41001  0.018802367  0.018463481         3916 
 3677000    0.6608357   -7.5481307    829.69539  0.018803721  0.018457007         3911 
 3678000   0.67423346   -7.5428602    828.05834  0.018761517  0.018450533         3922 
 3679000   0.66027488   -7.5385832    828.01978  0.018755545  0.018444061         3878 
 3680000   0.67206076   -7.5496277    829.88858  0.018792767  0.018437597         3902 
 3681000   0.66314354   -7.5289608    828.76685  0.018762267  0.018431133         3904 
 3682000   0.66586805   -7.5504435    829.56074  0.018775139  0.018424677         3900 
 3683000   0.65982536    -7.515132    828.75078  0.018751715  0.018418221         3896 
 3684000   0.65913917   -7.5380521    829.12147   0.01875501  0.018411765         3920 
 3685000   0.66253786   -7.5365257    829.43894    0.0187571  0.018405312         3913 
 3686000   0.66606078   -7.5457384    827.47708  0.018707657  0.018398862         3927 
 3687000   0.65784547   -7.5324357    827.19233  0.018696147  0.018392404         3917 
 3688000    0.6700828   -7.5472586    828.54014  0.018721532  0.018385953         3906 
 3689000   0.66029847   -7.5501496    829.24154  0.018732302  0.018379503         3905 
 3690000    0.6536643   -7.5399314    827.63331  0.018690906  0.018373057         3914 
 3691000   0.65466504   -7.5250591    829.20629  0.018721356  0.018366615         3912 
 3692000    0.6554648   -7.5507349    829.09762  0.018713832  0.018360176         3912 
 3693000   0.65902657   -7.5563897    829.44887  0.018716691  0.018353733         3898 
 3694000   0.66958945   -7.5519551    828.09956  0.018681185   0.01834729         3909 
 3695000    0.6441281   -7.5581237    828.34339  0.018681628  0.018340851         3915 
 3696000   0.65330422   -7.5621698    828.07623   0.01867055  0.018334411         3899 
 3697000   0.65050638   -7.5579862    831.16943  0.018735223  0.018327972         3902 
 3698000   0.66720387   -7.5346861    828.05408  0.018659953  0.018321547         3895 
 3699000   0.65065193   -7.5600503    829.22221  0.018681225  0.018315111         3896 
 3700000   0.65332009   -7.5704095    828.92317  0.018669441  0.018308682         3915 
 3701000   0.67005664   -7.5564615    828.70791  0.018659549  0.018302253         3922 
 3702000   0.66887944   -7.5529568    828.48781  0.018649554  0.018295828         3903 
 3703000   0.66017113   -7.5474987    827.40634  0.018620181  0.018289405         3903 
 3704000   0.67383142    -7.534316    827.04495  0.018607023   0.01828298         3906 
 3705000   0.66678235   -7.5442809    826.93371  0.018599499  0.018276561         3911 
 3706000   0.64020186   -7.5592197    826.53534  0.018585522  0.018270145         3913 
 3707000   0.66500459   -7.5506286    828.61329  0.018627221   0.01826373         3901 
 3708000   0.66607758    -7.554001    827.38804  0.018594661  0.018257322         3922 
 3709000   0.65851594   -7.5565024    829.52282  0.018637612  0.018250913         3909 
 3710000   0.65622142   -7.5395927    827.52407  0.018587692  0.018244505         3918 
 3711000   0.67456318    -7.556881    829.06325  0.018617247    0.0182381         3896 
 3712000   0.65707673   -7.5448868    828.45606    0.0185986  0.018231695         3903 
 3713000   0.64994269   -7.5518123    829.14871  0.018609137  0.018225296         3907 
 3714000   0.64811008   -7.5539152    827.16483  0.018559613  0.018218893         3905 
 3715000   0.66586228   -7.5616793    827.86371  0.018570294  0.018212495         3919 
 3716000   0.65035181     -7.54932    827.68126  0.018561205  0.018206098         3916 
 3717000   0.66004849   -7.5383206    827.49312  0.018551994  0.018199706         3911 
 3718000   0.65909231   -7.5797481    828.40089   0.01856735  0.018193313         3917 
 3719000   0.65932641   -7.5523085    827.83208  0.018549612   0.01818692         3893 
 3720000   0.65986689   -7.5545144    828.99249   0.01857062  0.018180527         3906 
 3721000   0.67430144   -7.5606589    828.15216   0.01854681  0.018174136         3910 
 3722000   0.65248169   -7.5210142    829.71792  0.018576883  0.018167753         3898 
 3723000   0.63692043   -7.5612537    826.46953  0.018499184  0.018161376         3911 
 3724000    0.6491224   -7.5466118    826.86584  0.018503084  0.018154994         3912 
 3725000    0.6593138   -7.5472135    828.95789  0.018544919  0.018148617         3898 
 3726000   0.65264845    -7.548453     827.4221  0.018505594  0.018142243         3910 
 3727000   0.65143774   -7.5475075    827.84182  0.018510013  0.018135863         3907 
 3728000   0.65158219   -7.5456318    828.96533  0.018530162  0.018129503         3891 
 3729000   0.65761568   -7.5353279    829.04107  0.018526885  0.018123136         3904 
 3730000   0.65813036   -7.5422293    827.99234  0.018498488  0.018116772         3906 
 3731000   0.67273093    -7.576919    828.66294  0.018508508  0.018110405         3924 
 3732000   0.66858541   -7.5480039    828.66762  0.018503653  0.018104043         3908 
 3733000   0.65640681   -7.5602432    827.94173  0.018482492  0.018097683         3922 
 3734000   0.66323597   -7.5528546    827.82649  0.018474971  0.018091324         3914 
 3735000   0.64301984   -7.5730804     827.0828  0.018453431  0.018084962         3921 
 3736000   0.65238391   -7.5723538     828.4921  0.018479927  0.018078604         3908 
 3737000   0.63727765   -7.5631872    828.37403  0.018472349   0.01807225         3908 
 3738000   0.64658462    -7.565284    828.23405  0.018464287  0.018065895         3907 
 3739000   0.65436934   -7.5538426    828.99211  0.018476244  0.018059543         3916 
 3740000   0.66078261   -7.5733943    827.20549  0.018431495  0.018053192         3916 
 3741000   0.67533426   -7.5541075    828.05981  0.018445599  0.018046847         3910 
 3742000   0.63531368   -7.5567689      828.281  0.018445595    0.0180405         3907 
 3743000   0.66802552   -7.5457489    829.36589  0.018464821  0.018034157         3907 
 3744000   0.64831715   -7.5779857    825.85848  0.018381822  0.018027815         3910 
 3745000   0.65287556   -7.5602601    828.65332  0.018439104  0.018021473         3924 
 3746000   0.65159332   -7.5826196      826.957  0.018396445  0.018015136         3913 
 3747000   0.64606952   -7.5631321     826.6209  0.018384061  0.018008797         3918 
 3748000   0.64656706   -7.5621319    827.81452  0.018405695  0.018002463         3915 
 3749000   0.64538553   -7.5316681    828.04533  0.018405916  0.017996126         3912 
 3750000   0.64937504   -7.5613351    827.96228  0.018399162  0.017989798         3894 
 3751000   0.65419202   -7.5745863    827.86119  0.018392011   0.01798347         3924 
 3752000   0.64897931   -7.5722779    827.98708  0.018389905  0.017977145         3907 
 3753000    0.6454782   -7.5792213     828.7845  0.018402711  0.017970821         3920 
 3754000   0.64872568   -7.5395203    828.64462  0.018394704  0.017964501         3917 
 3755000    0.6576224   -7.5711787    829.07484  0.018399353   0.01795818         3900 
 3756000   0.64393901   -7.5690989    829.05045  0.018393913  0.017951863         3912 
 3757000   0.64777782   -7.5655981    827.08518  0.018345426  0.017945549         3915 
 3758000   0.63970577   -7.5463926    827.40083  0.018347544  0.017939234         3915 
 3759000   0.65280507   -7.5382789    827.11769  0.018336386  0.017932925         3896 
 3760000   0.65441147   -7.5635819    826.94628   0.01832771  0.017926615         3909 
 3761000   0.64081521   -7.5776786    827.98233  0.018345793   0.01792031         3911 
 3762000    0.6512759   -7.5667331    829.16879  0.018367198  0.017914002         3906 
 3763000   0.65850609   -7.5679675    828.20072  0.018340879  0.017907695         3921 
 3764000   0.64855523   -7.5552953    827.80841  0.018327321  0.017901391         3900 
 3765000   0.64822536   -7.5733041      825.834  0.018278752  0.017895093         3909 
 3766000   0.64903449   -7.5604145    826.09511  0.018279676  0.017888799         3903 
 3767000   0.65953946   -7.5752162    827.14204  0.018297983  0.017882505         3918 
 3768000   0.64975086   -7.5567847    828.87653  0.018331487  0.017876213         3907 
 3769000   0.65629036   -7.5660452     826.9987  0.018285104  0.017869923         3910 
 3770000    0.6440802   -7.5639503    827.51022  0.018291561  0.017863629         3914 
 3771000    0.6552395   -7.5591634    826.84427  0.018271994   0.01785734         3915 
 3772000   0.64557683   -7.5606373    827.27947  0.018276765  0.017851057         3899 
 3773000   0.65148336   -7.5540927    826.68282  0.018258742  0.017844776         3894 
 3774000   0.65382542   -7.5658291     826.3392  0.018246317  0.017838496         3913 
 3775000   0.66081707   -7.5674358    827.73439  0.018272282  0.017832222         3907 
 3776000   0.64849931   -7.5637129    826.17767  0.018233088  0.017825948         3903 
 3777000   0.66038106    -7.543101    826.13667  0.018227356   0.01781968         3907 
 3778000    0.6466686   -7.5624354       828.13  0.018266499  0.017813407         3916 
 3779000   0.64542375   -7.5649393    826.65353  0.018229107  0.017807142         3906 
 3780000   0.65507331   -7.5671509    827.31522  0.018238872  0.017800871         3913 
 3781000    0.6463428   -7.5591571    828.37751  0.018257461  0.017794608         3918 
 3782000   0.66256696   -7.5690569    828.21792  0.018249117  0.017788347         3920 
 3783000   0.64824447   -7.5606043    826.46304  0.018205636  0.017782086         3918 
 3784000   0.64791051   -7.5773973    826.69882  0.018206017  0.017775826         3906 
 3785000   0.64870404   -7.5593748    827.15224   0.01821119  0.017769574         3907 
 3786000   0.64423852   -7.5736764    827.52774  0.018214645  0.017763323         3908 
 3787000   0.63153455   -7.5546616    825.86814  0.018173315  0.017757068         3914 
 3788000   0.63802405   -7.5764924    827.82811  0.018211636  0.017750816         3912 
 3789000   0.64305178   -7.5780057    827.64194  0.018202735  0.017744569         3900 
 3790000   0.63681914   -7.5729889    826.87098   0.01818098  0.017738328         3906 
 3791000   0.65862652   -7.5608536    826.35673   0.01816488  0.017732083         3911 
 3792000   0.64538867   -7.5714512    828.66833   0.01821089  0.017725843         3900 
 3793000   0.64287923   -7.5705407    827.22812  0.018174447  0.017719606         3921 
 3794000   0.63872204    -7.560211    826.67401  0.018157486  0.017713363         3913 
 3795000   0.64100268   -7.5586578     826.1379  0.018140929  0.017707121         3915 
 3796000   0.64682321   -7.5620223    826.47579  0.018143568  0.017700886         3916 
 3797000   0.63446675   -7.5641698    827.35959  0.018158186  0.017694657         3905 
 3798000   0.65964223    -7.594225     828.0404  0.018168343  0.017688422         3921 
 3799000   0.65420099   -7.5741413    827.02892  0.018141373  0.017682191         3912 
 3800000   0.64199171    -7.571011    826.12005  0.018116668   0.01767596         3907 
 3801000   0.63039312   -7.5803722    827.12351  0.018133901  0.017669732         3912 
 3802000   0.64048995   -7.5713703    828.66437  0.018162905  0.017663511         3917 
 3803000   0.64358465   -7.5710498    827.48861  0.018132365  0.017657286         3917 
 3804000   0.62669778   -7.5842907     826.9845  0.018116555  0.017651067         3909 
 3805000   0.65061072   -7.5885337    827.97706  0.018133532  0.017644851         3907 
 3806000   0.63787874   -7.5834861    828.15236  0.018132606  0.017638639         3926 
 3807000   0.64023079   -7.5801827    828.08293  0.018126323  0.017632425         3916 
 3808000   0.64194128   -7.5757214    826.62677  0.018089697  0.017626217         3899 
 3809000   0.64714074   -7.5599504    827.85686  0.018111859  0.017620006         3902 
 3810000   0.64189606   -7.5597289    828.68871    0.0181253  0.017613804         3915 
 3811000    0.6468617   -7.5725665    826.80958  0.018079454  0.017607603         3924 
 3812000   0.65153748   -7.5549008    826.78413  0.018074155  0.017601402         3920 
 3813000   0.64978132   -7.5850047    828.37172  0.018104111  0.017595207         3907 
 3814000   0.64924161   -7.5741595    825.66312  0.018040184  0.017589008         3904 
 3815000   0.63951435   -7.5741604    828.16496  0.018090104  0.017582824         3917 
 3816000   0.63243392   -7.5565996    826.23308  0.018043175  0.017576632         3904 
 3817000   0.65079606   -7.5661303    827.91223  0.018075108  0.017570442         3908 
 3818000   0.64280143   -7.5770424    827.35352  0.018058179  0.017564252         3914 
 3819000   0.62684111   -7.5754683    825.52232  0.018013492  0.017558067         3913 
 3820000   0.65147322    -7.586868     827.3429  0.018048493  0.017551883         3899 
 3821000   0.64224765   -7.5741171    827.68727   0.01805128  0.017545695         3907 
 3822000   0.63715064   -7.5893211    827.86917  0.018050523  0.017539514         3922 
 3823000   0.63726169   -7.5853686    827.01142  0.018027104  0.017533333         3900 
 3824000   0.63211263   -7.5755148    826.36363  0.018008273  0.017527156         3906 
 3825000   0.64832381   -7.5911697    826.98389  0.018017078  0.017520981         3911 
 3826000   0.64329596   -7.5964308    826.89858  0.018010511  0.017514811         3910 
 3827000   0.64089448    -7.595474    827.52661   0.01801948   0.01750864         3916 
 3828000   0.63714936   -7.5774618    827.08859  0.018005238  0.017502465         3916 
 3829000   0.65377492   -7.5970277    826.00724  0.017977001  0.017496302         3910 
 3830000   0.65765747   -7.5908174    825.15792  0.017953828  0.017490139         3906 
 3831000   0.63064543   -7.5659403    826.32646   0.01797456  0.017483978         3909 
 3832000   0.63930003   -7.5822149    827.31427  0.017991351  0.017477816         3919 
 3833000   0.62858591   -7.5714207    826.65675  0.017972362  0.017471654         3926 
 3834000   0.64249078    -7.581568    827.12715  0.017977898  0.017465497         3905 
 3835000   0.63528647    -7.578974     827.0195  0.017970871  0.017459341         3919 
 3836000   0.63424015   -7.5676576    826.43445  0.017953477  0.017453185         3910 
 3837000    0.6453929   -7.5764048    826.61199  0.017952654  0.017447037         3903 
 3838000   0.63683979   -7.5713962    826.30545   0.01794132  0.017440892         3910 
 3839000   0.63487491   -7.5809153    826.44361  0.017939646  0.017434746         3914 
 3840000   0.64993825   -7.5741414    825.16425   0.01790721  0.017428602         3901 
 3841000   0.63780671   -7.5973174    825.47003  0.017909182   0.01742246         3911 
 3842000    0.6336895   -7.5931836    827.29201   0.01794404  0.017416317         3905 
 3843000   0.63351628   -7.5612335     827.4475  0.017942742  0.017410186         3917 
 3844000   0.62057664   -7.5634349     827.1863  0.017932412  0.017404055         3906 
 3845000   0.63794014    -7.597869    827.08043  0.017925454  0.017397922         3899 
 3846000   0.65079771   -7.5811217    826.75237  0.017913685  0.017391789         3908 
 3847000   0.63612235   -7.5861566    828.61407  0.017949356  0.017385657         3898 
 3848000   0.62669411   -7.5929921    827.23635  0.017914855  0.017379527         3913 
 3849000   0.62391868   -7.5954444     826.3975  0.017892039  0.017373401         3922 
 3850000   0.63462592   -7.6017575    829.03945  0.017944577  0.017367282         3921 
 3851000   0.64109783   -7.5916814    826.48366  0.017884611  0.017361159         3900 
 3852000   0.62831485   -7.5924133     826.2411  0.017874721  0.017355041         3897 
 3853000    0.6425541   -7.5759347    826.15231  0.017868161  0.017348929         3910 
 3854000   0.64133627   -7.5688563    826.57672  0.017872702   0.01734282         3897 
 3855000   0.64272795   -7.5601844    826.60295  0.017868633   0.01733671         3903 
 3856000    0.6438469   -7.5989317    827.60547  0.017885664  0.017330606         3928 
 3857000   0.64330337   -7.5760375    825.22535  0.017829603  0.017324492         3910 
 3858000   0.64141307   -7.5853992    826.94523  0.017862131  0.017318382         3916 
 3859000    0.6292521   -7.5732534    828.31974  0.017887185  0.017312278         3917 
 3860000   0.64860033   -7.5935553    825.81754  0.017828531  0.017306173         3893 
 3861000   0.62350446   -7.5757799     826.8083  0.017845297  0.017300076         3907 
 3862000    0.6360837   -7.5939397    827.01256  0.017845084  0.017293977         3913 
 3863000   0.64426531   -7.5988605    826.82977  0.017836521   0.01728788         3905 
 3864000   0.63534984   -7.5863967    826.02781  0.017814609  0.017281784         3904 
 3865000   0.62895049   -7.6018816    825.48757  0.017798352  0.017275691         3912 
 3866000   0.63549748   -7.5763513    826.95221  0.017825319  0.017269606         3909 
 3867000   0.64114072   -7.5992258    827.33111  0.017828875   0.01726352         3905 
 3868000    0.6226545   -7.5848217    826.00328  0.017795658  0.017257439         3913 
 3869000   0.62532251    -7.552736    826.16934  0.017794636  0.017251354         3924 
 3870000   0.61755017   -7.6037924    825.46504  0.017774872  0.017245276         3919 
 3871000   0.64112862   -7.5888534    825.31276  0.017767002  0.017239196         3904 
 3872000   0.64737988   -7.5832088       827.01  0.017798941  0.017233127         3916 
 3873000   0.63554713   -7.6155436    824.55162   0.01774145  0.017227054         3906 
 3874000   0.62115488   -7.6104237    826.02295   0.01776852  0.017220977         3923 
 3875000   0.62936589   -7.5930291    827.05223  0.017786069  0.017214906         3917 
 3876000   0.64002334   -7.5828034    825.22457  0.017742186  0.017208839         3914 
 3877000   0.62644519   -7.6000516    827.21978  0.017780496  0.017202775         3910 
 3878000   0.63546221   -7.5885498    824.74833  0.017722802  0.017196715         3909 
 3879000   0.63958326   -7.5820263    824.96825  0.017722958  0.017190651         3900 
 3880000   0.62541113   -7.5702067    826.19226  0.017744679  0.017184591         3904 
 3881000   0.63280993   -7.5970167    825.19453  0.017718684  0.017178537         3906 
 3882000   0.63244976   -7.6050941     826.4398  0.017740851  0.017172489         3903 
 3883000    0.6275274   -7.5937744    826.46777  0.017736882  0.017166433         3928 
 3884000   0.62260473   -7.5873472    825.04155  0.017701715  0.017160381         3903 
 3885000   0.60993312   -7.5963763    825.82567  0.017713978  0.017154328         3915 
 3886000   0.62896319   -7.5798068    824.97348  0.017691145  0.017148283         3912 
 3887000   0.63275266   -7.6040557    826.34839  0.017716071  0.017142235         3928 
 3888000   0.62251079   -7.6089582    824.39795  0.017669709  0.017136193         3901 
 3889000    0.6285175   -7.6017693    823.95582  0.017655692  0.017130153         3926 
 3890000   0.64515781   -7.5897619    826.19852  0.017699197  0.017124116         3909 
 3891000   0.62929274   -7.6034783    825.19299  0.017673113  0.017118084         3921 
 3892000   0.62235407   -7.5894594    827.38266  0.017715456  0.017112052         3913 
 3893000    0.6341316   -7.5917681    826.67679  0.017695796  0.017106023         3917 
 3894000   0.62504215   -7.5856444    826.76579  0.017693156  0.017099994         3904 
 3895000   0.62557366   -7.5543833    826.65484   0.01768624  0.017093968         3911 
 3896000   0.62525824   -7.6069477    824.51081   0.01763584  0.017087939         3915 
 3897000   0.63203852   -7.5831817    825.73548  0.017657503  0.017081915         3912 
 3898000   0.62277582   -7.5971826    826.46008  0.017668464  0.017075891         3918 
 3899000   0.62778779   -7.6040807     824.5797  0.017623743  0.017069874         3914 
 3900000   0.62465146   -7.6074292    826.16387  0.017653074  0.017063857         3911 
 3901000   0.62155971    -7.597975    824.96689  0.017622979  0.017057842         3907 
 3902000   0.61468685   -7.6131926    825.63493   0.01763273  0.017051826         3919 
 3903000   0.64013383   -7.5984444    824.51039  0.017604202  0.017045814         3901 
 3904000   0.62227223   -7.5901797    826.60754  0.017644457  0.017039808         3919 
 3905000   0.61018858   -7.5888987    827.47838  0.017658523  0.017033801         3911 
 3906000   0.61653907   -7.5920037    824.63335  0.017593304  0.017027797         3897 
 3907000    0.6309437   -7.5988922    825.86467  0.017615064  0.017021799         3908 
 3908000   0.62563747   -7.5855581    825.27439   0.01759797  0.017015799         3914 
 3909000   0.63334268    -7.606309    824.24145  0.017571447  0.017009802         3918 
 3910000   0.62705652   -7.6275569    824.86674   0.01758028  0.017003807         3910 
 3911000   0.63188449   -7.5865161    826.42346  0.017608955   0.01699781         3907 
 3912000   0.62702238   -7.6217077    825.31964   0.01758094  0.016991817         3909 
 3913000   0.60708786   -7.5967258    826.51791  0.017601966  0.016985827         3918 
 3914000   0.62831238   -7.6104936    824.60544   0.01755675  0.016979839         3910 
 3915000   0.62755198   -7.6015899     826.7379  0.017597656  0.016973856         3908 
 3916000   0.61429881   -7.5922967    825.15175  0.017559409  0.016967875         3907 
 3917000   0.63684209   -7.5982034    826.13461  0.017575836  0.016961895         3916 
 3918000   0.64112589   -7.5956006    823.48214  0.017514934   0.01695592         3915 
 3919000   0.63834443   -7.5966592    824.99791  0.017542696  0.016949945         3902 
 3920000   0.63143134   -7.6117709    826.93922   0.01757949  0.016943971         3902 
 3921000   0.62237388   -7.6027854    826.33782  0.017562225  0.016938003         3899 
 3922000   0.61755977   -7.5897971    825.47401  0.017539393  0.016932033         3918 
 3923000   0.63415671   -7.6200183    825.26058  0.017530389  0.016926066         3919 
 3924000   0.63589425   -7.5941416    823.84174   0.01749579  0.016920102         3919 
 3925000   0.62270464   -7.5871303    826.70307  0.017552082  0.016914141         3913 
 3926000   0.62985394   -7.6027231    826.02159  0.017533146  0.016908185         3919 
 3927000    0.6225435   -7.6086333    825.91029   0.01752632  0.016902231         3923 
 3928000   0.61700335   -7.6018843    825.12129  0.017505119  0.016896275         3921 
 3929000   0.61180577   -7.5959772    825.93847  0.017517996  0.016890327         3911 
 3930000   0.62219916   -7.5939867    824.84396   0.01749033  0.016884382         3922 
 3931000   0.62938258   -7.6051447    825.24764  0.017494438  0.016878435         3911 
 3932000    0.6126122   -7.6008501    826.69843  0.017520737  0.016872493         3905 
 3933000   0.63932707   -7.6149402    825.28213  0.017486273  0.016866547         3913 
 3934000   0.62956961   -7.5923166    825.20629  0.017480221  0.016860609         3911 
 3935000   0.63352346    -7.617645    825.36424  0.017479124  0.016854671         3919 
 3936000   0.61825611   -7.5962281    824.66923  0.017459969  0.016848732         3905 
 3937000   0.63201076   -7.5968322    826.84622  0.017501613  0.016842803         3917 
 3938000   0.62092554   -7.5922827    825.72653  0.017473475   0.01683687         3916 
 3939000   0.61785887   -7.6165093    825.81716  0.017470956  0.016830945         3907 
 3940000   0.61798449   -7.6075442    825.56156  0.017461116  0.016825018         3898 
 3941000   0.61909307    -7.620672     826.5365  0.017477301  0.016819095         3910 
 3942000   0.62714245   -7.6031519    825.74145   0.01745606  0.016813167         3904 
 3943000   0.61351737   -7.5902652    825.37392  0.017443865   0.01680724         3903 
 3944000   0.61920533   -7.6119991     825.8969  0.017450492  0.016801322         3920 
 3945000   0.62288396   -7.6051245     825.7045  0.017442005  0.016795403         3903 
 3946000   0.61439815   -7.6051642    825.32538  0.017429578  0.016789493         3903 
 3947000   0.62616829   -7.6114106    825.21963  0.017422929  0.016783575         3913 
 3948000    0.6290244   -7.6103677    825.01877  0.017414277  0.016777669         3918 
 3949000   0.62744576   -7.6141452    822.72704  0.017361506  0.016771757         3923 
 3950000   0.61036359   -7.6115005    825.71191  0.017420082  0.016765848         3919 
 3951000   0.62472887   -7.5843851    826.81187  0.017438873  0.016759947         3899 
 3952000   0.62213076   -7.6143587    825.21323  0.017400751  0.016754044         3916 
 3953000   0.62532815    -7.608572    825.95146  0.017411912  0.016748148         3913 
 3954000   0.62667823     -7.59619    824.04244  0.017367275  0.016742246         3912 
 3955000   0.62016283   -7.6235008    825.20178  0.017387311  0.016736352         3913 
 3956000   0.61717806   -7.6081965    825.42386  0.017387594  0.016730458         3917 
 3957000   0.62290607   -7.5936562    824.81676  0.017370414   0.01672457         3911 
 3958000   0.61616903    -7.624158    827.01087  0.017412221  0.016718681         3912 
 3959000   0.62145993   -7.6108217    826.31415  0.017393158  0.016712793         3916 
 3960000   0.62227535   -7.6275773    824.66033  0.017353963  0.016706907         3918 
 3961000   0.62550472     -7.60682    824.29559  0.017341908  0.016701023         3918 
 3962000   0.60668896   -7.6108006    825.03635  0.017353112  0.016695145         3900 
 3963000    0.6234851   -7.5982511    826.59067  0.017381417  0.016689268         3896 
 3964000   0.63341963   -7.6005842    825.70353  0.017358382  0.016683388         3916 
 3965000   0.61608157    -7.617836    824.19296  0.017322257  0.016677514         3909 
 3966000   0.60948518   -7.6177429    824.97021   0.01733422  0.016671636         3901 
 3967000   0.62511933   -7.6040222    823.53558  0.017299714  0.016665762         3913 
 3968000   0.60134338   -7.5995474    825.35929  0.017333654  0.016659898         3912 
 3969000    0.6215952   -7.6011348    826.56902  0.017354687  0.016654033         3923 
 3970000   0.60867639    -7.616747    825.65665  0.017331164  0.016648167         3902 
 3971000    0.6192454   -7.6188783    826.65515  0.017347754  0.016642307         3898 
 3972000   0.63205028   -7.5881754    825.91187  0.017327792  0.016636452         3900 
 3973000    0.6060269   -7.6117062    826.53054  0.017336407  0.016630599         3911 
 3974000   0.61488548    -7.626502     825.4273   0.01730891  0.016624747         3903 
 3975000   0.60179621   -7.6068271    825.60983  0.017308382    0.0166189         3912 
 3976000   0.61573129   -7.6146949    825.29539  0.017297439  0.016613054         3926 
 3977000   0.60942225   -7.6001805    825.09835  0.017288961  0.016607211         3914 
 3978000   0.62128656   -7.5998913    825.98728  0.017303236  0.016601368         3886 
 3979000   0.61179395   -7.6076467    825.39199   0.01728642  0.016595535         3923 
 3980000   0.61706679   -7.6029035     823.9723  0.017252351  0.016589697         3913 
 3981000   0.61642919   -7.6112037    826.86105  0.017308487  0.016583863         3894 
 3982000   0.60506145   -7.5956148    824.56196  0.017256026  0.016578026         3901 
 3983000   0.61766431   -7.6387589    826.89725  0.017300553   0.01657219         3915 
 3984000   0.59718014   -7.6340257    823.03625   0.01721545  0.016566359         3915 
 3985000   0.60628196    -7.616812       825.63   0.01726537  0.016560524         3913 
 3986000   0.60220644   -7.6302523    826.13851   0.01727167  0.016554697         3917 
 3987000   0.59543677   -7.6037732    826.33686  0.017271483  0.016548866         3906 
 3988000   0.60515534   -7.5930248    825.02207  0.017239679  0.016543042         3900 
 3989000   0.62439452   -7.6162402    824.76568  0.017230001  0.016537218         3907 
 3990000   0.61162868   -7.6113934    826.45088  0.017260879  0.016531392         3903 
 3991000   0.60713398    -7.623156     823.9965  0.017205306  0.016525582         3919 
 3992000   0.61692448   -7.6058769    824.96775  0.017221271  0.016519766         3917 
 3993000   0.60240703   -7.6249847    825.10285  0.017219777  0.016513951         3923 
 3994000   0.61269746    -7.596336    824.52719  0.017203455  0.016508142         3921 
 3995000   0.62251901   -7.6343363    825.77414  0.017225159  0.016502336         3928 
 3996000   0.59257351   -7.6162298     825.7159  0.017219634  0.016496523         3910 
 3997000   0.60908427   -7.6125581    825.40941  0.017208936  0.016490719         3904 
 3998000   0.61500611   -7.6263667     826.0271  0.017217507  0.016484921         3912 
 3999000   0.60898491   -7.6227074    825.55971  0.017203462  0.016479124         3909 
 4000000   0.61023502   -7.6162608    825.67057   0.01720147  0.016473331         3919 
 4001000   0.61349216   -7.6178905    823.45434  0.017151011  0.016467533         3924 
 4002000   0.60936613   -7.6176004    824.84584    0.0171757  0.016461744         3906 
 4003000   0.60778583   -7.6211087     824.3824  0.017161762  0.016455956         3899 
 4004000    0.6157481   -7.6180008    825.68914  0.017184672  0.016450167         3921 
 4005000   0.60418527   -7.6348567     826.0052  0.017186958  0.016444381         3915 
 4006000    0.6141029   -7.6165248    824.36306  0.017148508  0.016438601         3932 
 4007000   0.61566494   -7.6283628    824.09938  0.017138744  0.016432822         3913 
 4008000   0.61457289   -7.6209902    825.39074  0.017161318  0.016427039         3910 
 4009000   0.61789245   -7.6226761     824.2772   0.01713389  0.016421264         3911 
 4010000   0.62184352   -7.6236348     823.9433  0.017122679  0.016415494         3921 
 4011000   0.60438043   -7.6143094    825.06939  0.017141806  0.016409724         3900 
 4012000   0.60519463   -7.6064375    824.17716     0.017119  0.016403954         3920 
 4013000   0.62156026   -7.6280428    824.25131  0.017116274  0.016398188         3915 
 4014000   0.61441347   -7.5866494     824.5209  0.017117607  0.016392426         3915 
 4015000   0.60499887   -7.6080968    825.28343   0.01712917  0.016386669         3910 
 4016000    0.6079229    -7.623357    826.15838  0.017143061  0.016380914         3908 
 4017000   0.59134385   -7.6018923    825.35416  0.017122109  0.016375157         3896 
 4018000   0.60227751   -7.6299791    825.13962  0.017113398    0.0163694         3917 
 4019000   0.60758931   -7.6191998    824.15372  0.017088698  0.016363646         3915 
 4020000   0.61740773   -7.6149475    824.63136  0.017094348  0.016357898         3925 
 4021000   0.60339352   -7.6054117    823.58981  0.017068511  0.016352148         3917 
 4022000   0.61265396   -7.6308863    825.00861  0.017093664  0.016346401         3912 
 4023000   0.62491941   -7.6214809    824.24286  0.017073553  0.016340659         3913 
 4024000   0.60014573   -7.6107324    825.37974  0.017092854  0.016334915         3911 
 4025000   0.59876844   -7.6297918    825.70581  0.017095358  0.016329175         3923 
 4026000   0.61524729   -7.6249672    823.73609  0.017050341  0.016323438         3904 
 4027000    0.6025691   -7.6270748    825.04691  0.017073233  0.016317701         3922 
 4028000   0.60523127   -7.6251746    823.79073  0.017043006  0.016311968         3921 
 4029000   0.61299873   -7.6032087    824.23942  0.017048056  0.016306234         3909 
 4030000   0.61694213   -7.6258978    824.73127  0.017053997  0.016300505         3915 
 4031000   0.60606843   -7.6370307    825.12057  0.017057814  0.016294782         3919 
 4032000   0.61088326   -7.6368486    824.50174  0.017040793  0.016289057         3906 
 4033000   0.62159914   -7.6405795    823.95357  0.017025241  0.016283336         3915 
 4034000   0.61506586   -7.6272063    824.58835  0.017034134  0.016277618         3916 
 4035000   0.62356843   -7.6352102    824.15241  0.017020909    0.0162719         3923 
 4036000   0.60493825   -7.6251403    824.65885  0.017027148  0.016266179         3913 
 4037000   0.61582131   -7.6262886    824.37795  0.017017132  0.016260467         3913 
 4038000   0.60761417   -7.6038264    824.81378  0.017021912  0.016254757         3910 
 4039000   0.60998708   -7.6229931     826.0015  0.017042203  0.016249046         3909 
 4040000   0.61555617   -7.6323805    824.60303  0.017009138  0.016243332         3910 
 4041000   0.60080368    -7.620035    825.21285  0.017017505  0.016237627         3914 
 4042000   0.60134657    -7.625513    824.16581  0.016991708  0.016231925         3908 
 4043000   0.59986408   -7.6360909    826.42849  0.017034143  0.016226226         3921 
 4044000   0.59933659   -7.6425562    825.68014   0.01701451  0.016220526         3903 
 4045000   0.60233026   -7.6424895    824.44468  0.016984851   0.01621483         3916 
 4046000   0.59773643   -7.6287543    824.60791  0.016984015  0.016209138         3915 
 4047000   0.60593428   -7.6104311     822.6392   0.01693928  0.016203447         3919 
 4048000   0.59151092   -7.6095303    824.42499  0.016971858  0.016197758         3915 
 4049000   0.59126445   -7.6300128    823.32808  0.016945091  0.016192068         3929 
 4050000   0.60271383   -7.6130391      825.582  0.016987284  0.016186382         3907 
 4051000    0.6015567   -7.6199326    823.22649  0.016934635    0.0161807         3906 
 4052000   0.62307144   -7.6196237    825.88436  0.016985118  0.016175021         3913 
 4053000   0.60562733   -7.6377955     823.6576  0.016935143  0.016169345         3907 
 4054000   0.61216499   -7.6272041    825.41394  0.016967068  0.016163671         3911 
 4055000   0.59813207    -7.622486    824.05637  0.016934985  0.016157996         3930 
 4056000   0.60913332   -7.6281776    824.35885  0.016937024  0.016152326         3906 
 4057000    0.5977365   -7.6105922    824.02682  0.016926029  0.016146653         3903 
 4058000   0.59987175   -7.6188877    824.95334  0.016940885  0.016140984         3928 
 4059000   0.61572924   -7.6220442    823.10577   0.01689878  0.016135316         3908 
 4060000   0.61194848   -7.6267835    823.28509  0.016898298  0.016129655         3925 
 4061000   0.61113326   -7.6069817    824.39058  0.016916822  0.016123997         3915 
 4062000   0.61171503   -7.6292798    823.97524  0.016904137   0.01611834         3915 
 4063000   0.60582588   -7.6336863    823.70452  0.016894424  0.016112683         3905 
 4064000   0.59744506   -7.6235726    824.11406  0.016898664  0.016107029         3923 
 4065000   0.59316815   -7.6305523    825.11011  0.016914926   0.01610138         3911 
 4066000    0.6009988   -7.6418609    824.41763  0.016896574  0.016095731         3916 
 4067000   0.59327832   -7.6476516    825.25234  0.016909522  0.016090081         3913 
 4068000   0.58727813   -7.6152647    825.32178  0.016906788   0.01608443         3907 
 4069000   0.60176853   -7.6068014     824.4431  0.016884638  0.016078782         3916 
 4070000   0.60136836   -7.6272929    824.00972  0.016871616  0.016073137         3908 
 4071000   0.60046106   -7.6386797    823.79168  0.016863008  0.016067504         3909 
 4072000   0.59419361   -7.6231063    825.47674  0.016893352  0.016061871         3910 
 4073000   0.59147163    -7.639778    823.78302  0.016854551  0.016056236         3913 
 4074000   0.60279636    -7.639204    825.00013  0.016875309  0.016050605         3911 
 4075000   0.60632016    -7.637126    824.85051  0.016868109  0.016044973         3901 
 4076000   0.60456014   -7.6158193    825.01142   0.01686726  0.016039345         3921 
 4077000   0.59370214   -7.6340053    824.32657  0.016849125  0.016033722         3917 
 4078000   0.60671451   -7.6294888    824.91009  0.016856917  0.016028101         3913 
 4079000   0.61733866   -7.6209096    825.03001  0.016855234  0.016022481         3919 
 4080000   0.59340512   -7.6530392    824.10012   0.01683211  0.016016861         3913 
 4081000   0.60455551   -7.6439941    826.44063  0.016875779  0.016011243         3912 
 4082000   0.59904918   -7.6318108     823.9925  0.016821666   0.01600563         3932 
 4083000    0.6059737   -7.6197046    823.07253   0.01679877  0.016000014         3924 
 4084000   0.59552005   -7.6435188    823.62091  0.016805846  0.015994403         3911 
 4085000   0.59515593   -7.6313172    823.35257  0.016796258   0.01598879         3913 
 4086000   0.59936347   -7.6331047    824.94932  0.016824713  0.015983182         3925 
 4087000   0.59485657   -7.6223661    824.86383  0.016818853  0.015977574         3903 
 4088000   0.60254455   -7.6414529    823.47085  0.016786343  0.015971969         3913 
 4089000   0.60083815   -7.6583825    824.47484  0.016802699  0.015966363         3919 
 4090000   0.58302727   -7.6280803    823.82939   0.01678544  0.015960762         3911 
 4091000    0.6126708   -7.6446326    824.35443  0.016792032  0.015955165         3915 
 4092000   0.58621981   -7.6259711    823.10771  0.016762539  0.015949573         3919 
 4093000   0.58482135   -7.6253721    823.78496  0.016772232  0.015943982         3917 
 4094000   0.58521615   -7.6503482     824.9731   0.01679232  0.015938391         3916 
 4095000   0.59764323   -7.6509851    824.45324   0.01677764  0.015932809         3917 
 4096000   0.60303498   -7.6398405     824.3589  0.016771625  0.015927224         3908 
 4097000   0.59012585   -7.6209455    825.26551  0.016785972  0.015921637         3916 
 4098000   0.59210458   -7.6425272    822.32389  0.016722057  0.015916053         3914 
 4099000   0.59822735   -7.6432392     823.7023  0.016746001  0.015910473         3910 
 4100000    0.5898895   -7.6491644    825.82538  0.016785069  0.015904893         3914 
 4101000    0.6003924   -7.6364116    823.92993   0.01674246   0.01589932         3924 
 4102000   0.59970671   -7.6418212    823.31521   0.01672589  0.015893744         3918 
 4103000   0.59534753   -7.6422309    823.78513  0.016731358  0.015888174         3901 
 4104000   0.60171246   -7.6353782    823.09371  0.016713241  0.015882605         3913 
 4105000   0.59877218    -7.630934    824.34531  0.016734578  0.015877042         3912 
 4106000   0.59035001   -7.6343214     823.7777  0.016718982  0.015871475         3922 
 4107000   0.60044513   -7.6278089    823.85387  0.016716457  0.015865919         3911 
 4108000    0.5933148    -7.636133    823.33922  0.016701948  0.015860357         3908 
 4109000   0.58927536   -7.6523287    822.64144  0.016683732  0.015854794         3916 
 4110000   0.59086333   -7.6553945    822.33066  0.016673371  0.015849234         3911 
 4111000   0.58954965   -7.6435338    823.74738  0.016698033   0.01584368         3926 
 4112000   0.58655432    -7.649122    824.42137  0.016707632  0.015838127         3916 
 4113000   0.58933187   -7.6130324    821.79798  0.016650417   0.01583258         3908 
 4114000     0.593466   -7.6153517    824.14553  0.016693922  0.015827034         3909 
 4115000   0.59235399   -7.6408349    822.41819  0.016654884  0.015821489         3925 
 4116000   0.59681352   -7.6352169    824.23624  0.016687647  0.015815951         3917 
 4117000   0.59870879   -7.6430606    824.19792  0.016682818  0.015810412         3902 
 4118000    0.6021943   -7.6446759    822.92559  0.016653019  0.015804874         3919 
 4119000   0.59095418   -7.6458773    824.82566  0.016687417   0.01579934         3922 
 4120000   0.59673014   -7.6481674    823.73736  0.016661354  0.015793807         3914 
 4121000   0.59750103   -7.6400677    823.57941  0.016654117   0.01578828         3891 
 4122000   0.59220967    -7.640862    823.25496  0.016643518  0.015782751         3916 
 4123000   0.58883798   -7.6391943    824.96618  0.016674068  0.015777222         3925 
 4124000   0.58109976    -7.638763    824.34175  0.016657407    0.0157717         3919 
 4125000   0.56523641   -7.6601987    823.79316  0.016642286  0.015766178         3914 
 4126000   0.59356487   -7.6450439    823.60757  0.016634504  0.015760655         3915 
 4127000   0.60121305   -7.6471231    824.25456  0.016643538  0.015755135         3914 
 4128000   0.58958681   -7.6363978     824.0325  0.016635023  0.015749617         3910 
 4129000   0.59031173   -7.6554514    825.65079  0.016663655  0.015744107         3904 
 4130000   0.58492612   -7.6308973    823.89865  0.016624267  0.015738594         3925 
 4131000   0.58926806   -7.6708573    824.72563  0.016636925  0.015733084         3912 
 4132000   0.59488271   -7.6458664    824.67279  0.016631833   0.01572757         3913 
 4133000   0.58828522   -7.6537649    823.47672  0.016603692  0.015722062         3925 
 4134000   0.60544544   -7.6424699    824.85933  0.016627547   0.01571656         3916 
 4135000   0.58711224   -7.6232805    823.65739  0.016599303  0.015711061         3915 
 4136000   0.59309842    -7.635031    824.74568  0.016617216  0.015705559         3916 
 4137000   0.57559186   -7.6430429     824.2131  0.016602472  0.015700067         3913 
 4138000   0.57978723   -7.6525138    823.86619  0.016591473  0.015694571         3905 
 4139000   0.59259544   -7.6410133     822.8251  0.016566504  0.015689078         3916 
 4140000   0.58488681   -7.6487631    824.15605  0.016589293  0.015683585         3917 
 4141000   0.58592891   -7.6390018    823.65765  0.016575257  0.015678091         3926 
 4142000   0.57078286   -7.6362167    822.40547  0.016546062  0.015672602         3924 
 4143000   0.59396319   -7.6491856    823.83407  0.016570804  0.015667121         3919 
 4144000   0.58198821   -7.6488032    821.77086  0.016525315  0.015661636         3922 
 4145000   0.57907354   -7.6432237    824.18979   0.01656996  0.015656157         3913 
 4146000   0.57768688   -7.6481194     823.2756  0.016547588  0.015650677         3901 
 4147000   0.58603529   -7.6249376    824.49271  0.016568056    0.0156452         3925 
 4148000   0.59108585   -7.6353315    824.29507  0.016560091  0.015639727         3914 
 4149000   0.58943945   -7.6362763    824.29495  0.016556097  0.015634258         3891 
 4150000   0.57545639    -7.657691    823.42906   0.01653472  0.015628791         3902 
 4151000   0.60630698   -7.6623276    824.02232  0.016542647  0.015623327         3918 
 4152000   0.58477033   -7.6453174    823.95196   0.01653725  0.015617864         3907 
 4153000   0.57579844   -7.6429497    823.64605   0.01652713  0.015612403         3924 
 4154000   0.59311937   -7.6339367    824.78637  0.016546027  0.015606944         3911 
 4155000   0.59244881   -7.6328633    823.39104   0.01651406  0.015601489         3912 
 4156000   0.59875296   -7.6443032    823.30348  0.016508331  0.015596034         3910 
 4157000    0.5935125   -7.6736685    823.05398  0.016499358  0.015590581         3923 
 4158000   0.58664408   -7.6497099    824.67413   0.01652786  0.015585129         3908 
 4159000   0.58598124   -7.6282196     824.4548  0.016519492  0.015579678         3919 
 4160000   0.59239325   -7.6559622    821.80353  0.016462411  0.015574231         3913 
 4161000   0.59370053   -7.6365482    822.84862  0.016479384  0.015568787         3919 
 4162000   0.58691856   -7.6296532    823.18175  0.016482095  0.015563345         3914 
 4163000   0.57985694   -7.6494631    824.62763  0.016507079  0.015557902         3912 
 4164000   0.58917915    -7.649575    824.36088  0.016497776  0.015552464         3910 
 4165000   0.59425815   -7.6671726     822.5232  0.016457047  0.015547022         3915 
 4166000   0.59486214   -7.6518797    823.14222  0.016465479  0.015541589         3917 
 4167000    0.5792987   -7.6607671    822.57362  0.016450156  0.015536153         3908 
 4168000   0.59581454   -7.6519775    824.39139  0.016482553  0.015530721         3907 
 4169000   0.58026552   -7.6508605     822.4895  0.016440583  0.015525292         3916 
 4170000   0.59941743   -7.6500194    823.62681  0.016459369  0.015519867         3915 
 4171000   0.59963399   -7.6617931    823.38295  0.016450551  0.015514446         3907 
 4172000   0.58561896   -7.6549508    823.28303  0.016444611  0.015509022         3909 
 4173000   0.57491268   -7.6460401    822.80604  0.016431145  0.015503599         3917 
 4174000   0.58036355   -7.6419628    822.55754  0.016422248  0.015498183         3926 
 4175000   0.58357153   -7.6431179    823.84693  0.016444051  0.015492765         3910 
 4176000   0.57975028   -7.6432305    823.04918  0.016424193  0.015487353         3907 
 4177000    0.5802044   -7.6656698    825.84163  0.016475972  0.015481942         3911 
 4178000   0.58596769   -7.6588105    822.49578  0.016405293  0.015476531         3920 
 4179000   0.58173776   -7.6733571    824.52357  0.016441804  0.015471131         3901 
 4180000   0.58514208    -7.656678    822.67651  0.016401047  0.015465723         3906 
 4181000   0.58659082   -7.6582243    823.94993  0.016422505  0.015460327         3921 
 4182000   0.56893153    -7.655756    822.47026  0.016389093  0.015454928         3913 
 4183000   0.58015408   -7.6545509    822.97797   0.01639529  0.015449529         3923 
 4184000   0.58430598   -7.6612007    823.66475   0.01640505  0.015444131         3911 
 4185000   0.58253092    -7.664365     823.9402  0.016406615  0.015438741         3920 
 4186000   0.59491076   -7.6337045    823.44208  0.016392779  0.015433348         3923 
 4187000   0.57553528    -7.652453    823.21962  0.016384436   0.01542796         3912 
 4188000   0.58327875   -7.6864294    823.40443  0.016384202  0.015422573         3909 
 4189000   0.57844228   -7.6636312    823.08997  0.016374035  0.015417189         3904 
 4190000   0.58514727   -7.6593826    822.08894  0.016350218  0.015411807         3912 
 4191000   0.58672927   -7.6556416    820.99951  0.016324654  0.015406427         3915 
 4192000   0.58299534   -7.6634174     822.9961   0.01636045  0.015401046         3917 
 4193000   0.57319762   -7.6714472    823.79046  0.016372336   0.01539567         3924 
 4194000   0.58012427   -7.6619802    823.44155    0.0163615  0.015390296         3927 
 4195000   0.58772995   -7.6639858    823.39005  0.016356576  0.015384922         3916 
 4196000   0.56908563   -7.6554455    823.69007  0.016358637  0.015379554         3904 
 4197000   0.58430477   -7.6465215    824.29724  0.016366795  0.015374191         3918 
 4198000   0.58053668   -7.6650909    822.45249  0.016326276  0.015368823         3915 
 4199000   0.58175399   -7.6542529    821.91298  0.016311681  0.015363464         3911 
 4200000   0.57112551   -7.6427781    822.68824  0.016323179  0.015358097         3911 
 4201000   0.58142791   -7.6727787    821.51644  0.016296049  0.015352736         3925 
 4202000   0.58582586   -7.6703111     824.0176  0.016341774  0.015347374         3919 
 4203000   0.59229109   -7.6532552    822.49135  0.016307625  0.015342023         3914 
 4204000   0.58003305    -7.652011    823.42679  0.016322288  0.015336672         3918 
 4205000   0.57632186   -7.6684952     822.3364  0.016296797  0.015331322         3908 
 4206000    0.5877814    -7.670125    822.07598  0.016287763  0.015325974         3909 
 4207000   0.57928308   -7.6531262    823.51905  0.016312476  0.015320632         3917 
 4208000   0.58350482   -7.6597849    823.29186  0.016304101   0.01531529         3908 
 4209000   0.57677445   -7.6590331    824.71235  0.016328351  0.015309945         3921 
 4210000   0.56948718   -7.6436544    822.58626  0.016282388  0.015304606         3914 
 4211000   0.57726072   -7.6327014     821.0895  0.016248902  0.015299262         3913 
 4212000    0.5712027   -7.6697113    823.45283  0.016291802  0.015293922         3917 
 4213000   0.58383059     -7.65301    823.65216  0.016291877  0.015288591         3908 
 4214000     0.580583   -7.6645705    824.35006  0.016301813  0.015283263         3907 
 4215000   0.58287991   -7.6553045    823.45102   0.01628017  0.015277931         3920 
 4216000   0.57975919   -7.6510784     823.6179  0.016279607  0.015272606         3915 
 4217000   0.56956634   -7.6553543    823.99795  0.016283257   0.01526728         3914 
 4218000   0.58521538    -7.646238    823.05209   0.01626071  0.015261959         3921 
 4219000    0.5827112   -7.6662995    823.83915  0.016272402  0.015256641         3917 
 4220000   0.57810013   -7.6660979    823.82815  0.016268328  0.015251326         3918 
 4221000   0.56395147   -7.6586445    823.17353   0.01625155  0.015246009         3894 
 4222000   0.57667066   -7.6582522    822.64362  0.016237242  0.015240695         3916 
 4223000   0.57587136   -7.6441451    822.87443  0.016237952  0.015235379         3916 
 4224000   0.57764338   -7.6624966    822.39001   0.01622455  0.015230073         3918 
 4225000    0.5721591   -7.6776155    822.34069  0.016219737  0.015224767         3917 
 4226000   0.57869676   -7.6597189    822.02668  0.016209707  0.015219459         3926 
 4227000   0.57186725   -7.6675375    823.25127  0.016230015  0.015214154         3922 
 4228000   0.57609397   -7.6733111    823.02819  0.016221779  0.015208852         3922 
 4229000   0.57935114   -7.6842325    822.41451  0.016205851  0.015203552         3924 
 4230000   0.57072743   -7.6694928    821.86107  0.016191116  0.015198253         3927 
 4231000    0.5687632   -7.6481321    820.74911  0.016165389  0.015192958         3912 
 4232000   0.56261832    -7.678716    823.16145  0.016209071  0.015187667         3923 
 4233000   0.58369241   -7.6656775     821.9521  0.016181433  0.015182372         3931 
 4234000   0.57551039   -7.6627214    822.32665  0.016184984   0.01517708         3929 
 4235000   0.57081256   -7.6638259     823.6007  0.016206232  0.015171791         3919 
 4236000    0.5824393   -7.6779306    823.58563  0.016202109  0.015166513         3925 
 4237000   0.56902192   -7.6393323    822.88178  0.016184442   0.01516123         3931 
 4238000   0.58770625   -7.6566454    823.31847   0.01618921  0.015155951         3919 
 4239000    0.5723223   -7.6648775    822.54678  0.016170221  0.015150671         3935 
 4240000   0.57306595   -7.6600646    823.12349  0.016177742  0.015145398         3924 
 4241000   0.57503072   -7.6647674    822.00131  0.016151877  0.015140128         3918 
 4242000    0.5795496   -7.6570049    822.49743  0.016157815  0.015134857         3905 
 4243000   0.56449492   -7.6529723     823.0162  0.016164196  0.015129589         3918 
 4244000   0.58357377   -7.6500474    822.17283  0.016143827  0.015124323         3921 
 4245000   0.58367186    -7.661558    822.54866  0.016147402  0.015119058         3919 
 4246000   0.56762981   -7.6714851    822.06523  0.016134111  0.015113797         3931 
 4247000   0.58315559   -7.6645405     822.8558  0.016145824  0.015108538         3919 
 4248000    0.5676409   -7.6665751    823.38181  0.016152343   0.01510328         3929 
 4249000   0.57161231     -7.68395    822.14455  0.016124275  0.015098023         3912 
 4250000   0.56027862   -7.6580561    822.87203  0.016134746  0.015092767         3928 
 4251000   0.57106665   -7.6590571    822.76444  0.016128841  0.015087515         3912 
 4252000   0.57841984   -7.6626176    823.32759  0.016136085  0.015082265         3913 
 4253000   0.56600369   -7.6611042    823.46553  0.016134994  0.015077019         3904 
 4254000   0.56768644   -7.6596903    822.17302  0.016105881   0.01507177         3913 
 4255000   0.56818535    -7.659762    821.81648  0.016095113  0.015066527         3908 
 4256000   0.55555381   -7.6747886    822.42222  0.016103192  0.015061285         3920 
 4257000   0.57012189   -7.6489746    822.65713  0.016104008  0.015056046         3913 
 4258000   0.57556836   -7.6772805    823.49499  0.016116623  0.015050811         3919 
 4259000   0.56337129   -7.6749269    822.69653  0.016097216  0.015045575         3913 
 4260000   0.57177085   -7.6713012    823.67649  0.016112607  0.015040347         3919 
 4261000   0.55968322   -7.6627396    822.31164  0.016082133  0.015035115         3916 
 4262000   0.56912687   -7.6563157    822.50087   0.01608206  0.015029887         3924 
 4263000   0.56732454   -7.6661263    822.24355  0.016073257  0.015024661         3909 
 4264000   0.55585908   -7.6593362    824.00283   0.01610387  0.015019438         3918 
 4265000   0.56300836   -7.6848914    821.71755  0.016055443  0.015014215         3910 
 4266000    0.5600631   -7.6781295    821.94999   0.01605622  0.015008992         3911 
 4267000   0.57272893   -7.6688296    822.97924  0.016072558  0.015003771         3916 
 4268000   0.57039419   -7.6559413    821.62278  0.016042307  0.014998553         3925 
 4269000   0.57345388   -7.6740553    821.69417  0.016039942  0.014993337         3916 
 4270000   0.55689147   -7.6877435    823.65806  0.016074513  0.014988126         3908 
 4271000   0.56719307   -7.6804765    821.04546  0.016019774  0.014982913         3925 
 4272000   0.56206549   -7.6730114    822.45422  0.016043505  0.014977706         3913 
 4273000   0.56676225   -7.6803967     821.5677  0.016022461  0.014972501         3922 
 4274000    0.5618558   -7.6757308    822.53477  0.016037568  0.014967297         3921 
 4275000   0.56780704   -7.6680143    823.13759  0.016045567  0.014962096         3912 
 4276000   0.55299826    -7.671175    821.78302  0.016015416  0.014956893         3926 
 4277000   0.56590129   -7.6786703    821.85731  0.016013119  0.014951691         3919 
 4278000   0.55785746   -7.6685426    822.47611   0.01602143  0.014946495         3915 
 4279000   0.55279078   -7.6715816    821.46404  0.015997975  0.014941302         3921 
 4280000   0.56910433   -7.6583158    821.84858  0.016001725  0.014936109         3918 
 4281000   0.57005615   -7.6839165    824.16529  0.016043084  0.014930919         3919 
 4282000   0.56095369   -7.6696708    822.44059  0.016005772  0.014925728         3925 
 4283000   0.55827774   -7.6892166    821.09106  0.015975778  0.014920536         3922 
 4284000   0.56735773   -7.6708791    821.60691  0.015982083  0.014915353         3918 
 4285000   0.58399602   -7.6674425    821.72312  0.015980613  0.014910171         3930 
 4286000   0.57108909   -7.6781234    822.95541  0.016000844  0.014904989         3914 
 4287000   0.57105303    -7.658877    820.77103   0.01595465  0.014899813         3914 
 4288000   0.56975908    -7.694899    821.15261  0.015958345  0.014894637         3916 
 4289000   0.57535111   -7.6900513    821.77207   0.01596666  0.014889465         3924 
 4290000   0.55515676   -7.6790535    821.27685  0.015953319  0.014884294         3917 
 4291000   0.56179624   -7.6675039    821.42484  0.015952475  0.014879122         3924 
 4292000    0.5660993   -7.6843888    822.65524  0.015972648  0.014873955         3921 
 4293000   0.56923259   -7.6902001    822.69774  0.015969752  0.014868793         3921 
 4294000    0.5531066   -7.6722098    821.48466  0.015942491  0.014863626         3922 
 4295000   0.58267995   -7.6809846    820.67487  0.015923067  0.014858464         3922 
 4296000    0.5642365    -7.659248    821.48448  0.015935065  0.014853307         3921 
 4297000   0.57383331   -7.6809903    823.11174  0.015962915  0.014848153         3917 
 4298000   0.57249285   -7.6772964    823.07023  0.015958396  0.014842997         3912 
 4299000   0.55235244    -7.708848    822.61135  0.015945789  0.014837841         3924 
 4300000   0.55699414   -7.6932667     821.1141  0.015913064   0.01483269         3927 
 4301000   0.56331858   -7.6906416     822.6207  0.015938555  0.014827545         3918 
 4302000   0.55697317   -7.6659453    822.23715   0.01592742  0.014822395         3922 
 4303000   0.56784044    -7.683084     821.9849  0.015918834  0.014817251         3918 
 4304000    0.5665204   -7.6779983    821.51742  0.015906084   0.01481211         3915 
 4305000    0.5586634   -7.6764239     823.4037  0.015938902  0.014806967         3924 
 4306000   0.56479489   -7.6785311    821.91234  0.015906339  0.014801833         3923 
 4307000   0.56761632   -7.6832664    821.95203  0.015903414  0.014796701         3913 
 4308000   0.54696737   -7.6737282    822.32906  0.015907015  0.014791573         3919 
 4309000   0.57796614   -7.6763706    821.25806  0.015882611  0.014786441         3921 
 4310000   0.56027735   -7.6798351     821.8648  0.015890657  0.014781314         3919 
 4311000   0.56094397   -7.7013137    822.33368  0.015896035  0.014776185         3921 
 4312000   0.56186402   -7.6782568     820.8944  0.015864533  0.014771064         3924 
 4313000   0.56047377   -7.6982325    822.59754  0.015893762  0.014765942         3914 
 4314000   0.55639743     -7.69295     822.3728  0.015885736   0.01476082         3923 
 4315000   0.55538038   -7.6794584    822.63771  0.015887171  0.014755702         3917 
 4316000   0.55277429   -7.6720077     820.9121  0.015850172  0.014750589         3922 
 4317000   0.55669389   -7.6791948    822.74208  0.015881825  0.014745474         3923 
 4318000   0.56298321   -7.6809765    822.65787  0.015876522  0.014740358         3915 
 4319000   0.55731337   -7.6951717    822.44416  0.015868723   0.01473525         3924 
 4320000   0.56271956   -7.6753487    820.47929  0.015827147  0.014730143         3916 
 4321000   0.55696546   -7.6839274    821.78543  0.015848674  0.014725038         3917 
 4322000   0.56194885   -7.6834349    822.27275  0.015854403  0.014719934         3918 
 4323000   0.54635823   -7.6742858    822.14265  0.015848227  0.014714835         3913 
 4324000   0.55631298   -7.6622903    822.50399  0.015851526  0.014709737         3906 
 4325000   0.56043565    -7.698108    821.84273   0.01583512  0.014704641         3918 
 4326000   0.55203063   -7.6762215    821.16752  0.015818453  0.014699548         3925 
 4327000   0.56516156   -7.6728223    820.89681  0.015809583  0.014694459         3914 
 4328000   0.55515327   -7.6913642    821.23145  0.015812374  0.014689369         3937 
 4329000   0.55427685   -7.6863982    822.66187  0.015836257   0.01468428         3916 
 4330000   0.55949037   -7.6873588    821.51836  0.015810592  0.014679193         3918 
 4331000   0.55599389   -7.6961435    822.26737  0.015821353  0.014674106         3923 
 4332000   0.56058274   -7.6964647    821.48074  0.015802569  0.014669022         3924 
 4333000   0.54862808   -7.6932961    823.04741  0.015829052  0.014663935         3929 
 4334000   0.56689123   -7.6743993    821.94732  0.015804248  0.014658858         3923 
 4335000   0.56455756   -7.6812493    821.61895   0.01579429  0.014653781         3927 
 4336000   0.56130286   -7.6820279      822.302  0.015803775  0.014648705         3917 
 4337000   0.56582475   -7.6829249    822.14557  0.015797125  0.014643631         3912 
 4338000    0.5573888   -7.6950241     822.4796    0.0157999  0.014638558         3917 
 4339000   0.55821383   -7.6961477    821.89286   0.01578499  0.014633491         3925 
 4340000   0.55613679   -7.6839896    821.01041  0.015764409  0.014628424         3930 
 4341000   0.55781888   -7.6744561    821.65041  0.015773063  0.014623363         3924 
 4342000   0.55064113   -7.6860144    821.60274  0.015768516  0.014618303         3927 
 4343000   0.55035253   -7.6744107     821.6267  0.015765345  0.014613247         3923 
 4344000   0.55635415   -7.7071353    821.33644  0.015756147  0.014608189         3926 
 4345000   0.54112038   -7.6821772    822.08099  0.015766801  0.014603133         3919 
 4346000   0.55820161   -7.7007055    821.63761  0.015754671  0.014598081         3919 
 4347000   0.55739881   -7.6878606     821.5108  0.015748616  0.014593031         3923 
 4348000   0.55059246   -7.7110837    822.71572  0.015768087   0.01458798         3921 
 4349000   0.54896575   -7.6861164     820.2536  0.015717284  0.014582933         3916 
 4350000   0.56237805   -7.6969998    821.10219  0.015729927   0.01457789         3929 
 4351000   0.55787586   -7.6837844    821.29998    0.0157301  0.014572844         3924 
 4352000   0.55674706   -7.7049844    822.06695  0.015741172  0.014567795         3919 
 4353000   0.55907077   -7.7077977    821.51509  0.015726991   0.01456276         3925 
 4354000   0.55141441   -7.7183412    822.44055  0.015741092   0.01455772         3921 
 4355000   0.54683229   -7.6993515    821.67542  0.015722836  0.014552682         3929 
 4356000   0.56015024   -7.7151133    821.99615  0.015725363  0.014547648         3925 
 4357000   0.55795753   -7.6923624    820.65087  0.015696023  0.014542613         3905 
 4358000   0.56424379   -7.6905232    821.82787  0.015714928  0.014537583         3923 
 4359000   0.54992319   -7.6871932    820.52451  0.015686406  0.014532554         3909 
 4360000   0.54590134   -7.7073069    821.92211   0.01570952  0.014527528         3908 
 4361000   0.54677702   -7.7014969     820.9574  0.015687484  0.014522502         3916 
 4362000   0.55350997   -7.6936294    820.95998  0.015683937  0.014517481         3922 
 4363000   0.56020862   -7.6905038    822.60992  0.015711856  0.014512463         3933 
 4364000   0.54521452   -7.6790621    821.59789   0.01568893  0.014507446         3919 
 4365000   0.56262015   -7.6924113    822.77183  0.015707748  0.014502436         3909 
 4366000   0.55963979   -7.6966963    821.22189  0.015674567  0.014497424         3904 
 4367000   0.54651795    -7.687384    821.11685  0.015668973  0.014492414         3919 
 4368000   0.54988136   -7.7043001    821.88409  0.015680023  0.014487405         3912 
 4369000   0.56191075   -7.7238781    821.76462  0.015674155  0.014482399         3916 
 4370000   0.54701632    -7.683319    819.77563   0.01563264   0.01447739         3925 
 4371000   0.53654343   -7.6726925    822.64239  0.015683718  0.014472385         3913 
 4372000   0.55785257   -7.6972837    821.50552  0.015658461  0.014467382         3919 
 4373000   0.54588116   -7.6997072     821.9259  0.015662892  0.014462384         3924 
 4374000   0.56122599   -7.6948874    821.48112  0.015650837  0.014457387         3918 
 4375000   0.55049869   -7.6878388    820.72283  0.015632816  0.014452395         3925 
 4376000   0.55062051   -7.6861057    821.55224  0.015645038  0.014447403         3921 
 4377000   0.55653652   -7.7134898    820.75802  0.015626343  0.014442413         3918 
 4378000   0.54228734   -7.7042501    820.69663  0.015621605  0.014437422         3917 
 4379000   0.54726815   -7.7013413     820.6738  0.015617603  0.014432436         3921 
 4380000   0.54603996   -7.6995293    822.15498  0.015642218  0.014427447         3929 
 4381000   0.55143349   -7.6948736    822.60357  0.015647181  0.014422465         3919 
 4382000   0.56568435   -7.6686238     820.0655  0.015595343  0.014417485         3930 
 4383000   0.54999065   -7.6930093    821.21303  0.015613602  0.014412505         3925 
 4384000   0.54541085   -7.7181434    821.92601  0.015623594  0.014407529         3916 
 4385000   0.57342674   -7.7120505    821.18922  0.015606029  0.014402553         3929 
 4386000   0.55218197   -7.7035313    821.14782  0.015601684  0.014397581         3920 
 4387000   0.53994151    -7.690359    820.93055     0.015594  0.014392611         3925 
 4388000   0.54620089   -7.7119217    821.77348  0.015606455  0.014387644         3927 
 4389000   0.55737626   -7.7047403    822.01698  0.015607522  0.014382675         3924 
 4390000   0.55595635   -7.6946616    821.89793  0.015601707  0.014377712         3927 
 4391000   0.54154623   -7.6828096     820.5983  0.015573489  0.014372754         3921 
 4392000   0.54500402    -7.696509    820.82884  0.015574318  0.014367794         3918 
 4393000   0.55552666   -7.7097822    822.32449  0.015599144  0.014362838         3927 
 4394000   0.53982234   -7.6951353    822.51242  0.015599158  0.014357884         3924 
 4395000   0.55124624   -7.7048049    821.84119  0.015582882  0.014352931         3921 
 4396000   0.54604543     -7.70953    819.89917  0.015542523  0.014347975         3937 
 4397000   0.56007022   -7.7042043    821.21726  0.015563969  0.014343026         3926 
 4398000   0.55360496   -7.6885806    820.63566   0.01554941  0.014338077         3914 
 4399000   0.55101627   -7.7037017    821.34797  0.015559369  0.014333133         3930 
 4400000   0.54420621   -7.7092272    820.10619  0.015532314  0.014328193         3922 
 4401000   0.54689518   -7.7066008    819.97338   0.01552627  0.014323251         3931 
 4402000   0.54769459   -7.7098071    820.66196  0.015535778  0.014318309         3914 
 4403000   0.54705058    -7.697202    821.59234  0.015549859  0.014313375         3920 
 4404000    0.5515559   -7.7102531    822.58293  0.015565072  0.014308437         3927 
 4405000   0.54243403    -7.716657     820.4894  0.015521933  0.014303502         3925 
 4406000     0.545892   -7.7098425    820.04693  0.015510042  0.014298571         3934 
 4407000    0.5441516   -7.7135241     821.5682  0.015535288  0.014293643         3923 
 4408000   0.54675904   -7.7016053    822.47485  0.015548905  0.014288716         3921 
 4409000   0.52831315   -7.7084065    822.16887  0.015539595  0.014283792         3920 
 4410000    0.5446296   -7.7014714    820.83104  0.015510791  0.014278871         3922 
 4411000   0.54607719   -7.6875896    822.29548  0.015534941  0.014273953         3930 
 4412000   0.54518243   -7.7017364    821.14577  0.015509704  0.014269035         3923 
 4413000   0.54972261   -7.7039399    822.14365  0.015525033  0.014264117         3909 
 4414000   0.54092407   -7.6972779    822.26621   0.01552383  0.014259202         3919 
 4415000    0.5460974    -7.693924    821.18594  0.015499923  0.014254291         3930 
 4416000   0.54742172   -7.7134685    819.92768  0.015472669  0.014249379         3929 
 4417000   0.53907661   -7.6848283    820.44477  0.015478922  0.014244471         3923 
 4418000   0.54553888   -7.7075221    820.88062  0.015483639  0.014239563         3925 
 4419000   0.54547604   -7.7079847    819.64169  0.015456772  0.014234658         3934 
 4420000   0.54396266     -7.69572    821.10578  0.015480878  0.014229756         3921 
 4421000   0.54544691    -7.721672    821.91031  0.015492541  0.014224852         3917 
 4422000   0.55571586   -7.7104707    820.52971   0.01546302  0.014219951         3915 
 4423000   0.54731444    -7.705914    820.23746  0.015454018  0.014215056         3928 
 4424000   0.54482321   -7.7189025    820.78426  0.015460825  0.014210159         3917 
 4425000   0.53545052   -7.6851224    819.41968  0.015431632  0.014205268         3922 
 4426000   0.54374667   -7.7091855    821.04937   0.01545883  0.014200379         3921 
 4427000   0.54812494   -7.7127326    821.30243  0.015460101  0.014195491         3924 
 4428000   0.54744084   -7.7052871    822.12322  0.015472057  0.014190606         3924 
 4429000   0.53434544   -7.6906765    820.20419  0.015432456  0.014185722         3926 
 4430000   0.54285428   -7.7182534      820.974  0.015443454  0.014180841         3923 
 4431000   0.54585258    -7.690055    821.57032  0.015451183  0.014175961         3926 
 4432000   0.54327403   -7.7125645    821.24261  0.015441535  0.014171082         3923 
 4433000   0.54443985   -7.7032268    819.29488  0.015401438  0.014166207         3924 
 4434000   0.53656845   -7.7242326    821.09783  0.015431849  0.014161332         3916 
 4435000   0.53752022   -7.6977831    820.33494  0.015414035  0.014156457         3916 
 4436000   0.54148957    -7.697921    820.88351  0.015420865  0.014151585         3925 
 4437000   0.53823994   -7.6962824    821.34179  0.015425997   0.01414672         3925 
 4438000   0.54427338   -7.7109898    820.75833  0.015411565  0.014141857         3923 
 4439000   0.55101043   -7.7083238    820.81667  0.015409189  0.014136995         3919 
 4440000   0.54558563   -7.7121586    820.54164  0.015400556   0.01413213         3914 
 4441000   0.55138245   -7.7200422    820.69859  0.015400034   0.01412727         3922 
 4442000   0.52792679   -7.7130859    820.74721  0.015397479  0.014122411         3924 
 4443000   0.54678974   -7.7117931    819.98139   0.01537965  0.014117553         3927 
 4444000   0.54375586   -7.7194534    819.69273  0.015370776    0.0141127         3927 
 4445000   0.52955953   -7.7093558    820.86701  0.015389333   0.01410785         3921 
 4446000   0.54807903   -7.7070189    819.55884  0.015361352  0.014102999         3922 
 4447000   0.52415369   -7.7074582    819.99212  0.015366017   0.01409815         3919 
 4448000   0.52794648   -7.7070509     821.6935  0.015394438  0.014093302         3924 
 4449000   0.53320688    -7.700836    821.37945  0.015385095  0.014088459         3921 
 4450000   0.54453879   -7.7039863    821.45595   0.01538307  0.014083617         3915 
 4451000   0.53765829   -7.7160423    820.96474  0.015370417  0.014078781         3932 
 4452000   0.54816365   -7.7122727    820.30431  0.015354603  0.014073941         3925 
 4453000    0.5409232    -7.729564    820.33979  0.015351819  0.014069102         3920 
 4454000   0.54018628   -7.7271881     821.3046  0.015366423  0.014064271         3921 
 4455000   0.53504015   -7.7315859    820.73201  0.015352264  0.014059434         3918 
 4456000   0.54228197   -7.6962474    820.54324  0.015345288  0.014054606         3925 
 4457000   0.54728912   -7.7404539    821.25095  0.015355077  0.014049777         3922 
 4458000   0.53614288    -7.695547    821.19082  0.015350509  0.014044956         3916 
 4459000    0.5373358   -7.7178326    821.00463  0.015343587   0.01404013         3910 
 4460000   0.54025014   -7.7200789    821.36045  0.015346795  0.014035309         3920 
 4461000    0.5319412   -7.7195211    819.97036  0.015317387  0.014030492         3921 
 4462000   0.53275239   -7.7100332    820.00866  0.015314669  0.014025674         3927 
 4463000   0.54327475   -7.7111209    819.71457  0.015305747  0.014020859         3928 
 4464000   0.53197534   -7.7007889    819.79945  0.015303903  0.014016046         3918 
 4465000   0.54141838   -7.7279355    820.33254  0.015310424  0.014011235         3924 
 4466000    0.5464801   -7.7105231    819.83828  0.015297774  0.014006427         3921 
 4467000   0.53713501   -7.7195555    819.63774  0.015290608  0.014001619         3924 
 4468000   0.54008864   -7.7201645     820.1437  0.015296622  0.013996816         3924 
 4469000   0.53697649     -7.72106    820.97793  0.015308755  0.013992012         3910 
 4470000   0.54705783   -7.7153886     821.0762  0.015307162  0.013987214         3922 
 4471000   0.52889588   -7.7154509    820.52554  0.015293475  0.013982415         3924 
 4472000   0.53671204   -7.7111536    819.85316  0.015277526  0.013977616         3927 
 4473000   0.53557421   -7.7176825    820.25028  0.015281509  0.013972822         3920 
 4474000   0.53258113   -7.7171203    819.98354  0.015273125  0.013968026         3918 
 4475000    0.5416223   -7.7258939    820.58573  0.015280926  0.013963235         3924 
 4476000   0.52787687   -7.7173465    819.50637  0.015257417  0.013958444         3926 
 4477000   0.54400309   -7.7192465    820.01876  0.015263546  0.013953659         3929 
 4478000   0.53270694   -7.7162904    819.48839  0.015250268  0.013948879         3920 
 4479000   0.55398556   -7.7267005    819.98741  0.015256147  0.013944094         3914 
 4480000    0.5379276   -7.7215478    820.39285  0.015260284  0.013939312         3931 
 4481000   0.53086297   -7.7095489    819.52519  0.015240742  0.013934533         3937 
 4482000   0.53105971   -7.7252164    821.01383   0.01526502  0.013929755         3933 
 4483000   0.53597241   -7.7285974     821.3323  0.015267535  0.013924979         3920 
 4484000    0.5340471   -7.7179161    820.66671   0.01525176  0.013920208         3924 
 4485000   0.54582155   -7.7237054    820.57277  0.015246614  0.013915437         3919 
 4486000   0.54117594   -7.7119301     821.7122  0.015264382  0.013910672         3928 
 4487000   0.54361488   -7.6928516    819.99973  0.015229175  0.013905906         3925 
 4488000   0.52903219   -7.7136109    820.44461  0.015234043  0.013901141         3921 
 4489000   0.53717616   -7.7200355    820.85834   0.01523833  0.013896376         3919 
 4490000    0.5279934   -7.7124154    820.41564  0.015226719  0.013891614         3911 
 4491000   0.53834874   -7.7091286    821.55967  0.015244557  0.013886857         3923 
 4492000   0.53047393   -7.7199624    820.29342  0.015217673  0.013882098         3927 
 4493000   0.53327049   -7.7065809    820.11474  0.015210971  0.013877343         3930 
 4494000   0.52782349   -7.7322407    820.12319  0.015207743  0.013872591         3932 
 4495000   0.52774337   -7.7316489    819.32163    0.0151895  0.013867837         3928 
 4496000   0.52941093   -7.7225982    820.68137  0.015211324  0.013863086         3916 
 4497000   0.53271631   -7.7241175    819.40968  0.015184376   0.01385834         3929 
 4498000   0.52658531   -7.7206139    820.17664   0.01519521  0.013853593         3921 
 4499000   0.54724619   -7.7108633    820.22328  0.015192696   0.01384885         3929 
 4500000   0.54605739   -7.7239701    819.08343  0.015168212  0.013844105         3935 
 4501000   0.52372551   -7.7259131    819.01103  0.015163501  0.013839365         3930 
 4502000   0.53597676   -7.7185076     820.9239  0.015195541  0.013834627         3936 
 4503000   0.53393149   -7.7090712     820.4202  0.015182845  0.013829892         3923 
 4504000   0.52389508   -7.7270611    820.26516  0.015176605  0.013825159         3927 
 4505000    0.5342114      -7.7258    821.33334  0.015192996  0.013820426         3921 
 4506000   0.52908357   -7.7322676    821.03626   0.01518413  0.013815697         3930 
 4507000   0.53290239   -7.7175291    820.26748  0.015166546  0.013810968         3918 
 4508000   0.54195512   -7.7263737    819.39309  0.015147018  0.013806242         3908 
 4509000   0.52874644   -7.7231148    820.40121   0.01516229  0.013801516         3928 
 4510000   0.52527998   -7.7274306    820.06106  0.015152643  0.013796793         3920 
 4511000   0.53709903   -7.7324233    820.15958  0.015151104  0.013792073         3917 
 4512000   0.52381362   -7.7327887     820.3541  0.015151339  0.013787361         3934 
 4513000   0.52679464   -7.7132536    819.45241  0.015131332  0.013782647         3922 
 4514000   0.53637652   -7.7053068    820.39052  0.015145298  0.013777931         3927 
 4515000   0.52056304   -7.7352799    820.52353  0.015144399  0.013773222         3923 
 4516000    0.5197082   -7.7345654    820.24348  0.015135878  0.013768511         3929 
 4517000   0.52373236   -7.7337564    819.83949  0.015125074  0.013763803         3916 
 4518000    0.5259695   -7.7194835    820.81785  0.015139772  0.013759097         3912 
 4519000   0.52092854   -7.7285246    818.76197  0.015098509  0.013754392         3930 
 4520000   0.53330929   -7.7317256    820.18307  0.015121369  0.013749692         3918 
 4521000   0.52756802   -7.7111094    819.53009  0.015105989  0.013744993         3929 
 4522000   0.52137162   -7.7218913    820.70804  0.015124356  0.013740294         3932 
 4523000   0.51786341     -7.72838    820.53624  0.015117847  0.013735598         3923 
 4524000   0.53659191   -7.7337337    820.81358  0.015119614  0.013730904         3924 
 4525000   0.52792215   -7.7402715    820.89357  0.015117745  0.013726215         3922 
 4526000   0.52565478   -7.7404027      819.633  0.015091195  0.013721524         3928 
 4527000    0.5261762   -7.7243509    820.57015  0.015105113  0.013716838         3909 
 4528000   0.52945125   -7.7224924    820.04679  0.015092145   0.01371215         3934 
 4529000   0.52080544    -7.721337    820.82544   0.01510314  0.013707465         3933 
 4530000   0.52298154   -7.7285711    819.00324  0.015066285  0.013702782         3937 
 4531000   0.52486538   -7.7201504    819.70958  0.015075951  0.013698102         3922 
 4532000   0.53602912   -7.7409165     818.8438  0.015056704  0.013693419         3931 
 4533000   0.53370123   -7.7352581    820.29701  0.015080098  0.013688739         3938 
 4534000   0.52223823   -7.7277294     820.3858  0.015078404  0.013684059         3929 
 4535000   0.53174663   -7.7150221    820.31157  0.015073715  0.013679385         3927 
 4536000   0.52127965    -7.717383    819.49038  0.015055305  0.013674711         3929 
 4537000   0.52909997   -7.7329109    820.46833   0.01506995  0.013670044         3915 
 4538000   0.52235064   -7.7271895    819.71417   0.01505278  0.013665377         3914 
 4539000   0.53046639   -7.7372751    819.09699  0.015038132  0.013660715         3919 
 4540000   0.52862279   -7.7452922    820.40354  0.015058802  0.013656052         3930 
 4541000   0.52708276   -7.7361514    820.45855  0.015056495  0.013651386         3932 
 4542000   0.52396812   -7.7379311    818.10357  0.015009973  0.013646725         3927 
 4543000   0.53021862   -7.7253668    819.18548  0.015026515  0.013642066         3925 
 4544000   0.52204055   -7.7262183    818.87396  0.015017495  0.013637407         3934 
 4545000   0.53047713   -7.7327751     819.7153  0.015029617  0.013632754         3925 
 4546000   0.52603472   -7.7329159    819.97077  0.015030994  0.013628099         3929 
 4547000   0.51814447   -7.7271696     820.1264   0.01503054  0.013623451         3928 
 4548000   0.53214179   -7.7329765    820.21776  0.015028909  0.013618805         3925 
 4549000    0.5186612   -7.7230084     821.2546    0.0150446   0.01361416         3927 
 4550000   0.52037949   -7.7199093    819.32295  0.015005915  0.013609515         3924 
 4551000    0.5217611    -7.726696    819.89944  0.015013174  0.013604869         3930 
 4552000   0.52147112   -7.7430595    820.61933  0.015023054  0.013600229         3929 
 4553000   0.52634579   -7.7371097    818.14167  0.014974406  0.013595589         3927 
 4554000    0.5204925   -7.7277036    820.40585   0.01501255  0.013590956         3926 
 4555000   0.53081424   -7.7334047    819.83647  0.014998838   0.01358632         3934 
 4556000   0.51766461   -7.7250724    819.11965  0.014982434  0.013581688         3920 
 4557000   0.52412555   -7.7402233    820.20978  0.014999082  0.013577059         3923 
 4558000   0.53073106   -7.7498405    820.54388  0.015001899  0.013572428         3924 
 4559000   0.52919795   -7.7321637    819.37059  0.014977162    0.0135678         3920 
 4560000   0.52055532   -7.7407956    821.19141  0.015007153  0.013563176         3936 
 4561000   0.51302947   -7.7210403    819.09049  0.014965477   0.01355855         3927 
 4562000   0.52271355   -7.7423236    819.67143  0.014972809   0.01355393         3930 
 4563000   0.52767739   -7.7347774    819.29142  0.014962587  0.013549308         3934 
 4564000   0.51995976   -7.7435847    818.64811  0.014947563  0.013544692         3926 
 4565000   0.51584262   -7.7349243    819.02707  0.014951206  0.013540074         3936 
 4566000   0.52826664   -7.7413347    819.05689  0.014948476  0.013535461         3931 
 4567000   0.52223134   -7.7503736    819.70086  0.014956953  0.013530848         3927 
 4568000   0.53012693   -7.7306484    818.85793  0.014938301  0.013526239         3924 
 4569000   0.52045012     -7.74849    818.86361  0.014935135  0.013521634         3921 
 4570000   0.51453292   -7.7402598    820.85205  0.014968126  0.013517024         3930 
 4571000   0.51663766   -7.7414768    818.57559   0.01492335  0.013512414         3928 
 4572000   0.52574105   -7.7392679    819.40971  0.014935289   0.01350781         3934 
 4573000   0.53318755   -7.7370608    818.66605  0.014918472  0.013503211         3934 
 4574000   0.51005183   -7.7340228    818.81616  0.014917945   0.01349861         3930 
 4575000   0.51852918   -7.7390438    820.19719  0.014939839  0.013494017         3939 
 4576000   0.50987477   -7.7435777    820.04993  0.014933893  0.013489419         3930 
 4577000    0.5034225   -7.7744427    820.54749  0.014939689  0.013484825         3927 
 4578000    0.5194438   -7.7310172    819.90603  0.014924749  0.013480234         3917 
 4579000   0.51067719   -7.7480127    819.14261  0.014907597  0.013475644         3924 
 4580000   0.51586433   -7.7414978    820.25947  0.014924663  0.013471057         3909 
 4581000   0.51565732   -7.7339164    820.26419  0.014921491   0.01346647         3931 
 4582000   0.51114624   -7.7505607    820.93314  0.014930401  0.013461888         3927 
 4583000   0.52011136   -7.7324727      819.221  0.014896011  0.013457306         3937 
 4584000   0.52568712   -7.7477069    819.89383  0.014904993  0.013452726         3934 
 4585000   0.50458409   -7.7384991    819.03929   0.01488621   0.01344815         3930 
 4586000   0.51882178   -7.7497816    820.42645  0.014908171  0.013443571         3937 
 4587000   0.51332557   -7.7518149    819.27143  0.014883937  0.013438999         3926 
 4588000   0.52560945   -7.7415699    819.07854  0.014877189  0.013434424         3918 
 4589000   0.52117447   -7.7530129    819.83839  0.014887746  0.013429854         3922 
 4590000   0.51528964   -7.7542886    819.08771  0.014870873  0.013425283         3931 
 4591000   0.50968549   -7.7399674    819.09453  0.014867758  0.013420718         3930 
 4592000   0.52178738   -7.7406986    819.65997  0.014874782  0.013416155         3922 
 4593000   0.50697711   -7.7373778    819.81497  0.014874355  0.013411592         3935 
 4594000   0.50821873   -7.7317992    817.19732  0.014823634   0.01340703         3927 
 4595000   0.52329127   -7.7315052    818.69604  0.014847589  0.013402469         3926 
 4596000   0.51999985   -7.7437639      820.369  0.014874692  0.013397915         3931 
 4597000   0.51036701   -7.7491157    818.43018   0.01483631   0.01339336         3920 
 4598000   0.52886592   -7.7410124    818.95993  0.014842684  0.013388807         3921 
 4599000    0.5132341   -7.7455379    819.22982  0.014844347  0.013384256         3926 
 4600000   0.51310854   -7.7414409    818.10422  0.014820729  0.013379709         3928 
 4601000   0.51903718   -7.7263348    818.52214  0.014825077  0.013375164         3925 
 4602000   0.50649404   -7.7399644    818.40835  0.014819795  0.013370618         3935 
 4603000   0.51056017   -7.7488948     819.2396  0.014831624  0.013366074         3926 
 4604000   0.52328807   -7.7476994     818.1834  0.014809285  0.013361536         3930 
 4605000   0.52579464   -7.7501236    818.63454  0.014814233  0.013356997         3922 
 4606000   0.52090176   -7.7671682    819.41571   0.01482515  0.013352461         3923 
 4607000   0.51408147   -7.7564502    819.22806  0.014818538  0.013347929         3934 
 4608000   0.52232995   -7.7513828    819.11516   0.01481328  0.013343395         3921 
 4609000    0.5224095   -7.7477958    819.42163  0.014815608  0.013338863         3933 
 4610000   0.52638869   -7.7413261     820.3288  0.014828793  0.013334334         3925 
 4611000   0.50309199   -7.7435544    818.92597  0.014800224  0.013329807         3930 
 4612000   0.51089796   -7.7481297    818.29805  0.014785669  0.013325281         3927 
 4613000   0.51044694    -7.753602    818.42865  0.014784823  0.013320757         3918 
 4614000   0.51577446   -7.7341438    817.62023  0.014767018  0.013316236         3931 
 4615000   0.50770868   -7.7284322    817.71603  0.014765548  0.013311716         3916 
 4616000   0.51432311   -7.7358889    819.98275   0.01480327    0.0133072         3925 
 4617000   0.50440695   -7.7597981    820.07341    0.0148017  0.013302685         3936 
 4618000   0.50973001    -7.740128    819.14846  0.014781804  0.013298168         3910 
 4619000    0.5198776   -7.7482894    818.36666  0.014764499  0.013293652         3927 
 4620000   0.52750865   -7.7578358    819.23279  0.014776926  0.013289143         3933 
 4621000   0.50568539   -7.7466871    819.90933  0.014785929   0.01328463         3933 
 4622000   0.50597213    -7.758674    819.63384  0.014777763  0.013280124         3915 
 4623000   0.51107603    -7.745558    818.26064  0.014749813  0.013275617         3930 
 4624000    0.5087639   -7.7544052    819.25323  0.014764512  0.013271113         3927 
 4625000   0.50958428   -7.7487205    819.44793  0.014764828  0.013266611         3924 
 4626000   0.52650163   -7.7456974    817.92718  0.014734241  0.013262114         3917 
 4627000   0.51862694    -7.744371    819.07031  0.014751645  0.013257616         3919 
 4628000   0.51296601   -7.7534314     819.4606  0.014755485  0.013253121         3922 
 4629000   0.50433931   -7.7484697    819.23536  0.014748242  0.013248626         3931 
 4630000   0.50045988    -7.733666     817.8091  0.014719386  0.013244133         3921 
 4631000   0.51336392   -7.7496003    818.26151  0.014724349  0.013239643         3928 
 4632000   0.51068595   -7.7559191    819.67059   0.01474652  0.013235155         3936 
 4633000   0.49473505   -7.7446856    818.75524  0.014726873  0.013230667         3929 
 4634000   0.50797939   -7.7490562    818.68526  0.014722437  0.013226184         3931 
 4635000    0.5172794    -7.764476    819.33515  0.014730945  0.013221699         3931 
 4636000   0.51538064   -7.7688217     818.4148  0.014711224  0.013217218         3924 
 4637000   0.51227011   -7.7418789     819.5595  0.014728623  0.013212742         3921 
 4638000   0.49686832   -7.7606295    818.84346  0.014712582  0.013208266         3922 
 4639000   0.51412391   -7.7590849    819.19548  0.014715734  0.013203793         3924 
 4640000   0.52608903   -7.7591809    820.26592  0.014731787  0.013199318         3925 
 4641000   0.50272796   -7.7376486    818.97363  0.014705409   0.01319485         3920 
 4642000   0.50138285   -7.7734535    819.44435  0.014710691  0.013190382         3931 
 4643000    0.5182299   -7.7435633     819.2258    0.0147036  0.013185918         3924 
 4644000   0.51919136    -7.757033    818.85324  0.014693749  0.013181454         3916 
 4645000   0.51343402    -7.758237    818.23594  0.014679511  0.013176993         3933 
 4646000    0.5050126   -7.7465003    817.95286  0.014671274  0.013172533         3925 
 4647000   0.51939002   -7.7443749    817.58899  0.014661592  0.013168075         3934 
 4648000   0.51518935   -7.7695103     819.2043  0.014687398  0.013163614         3927 
 4649000   0.50594227     -7.76112    820.35464  0.014704858  0.013159157         3932 
 4650000   0.51216394   -7.7573774    819.37865  0.014684205  0.013154706         3928 
 4651000   0.51470932   -7.7575308    818.84645  0.014671512  0.013150253         3931 
 4652000   0.51599045   -7.7522767    818.00749   0.01465333  0.013145806         3929 
 4653000   0.50398631   -7.7623231    820.66539  0.014697783  0.013141356         3925 
 4654000   0.50678395   -7.7392727    818.17196  0.014649978   0.01313691         3913 
 4655000   0.50161817   -7.7528109    818.77799   0.01465768  0.013132467         3919 
 4656000   0.50772475   -7.7732597      818.822  0.014655319  0.013128023         3918 
 4657000   0.50414919   -7.7525118    817.42639  0.014627199  0.013123584         3930 
 4658000   0.49230535   -7.7639567    818.70831  0.014646993  0.013119143         3934 
 4659000    0.5157923   -7.7507872    819.09288  0.014650728  0.013114708         3929 
 4660000   0.50583068   -7.7654673    818.77982  0.014641985   0.01311027         3932 
 4661000   0.50607851   -7.7538769    817.48392  0.014615675  0.013105837         3925 
 4662000   0.50230158   -7.7648671    818.03744  0.014622434  0.013101406         3935 
 4663000   0.51809641   -7.7590188    818.81932  0.014633271  0.013096979         3934 
 4664000   0.49837043   -7.7446932    820.35728  0.014657613  0.013092554         3917 
 4665000    0.5020126   -7.7711022    818.54634  0.014622121  0.013088129         3931 
 4666000   0.49245101   -7.7687494    818.03958  0.014609937  0.013083705         3923 
 4667000   0.52109667   -7.7632511    817.33325  0.014594194  0.013079283         3931 
 4668000   0.50854691   -7.7601085    819.62188  0.014631924  0.013074863         3913 
 4669000   0.51548316    -7.755455    818.70422  0.014612412  0.013070445         3927 
 4670000   0.50528559   -7.7542198    817.69415  0.014591259   0.01306603         3927 
 4671000   0.51155601   -7.7586594    820.18851  0.014632636  0.013061615         3927 
 4672000   0.49027722   -7.7789144     817.5881  0.014583121    0.0130572         3933 
 4673000   0.50214182   -7.7635902    818.20363  0.014590977  0.013052789         3926 
 4674000     0.508234   -7.7685937     817.6056  0.014577193   0.01304838         3918 
 4675000   0.50188172   -7.7701679    818.19487  0.014584579  0.013043974         3931 
 4676000   0.49931689   -7.7519256    817.30718   0.01456564  0.013039569         3923 
 4677000   0.50909584   -7.7728244     817.8458  0.014572122  0.013035168         3934 
 4678000   0.49588902   -7.7630502    817.82991  0.014568724  0.013030764         3930 
 4679000   0.50484954     -7.75119    817.70658  0.014563414  0.013026364         3919 
 4680000   0.50502996   -7.7497421    819.23761  0.014587564  0.013021966         3929 
 4681000   0.51714244   -7.7821138    817.56764  0.014554718  0.013017569         3934 
 4682000   0.50631607   -7.7555504     817.6825  0.014553654  0.013013174         3921 
 4683000   0.49555435   -7.7558617    818.79707   0.01457038  0.013008779         3931 
 4684000     0.498446   -7.7735109    818.41274  0.014560432  0.013004391         3922 
 4685000   0.49478524   -7.7598483     819.2125  0.014571549  0.013000002         3923 
 4686000   0.50400017   -7.7655226     817.7651    0.0145427  0.012995614         3928 
 4687000    0.5038167   -7.7861955    817.90825  0.014542142  0.012991225         3933 
 4688000   0.49804247   -7.7515463    817.47404  0.014531322  0.012986838         3926 
 4689000   0.50420965    -7.764706    817.58729  0.014530235  0.012982458         3923 
 4690000   0.50101676   -7.7629142    818.15135   0.01453716  0.012978081         3929 
 4691000   0.50065259   -7.7711394    818.07008  0.014532617  0.012973704         3923 
 4692000   0.49609938   -7.7567068    817.00236  0.014510556  0.012969326         3925 
 4693000   0.50337667   -7.7724045    819.10346  0.014544774  0.012964952         3933 
 4694000   0.50502016   -7.7543818    817.72142  0.014517139  0.012960579         3928 
 4695000    0.5000134   -7.7682155    819.39084  0.014543678  0.012956209         3922 
 4696000   0.50609317   -7.7694978    817.40053  0.014505262   0.01295184         3924 
 4697000   0.49858254   -7.7693436    817.95123  0.014511944  0.012947474         3924 
 4698000   0.50099325   -7.7746923    818.88141  0.014525355  0.012943109         3932 
 4699000   0.50634112   -7.7732448    818.50674  0.014515619  0.012938743         3926 
 4700000   0.49322089   -7.7622635    818.53013  0.014512946   0.01293438         3933 
 4701000     0.493248   -7.7474362    817.68536  0.014494883  0.012930022         3932 
 4702000    0.5098759   -7.7773712     818.8401  0.014512266  0.012925664         3921 
 4703000   0.50003966   -7.7638217    819.28875   0.01451713   0.01292131         3936 
 4704000   0.49934412   -7.7913576    817.92397  0.014489866  0.012916954         3918 
 4705000   0.49205818    -7.746797     819.4976  0.014514658  0.012912605         3924 
 4706000    0.4834694   -7.7628517      819.349  0.014508942  0.012908256         3932 
 4707000   0.49709683   -7.7577199    819.83147  0.014514402   0.01290391         3919 
 4708000   0.48841484   -7.7762552      819.084  0.014498088  0.012899563         3927 
 4709000   0.50006621   -7.7720069    817.81233  0.014472505  0.012895217         3927 
 4710000   0.49079956   -7.7798209    819.12029  0.014492574  0.012890875         3934 
 4711000   0.50758748    -7.774297    818.47888  0.014478152  0.012886533         3927 
 4712000   0.50295201   -7.7646889    818.45422  0.014474643  0.012882197         3932 
 4713000   0.50465735   -7.7465667    817.46388  0.014454061   0.01287786         3931 
 4714000   0.50059971   -7.7690202    817.96913  0.014459927  0.012873529         3937 
 4715000   0.49577582   -7.7566402    816.06921   0.01442328  0.012869195         3937 
 4716000   0.49600562   -7.7656108    818.42582  0.014461864  0.012864863         3923 
 4717000   0.50529641   -7.7611526    818.35264  0.014457505  0.012860532         3927 
 4718000   0.49442727   -7.7780236    817.40347  0.014437676  0.012856205         3931 
 4719000   0.49238761   -7.7621258    819.91955  0.014479048  0.012851881         3934 
 4720000   0.48980178    -7.768164    817.74938  0.014437666  0.012847558         3929 
 4721000   0.49152203   -7.7519016    818.36658  0.014445502  0.012843236         3930 
 4722000   0.50064796   -7.7700561    818.24413  0.014440282   0.01283892         3932 
 4723000   0.48943936   -7.7691906    818.65667  0.014444503    0.0128346         3933 
 4724000   0.49226809   -7.7656346    818.43044  0.014437455  0.012830284         3929 
 4725000   0.48900808   -7.7715397    818.20953  0.014430503  0.012825968         3933 
 4726000   0.49016662   -7.7707927    818.12977  0.014426043  0.012821654         3929 
 4727000   0.48464865   -7.7842156     817.7487  0.014416274  0.012817341         3925 
 4728000   0.49956422   -7.7583096    817.81672  0.014414423  0.012813034         3930 
 4729000   0.50410801   -7.7815603    818.23534  0.014418752  0.012808727         3927 
 4730000   0.48764507    -7.778697    817.96825  0.014410998  0.012804424         3921 
 4731000   0.49212741    -7.780945    817.67521   0.01440279  0.012800121         3922 
 4732000   0.49658345   -7.7802688    817.75242  0.014401106  0.012795821         3927 
 4733000   0.49110223   -7.7673927    819.05066  0.014420921  0.012791521         3926 
 4734000   0.49806877   -7.7709078    817.88987  0.014397442   0.01278722         3928 
 4735000   0.49308542   -7.7549097    817.45068  0.014386672  0.012782924         3937 
 4736000   0.49164027   -7.7713282     818.1236  0.014395474  0.012778631         3926 
 4737000    0.4886002    -7.765824    818.53387  0.014399653  0.012774336         3929 
 4738000   0.48385242   -7.7854631    817.76419  0.014383076  0.012770048         3925 
 4739000   0.48749897   -7.7771449    817.93478  0.014383041  0.012765757         3924 
 4740000   0.49389969   -7.7748141    817.88941  0.014379209  0.012761469         3934 
 4741000   0.49723618   -7.7588141    818.16096  0.014380949  0.012757185         3922 
 4742000   0.50051967   -7.7625805    817.75311  0.014370749  0.012752902         3919 
 4743000   0.49476466   -7.7845464    818.11926  0.014374152  0.012748621         3924 
 4744000   0.49039735   -7.7793462    817.10052  0.014353227  0.012744341         3927 
 4745000   0.48972416    -7.782374    817.36351  0.014354821  0.012740061         3925 
 4746000   0.49149512   -7.7796392    817.66699  0.014357125  0.012735782         3917 
 4747000   0.49273444   -7.7752656    817.95177    0.0143591  0.012731508         3927 
 4748000   0.50816907     -7.77303     816.1729  0.014324854  0.012727233         3930 
 4749000   0.48957945   -7.7730586    818.53751  0.014363331  0.012722961         3923 
 4750000   0.49615105   -7.7852445    819.00993  0.014368595   0.01271869         3929 
 4751000   0.48548685   -7.7688331    818.03685  0.014348503  0.012714422         3917 
 4752000   0.48773914   -7.7593887    819.14162  0.014364857  0.012710156         3934 
 4753000    0.4922856   -7.7569354    817.23445  0.014328397  0.012705895         3933 
 4754000   0.50517563   -7.7696271     817.6163  0.014332076  0.012701631         3938 
 4755000   0.48974043   -7.7679857    818.42882  0.014343302  0.012697371         3925 
 4756000   0.48336883   -7.7543489    818.17442  0.014335829  0.012693113         3926 
 4757000   0.48167578   -7.7746815     817.9099  0.014328181  0.012688857         3942 
 4758000   0.50065703   -7.7880661    817.70271  0.014321541  0.012684602         3931 
 4759000   0.49111567   -7.7836963    816.96131  0.014305549  0.012680348         3932 
 4760000   0.48404006   -7.7761899      817.381  0.014309891  0.012676097         3931 
 4761000    0.4784763   -7.7785113    816.63325  0.014293798  0.012671848         3928 
 4762000   0.48549806   -7.7930551    817.77998  0.014310863    0.0126676         3922 
 4763000   0.48101967   -7.7888229    817.74923  0.014307321  0.012663353         3930 
 4764000   0.49284342   -7.7678079    816.66455  0.014285344  0.012659109         3927 
 4765000   0.48885615   -7.7932645      819.715  0.014335694  0.012654866         3932 
 4766000   0.48699595   -7.7819542    818.04658  0.014303514  0.012650629         3934 
 4767000   0.50409704   -7.7749907    817.57757  0.014292315  0.012646393         3927 
 4768000   0.48684531   -7.7773242    818.31059  0.014302129  0.012642156         3934 
 4769000   0.48844322   -7.7802885    817.73202   0.01428902   0.01263792         3925 
 4770000   0.49936999   -7.7826749    817.80812  0.014287354  0.012633685         3924 
 4771000   0.48849152   -7.7916992    818.02727  0.014288187  0.012629451         3932 
 4772000    0.4906149    -7.806086    817.47212  0.014275498  0.012625223         3934 
 4773000   0.48750912   -7.7909534     818.7284  0.014294441  0.012620992         3924 
 4774000   0.48481705   -7.7812806    818.05076  0.014279618  0.012616764         3925 
 4775000    0.4872533   -7.7793172    817.68009  0.014270159  0.012612542         3923 
 4776000   0.48604966    -7.804171    816.88566  0.014253309  0.012608318         3924 
 4777000   0.49669495   -7.7897759    817.31421  0.014257801  0.012604097         3923 
 4778000   0.48860795   -7.7913541    817.54332  0.014258813  0.012599876         3925 
 4779000   0.48832718   -7.7851429    817.32906  0.014252093   0.01259566         3930 
 4780000   0.49092317   -7.7890393    816.53955  0.014235348  0.012591445         3924 
 4781000   0.49670498   -7.7833546    817.90072  0.014256096  0.012587231         3933 
 4782000   0.48728794   -7.8063589    817.86948   0.01425257  0.012583018         3929 
 4783000   0.47975483   -7.7901261    819.34213  0.014275248  0.012578809         3922 
 4784000   0.47165802   -7.7948252    817.34027  0.014237393  0.012574601         3928 
 4785000   0.48828214   -7.7872117    817.13738  0.014230884  0.012570395         3932 
 4786000   0.50114796   -7.7893775    817.52871  0.014234725  0.012566191         3939 
 4787000   0.49686706   -7.7836932    817.30049  0.014227778  0.012561988         3920 
 4788000   0.48749006   -7.7993951    816.73945  0.014215042  0.012557786         3926 
 4789000   0.48803237   -7.7801877    817.19469  0.014219995  0.012553585         3938 
 4790000   0.47239154   -7.7728024    817.31148  0.014219059  0.012549389         3930 
 4791000   0.48233684   -7.7864779    817.84798  0.014225422  0.012545193         3935 
 4792000   0.48099021   -7.7946472    817.83377  0.014222207  0.012540996         3928 
 4793000   0.48949881   -7.7752089    818.62117  0.014232929  0.012536806         3925 
 4794000   0.48516085   -7.7716613    816.69089  0.014196407  0.012532614         3929 
 4795000   0.48298524   -7.7850261    817.15109  0.014201444  0.012528428         3921 
 4796000   0.48932549   -7.8011157    817.45409  0.014203748  0.012524244         3929 
 4797000   0.48055404   -7.7802121     817.3676  0.014199284  0.012520058         3927 
 4798000   0.47746144   -7.7791529    817.19074  0.014193253  0.012515878         3932 
 4799000   0.48670479    -7.784753    817.81462  0.014201129  0.012511696         3931 
 4800000   0.47845683   -7.7815857    817.41404  0.014191216  0.012507517         3931 
 4801000   0.48686809   -7.7924919    817.76622  0.014194373  0.012503338         3930 
 4802000   0.47572425   -7.7820723    817.13734  0.014180504  0.012499162         3933 
 4803000   0.48289962   -7.7779426    816.94992  0.014174299  0.012494986         3933 
 4804000   0.47115328    -7.789711     818.2572  0.014194026  0.012490811         3932 
 4805000   0.48114922   -7.7892884    817.63619  0.014180302  0.012486642         3925 
 4806000   0.48103855   -7.7915851     817.7172  0.014178756  0.012482475         3932 
 4807000   0.47838841   -7.7793365     817.5519  0.014172941   0.01247831         3929 
 4808000   0.48192666   -7.7733232    816.74961  0.014156087  0.012474143         3938 
 4809000   0.47934387   -7.7810887    818.51456  0.014183728  0.012469979         3940 
 4810000   0.49094823   -7.7891699    816.87969  0.014152455  0.012465816         3928 
 4811000   0.48914041   -7.7785682    817.78711  0.014165231  0.012461655         3919 
 4812000   0.47424701   -7.7924732    817.75353  0.014161706  0.012457497         3925 
 4813000   0.47692337   -7.7739383    817.93732  0.014161945  0.012453341         3925 
 4814000   0.47688559   -7.7907634    816.82229  0.014139702  0.012449188         3933 
 4815000   0.48057859   -7.8039981    818.10573  0.014158978  0.012445034         3927 
 4816000   0.47651393   -7.7982977     817.8038  0.014150813  0.012440883         3930 
 4817000   0.48564614   -7.8074532    816.09808  0.014118367  0.012436734         3926 
 4818000    0.4864592   -7.7940896    817.44711   0.01413877  0.012432586         3923 
 4819000   0.49144578   -7.7998102    817.65972  0.014139512  0.012428438         3929 
 4820000   0.48606449   -7.7999444    816.28745  0.014112854  0.012424294         3928 
 4821000   0.48063215   -7.7959832    816.96254  0.014121595  0.012420153         3932 
 4822000   0.47330816   -7.8048447    817.70516  0.014131501  0.012416011         3922 
 4823000   0.48057512    -7.782295    815.82682  0.014096116  0.012411871         3925 
 4824000   0.46949958    -7.799981    817.93003  0.014129526  0.012407732         3930 
 4825000   0.46746381   -7.8018866    816.50091  0.014101916  0.012403593         3923 
 4826000   0.48051999   -7.7977123    816.27245  0.014095048   0.01239946         3922 
 4827000   0.48076296   -7.8080197    817.39496  0.014111507  0.012395326         3929 
 4828000   0.47464214   -7.7893343    817.12118  0.014103859  0.012391194         3922 
 4829000   0.48184868   -7.8012508    816.36661  0.014087917  0.012387066         3928 
 4830000   0.47955479   -7.7901276    817.82894   0.01411023   0.01238294         3920 
 4831000   0.47487383   -7.7916991    817.39932  0.014099899  0.012378816         3929 
 4832000   0.47139435   -7.7887976    816.63552  0.014083808  0.012374693         3921 
 4833000   0.47940026   -7.7966309    817.40486  0.014094159  0.012370568         3928 
 4834000   0.48123452   -7.7877283    817.15376  0.014086915  0.012366448         3926 
 4835000   0.48753487    -7.795799    817.32494  0.014086952   0.01236233         3933 
 4836000   0.47376123   -7.7890534    817.49779  0.014087017  0.012358213         3923 
 4837000   0.47883663   -7.7938841    817.02204  0.014075909  0.012354096         3928 
 4838000    0.4798394   -7.7756767    817.30044  0.014077794  0.012349982         3936 
 4839000   0.48531166   -7.8095649    817.61782  0.014080351  0.012345872         3935 
 4840000   0.47959033   -7.8094983    817.53422  0.014076002  0.012341762         3929 
 4841000   0.47045096   -7.8018288    817.06494  0.014065017  0.012337653         3932 
 4842000   0.47261085   -7.7930562    817.29793  0.014066122  0.012333548         3924 
 4843000   0.47587634   -7.7859402    817.97661  0.014074895  0.012329442         3920 
 4844000    0.4724727   -7.7883771    817.57873  0.014065145  0.012325339         3931 
 4845000   0.47310485   -7.8025117    817.72163  0.014064699  0.012321237         3922 
 4846000   0.48114106    -7.793994    816.11134  0.014034106  0.012317135         3919 
 4847000   0.48882789   -7.7967412    818.41725  0.014070856  0.012313039         3934 
 4848000   0.47086335   -7.8039901    816.54924  0.014035844  0.012308944         3931 
 4849000   0.47279972   -7.8155272    817.76502  0.014053843  0.012304848         3926 
 4850000   0.47654524   -7.7989598    817.18093   0.01404091  0.012300751         3933 
 4851000   0.46895625   -7.8085298    817.16606   0.01403776  0.012296661         3926 
 4852000   0.47980198   -7.8035993    817.57741  0.014041931  0.012292571         3929 
 4853000   0.47920302   -7.8055523    816.47763  0.014020153  0.012288482         3931 
 4854000   0.47644056   -7.8045486    817.12047  0.014028301  0.012284394         3926 
 4855000   0.47081129   -7.7889303    816.83238  0.014020467   0.01228031         3936 
 4856000   0.47884504   -7.7940343    816.63684  0.014014224  0.012276227         3929 
 4857000   0.46767707   -7.8124449     817.6099  0.014028033  0.012272145         3927 
 4858000   0.46857419   -7.7839745    817.05889  0.014015694  0.012268067         3929 
 4859000   0.47251165   -7.7907239    816.97197  0.014011319  0.012263989         3928 
 4860000   0.47775112   -7.7986983    816.36344  0.013998001  0.012259912         3927 
 4861000   0.47002292   -7.8042835    816.95004  0.014005178  0.012255837         3936 
 4862000    0.4701638   -7.7927613     815.9965  0.013985954  0.012251763         3927 
 4863000   0.46665562    -7.794791    817.28288  0.014005122  0.012247692         3933 
 4864000   0.48074222   -7.7912488    816.85543  0.013994919  0.012243625         3926 
 4865000   0.48155121   -7.7995215    818.23594  0.014015689   0.01223956         3932 
 4866000   0.48664101   -7.8157515    816.33005  0.013980169  0.012235494         3931 
 4867000   0.46335773   -7.8034226    816.79064  0.013985183  0.012231431         3928 
 4868000      0.47487   -7.7914267     816.4584  0.013976623  0.012227369         3930 
 4869000   0.47428223    -7.813712    814.91252  0.013947294  0.012223308         3930 
 4870000   0.46883386   -7.8096394    816.72539  0.013975452   0.01221925         3922 
 4871000   0.47588491   -7.8039026     817.0991  0.013978976  0.012215194         3925 
 4872000    0.4766442   -7.8097139    817.52589  0.013983407  0.012211136         3935 
 4873000   0.47419276   -7.8180197    816.74312  0.013967151  0.012207082         3933 
 4874000   0.47610929   -7.7953327     815.1795  0.013937551  0.012203033         3934 
 4875000   0.46702647   -7.7889223    817.36528  0.013972056  0.012198984         3931 
 4876000   0.47176844   -7.8017754    815.54979  0.013938163  0.012194934         3932 
 4877000   0.47629599    -7.809635    816.54454  0.013952302  0.012190888         3930 
 4878000   0.47209844   -7.8137683    815.58406  0.013933034  0.012186843         3928 
 4879000   0.46777685   -7.7920621    816.34457  0.013943168  0.012182799         3942 
 4880000   0.47254137   -7.8080662    817.21564  0.013955185  0.012178756         3926 
 4881000   0.46526613   -7.7995554     816.0741  0.013932836  0.012174717         3921 
 4882000   0.45749522   -7.8139015    817.40894  0.013952768   0.01217068         3933 
 4883000   0.47156687   -7.8011061    816.52292  0.013934789  0.012166643         3924 
 4884000   0.46739663   -7.7966422    817.26968  0.013944678  0.012162608         3920 
 4885000   0.47955875   -7.8069134     816.9115  0.013935713  0.012158575         3924 
 4886000   0.47929675   -7.7919615    817.32002  0.013939828  0.012154545         3922 
 4887000   0.45832898    -7.824422    817.40842  0.013938483  0.012150514         3920 
 4888000   0.46458481   -7.8124385    816.15508  0.013914264  0.012146486         3930 
 4889000   0.46921876   -7.8265969    815.90272  0.013907117  0.012142458         3916 
 4890000   0.46787041   -7.7945222    816.30656  0.013911155  0.012138434         3928 
 4891000   0.47143616   -7.8160567     817.2956  0.013925162   0.01213441         3927 
 4892000   0.46587371   -7.8052155    816.10719  0.013902071  0.012130388         3926 
 4893000   0.46283246   -7.7952714     817.2781  0.013919172  0.012126367         3931 
 4894000   0.46315957   -7.8028412    816.28397    0.0138994  0.012122351         3931 
 4895000   0.46935728   -7.8091262    817.43446  0.013916147  0.012118333         3924 
 4896000   0.47188906   -7.7900566    815.19345  0.013875161  0.012114319         3928 
 4897000   0.47471219   -7.8113901    816.73782  0.013898608  0.012110304         3923 
 4898000    0.4661422    -7.806365    815.84209  0.013880531  0.012106294         3924 
 4899000   0.46780298   -7.8063144    815.90536  0.013878774  0.012102286         3919 
 4900000   0.46299538   -7.8272187    815.21187  0.013864147   0.01209828         3934 
 4901000   0.46922768   -7.8195654     816.2153   0.01387838  0.012094275         3925 
 4902000   0.46122304    -7.801046    816.12051  0.013873938  0.012090272         3927 
 4903000   0.46806768   -7.8014065    817.34726  0.013891958  0.012086268         3933 
 4904000   0.46982039   -7.8195401    817.11269   0.01388514  0.012082267         3911 
 4905000   0.46816153   -7.8067305    816.42837  0.013870683  0.012078267         3927 
 4906000   0.46401124   -7.8128394    815.43587  0.013850997  0.012074271         3926 
 4907000   0.47094893   -7.8056677    817.28128  0.013879514  0.012070275         3930 
 4908000   0.45775829   -7.8217199    816.36979  0.013861209  0.012066281         3932 
 4909000    0.4779166   -7.8160606    816.57953  0.013861946  0.012062289         3933 
 4910000   0.47023058   -7.8012083     815.6457  0.013843274  0.012058299         3926 
 4911000   0.47001744   -7.7885764    816.19477  0.013849772  0.012054311         3928 
 4912000   0.46900257   -7.8349953    817.01815  0.013860921  0.012050325         3931 
 4913000   0.46384381    -7.793515    815.35556    0.0138299   0.01204634         3934 
 4914000   0.45491893   -7.8171947    816.97762  0.013854593  0.012042355         3925 
 4915000   0.46852256   -7.8076129     816.1469  0.013837689  0.012038372         3922 
 4916000   0.46520841    -7.811996    816.78497  0.013845691   0.01203439         3932 
 4917000   0.45984525   -7.7881072    816.36011  0.013835674   0.01203041         3930 
 4918000   0.46099792   -7.8006108    815.15064  0.013812367  0.012026432         3928 
 4919000    0.4658083   -7.8052799    815.98915  0.013823764  0.012022457         3930 
 4920000   0.47400875   -7.8117118    816.69305  0.013832877  0.012018486         3930 
 4921000   0.46772804     -7.81323    817.30793  0.013840478  0.012014514         3936 
 4922000    0.4683774   -7.8100432    816.20661   0.01381902  0.012010543         3922 
 4923000     0.465759   -7.8169866    816.31784  0.013818096  0.012006573         3930 
 4924000   0.45371643   -7.8047728    815.42045  0.013800102  0.012002605         3929 
 4925000   0.45935098   -7.8108022    815.86135   0.01380476  0.011998639         3926 
 4926000   0.46003711   -7.8111447    816.59754  0.013814412  0.011994677         3936 
 4927000   0.45683021   -7.8180195     816.6938  0.013813237  0.011990716         3931 
 4928000   0.46189583   -7.7987526    816.01262  0.013798915  0.011986756         3935 
 4929000   0.46173401   -7.8083773     815.6266  0.013789589  0.011982796         3932 
 4930000   0.46010518    -7.795158    816.08076  0.013794469  0.011978839         3932 
 4931000   0.46824244   -7.8165974    816.42248  0.013797446  0.011974883         3920 
 4932000   0.46877292   -7.8217692    816.03252   0.01378806  0.011970932         3923 
 4933000   0.46760326   -7.8089791    817.04027  0.013802289  0.011966981         3931 
 4934000   0.45920372   -7.8127031     816.5013  0.013790388  0.011963034         3932 
 4935000   0.47004965   -7.8154103    815.68897  0.013773877  0.011959085         3931 
 4936000   0.46828006   -7.8153617    815.74519  0.013772035  0.011955138         3926 
 4937000   0.45939641   -7.8173684    816.80984  0.013787216  0.011951193         3928 
 4938000   0.47397971   -7.8299248    817.42958  0.013794883  0.011947249         3929 
 4939000   0.46599417   -7.8112649    815.66843  0.013762375  0.011943305         3924 
 4940000   0.45901964   -7.8236344    815.44136  0.013755758  0.011939365         3929 
 4941000   0.46378984   -7.8309184    817.04319   0.01377999  0.011935426         3931 
 4942000   0.44939879   -7.8323933    815.49017  0.013751015  0.011931488         3936 
 4943000   0.45430323   -7.8116589    816.35325  0.013762783  0.011927552         3930 
 4944000   0.45643338    -7.800435    815.95254  0.013753245  0.011923619         3923 
 4945000   0.46205925   -7.8272365    816.16082  0.013753974  0.011919688         3939 
 4946000   0.46121593   -7.8193593    815.93087  0.013747319  0.011915758         3927 
 4947000   0.46264481   -7.8293127    817.59104  0.013772506  0.011911828         3934 
 4948000   0.45752579   -7.8154376    815.88368  0.013740967  0.011907902         3939 
 4949000   0.45505301   -7.8235436    816.18959  0.013743342  0.011903977         3935 
 4950000   0.45451524   -7.8429039    816.54366  0.013746526  0.011900053         3925 
 4951000   0.46662128   -7.8204488    815.07084   0.01371896  0.011896131         3939 
 4952000   0.45486492   -7.8341601    816.23184  0.013735727  0.011892209         3926 
 4953000   0.46742196   -7.8178635    815.69903  0.013723989  0.011888288         3926 
 4954000   0.46240476   -7.8305133    816.66414  0.013737454  0.011884372         3932 
 4955000   0.45715905   -7.8306181    817.42423  0.013747464  0.011880457         3938 
 4956000   0.45197235   -7.8090778     816.6753  0.013732097  0.011876544         3923 
 4957000   0.45944774   -7.8102718    815.27653  0.013705812  0.011872634         3930 
 4958000   0.44629736   -7.8212455    816.83844    0.0137293  0.011868724         3930 
 4959000   0.46039421   -7.8210835    814.70631  0.013690702  0.011864816         3929 
 4960000   0.44760836   -7.8182361    814.68969  0.013687663  0.011860908         3942 
 4961000   0.45480705   -7.8168888    814.72003  0.013685413  0.011857001         3928 
 4962000   0.45865322   -7.8238817    815.28777   0.01369219  0.011853097         3928 
 4963000   0.45188319   -7.8169585    816.31214  0.013706631  0.011849196         3933 
 4964000   0.46390102   -7.8216961    815.28119  0.013686563  0.011845295         3936 
 4965000   0.45078741   -7.8308009    815.22052  0.013682788  0.011841395         3942 
 4966000   0.45863883   -7.8240614    815.30244  0.013681408  0.011837499         3922 
 4967000   0.45286684   -7.8202735    815.63054  0.013684158  0.011833606         3925 
 4968000   0.45811169   -7.8223386    815.95668  0.013686874  0.011829714         3932 
 4969000   0.46890982   -7.8254324    815.53356  0.013677024   0.01182582         3931 
 4970000   0.44868825   -7.8179609    816.76237  0.013694875  0.011821928         3937 
 4971000   0.45816244   -7.8237348    815.46842  0.013670429  0.011818039         3936 
 4972000   0.45746795   -7.8105507    815.36296  0.013665912  0.011814148         3929 
 4973000   0.46266737   -7.8303295    815.69346  0.013668702  0.011810263         3941 
 4974000     0.461529   -7.8068851    815.78349  0.013667462  0.011806378         3933 
 4975000    0.4526136   -7.8133103     816.1679  0.013671154  0.011802497         3927 
 4976000   0.46465292   -7.8213051    815.15873  0.013651506  0.011798617         3932 
 4977000   0.44717694   -7.8215573     816.8527  0.013677126  0.011794738         3933 
 4978000   0.44848783   -7.8273854    816.24217  0.013664159  0.011790861         3923 
 4979000   0.45416503    -7.823827    815.79418  0.013653916  0.011786984         3923 
 4980000   0.44932814   -7.8271294    815.75351  0.013650494   0.01178311         3921 
 4981000   0.45805581   -7.8236925    814.41585  0.013625374  0.011779239         3927 
 4982000   0.45143302   -7.8194611    816.23613  0.013653087  0.011775365         3924 
 4983000   0.45640725   -7.8288288    815.89837  0.013644698  0.011771495         3927 
 4984000   0.45693128   -7.8274231    814.23855  0.013614208  0.011767629         3922 
 4985000   0.46245974   -7.8161561    815.38568  0.013630653  0.011763762         3921 
 4986000   0.45996605   -7.8294421    815.97313  0.013637738  0.011759899         3930 
 4987000   0.44877453   -7.8177444    815.48539  0.013626853  0.011756037         3928 
 4988000   0.44962376   -7.8069296    816.11898  0.013634706  0.011752175         3929 
 4989000   0.45054567   -7.8185178    815.04676  0.013614064  0.011748316         3926 
 4990000   0.45195338   -7.8287723     815.7107  0.013622423  0.011744458         3920 
 4991000   0.44597416    -7.824895    815.06364   0.01360889    0.0117406         3935 
 4992000   0.45991347   -7.8271783     815.7542  0.013617692  0.011736746         3923 
 4993000   0.44945615   -7.8207686    816.04962  0.013619895  0.011732894         3930 
 4994000   0.45806963   -7.8293145    814.61443  0.013593219  0.011729043         3923 
 4995000   0.45682717   -7.8232335    815.15672  0.013599545  0.011725192         3927 
 4996000   0.44988513   -7.8300885    815.43843  0.013601522  0.011721346         3931 
 4997000    0.4449185   -7.8281226    815.25144  0.013595681    0.0117175         3928 
 4998000   0.44602052   -7.8326602    815.89014   0.01360361  0.011713655         3932 
 4999000   0.44810212   -7.8247077    815.66627  0.013597157  0.011709812         3934 
 5000000   0.45342994   -7.8327995    815.14515  0.013585752  0.011705971         3930 
 5001000   0.45426378   -7.8329325    815.42363  0.013587676  0.011702132         3938 
 5002000   0.45007728   -7.8386891    813.81242  0.013558117  0.011698293         3931 
 5003000   0.44449149   -7.8231692     815.1888  0.013578333  0.011694453         3921 
 5004000   0.44749134   -7.8377211    816.46548   0.01359688  0.011690619         3932 
 5005000   0.45766641   -7.8311167    815.89105    0.0135846  0.011686787         3928 
 5006000   0.45560328   -7.8301095    814.81022  0.013563894  0.011682956         3941 
 5007000   0.45496599   -7.8325917    815.99396  0.013580886  0.011679127         3937 
 5008000   0.44666982   -7.8276006    814.33878  0.013550632  0.011675299         3934 
 5009000   0.45407244   -7.8301511    815.37495  0.013565165  0.011671473         3936 
 5010000    0.4565575    -7.827486    814.34051  0.013545251  0.011667648         3935 
 5011000   0.45555076   -7.8310713    815.51475  0.013562076  0.011663826         3936 
 5012000   0.45586376   -7.8331557    816.56534  0.013576838  0.011660004         3930 
Loop time of 10578.8 on 48 procs for 5000000 steps with 4000 atoms

Performance: 81673.145 tau/day, 472.646 timesteps/s
99.4% CPU use with 48 MPI tasks x no OpenMP threads

MPI task timing breakdown:
Section |  min time  |  avg time  |  max time  |%varavg| %total
---------------------------------------------------------------
Pair    | 672.26     | 713.42     | 737.79     |  51.6 |  6.74
Neigh   | 66.572     | 67.671     | 68.855     |   5.6 |  0.64
Comm    | 571.26     | 598.67     | 638.96     |  61.8 |  5.66
Output  | 14.26      | 14.264     | 14.343     |   0.3 |  0.13
Modify  | 9038.3     | 9070.8     | 9103.9     |  21.9 | 85.75
Other   |            | 113.9      |            |       |  1.08

Nlocal:        83.3333 ave          89 max          77 min
Histogram: 1 2 3 7 6 10 9 4 5 1
Nghost:        1756.60 ave        1767 max        1746 min
Histogram: 4 5 3 2 10 5 8 4 4 3
Neighs:        10555.2 ave       11343 max        9853 min
Histogram: 2 6 3 8 7 6 6 8 0 2
FullNghs:      21110.6 ave       22610 max       19366 min
Histogram: 1 1 3 12 6 6 5 8 5 1

Total # of neighbors = 1013307
Ave neighs/atom = 253.32675
Neighbor list builds = 270027
Dangerous builds = 0

#clear
#
#next RN
#
#jump SELF
Total wall time: 2:56:21
