
units lj                  # Use reduced LJ style units
atom_style atomic         # Uncharged point particles
atom_modify map hash      # Needed for indexing of clusters etc
                          # Used to be able to find where atoms are in relation to each other.

lattice fcc 1.0 spacing 1 1 1
Lattice spacing in x,y,z = 1.5874011 1.5874011 1.5874011
region box block 0 10 0 10 0 10 units lattice
create_box 2 box
Created orthogonal box = (0.0000000 0.0000000 0.0000000) to (15.874011 15.874011 15.874011)
  3 by 4 by 4 MPI processor grid
create_atoms 1 box
Created 4000 atoms
  using lattice units in orthogonal box = (0.0000000 0.0000000 0.0000000) to (15.874011 15.874011 15.874011)
  create_atoms CPU = 0.002 seconds
set type 1 type/fraction 2 0.35 78393
Setting atom values ...
  1418 settings made for type/fraction
mass 1 1.0
mass 2 1.0
pair_style lj/cut  3.5
pair_modify tail  yes
pair_coeff 1  1  1.0  1.0   # Intearaction between 1 and 1 set with epsilon = 1 and sigma = 1
pair_coeff 1  2  1.5  0.8
pair_coeff 2  2  0.5  0.88

write_data data.0
System init for write_data ...
Neighbor list info ...
  update every 1 steps, delay 10 steps, check yes
  max neighbors/atom: 2000, page size: 100000
  master list distance cutoff = 3.8
  ghost atom cutoff = 3.8
  binsize = 1.9, bins = 9 9 9
  1 neighbor lists, perpetual/occasional/extra = 1 0 0
  (1) pair lj/cut, perpetual
      attributes: half, newton on
      pair build: half/bin/atomonly/newton
      stencil: half/bin/3d
      bin: standard
WARNING: Not all mixed pair coeffs generated from mixing. Use write_data with 'pair ij' option to store all pair coeffs. (../write_data.cpp:312)


#############################
#   M E L T   S Y S T E M   #
#############################

velocity all create 2.4 6583654 mom yes dist gaussian # Assign velocities
                                                    # Temperature 2.4, random number seed, zero linear momentum
                                                                                # Gaussian distribution

timestep 0.002   # simulation timestep
thermo 1000       # output thermodynamic data every 1000 steps bf 100

# Define a fix  in this case with index 1 applied to all
# particles in the simulation. This fix is for simulations
# in the anisotropic NPT ensemble. Note that we use the MTK
# correction.
fix 1 all npt temp 2.4 2.4 0.1 iso 5.68 5.68 0.5 mtk yes tchain 5 pchain 5 # Use NPT ensemble
                                                                         # Set temperature and pressure and damping
                                                                         # Numbers of thermostats in chain and in barostat
run 10000          # run for 10000 steps
Per MPI rank memory allocation (min/avg/max) = 3.642 | 3.644 | 3.648 Mbytes
Step Temp E_pair E_mol TotEng Press Volume 
       0          2.4   -6.1483103            0   -2.5492103   -4.0910289         4000 
    1000     2.372478   -4.9600949            0   -1.4022676    6.0479697    4013.1798 
    2000    2.4273841   -5.0264098            0   -1.3862439    5.7242404    4013.4238 
    3000    2.3413297   -5.0895019            0   -1.5783853    5.6324558     3981.013 
    4000    2.3753721    -5.067673            0   -1.5055055    5.6222573    3993.6174 
    5000      2.36458   -4.9941409            0   -1.4481577    5.8143719    4016.9998 
    6000     2.432193   -5.0160272            0   -1.3686499    5.8864069    4012.1727 
    7000     2.438498   -4.9845763            0   -1.3277437    5.9009182    4017.9369 
    8000    2.3545283   -5.0095937            0   -1.4786842    5.5435616    4030.4478 
    9000    2.4354977   -5.0173086            0   -1.3649754    5.7179253    4015.8303 
   10000    2.4328076   -4.9649901            0    -1.316691    5.5664178    4060.9711 
Loop time of 2.48837 on 48 procs for 10000 steps with 4000 atoms

Performance: 694430.197 tau/day, 4018.693 timesteps/s
99.6% CPU use with 48 MPI tasks x no OpenMP threads

MPI task timing breakdown:
Section |  min time  |  avg time  |  max time  |%varavg| %total
---------------------------------------------------------------
Pair    | 1.0693     | 1.1499     | 1.2871     |   4.3 | 46.21
Neigh   | 0.20422    | 0.21476    | 0.23249    |   1.2 |  8.63
Comm    | 0.71617    | 0.85214    | 0.95828    |   5.5 | 34.24
Output  | 0.00024341 | 0.0002486  | 0.00031873 |   0.0 |  0.01
Modify  | 0.22506    | 0.25616    | 0.29306    |   4.5 | 10.29
Other   |            | 0.01515    |            |       |  0.61

Nlocal:        83.3333 ave          92 max          76 min
Histogram: 2 10 3 6 4 8 6 1 5 3
Nghost:        1626.33 ave        1649 max        1594 min
Histogram: 1 0 5 6 9 2 6 6 7 6
Neighs:        9409.06 ave       10668 max        8318 min
Histogram: 3 4 8 7 9 4 4 4 0 5

Total # of neighbors = 451635
Ave neighs/atom = 112.90875
Neighbor list builds = 906
Dangerous builds = 201

# Equilibrate just above the melting temperature to avoid step fn in T

fix 1 all npt temp 1.25 1.25 0.1 iso 5.68 5.68 0.5 mtk yes tchain 5 pchain 5
run 2000
Per MPI rank memory allocation (min/avg/max) = 3.643 | 3.645 | 3.649 Mbytes
Step Temp E_pair E_mol TotEng Press Volume 
   10000    2.4328076   -4.9649901            0    -1.316691    5.5664178    4060.9711 
   11000    1.2432286   -6.9547407            0   -5.0903641    5.6625825    3212.0817 
   12000    1.2515677   -6.9699702            0    -5.093088    5.4028841    3218.8082 
Loop time of 0.608714 on 48 procs for 2000 steps with 4000 atoms

Performance: 567754.481 tau/day, 3285.616 timesteps/s
99.6% CPU use with 48 MPI tasks x no OpenMP threads

MPI task timing breakdown:
Section |  min time  |  avg time  |  max time  |%varavg| %total
---------------------------------------------------------------
Pair    | 0.24129    | 0.28456    | 0.3404     |   3.1 | 46.75
Neigh   | 0.037702   | 0.041323   | 0.049014   |   1.0 |  6.79
Comm    | 0.1707     | 0.23312    | 0.27854    |   3.8 | 38.30
Output  | 5.1941e-05 | 5.3621e-05 | 6.9908e-05 |   0.0 |  0.01
Modify  | 0.039022   | 0.044946   | 0.050675   |   1.7 |  7.38
Other   |            | 0.004711   |            |       |  0.77

Nlocal:        83.3333 ave          96 max          74 min
Histogram: 1 5 4 13 10 7 4 3 0 1
Nghost:        1897.90 ave        1915 max        1883 min
Histogram: 5 2 5 7 8 9 4 1 4 3
Neighs:        11890.4 ave       13719 max       10343 min
Histogram: 1 8 5 4 9 7 8 3 2 1

Total # of neighbors = 570740
Ave neighs/atom = 142.68500
Neighbor list builds = 144
Dangerous builds = 12

#############################
# L I N E A R  Q U E N C H  #
#############################

# Define solid atoms. This closely follows ten Wolde  Ruiz-Montero and Frenkel  Faraday Discuss  1996  104  93-110
# Compute components of the per-atom q6 vector
compute q6 all orientorder/atom degrees 1 6 components 6 nnn NULL cutoff 1.3 # compute the Q6 parameter.
                                                                             # Use all neighbours within 1.3 unit cell.

# get number of connections
compute coord_number all coord/atom orientorder q6 0.5

# An atom is solid if it has 8 or more connections (of a possible 14)
variable is_solid atom c_coord_number>=8
group solid dynamic all var is_solid    # Must be dynamic to update
dynamic group solid defined

# do clustering
compute cluster solid cluster/atom 1.3 # Create a cluster where all atoms within are solid and max 1.3 units from another member

# define chunks one chunk per cluster
compute clus_chunks solid chunk/atom c_cluster nchunk every compress yes  # Says which atoms are in which chunk

# count the size of each chunk
compute size_chunks solid property/chunk clus_chunks count


# Find the maximum entry in the vector of chunk sizes
variable max_n equal max(c_size_chunks)


# Thermo style which includes this variable
# thermo_style custom step temp pe vol v_max_n

thermo ${N}  # Print the thermo information every 100 steps
thermo 1000  

# Reset the npt fix at a lower temperature (below freezing)
fix 1  all npt temp  ${temp} ${temp}  0.1  iso  5.68  5.68  0.5  mtk yes tchain  5  pchain  5
fix 1  all npt temp  0.45 ${temp}  0.1  iso  5.68  5.68  0.5  mtk yes tchain  5  pchain  5
fix 1  all npt temp  0.45 0.45  0.1  iso  5.68  5.68  0.5  mtk yes tchain  5  pchain  5

dump dmp2 all dcd ${N} traj.dcd
dump dmp2 all dcd 1000 traj.dcd


compute msd all msd com yes
variable twopoint equal c_msd[4]/6/(step*dt+1.0e-6)
fix 9 all vector 10 c_msd[4]
variable fit equal slope(f_9)/6/(10*dt)
thermo_style custom step temp pe c_msd[4] v_twopoint v_fit v_max_n

fix 1 all npt temp 1.25 ${temp} 0.1 iso 5.68 5.68 0.5 mtk yes tchain 5 pchain 5
fix 1 all npt temp 1.25 0.45 0.1 iso 5.68 5.68 0.5 mtk yes tchain 5 pchain 5
run 5000000 # 5000000  # Run for this many steps
Neighbor list info ...
  update every 1 steps, delay 10 steps, check yes
  max neighbors/atom: 2000, page size: 100000
  master list distance cutoff = 3.8
  ghost atom cutoff = 3.8
  binsize = 1.9, bins = 8 8 8
  4 neighbor lists, perpetual/occasional/extra = 1 3 0
  (1) pair lj/cut, perpetual
      attributes: half, newton on
      pair build: half/bin/atomonly/newton
      stencil: half/bin/3d
      bin: standard
  (2) compute orientorder/atom, occasional
      attributes: full, newton on
      pair build: full/bin/atomonly
      stencil: full/bin/3d
      bin: standard
  (3) compute coord/atom, occasional
      attributes: full, newton on
      pair build: full/bin/atomonly
      stencil: full/bin/3d
      bin: standard
  (4) compute cluster/atom, occasional
      attributes: full, newton on
      pair build: full/bin/atomonly
      stencil: full/bin/3d
      bin: standard
Per MPI rank memory allocation (min/avg/max) = 9.817 | 9.822 | 9.827 Mbytes
Step Temp PotEng c_msd[4] v_twopoint v_fit v_max_n 
   12000    1.2515677   -6.9699702 3.9443045e-34 2.7391003e-36 8.3333333e+20            1 
   13000    1.2347468   -7.0084279   0.49990589 0.0032045248  0.040612988            1 
   14000    1.2704829   -6.9542811   0.97149713 0.0057827208   0.03972803            1 
   15000    1.2378863   -7.0010719    1.4455175 0.0080306528  0.039623449            1 
   16000    1.2724996   -7.0241033    1.8922522 0.0098554801  0.039275652            3 
   17000    1.2869821   -7.0130621    2.3443473  0.011491898  0.038769999            1 
   18000    1.2198614    -7.031013    2.7895846  0.012914743  0.038269877            2 
   19000    1.2595137   -7.0158114    3.2798019  0.014385096  0.038274729            1 
   20000    1.2101763   -7.0463773    3.7258504  0.015524376  0.038376362            1 
   21000    1.2592221   -7.0541012    4.2137184  0.016721104  0.038539421            1 
   22000    1.2522355   -7.0037594    4.6325148  0.017547404  0.038473811            1 
   23000    1.2220978   -7.0170176    5.0811537  0.018409977  0.038341912            1 
   24000    1.2584913   -6.9825055    5.5937616  0.019422783   0.03845472            2 
   25000    1.2539737   -7.0323114    6.0686293  0.020228764  0.038595208            1 
   26000    1.2435054   -6.9772925    6.4838883  0.020781693  0.038577912            2 
   27000    1.2501626   -6.9830672    6.8528555  0.021150788  0.038398976            1 
   28000    1.2628052   -6.9849945     7.305311  0.021741997  0.038209634            2 
   29000    1.2674093   -6.9643071    7.7762689    0.0223456  0.038100161            2 
   30000    1.2845296   -6.9958442    8.0987601  0.022496555  0.037919284            2 
   31000    1.2402907   -7.0106737     8.467961  0.022763336   0.03764528            1 
   32000    1.2169959   -6.9858997    8.9578437  0.023327718  0.037394393            1 
   33000    1.2471578   -7.0083887    9.4336852  0.023822437  0.037259441            1 
   34000    1.2547458    -7.031578    9.8022869  0.024025213  0.037107171            1 
   35000    1.2542495   -7.0132298    10.264551  0.024439407  0.036993392            1 
   36000    1.2586528   -7.0791374    10.680171  0.024722617  0.036905463            1 
   37000    1.2266691   -7.0282846    11.088069  0.024973128  0.036825572            1 
   38000    1.2586438   -7.0168183    11.525435  0.025275077  0.036746771            1 
   39000    1.2332221   -7.0504416    11.889247  0.025404374  0.036617233            2 
   40000     1.272506   -6.9769906    12.445704   0.02592855  0.036558088            2 
   41000    1.2539354     -7.03653    12.906871  0.026233477   0.03654363            2 
   42000    1.2386317   -6.9794552    13.396346  0.026580051  0.036542315            1 
   43000    1.2461029   -7.0156354    13.901264  0.026940434  0.036557962            3 
   44000    1.2461994   -7.0001013    14.439368  0.027347287  0.036637869            2 
   45000    1.2408259   -6.9786015    14.878001  0.027551854  0.036724298            2 
   46000    1.2536399   -7.0204515    15.388167  0.027877115   0.03680407            2 
   47000    1.2150989   -7.0555342    15.813756  0.028038574  0.036895425            1 
   48000    1.2487009   -7.0186344    16.556747  0.028744351  0.037011514            2 
   49000    1.2493606    -7.049208    17.041373  0.028981927  0.037180095            1 
   50000    1.2318708   -6.9868422    17.553275  0.029255458  0.037323408            4 
   51000    1.2421349   -7.0575767    18.053761  0.029499609  0.037470464            2 
   52000    1.2396728   -7.0746676    18.509701  0.029662981  0.037620151            2 
   53000    1.2660308    -7.013983    19.169813  0.030141215  0.037779981            1 
   54000    1.2463515   -6.9746815    19.643793  0.030314495  0.037940746            4 
   55000    1.2409421   -7.0008286    20.089472  0.030438594  0.038089729            1 
   56000     1.238517   -7.0315232    20.527714  0.030547193  0.038212855            1 
   57000    1.2437453   -6.9748138    21.178714  0.030963033  0.038331821            2 
   58000    1.2281875   -7.0232954    21.628399  0.031075286  0.038454477            2 
   59000    1.2378144   -7.0202775    22.214075  0.031375811  0.038585029            1 
   60000    1.2468652   -7.0207281    22.728165  0.031566895  0.038696983            1 
   61000    1.2374591   -7.0444036    22.919578  0.031310898  0.038794077            1 
   62000     1.251351   -7.0058823     23.30375  0.031322244  0.038839872            4 
   63000    1.2355711   -7.0245631    23.700921  0.031350424  0.038877934            2 
   64000    1.2563292   -6.9955049    24.222042  0.031539117  0.038898985            1 
   65000    1.2456679   -7.0231858    24.789531  0.031781449  0.038934806            1 
   66000    1.2399811   -7.0067775    25.183831  0.031797766  0.038968415            2 
   67000     1.249366   -7.0037876    25.636612  0.031886333  0.038986823            2 
   68000    1.2018313    -7.003251     26.09609  0.031980502   0.03899907            1 
   69000     1.240395   -7.0354184    26.469662  0.031968191   0.03900326            2 
   70000    1.2549441    -7.021691    27.067062  0.032222692  0.039010828            2 
   71000    1.2458516   -7.0438782    27.416133  0.032178559  0.039022998            2 
   72000     1.242261   -7.0565505    27.836709  0.032218413  0.039022287            2 
   73000    1.2541099   -7.0775293    28.061662   0.03203386  0.039006723            2 
   74000    1.2256469   -7.0305557    28.747076  0.032372833  0.038978885       -1e+20 
   75000    1.2239119   -7.0310678    29.110773  0.032345304  0.038962367            2 
   76000    1.2559308   -7.0437059    29.566586  0.032419502  0.038944626            1 
   77000    1.2535666   -7.0113671    29.965879  0.032430605  0.038920735            1 
   78000    1.2379767   -7.0221465    30.381075  0.032458413  0.038896166            1 
   79000    1.2376349   -7.0317283    30.899341  0.032594241  0.038877341            2 
   80000    1.2413031   -7.0125524    31.189517  0.032489079  0.038849463            1 
   81000    1.2370445   -7.0538148    31.720491  0.032634249  0.038817027            3 
   82000    1.2296825   -7.0372082    32.033313   0.03255418  0.038778164            2 
   83000    1.2366027   -7.0392083    32.523974  0.032654592   0.03874341            1 
   84000    1.2412143   -7.0654457    33.014599  0.032752578   0.03870077            1 
   85000    1.2445821   -7.0300544     33.37471  0.032720304  0.038665959            1 
   86000    1.2124848   -7.0569756    33.755504  0.032708821  0.038628113            1 
   87000    1.2118399   -7.0651914    34.345918  0.032898388  0.038593553            2 
   88000    1.2502955   -7.0014639    34.688676  0.032849124  0.038557379            1 
   89000    1.2374816   -7.0501283    35.162545  0.032923731  0.038529923            2 
   90000    1.2526303    -7.027573    35.581631  0.032945954  0.038507787            2 
   91000    1.2401024   -7.0321349    36.090422  0.033049837  0.038484372            2 
   92000    1.2465854   -7.0366443    36.513203  0.033073553  0.038454551            1 
   93000     1.230235   -7.0468054    37.221141  0.033352277  0.038436237            1 
   94000    1.2371578   -7.0307902     37.76701  0.033481392  0.038423407            2 
   95000    1.2191432   -6.9876016    38.122153  0.033440485  0.038413818            1 
   96000    1.2094439   -7.0407493    38.498043   0.03341844  0.038401019            1 
   97000    1.2328439   -7.0165921    38.964051   0.03347427  0.038388277            2 
   98000    1.2370726   -7.0997781    39.328956  0.033442989  0.038372763            1 
   99000    1.2703343   -7.0182813    39.823699  0.033521632  0.038360185            2 
  100000    1.2535071   -7.0109027    40.477845  0.033731538  0.038361677            2 
  101000    1.2388331   -7.0395816    41.117896  0.033925656   0.03836172            1 
  102000    1.2250914   -7.0319863    41.476625  0.033886131  0.038362937            1 
  103000    1.2305179   -7.0651902    41.882421  0.033885454  0.038361651            1 
  104000    1.2458418   -7.0413487    42.491741  0.034047869   0.03836918            1 
  105000    1.2505136   -7.0186868    42.844399  0.034003491  0.038371921            1 
  106000    1.2237518   -7.0334103    43.247434  0.033999555  0.038372821            1 
  107000    1.2854855   -7.0611157    43.478805  0.033861997  0.038368483            2 
  108000    1.2355817   -7.0453392    44.074268  0.034007923  0.038361515            2 
  109000    1.2141635   -7.0158368    44.285693  0.033857563   0.03834976            1 
  110000    1.2336847   -7.0364371    44.872337  0.033994195  0.038334019            4 
  111000     1.236039    -7.064496    45.192595  0.033928375  0.038318756            1 
  112000    1.2533705   -7.0429925     45.67122  0.033981562  0.038306858            1 
  113000    1.2089174   -7.0258906    46.387304  0.034208926   0.03829709            2 
  114000    1.2404019    -7.092659    46.698835  0.034136575  0.038287358            3 
  115000     1.229485   -7.0919807    46.856022  0.033953639  0.038271449            4 
  116000    1.2504481   -7.0529464    47.222751   0.03392439  0.038253915            3 
  117000    1.2664504   -7.0451987    47.887417  0.034107847   0.03823908            3 
  118000    1.2381894   -7.0484879    48.412388   0.03418954  0.038226277            2 
  119000    1.2279658   -7.0514246     48.73547  0.034128481   0.03821485            2 
  120000    1.2218813   -6.9935637     49.41604  0.034316694  0.038206232            1 
  121000    1.2419292   -7.0425273    49.660492  0.034201441   0.03819639       -1e+20 
  122000    1.2112207   -7.0462049    50.011366  0.034160769  0.038180659            1 
  123000    1.2364966   -7.0380129    50.695511  0.034346552  0.038164739            3 
  124000    1.2361306   -7.0693999    50.857764  0.034178605  0.038152368            1 
  125000    1.2386861   -7.0417721    51.275025   0.03418335   0.03814073            1 
  126000    1.2252151   -7.0408265    51.823202  0.034274604  0.038129455            1 
  127000    1.2271606   -7.0179641    52.540456  0.034475365  0.038116589            3 
  128000     1.238794    -7.022789    52.839753  0.034400881  0.038103247            1 
  129000    1.2526243    -7.010773    53.230337  0.034386523  0.038088281            2 
  130000    1.2411689   -7.0365634    53.566869  0.034337737  0.038069668            2 
  131000    1.2568926   -7.0430704    53.986381  0.034342481  0.038049336            1 
  132000    1.2227345   -7.0543721    54.172819  0.034200012  0.038026775            2 
  133000     1.211123   -7.0322693     54.83858  0.034360012  0.038004121            1 
  134000     1.227237   -7.0724672    54.995217  0.034201005  0.037983908            1 
  135000    1.2368314   -7.0050874    55.685827  0.034373967  0.037963415            2 
  136000     1.234849   -7.0643161    55.782621  0.034180528  0.037942387            1 
  137000    1.1978576   -7.0503155    56.479539  0.034354951  0.037922478            1 
  138000    1.2392717   -7.0379286     56.99105  0.034414885  0.037905985            1 
  139000    1.2220083   -7.0227499    57.522212  0.034485738  0.037889474            1 
  140000    1.2311023   -7.0447625    57.745781  0.034372489   0.03787484            1 
  141000    1.2395908   -7.0085832    58.336313  0.034477726  0.037857414            3 
  142000    1.2318919   -7.0915264    58.687975    0.0344413  0.037841047            1 
  143000    1.2093984   -7.0722434    59.033843  0.034402006  0.037823821            2 
  144000    1.2001257   -7.0437844    59.726088  0.034563708   0.03780919            1 
  145000    1.2340096   -7.0824208    60.152082  0.034570162  0.037796751            2 
  146000    1.2404479   -7.0405805    60.526516  0.034547098  0.037783658            1 
  147000    1.2177285   -7.0549302    60.781043  0.034456373  0.037769656            1 
  148000    1.2641724   -7.0499692    61.561867  0.034663213  0.037755744            2 
  149000    1.2396198   -7.0177667    61.800983  0.034564308  0.037739774            1 
  150000    1.2293494   -7.0513181    62.104441  0.034502467  0.037724138            2 
  151000    1.1982857   -7.0344832    62.534524  0.034511326  0.037709752            1 
  152000    1.2345688   -6.9921067    62.939694  0.034506411  0.037693437            2 
  153000    1.2156368   -7.0722004    63.201398  0.034423419   0.03767215            1 
  154000    1.2760256   -7.0288075    63.384771  0.034299118  0.037645489            1 
  155000    1.2052403   -7.0487812    64.041704  0.034431023  0.037621018            1 
  156000    1.2462291   -7.0670427    64.647343  0.034533837   0.03759827            2 
  157000    1.1861975   -7.0450317    65.272217   0.03464555  0.037582507            2 
  158000    1.2002527   -7.0308434    65.530998  0.034562762  0.037569195            1 
  159000    1.2382828   -7.0077925    65.969661  0.034575294   0.03755435            2 
  160000    1.1999452   -7.1007202    66.126055  0.034440654  0.037537875            2 
  161000    1.2211854   -7.0300859    66.859338  0.034606283  0.037518082            1 
  162000    1.2076034   -7.0763717     67.06247  0.034497155  0.037499765            2 
  163000    1.2376611   -7.0836889    67.453667  0.034485515  0.037477276            2 
  164000     1.193283   -7.0678783    67.676253   0.03438834  0.037455281            1 
  165000    1.2355786   -7.0453791    68.291069  0.034490439  0.037434838            2 
  166000    1.2192843   -7.0864794    68.698664  0.034487281  0.037417679            1 
  167000    1.2148912   -7.0541561    69.439084  0.034650241  0.037401293            2 
  168000    1.2111248   -7.0098862    70.204509  0.034823665  0.037389659            1 
  169000    1.2312017   -6.9991935    70.716591  0.034870114  0.037382453            2 
  170000    1.2394507   -7.0587746    70.829965  0.034720571  0.037374519            1 
  171000     1.228319   -7.0521096    71.404072  0.034797306  0.037362214            1 
  172000    1.2255963   -7.0735083    71.374483   0.03458066  0.037346942            2 
  173000     1.213292   -7.1080809     71.74142  0.034557524   0.03733302            1 
  174000    1.2838044   -7.0077353    72.593651  0.034767074  0.037322389            1 
  175000    1.2360821   -7.0328127    73.242186  0.034877231  0.037314325            2 
  176000     1.235388   -7.0713679    73.037836  0.034582308  0.037303168            4 
  177000    1.2603791   -7.1051021    73.227687  0.034476312  0.037286642            1 
  178000    1.2194699     -7.07178    73.919419  0.034606469  0.037269191            1 
  179000    1.2257565   -7.0281996    74.361377  0.034618891  0.037252057            1 
  180000    1.2205678   -7.1299233    74.353498  0.034422916  0.037233434            2 
  181000    1.2474514   -7.0155582    75.290204  0.034663998   0.03721689            1 
  182000    1.2183725   -7.0478252    75.597812  0.034614383   0.03720289            1 
  183000    1.2165731   -7.0889188    76.053755  0.034632857  0.037191121            3 
  184000    1.2318102   -7.1021421    77.036217  0.034889591  0.037181677            2 
  185000    1.2379947   -7.0174335    77.774695  0.035033646  0.037177401            1 
  186000    1.2502494   -7.1046996    77.379136  0.034668072  0.037174625            1 
  187000    1.2218047    -7.094649    78.136759  0.034820302  0.037165372            1 
  188000    1.2287522   -7.0461308    79.297168  0.035149454  0.037161917            1 
  189000    1.2322192   -7.0770618    79.746825  0.035161739  0.037161393            1 
  190000    1.2412071   -7.0816899    79.865307  0.035028644  0.037159913            2 
  191000    1.2300174   -7.0227795    80.227618  0.035003324  0.037156644            2 
  192000    1.2238088   -7.0775592    80.460324  0.034922015  0.037149824            1 
  193000    1.2127037   -7.0651073    80.742447  0.034862887  0.037143062            1 
  194000    1.2317098   -7.0922033    81.106086  0.034839384  0.037133314       -1e+20 
  195000    1.2159419   -7.0912421    81.238046  0.034717114   0.03712098            1 
  196000    1.2454175    -7.075622    81.890655  0.034817455  0.037110022            1 
  197000    1.2079361   -7.0697863    82.487506  0.034893192  0.037099268            1 
  198000    1.2049469   -7.0134544    82.870721  0.034878249  0.037089665            1 
  199000    1.2097705   -7.0787419    82.878937  0.034706422  0.037076721            1 
  200000    1.2110651   -7.0874029    83.477685  0.034782369  0.037065624            2 
  201000      1.22581   -7.0847418    83.837446  0.034758477  0.037054507            1 
  202000    1.2344797   -7.0740102    84.233012  0.034749592  0.037038832            2 
  203000     1.199743   -7.0869586    84.333524  0.034619673   0.03702223            3 
  204000    1.2052058   -7.1010079    84.790019  0.034636446  0.037004711            2 
  205000    1.2033214   -7.0755105     85.16166  0.034618561  0.036990866            1 
  206000    1.2311072   -7.0418833    85.674525  0.034657979   0.03697387            2 
  207000    1.2206859   -7.0830739    86.138914  0.034677502  0.036958055            2 
  208000    1.2158129   -7.0715597    86.622493  0.034704524  0.036945602            2 
  209000    1.2469121   -7.0390634    87.055772  0.034711233  0.036930853            1 
  210000    1.2171435   -7.1090176    87.349474  0.034662489  0.036915873            1 
  211000    1.2153838   -7.0124492    87.951018  0.034735789  0.036901419            1 
  212000    1.2489001   -7.0975803    88.436731  0.034762866  0.036888832            4 
  213000    1.2142669   -7.0930947    88.891182  0.034777458  0.036878267            2 
  214000     1.221374   -7.0695062    89.154402  0.034717446  0.036866762            3 
  215000    1.2212144   -7.0554449    89.676839  0.034758464  0.036854631            3 
  216000    1.1931062   -7.0527329     90.27225  0.034827257  0.036843484            3 
  217000    1.2015619   -7.0289373    90.599092  0.034792278  0.036833604            1 
  218000    1.2077077   -7.0788428     90.77567   0.03470018  0.036822656            2 
  219000    1.2147274   -7.0944803    91.297333  0.034740233  0.036811479            1 
  220000    1.2251162   -7.0579753    91.929554  0.034821801  0.036801068            1 
  221000     1.203878   -7.1484486    92.317417  0.034810489   0.03679117            1 
  222000    1.2274549   -7.0503389    92.517373  0.034728744  0.036780405            3 
  223000    1.2091002    -7.145273    92.362347  0.034515077  0.036766888            1 
  224000    1.2191231   -7.0532924    93.150496  0.034654202   0.03675118            2 
  225000    1.2037418   -7.1309327    93.404716  0.034594339  0.036736665            1 
  226000    1.2372163    -7.093373    93.593017    0.0345107  0.036722368            5 
  227000    1.2190488   -7.0831705    94.246593  0.034598602  0.036708029            2 
  228000    1.2097223   -7.0947531    94.645403  0.034592618  0.036691168            1 
  229000    1.2256124   -7.0820365    95.059577  0.034592277  0.036674339            1 
  230000    1.2057123   -7.0812773    95.214466  0.034497995  0.036658103            2 
  231000    1.2029557   -7.0716624    95.625059  0.034496775  0.036641081            1 
  232000    1.2162108   -7.0623225    96.576308  0.034689766  0.036624968            2 
  233000    1.2133939   -7.0827181    96.434793  0.034490269  0.036608955            1 
  234000     1.216915   -7.1035054    97.171394  0.034605197  0.036590861            1 
  235000    1.2360429    -7.075955    97.432189  0.034550422  0.036575111            1 
  236000    1.2475801   -7.0794669     97.83277   0.03454547  0.036559869            1 
  237000    1.2327305   -7.0992803    98.108815   0.03449677  0.036542018            2 
  238000    1.2249264   -7.0644114    98.653693  0.034542609  0.036526942            1 
  239000     1.220427   -7.1145543    99.291558  0.034620487  0.036512662            1 
  240000    1.2142534   -7.0793484    99.615367  0.034588669  0.036499867            4 
  241000    1.1935347   -7.0941212    99.610184  0.034443355  0.036484827            1 
  242000    1.2287064   -7.0722428    100.52706  0.034616755  0.036470819            1 
  243000     1.182139   -7.0424017    100.83199   0.03457887  0.036458383            2 
  244000    1.2232155   -7.0646168    101.59698  0.034698421  0.036445908            1 
  245000     1.233417   -7.1014706    101.76164  0.034612803  0.036433886            1 
  246000    1.2190759    -7.132233    102.29543  0.034652923  0.036422945            2 
  247000    1.2189049   -7.1065528    102.76349  0.034670542  0.036410426            2 
  248000    1.1788612    -7.068411    103.08551  0.034638948  0.036398445            2 
  249000    1.2144274    -7.104909    103.34087  0.034585298  0.036386543            1 
  250000    1.2360804   -7.0560196    103.97657  0.034658856  0.036375647            2 
  251000    1.1977651   -7.0662212     104.0115  0.034532371  0.036363541            2 
  252000    1.2315444   -7.0440279    104.79324  0.034653849   0.03635139            2 
  253000    1.2101646   -7.0875398    105.04259  0.034599008  0.036339301            2 
  254000    1.2330928   -7.0343766    105.33919  0.034560102  0.036326979            1 
  255000    1.2404177   -7.0856932    105.44574  0.034459393  0.036311453            1 
  256000    1.2176206   -7.1022437    105.48693  0.034338193  0.036295246            1 
  257000    1.2275769    -7.103638     106.4095   0.03450373  0.036279051            1 
  258000    1.1941613   -7.0962718    106.63257  0.034442046  0.036265036            2 
  259000    1.2207507   -7.1036147     107.0423  0.034440895  0.036252317            3 
  260000    1.2000656   -7.1001253    107.82316  0.034558705  0.036241898            2 
  261000    1.2017515    -7.141292    107.88247  0.034445232   0.03622899            1 
  262000    1.2099023   -7.1073253    108.62356  0.034549478  0.036218595            2 
  263000    1.1981745   -7.0865159    109.06956   0.03455943  0.036206848            3 
  264000    1.1948222   -7.0738851    109.58786  0.034592126  0.036196517            2 
  265000    1.1990307   -7.0752657    109.93612  0.034571108  0.036184953            2 
  266000    1.1973488   -7.1618351    109.95926   0.03444839  0.036173441            1 
  267000     1.175181   -7.1027829    110.68462   0.03454576  0.036162329            1 
  268000    1.2163549   -7.0951886    111.07634  0.034538663  0.036152233            2 
  269000    1.2057791   -7.0888086    111.73641  0.034614749  0.036142162            2 
  270000     1.189451    -7.128384    111.69956  0.034475171  0.036133119            1 
  271000    1.1985872   -7.0396868    112.16901  0.034492315  0.036122061            1 
  272000     1.208394   -7.0956398    112.78377  0.034553852  0.036111017            2 
  273000    1.1995399   -7.0436167    113.11499  0.034528386  0.036099973            3 
  274000    1.1905182    -7.110722    113.35043  0.034473974  0.036087698            3 
  275000    1.1809708   -7.0988687    113.88934  0.034511921  0.036076109            1 
  276000    1.2348099   -7.1165431    114.06641  0.034440342  0.036064427            3 
  277000    1.2022439   -7.0704802      114.779  0.034530384   0.03605299            1 
  278000    1.2108939   -7.1433269    114.12769  0.034210939   0.03603994            1 
  279000    1.2066072   -7.0721072    115.51155  0.034501657  0.036027563            1 
  280000     1.193589   -7.0833293    115.58004  0.034398821  0.036015396            2 
  281000    1.2178769   -7.1194856    115.84531  0.034355075  0.036003509            1 
  282000    1.2128118   -7.0908311    116.78748  0.034511666  0.035992189            2 
  283000    1.2251254   -7.1245023    117.30155  0.034541092  0.035981306            2 
  284000    1.1992848   -7.1140457    117.67084   0.03452783  0.035971549            1 
  285000    1.1915081   -7.1078907    118.46311  0.034638335   0.03596269            1 
  286000    1.1896542   -7.1349059    118.43058  0.034507745  0.035953865            1 
  287000     1.197177   -7.0738115     119.5113  0.034701306   0.03594575            2 
  288000    1.1907393   -7.0819616    119.51219  0.034581074  0.035938251            2 
  289000    1.2040771   -7.0667122    120.10333  0.034631871  0.035930909            1 
  290000    1.1887293   -7.1166826    119.76536  0.034415333  0.035921429            1 
  291000     1.208017   -7.1036221    120.54801  0.034521193  0.035912392            2 
  292000    1.2075833   -7.0916352    120.97777  0.034525621  0.035903849            5 
  293000    1.1773918   -7.1194237    121.27303   0.03449176  0.035895881            3 
  294000    1.2088783    -7.149399    121.94191  0.034564035   0.03588891            1 
  295000    1.1922331   -7.1056973    122.46888  0.034595728  0.035882534            2 
  296000    1.2033519   -7.1227808    123.03991  0.034639614  0.035876353            1 
  297000     1.194553   -7.0969024     123.2759  0.034589197  0.035869376            1 
  298000     1.221058   -7.1034185     123.3947  0.034506349  0.035862135            2 
  299000    1.2047065   -7.1258338    123.67032  0.034467758  0.035854716            1 
  300000    1.1799115   -7.0677897    124.74912  0.034652532   0.03584743            2 
  301000    1.2224351   -7.0908049    125.37054  0.034709453  0.035840456            2 
  302000    1.1801603   -7.1567865    125.47952  0.034624592  0.035834607            2 
  303000    1.2033386   -7.1326823    126.00435  0.034654661  0.035829637            2 
  304000    1.1911286   -7.0926539    126.17392  0.034587148  0.035824394            1 
  305000      1.21465   -7.0955338    126.90029   0.03467221  0.035819586            1 
  306000    1.2215226    -7.089714    127.27791  0.034661741  0.035815558            1 
  307000    1.2005496   -7.0967028    127.60321  0.034637137  0.035810396            2 
  308000    1.2105126    -7.082979    127.94506   0.03461717  0.035805107            3 
  309000    1.1912637   -7.1298861    127.98092  0.034514811  0.035799629            2 
  310000     1.200811   -7.1631487    128.26869  0.034480831  0.035792733            1 
  311000    1.2252038   -7.0878845    129.22794  0.034626993  0.035785539            2 
  312000    1.2296938   -7.0738168    129.67765  0.034636125  0.035779153            1 
  313000    1.1964535   -7.1351576    129.49481  0.034476787  0.035771792            2 
  314000    1.1896184   -7.1427091    130.05416  0.034515435  0.035764535            2 
  315000    1.2091411   -7.0981912    130.71626   0.03458102  0.035756561            1 
  316000    1.2042657   -7.1550445    130.42871  0.034395757  0.035747998            1 
  317000    1.2050557   -7.1363629    130.98555  0.034433635  0.035738875            1 
  318000    1.1759152   -7.0543074    131.93325  0.034573703   0.03573025            4 
  319000    1.1869615   -7.1392611    131.85629  0.034445216  0.035722162            4 
  320000    1.2117235   -7.1168951     132.5184      0.03451  0.035714137            2 
  321000    1.1890014   -7.1084323    132.25206  0.034333349  0.035706483            2 
  322000    1.1986528   -7.1125812    133.17072  0.034464473  0.035698554            1 
  323000    1.2044859   -7.1113124    133.66293   0.03448476  0.035690803            1 
  324000    1.1946799   -7.1150296    133.94997  0.034452152  0.035682164            2 
  325000    1.2183947   -7.0656025    134.66867  0.034530428   0.03567519            1 
  326000    1.2046397   -7.0995018    135.04629  0.034521036  0.035668834            1 
  327000    1.2009414   -7.1831786    135.11591  0.034433209  0.035660836            2 
  328000     1.201878   -7.0960228    135.40529   0.03440175  0.035651494            2 
  329000    1.2039294   -7.1136309    136.08555   0.03446949  0.035642084            1 
  330000     1.203596   -7.1000568    135.94269  0.034328962  0.035631556            2 
  331000    1.2004766   -7.1056291    136.05438  0.034253369  0.035620836            1 
  332000    1.2278263   -7.1142253    136.47058  0.034254663  0.035610119            3 
  333000    1.2043739   -7.1601737     136.6073  0.034186011  0.035598992            1 
  334000    1.2066391   -7.0795046    137.69694  0.034355524  0.035587407            1 
  335000     1.187301   -7.1378752    137.26214   0.03414481  0.035575461            1 
  336000    1.1856183   -7.0963609     137.9622  0.034216816  0.035563604            1 
  337000    1.1723812   -7.1282172    138.46374  0.034239302  0.035552557            2 
  338000     1.201217   -7.1119795    139.04763   0.03428196  0.035541455            3 
  339000    1.2118221   -7.0819499    139.88386  0.034386397  0.035530404            3 
  340000    1.2023064   -7.1348947    139.41011  0.034169144  0.035519975            3 
  341000     1.198508   -7.1189745    140.02608  0.034219472   0.03550855            1 
  342000    1.1852503   -7.1555345    140.50524   0.03423617  0.035497452            2 
  343000    1.2043533   -7.1194469    140.94652  0.034243567  0.035486527            1 
  344000    1.2035408   -7.1374036    140.93545  0.034141339  0.035475974            1 
  345000    1.2324262   -7.1149702    141.87174  0.034268535  0.035464882            2 
  346000    1.2005472   -7.1022255    141.97309  0.034193905  0.035454345            2 
  347000    1.1653049    -7.169626    142.13364  0.034133919  0.035443135            1 
  348000    1.2005564   -7.0732489     143.1019  0.034267697  0.035432246            3 
  349000    1.1879197   -7.1756345    142.43695  0.034010733  0.035420773            1 
  350000    1.1848873   -7.0635495    143.81206  0.034240966  0.035409119            2 
  351000    1.2130166    -7.170185    143.19187   0.03399617  0.035397348            2 
  352000    1.1834582   -7.1356896    143.91661  0.034071168  0.035385029            2 
  353000    1.1738306   -7.1427205    144.15967  0.034032027  0.035372149            2 
  354000    1.1952641   -7.0853921    144.96586  0.034125673  0.035361094            2 
  355000    1.1981715   -7.1346588    145.10818  0.034062952  0.035350033            1 
  356000    1.2181804   -7.1527249    146.03171  0.034183454  0.035339625            1 
  357000    1.2088468   -7.1542221    146.30311  0.034151052  0.035329859            1 
  358000    1.1871975   -7.1411228    146.41334  0.034081318  0.035319951            1 
  359000    1.1995966   -7.0937711    147.08057  0.034141265  0.035309548            1 
  360000    1.1703617   -7.1541239     147.2208  0.034078889  0.035298609            1 
  361000    1.1909447   -7.1706615      147.564  0.034063712  0.035288091            2 
  362000     1.182433   -7.1484607    147.74964  0.034012348  0.035278297            1 
  363000    1.2135873    -7.111122    148.85167  0.034171642  0.035268655       -1e+20 
  364000    1.1916108   -7.1224185    149.17484  0.034151748  0.035258421            2 
  365000    1.1853167   -7.0909706    149.39554  0.034108571  0.035248407            1 
  366000    1.1481676   -7.1497539    149.67079  0.034078049  0.035238431            3 
  367000    1.2174667   -7.1463227    149.76274  0.034006072  0.035226934            1 
  368000    1.1937026   -7.1113756     150.6262  0.034109193  0.035217369            3 
  369000    1.1942408   -7.1362632    150.58261  0.034006913  0.035207912            2 
  370000    1.1895641   -7.1533158    151.33692  0.034084893  0.035197901            2 
  371000    1.1919402   -7.1130684    151.52072  0.034034305  0.035187658            2 
  372000    1.1876084   -7.1054353    152.63306  0.034191993  0.035178056            2 
  373000     1.219216   -7.0945041    152.76551  0.034129917  0.035168352            1 
  374000    1.2228166   -7.1351822    152.94308  0.034078225  0.035158361            1 
  375000    1.1848335   -7.1229069    152.87116  0.033971368  0.035148523       -1e+20 
  376000    1.1876593   -7.1287597     152.9334  0.033894813  0.035137715            2 
  377000    1.1809796   -7.1384247    153.51735  0.033933986   0.03512565            2 
  378000    1.1893994   -7.1358319    153.69585  0.033883566  0.035113191            3 
  379000     1.205463    -7.114063    153.78003  0.033812671  0.035100477            1 
  380000    1.2202933   -7.1585594    154.09034  0.033791742  0.035087573            3 
  381000    1.1837115   -7.1461091    154.27309  0.033743021  0.035075135            1 
  382000    1.1857114   -7.1478574    154.13775  0.033625164  0.035060851            2 
  383000    1.1886387   -7.1453363    155.00923  0.033726986  0.035047138            1 
  384000    1.2077466   -7.1434039    155.00648  0.033638559  0.035032081            1 
  385000    1.2109695   -7.1274649    155.57629  0.033674521  0.035017236            1 
  386000    1.2046865    -7.144207    155.68271  0.033610256  0.035002467            2 
  387000    1.2005923   -7.1485312    156.34992  0.033667081  0.034986573            1 
  388000    1.1902122    -7.148041    155.82516  0.033467602  0.034970573            4 
  389000    1.2142764    -7.115552    156.77497   0.03358504  0.034953745            1 
  390000    1.1625579   -7.1182687    157.10523  0.033569494  0.034937561            2 
  391000    1.1969709   -7.1640915     156.8472  0.033428644  0.034920096            2 
  392000    1.2074993   -7.1247919    157.57455  0.033497991  0.034903267            1 
  393000     1.189532   -7.2106009     157.6053  0.033419275  0.034886188            1 
  394000     1.203334   -7.1345878    157.79514  0.033374607   0.03486942            1 
  395000    1.1970656   -7.1521511    158.77851  0.033497577  0.034852648            2 
  396000    1.1957581   -7.1609649    158.64166  0.033384188  0.034836152       -1e+20 
  397000    1.1931428   -7.1334053    159.40514  0.033460357  0.034820009            1 
  398000    1.1578374   -7.1222151    159.83004  0.033465251  0.034804583            1 
  399000     1.207229   -7.1468088    160.13572  0.033445222  0.034789095            1 
  400000    1.2082441   -7.1289956    160.46237   0.03342966   0.03477356            2 
  401000    1.2209794    -7.148262    160.83346  0.033423413  0.034758746            2 
  402000    1.2060827   -7.1283338    161.55899   0.03349067  0.034743402            2 
  403000    1.1853889   -7.1393697    162.73689  0.033651136  0.034728588            2 
  404000    1.1774501   -7.1388537    162.62403  0.033544561  0.034714423            2 
  405000    1.2110903   -7.1188292    162.80259  0.033498474  0.034699602            1 
  406000    1.1939707   -7.1276166    163.20418  0.033498395  0.034684898            2 
  407000    1.1830997   -7.1208883    163.29034  0.033433731  0.034670044            2 
  408000      1.19777   -7.1098409    163.57669  0.033410272  0.034655057            1 
  409000      1.14418   -7.1472462    163.66252  0.033346072  0.034639798            1 
  410000    1.2006399   -7.1339837    164.22333  0.033378726  0.034624551            1 
  411000    1.1735515    -7.136491    164.38745  0.033330788  0.034609309            2 
  412000    1.1865466   -7.1532308    163.99485   0.03317048  0.034594216            1 
  413000    1.2045745   -7.1051637    165.95786  0.033486251  0.034579815            1 
  414000    1.1705516    -7.163326    165.88947    0.0333916  0.034566241            1 
  415000    1.2011224   -7.1480208    166.29806  0.033393184  0.034552643            1 
  416000    1.1971195   -7.0900172    166.72952  0.033399342  0.034538543            5 
  417000     1.192424   -7.1890723    166.63519  0.033300397  0.034524125            3 
  418000    1.1771493   -7.1114372    167.55342  0.033403792   0.03451088            1 
  419000    1.1859391   -7.1581783    167.81889  0.033376868   0.03449846            2 
  420000    1.1949791   -7.1627425    167.94121  0.033321668  0.034485853            2 
  421000     1.199487   -7.1240861    169.14346  0.033480495  0.034474445            1 
  422000    1.1878644   -7.1745839    169.66034  0.033503228  0.034462806            1 
  423000     1.212188   -7.1146225    170.46094  0.033581745  0.034452764            1 
  424000    1.1827043   -7.1802583    170.60682  0.033531216  0.034442076            2 
  425000     1.181639   -7.1170161    171.20886  0.033570365  0.034431983            2 
  426000    1.1598302   -7.1145802    171.61381  0.033570777  0.034421963            2 
  427000    1.1686832   -7.1933148    170.94132  0.033360913  0.034411526            3 
  428000    1.1980434   -7.1398362    171.91492  0.033472532  0.034401252            5 
  429000    1.1839674   -7.1269285    172.08864  0.033428251  0.034390614            2 
  430000    1.1817394   -7.1762605    172.37235  0.033405494  0.034380344            1 
  431000     1.183962   -7.1398354    173.09465  0.033467643  0.034369393            1 
  432000    1.1685537    -7.128961    173.54917  0.033477849   0.03435867            1 
  433000    1.2065609   -7.1839806     173.8254  0.033453696  0.034348113            3 
  434000    1.1570943   -7.1517639    174.13747  0.033436534  0.034337761            1 
  435000    1.1779428   -7.1262515    174.40214  0.033410372  0.034327141            1 
  436000    1.1809538   -7.1994422    174.19092  0.033293371   0.03431579            1 
  437000     1.157832   -7.1151107     175.8925  0.033541666  0.034305097            1 
  438000    1.1673257   -7.1200045    175.60242  0.033409897  0.034294841            1 
  439000    1.1943333   -7.1241937    176.08531  0.033425458  0.034284326            1 
  440000    1.2055209    -7.160415    175.81278  0.033297876  0.034273196            1 
  441000    1.1619031    -7.122008    176.53265    0.0333584  0.034262099            1 
  442000      1.18943    -7.132319    177.22002  0.033412523  0.034250993            1 
  443000    1.1738765   -7.1793617    176.96894  0.033289869   0.03423959            2 
  444000     1.209871   -7.1565789    177.37293  0.033290715  0.034228927            1 
  445000    1.1912456   -7.1692599    178.08049  0.033348407  0.034218127            1 
  446000    1.1899538   -7.1379725    177.93896   0.03324719  0.034207289            2 
  447000    1.1486935   -7.1593406    179.10293  0.033389807   0.03419677            2 
  448000    1.1654866    -7.128862    179.25895  0.033344299  0.034186389            2 
  449000    1.1563394   -7.1110771    179.57613  0.033328902   0.03417529            4 
  450000    1.1877554   -7.1576386    179.86741   0.03330878  0.034164821            1 
  451000    1.1662308   -7.1658963    180.34115  0.033322459   0.03415398            1 
  452000    1.1968438   -7.1251534    180.53297  0.033284102  0.034143478            1 
  453000    1.1740049    -7.168889    180.90985  0.033279958  0.034133246            1 
  454000    1.2030818   -7.1645779    181.15391  0.033251452  0.034122854            1 
  455000    1.1641268    -7.191645    181.00221  0.033150588  0.034112639            3 
  456000    1.1593781   -7.1936222    181.22449  0.033118511  0.034101432            1 
  457000    1.1784711   -7.1323886    182.49387  0.033277511  0.034090021            1 
  458000    1.1808105   -7.1739145    182.58105  0.033220716  0.034079391            1 
  459000    1.1867257   -7.1487741    182.83623  0.033194668  0.034068649            3 
  460000    1.1736732   -7.1646234    182.79972  0.033115891  0.034057188       -1e+20 
  461000    1.1614472   -7.1973377     183.2755  0.033130062  0.034045633            5 
  462000    1.1776424   -7.1615138    183.18627  0.033042257  0.034033696            2 
  463000    1.1512302   -7.1699338    184.27346   0.03316657  0.034021945            2 
  464000    1.1571929   -7.1204471    184.99408  0.033224512  0.034011149            1 
  465000    1.1772963   -7.1654842    184.85605  0.033128324  0.033999977            2 
  466000    1.1468916   -7.1425352    185.41418  0.033157042  0.033988557            2 
  467000    1.1748444   -7.1372186    185.59277   0.03311791  0.033977065            1 
  468000    1.1822452   -7.1461553    185.89064  0.033100186  0.033965498            6 
  469000    1.1651219   -7.1355865    186.54729  0.033146284  0.033953991            3 
  470000    1.1807811   -7.1831346    186.00367  0.032979373  0.033942933            1 
  471000    1.1452025   -7.1972052    186.40439  0.032980253  0.033931617            2 
  472000    1.1743702   -7.1500666    187.53566  0.033110109  0.033920282            1 
  473000    1.1847332   -7.1273572    187.86609  0.033098324  0.033909069            1 
  474000     1.187641    -7.126011     187.6351  0.032987887  0.033897375            2 
  475000    1.1796162   -7.1964503    187.77215  0.032942482  0.033885486            1 
  476000    1.1561725   -7.1439278    189.07703  0.033101722  0.033874478            3 
  477000    1.1828542    -7.143278    189.68331  0.033138244  0.033862842            1 
  478000    1.1828746    -7.189148    189.04758  0.032958086  0.033851205            1 
  479000    1.1683428   -7.1719096    189.99584  0.033054252  0.033839965            1 
  480000    1.1810553   -7.1473108    190.54801  0.033081253  0.033829012            2 
  481000    1.1745313   -7.1461415    190.65559  0.033031113  0.033817463            1 
  482000    1.1593486    -7.129705    191.06963  0.033034169  0.033806766            1 
  483000    1.1686204   -7.1581563    191.43567  0.033028929  0.033795862            3 
  484000    1.1682402   -7.1560996    191.82126  0.033027077  0.033785584            4 
  485000    1.1796053   -7.1761977    191.53245  0.032909356  0.033775289            1 
  486000    1.1895835   -7.1344234    192.32897  0.032978219  0.033764612            3 
  487000    1.1598846   -7.2029298    192.25015  0.032897013   0.03375396            2 
  488000    1.2080159   -7.2448964    191.72894  0.032740598    0.0337426            2 
  489000    1.1794207    -7.163138     192.9557  0.032882703  0.033730687            1 
  490000    1.1831051   -7.1755413    193.32166  0.032877833  0.033719633            4 
  491000    1.1734673   -7.1673147    193.76568  0.032886232  0.033708233            2 
  492000    1.1589342   -7.1411836    194.48776  0.032941693  0.033697191            1 
  493000     1.167706    -7.213243    194.08079  0.032806084  0.033686165            1 
  494000    1.1889333    -7.171565    195.04052  0.032901572  0.033675132            1 
  495000    1.1641259   -7.1491729    195.23209  0.032867355  0.033664531            3 
  496000    1.1569976   -7.2092519    195.39876  0.032829092  0.033653358            1 
  497000    1.1828021   -7.1768844    196.17001  0.032892356  0.033642245            1 
  498000    1.1746924   -7.2060051    196.09037  0.032812981  0.033631452            2 
  499000    1.1616257   -7.1429008     197.0621  0.032909502   0.03362063            2 
  500000    1.1892604   -7.1660572    197.40092  0.032900154  0.033610169            1 
  501000    1.1743782   -7.1561311    198.09982  0.032950735  0.033600299            2 
  502000     1.196209   -7.2136042    197.74243  0.032825769   0.03359027            1 
  503000    1.1785312   -7.1638698    198.74722  0.032926976  0.033580537            1 
  504000    1.1733172    -7.147325    199.19779  0.032936143  0.033570723            2 
  505000    1.1747503   -7.2098821    198.56032   0.03276573  0.033560918            1 
  506000    1.1648176   -7.2135258    199.15932  0.032799624  0.033551234            1 
  507000    1.1826968   -7.2050507    198.88395  0.032689669  0.033541087            1 
  508000    1.1654616   -7.1691914    200.23906  0.032847615  0.033530999            2 
  509000    1.1658314   -7.2079368    200.36541  0.032803768  0.033521492            1 
  510000    1.1971207   -7.1907399    200.48121  0.032758368  0.033511839            2 
  511000    1.1615755   -7.1913907    200.72105  0.032733374  0.033501433            3 
  512000    1.1577928   -7.1629534    201.48205  0.032793302  0.033491574            4 
  513000    1.1700267   -7.2170716    201.78161   0.03277804  0.033481359            3 
  514000    1.1484323   -7.1709559    202.65854  0.032856443  0.033470872            2 
  515000    1.1633017   -7.1523568     202.8123  0.032817524  0.033461063            6 
  516000     1.177881   -7.2095168     202.8181  0.032754862  0.033450844            1 
  517000    1.1638621   -7.1725109    203.23639  0.032758928  0.033440978            1 
  518000    1.1370885    -7.186071     204.3855  0.032880551  0.033431234       -1e+20 
  519000    1.1502647   -7.1511186    204.02252  0.032758915  0.033421663            1 
  520000    1.1598174   -7.1786043    204.28607  0.032738152  0.033411799            2 
  521000    1.1790565   -7.2044333    204.78773  0.032755554  0.033401818            2 
  522000    1.1404911    -7.186993    205.50174  0.032806792  0.033392321            1 
  523000    1.1434451   -7.1837399    205.34688  0.032719388  0.033382482            2 
  524000    1.1735902   -7.2262319    204.88591  0.032583638  0.033372302            1 
  525000    1.1690924   -7.2189257    205.11908  0.032558584  0.033361035            1 
  526000    1.1664641   -7.2223236    206.26572  0.032678345  0.033350692            5 
  527000    1.1770592   -7.1856796    206.42448  0.032641443  0.033340617            1 
  528000    1.1767202   -7.1900681    206.81742  0.032641638  0.033330319            2 
  529000    1.1527799   -7.1879367    207.58885  0.032701457  0.033320194            1 
  530000    1.1523501   -7.2277543     207.5948  0.032640692  0.033310134            2 
  531000    1.1710977    -7.195445    207.45746  0.032557667   0.03330007            2 
  532000    1.1817041   -7.1513772    208.18181  0.032609933  0.033289957            1 
  533000    1.1707281   -7.2099182    208.24293  0.032558307  0.033279813            3 
  534000    1.1816515   -7.1589307    209.81562  0.032742762  0.033269926            2 
  535000    1.1383301     -7.15722    209.99259  0.032709126  0.033261359            3 
  536000    1.1676904   -7.1939461    210.18269  0.032677657  0.033253108            1 
  537000     1.148509   -7.1815902    210.64475  0.032688509  0.033244707            3 
  538000    1.1371438   -7.2501919    211.07219  0.032693958  0.033236238            3 
  539000    1.1672719   -7.1998438    211.80729  0.032746953  0.033227684            1 
  540000    1.1507197   -7.2022783    211.70281  0.032670186  0.033219303            2 
  541000    1.1540395   -7.2177118    211.58804  0.032592119  0.033211144            2 
  542000    1.1640477   -7.1992842    213.11599   0.03276691  0.033202673            1 
  543000    1.1525364   -7.1628402    213.20892  0.032720828  0.033194427            1 
  544000    1.1548301   -7.1987934     213.5746  0.032716698  0.033185742            2 
  545000    1.1449939   -7.1970625    212.90984  0.032555021  0.033177521            2 
  546000     1.172975   -7.1632799    214.08988  0.032675501  0.033168615            1 
  547000    1.1527602   -7.1972044    214.61117  0.032695181  0.033159692            1 
  548000    1.1576627   -7.1884877     214.2715  0.032583865  0.033151297            1 
  549000    1.1758483   -7.1829343    215.50699   0.03271205  0.033143223            3 
  550000      1.16434   -7.1916585    216.02041  0.032730364  0.033135203            2 
  551000    1.1370069   -7.2074972    215.92082  0.032655901  0.033126929            1 
  552000    1.1514199   -7.1866997    216.09598  0.032623185  0.033118763            2 
  553000    1.1768764   -7.1910309    216.96129  0.032694588  0.033110803            2 
  554000    1.1669428   -7.1693614    217.19888  0.032671311  0.033102768            1 
  555000     1.172047   -7.2056938    216.67971  0.032534491  0.033095007            1 
  556000    1.1489178   -7.1963728    217.64127  0.032620095  0.033087293            1 
  557000    1.1601951   -7.1918906    217.96292  0.032609654  0.033079385            1 
  558000    1.2058201   -7.2134609    218.31559  0.032603882  0.033071015            3 
  559000    1.1600252   -7.1911715     218.6006  0.032588044  0.033063051            1 
  560000    1.1696908   -7.2320089    218.79614   0.03255895  0.033054949            3 
  561000    1.1448614    -7.211492    219.18665   0.03255892  0.033046717            1 
  562000    1.1682478   -7.1710428    219.71524  0.032579366  0.033039145       -1e+20 
  563000    1.1628012    -7.160358    221.10916  0.032727821  0.033031912            1 
  564000    1.1543715   -7.2760871    220.03701  0.032511379  0.033024015            2 
  565000    1.1636238   -7.2278013    220.87338  0.032577194  0.033016085            3 
  566000    1.1825412   -7.2113712    220.67099   0.03248984  0.033008012            1 
  567000    1.1676878   -7.2164595    221.14151  0.032501692   0.03300013            2 
  568000    1.1649428   -7.1824252    222.43008  0.032633521   0.03299252            1 
  569000    1.1247103   -7.1935069    223.22167  0.032692102   0.03298517            1 
  570000    1.1632035   -7.1736841    222.90658  0.032588681  0.032977547            2 
  571000    1.1475971    -7.197563    223.33444  0.032594051  0.032969335            1 
  572000    1.1643533   -7.1773034    222.87901  0.032470718  0.032961449            2 
  573000     1.151619   -7.1826372    224.07967  0.032588666  0.032953251            1 
  574000    1.1869253    -7.225832    223.63888  0.032467898  0.032945281            2 
  575000     1.155186    -7.193786    224.61976  0.032553588  0.032936824            3 
  576000    1.1500613   -7.1921559    224.62025  0.032497143  0.032928689            1 
  577000    1.1591084   -7.2024296     224.7551  0.032460297  0.032920576            1 
  578000    1.1642755   -7.1934285    225.27535  0.032479145  0.032911437            1 
  579000    1.1497871   -7.2259315    224.65202  0.032333336  0.032902237            2 
  580000    1.1718451   -7.2013791    224.93995  0.032318958  0.032892957            2 
  581000     1.148611   -7.2208145    224.44033  0.032191671  0.032882917            2 
  582000    1.1779741    -7.157301     225.8918  0.032344186  0.032873272            2 
  583000     1.129742   -7.1563726    226.06727  0.032313789   0.03286396            2 
  584000    1.1773005   -7.1991575    226.46208  0.032314794  0.032854719            1 
  585000    1.1636406   -7.1905424    227.24085  0.032370491  0.032845672            2 
  586000    1.1624297   -7.2047914    227.91768  0.032411501  0.032837027            1 
  587000    1.1505269   -7.2072804    227.34012  0.032274294  0.032827651            1 
  588000    1.1466059   -7.2399295    227.47593  0.032238652    0.0328187            1 
  589000    1.1519164   -7.1583588    228.66545  0.032352214  0.032809768            2 
  590000    1.1628857   -7.2106629    228.37569  0.032256453  0.032801097            2 
  591000    1.1410375   -7.2130206      229.118  0.032306542  0.032792356            2 
  592000    1.1360245   -7.1741878    229.13605  0.032254512  0.032783135            1 
  593000    1.1437199   -7.2046174    228.86739  0.032162366   0.03277382            1 
  594000    1.1694857   -7.1915271    229.69093  0.032223755  0.032764079            2 
  595000    1.1580605   -7.2178138    229.51816    0.0321454  0.032754586            3 
  596000    1.1239917   -7.2081652    230.80803  0.032271816  0.032745008            2 
  597000    1.1575438    -7.172321    230.88591  0.032228631    0.0327355            2 
  598000    1.1380366   -7.1734952     231.1875  0.032216764  0.032725976            1 
  599000    1.1656378   -7.2270173     231.2807  0.032175946  0.032716574            2 
  600000    1.1488903   -7.2164173    232.12506  0.032239591  0.032706973            1 
  601000    1.1361079   -7.1750056    232.41153   0.03222567  0.032697831            2 
  602000    1.1605325   -7.2555657    232.30693   0.03215766  0.032688728            1 
  603000    1.1623913   -7.2064525    232.69285  0.032157664  0.032679351            1 
  604000     1.173376   -7.2167326    233.02278  0.032149943  0.032670304            1 
  605000    1.1666959    -7.213979    233.34055  0.032140572   0.03266165            2 
  606000    1.1471669   -7.2010697     234.1869   0.03220392   0.03265283            1 
  607000    1.1566574   -7.2362738    234.46794  0.032189449  0.032644442            2 
  608000    1.1356357   -7.2524816    234.05265  0.032079584  0.032636085            2 
  609000    1.1445474   -7.1920704    235.21958  0.032186587   0.03262743            1 
  610000    1.1535203   -7.1799442     235.6196   0.03218847  0.032618845            2 
  611000    1.1608636   -7.2205148    235.94778  0.032180548  0.032610287            3 
  612000    1.1703082   -7.2010548    235.94938  0.032128184  0.032601806            2 
  613000    1.1673064   -7.2013199    235.54119  0.032020281  0.032592625            3 
  614000    1.1563794   -7.1831642    236.41433  0.032086636  0.032583331            1 
  615000    1.1458599   -7.1893383    236.63231  0.032063998  0.032573579            2 
  616000    1.1277955   -7.2217999    236.50201  0.031994319  0.032563888            2 
  617000    1.1552402   -7.1885904    238.12233  0.032161308  0.032554536            3 
  618000    1.1575893   -7.2094799    236.82092  0.031933781  0.032545088            1 
  619000    1.1637605   -7.2327424    237.00789  0.031907362  0.032535357            2 
  620000    1.1431377   -7.2382066    238.44351  0.032048858  0.032525612            2 
  621000    1.1742717   -7.2126852    238.32232  0.031980988  0.032515967            2 
  622000    1.1497215    -7.212998    238.63483   0.03197144  0.032506403            1 
  623000    1.1513703   -7.2027083    239.13174  0.031986589  0.032497008            2 
  624000    1.1411034   -7.2195469    240.03139  0.032055474  0.032487875            1 
  625000       1.1568   -7.2587168    239.40235  0.031920313  0.032478599            1 
  626000    1.1521255   -7.2404012    240.32671  0.031992373   0.03246921            2 
  627000    1.1584553   -7.1991988    241.35718  0.032078306  0.032460225            1 
  628000    1.1488141    -7.201827     241.9087  0.032100412  0.032451325            1 
  629000    1.1320778   -7.2028466    240.93958  0.031920983  0.032442922            2 
  630000    1.1951721   -7.2359769    241.86488  0.031992709   0.03243409            2 
  631000    1.1457802   -7.2441628    241.71448  0.031922144  0.032424924            2 
  632000    1.1424987   -7.2311907    242.09429  0.031921716  0.032415748            2 
  633000    1.1520659   -7.2242361    242.61775  0.031940198  0.032406567            1 
  634000    1.1591392   -7.2672823     242.3507  0.031854719  0.032397533            2 
  635000    1.1576386   -7.2050963    244.24103  0.032052628  0.032388442            1 
  636000    1.1647093   -7.2061678    244.32218  0.032012864  0.032379697            1 
  637000    1.1431541   -7.2419236     244.0342  0.031924934  0.032370758            2 
  638000    1.1575017   -7.2278457    244.66656  0.031957493  0.032362061            2 
  639000    1.1731623   -7.2346235    244.91699   0.03194014   0.03235345            2 
  640000    1.1401802   -7.2133524    244.96865   0.03189696  0.032344671            2 
  641000    1.1512458   -7.2133922    245.98757  0.031979664  0.032335992            1 
  642000    1.1637442   -7.1800128    245.63196  0.031883691  0.032327344            3 
  643000    1.1648078   -7.2259385    245.71153  0.031844418  0.032318559            1 
  644000    1.1565186    -7.204203    247.27238  0.031996943  0.032310487            2 
  645000    1.1482101    -7.204947     247.3314  0.031954961  0.032302613            1 
  646000     1.156393   -7.2480527     246.8938  0.031849045  0.032293962            1 
  647000    1.1412242    -7.193208     247.6931  0.031902769  0.032285808            1 
  648000    1.1394189   -7.2735808    248.32503  0.031934803   0.03227727            3 
  649000    1.1163019   -7.2221167    248.82974  0.031950403  0.032268718            2 
  650000    1.1240736   -7.1810157    249.16134  0.031943761   0.03226098            1 
  651000    1.1530602   -7.2377746    248.80794  0.031849455  0.032253413            2 
  652000    1.1444563   -7.1827222    250.72541  0.032045681  0.032245894            1 
  653000    1.1283764   -7.2330039     249.8619  0.031886409  0.032238687            1 
  654000    1.1457581   -7.2384566    249.91148   0.03184397  0.032230804            1 
  655000    1.1121297   -7.2225665    250.88215  0.031918849   0.03222278            1 
  656000    1.1641794   -7.2062423    250.43948  0.031813958  0.032214188            1 
  657000    1.1520328   -7.2028296    250.97769  0.031833802  0.032206111            2 
  658000    1.1627977   -7.2252823    252.22439  0.031943312  0.032198291            1 
  659000    1.1503269   -7.2456731    251.53241  0.031807335   0.03219046            4 
  660000    1.1479334   -7.2054522    251.43326  0.031746623  0.032182502            2 
  661000     1.130958   -7.1668878    252.59148  0.031844615   0.03217447            1 
  662000    1.1582081   -7.2313221    251.68746  0.031682711   0.03216616            1 
  663000    1.1398123   -7.2755099    252.55982  0.031744573  0.032158119            1 
  664000    1.1333068   -7.2094382    253.04851  0.031758096  0.032150391            2 
  665000    1.1639168   -7.2305706     253.3925  0.031753446  0.032142516            3 
  666000    1.1393281   -7.2149189     254.5226  0.031847172   0.03213493            1 
  667000    1.1808768   -7.1924707    255.17124  0.031880465  0.032127311            2 
  668000    1.1372914    -7.263862    254.78254  0.031784249  0.032119696            1 
  669000    1.1761705   -7.2584063    255.12605  0.031779528  0.032111744            1 
  670000    1.1163521   -7.2578977    255.08849  0.031727424  0.032104009            1 
  671000    1.1642393   -7.2005584    256.51163  0.031856884  0.032096166            1 
  672000    1.1470423   -7.2365173    255.69468  0.031708169  0.032088455            2 
  673000    1.1281657   -7.2484341    256.63477  0.031777461  0.032080763            1 
  674000    1.1748825   -7.2421246    257.14447  0.031793332  0.032073062            5 
  675000    1.1412654   -7.2916961    256.42737    0.0316577  0.032065258            4 
  676000    1.1350794   -7.2065094     257.6196  0.031757841  0.032057193            1 
  677000    1.1505021   -7.2267362    258.15627   0.03177699  0.032049256            2 
  678000    1.1285775   -7.2409884    257.68572  0.031672286  0.032041527            1 
  679000    1.1437125    -7.258241    257.76625  0.031635524   0.03203321            1 
  680000    1.1218116   -7.2378716    258.94873  0.031733913  0.032025097            6 
  681000    1.1508381   -7.2053392    258.71335  0.031658511  0.032016488            5 
  682000    1.1144049   -7.2389374    258.34311  0.031566851  0.032007634            1 
  683000    1.1370878    -7.232221    258.70236  0.031564466  0.031999303            2 
  684000    1.1433068   -7.2136729    259.46124  0.031610774  0.031990691            2 
  685000    1.1322829   -7.2623921     259.1377  0.031525268  0.031981992            1 
  686000    1.1238322   -7.2647876     259.1499  0.031480795  0.031973721            1 
  687000    1.1460705   -7.2718466    259.48287   0.03147536  0.031964989            1 
  688000    1.1519295   -7.2215091    261.53886  0.031678641  0.031956426            2 
  689000    1.1454719   -7.2249525    261.76385  0.031659876  0.031948031            2 
  690000    1.1499413   -7.2653458    261.19094    0.0315448  0.031939566            1 
  691000    1.1376717   -7.2697938    261.24621  0.031505814     0.031931            2 
  692000    1.1344677   -7.2482867    262.13762  0.031567633  0.031922748            2 
  693000    1.1213539   -7.2257797    262.86175  0.031609157  0.031914609            2 
  694000     1.130716   -7.2548842    262.58058  0.031529848  0.031906458            1 
  695000    1.1279358   -7.2279246    264.05467  0.031661231  0.031898887            1 
  696000    1.1198638   -7.2261363    263.81118  0.031586587  0.031891191            1 
  697000    1.1352398   -7.2073026    264.51827  0.031625809  0.031883033            1 
  698000    1.1296948   -7.2370285    264.43435  0.031570481  0.031875073            1 
  699000     1.129252   -7.1847618    264.91962  0.031583169  0.031867135            1 
  700000    1.1500434   -7.2317025    265.38922  0.031593955  0.031859705            1 
  701000    1.1183534   -7.2535998    265.03421  0.031506682  0.031852186            1 
  702000    1.1615662   -7.2278874    266.02514  0.031579433  0.031844653            1 
  703000    1.1580221   -7.2348335    266.97965  0.031647659  0.031837136            1 
  704000    1.1401106   -7.2510559     266.6762  0.031566785  0.031830156            1 
  705000    1.1526133   -7.2936729    266.58904  0.031511706  0.031822554            1 
  706000    1.1291188   -7.2932013    267.01516   0.03151737  0.031814815            2 
  707000     1.186772   -7.2599727    267.97142  0.031585504  0.031807131            1 
  708000    1.1405093   -7.2933176    267.98329   0.03154229  0.031799693            2 
  709000    1.1503318   -7.2484345    268.40917  0.031547858    0.0317921            2 
  710000    1.1487087   -7.2209401    268.56381  0.031521574  0.031784233            1 
  711000     1.161982   -7.2813018    269.18104  0.031549583  0.031776641            3 
  712000    1.1593112    -7.248129    268.46579  0.031421558  0.031769093            2 
  713000    1.1253488   -7.2775716    269.60213    0.0315103  0.031761756            2 
  714000    1.1384231   -7.2378874    270.39741  0.031558988  0.031754194            4 
  715000    1.1528063    -7.244428    270.56904  0.031534853  0.031746697            2 
  716000    1.1473221   -7.2558129    270.40074  0.031471222  0.031739429            2 
  717000    1.1397273   -7.2690844    269.80099  0.031357623  0.031731546            2 
  718000    1.1276482   -7.2657856     271.0129  0.031454608  0.031723754            2 
  719000    1.1337859    -7.260611    271.73994  0.031495126  0.031716564            3 
  720000    1.1432635   -7.2458086    271.96295  0.031477193  0.031709815            1 
  721000    1.1337609   -7.2644407    271.61923  0.031393808  0.031702451            1 
  722000    1.1392487   -7.3174918     271.0371  0.031283137  0.031694936            1 
  723000    1.1632728   -7.2780357    272.50696  0.031409285  0.031687163            1 
  724000     1.137331   -7.2538105    273.28797  0.031455797  0.031679777            2 
  725000    1.1290369   -7.2535464     272.2194  0.031289586  0.031672104            2 
  726000    1.1214803   -7.2459999    274.47852  0.031505799  0.031664892            3 
  727000    1.1811009   -7.2522013    274.41735   0.03145545   0.03165777            2 
  728000     1.155124    -7.243337    274.53277  0.031425454  0.031650459            1 
  729000    1.1693363   -7.2504997    275.16979  0.031455165  0.031643149            1 
  730000    1.1310299   -7.2720797    274.92904  0.031384593  0.031635994            1 
  731000     1.137842   -7.2737123    275.28711   0.03138248   0.03162909            1 
  732000     1.152571   -7.2573495    274.80846  0.031285116  0.031622084       -1e+20 
  733000    1.1427336     -7.25446    276.13032  0.031392714  0.031615182            1 
  734000    1.1183613   -7.3032538    276.14526  0.031351642  0.031608319            2 
  735000    1.1186257   -7.2810549    276.90706  0.031395358  0.031601325            2 
  736000    1.1597788   -7.2682679     276.6496   0.03132355  0.031593931            2 
  737000    1.1375938   -7.2865526    276.33411  0.031245377   0.03158629            1 
  738000    1.1546103   -7.2848021    276.56992  0.031229666  0.031578147            3 
  739000    1.1405738   -7.2475809    277.49366  0.031291572  0.031570568            1 
  740000    1.1248672   -7.2577807    278.61358  0.031375404  0.031563002            2 
  741000     1.130137   -7.2532782    277.83205   0.03124517  0.031555449            1 
  742000    1.1355308   -7.2587163    277.84982  0.031205056  0.031547778            2 
  743000    1.1261694   -7.2335664    278.14824  0.031196528   0.03153972            4 
  744000    1.1288616   -7.2302746    277.47245  0.031078904  0.031531041            1 
  745000    1.1406999   -7.2408397     278.3933   0.03114019  0.031522177            1 
  746000    1.1203639   -7.2963843    278.47836  0.031107949  0.031513591            5 
  747000    1.1114766   -7.2845858    278.89242  0.031112497  0.031504591            3 
  748000    1.1125954   -7.2882571    279.39457  0.031126846  0.031495373            1 
  749000    1.1432145   -7.2613348    278.57792  0.030994428  0.031486042            2 
  750000    1.1218019   -7.2728722    279.29857  0.031033174  0.031476825            1 
  751000    1.1260053   -7.2665978     279.0019  0.030958932  0.031467516            1 
  752000    1.1279277   -7.2510646    281.09214  0.031149395  0.031458042            2 
  753000    1.1316702   -7.2626508     280.9392  0.031091103  0.031449119            2 
  754000    1.1048807   -7.3065566    279.60709   0.03090264    0.0314398            1 
  755000    1.1305351   -7.2773174    280.97043  0.031012188   0.03143042            3 
  756000    1.1780756   -7.2498153    281.14925  0.030990879  0.031421084            2 
  757000    1.1163755   -7.3056586    281.34246  0.030971208  0.031411999            2 
  758000    1.1391696   -7.2277435    281.93269  0.030995238  0.031402948            5 
  759000    1.1356781   -7.2297104    281.65549  0.030923967  0.031393942            1 
  760000    1.1273839   -7.2731191    281.94731  0.030915275  0.031384737            1 
  761000    1.1309775   -7.2955918    281.81183  0.030859815   0.03137525            1 
  762000    1.1198599   -7.2784733     282.3151  0.030874355  0.031365928            1 
  763000    1.1397267   -7.3054729    283.70529  0.030985724  0.031356904            1 
  764000    1.1471402   -7.2534828    283.97522   0.03097461  0.031347983            3 
  765000    1.1074674    -7.257103    285.09422  0.031056015  0.031339225            2 
  766000    1.1189915   -7.2617767    285.14191   0.03102066  0.031330485            3 
  767000    1.1320318   -7.2757577     284.2615  0.030884561  0.031321397            3 
  768000     1.150829    -7.265164    284.84655  0.030907829  0.031312073            4 
  769000    1.1325042   -7.2826694    285.66455   0.03095628  0.031302855            3 
  770000     1.121962   -7.2967501     285.5734  0.030906212  0.031293721            2 
  771000    1.1279322   -7.2646003    285.85951   0.03089705  0.031284186            1 
  772000     1.142606   -7.2648649     285.3934  0.030806715  0.031275017            2 
  773000    1.1300751   -7.2643436    286.23411  0.030857493    0.0312655            1 
  774000    1.1444532   -7.2829341    286.43708  0.030839479  0.031255899            1 
  775000     1.106111   -7.2089025    287.63095  0.030928059  0.031246524            2 
  776000    1.1274339   -7.2468287    287.30475  0.030853173  0.031237144       -1e+20 
  777000    1.1419915   -7.2737057    286.85059  0.030764757  0.031227991            2 
  778000    1.1367755    -7.295015    287.33001  0.030776565  0.031218561            1 
  779000    1.1367891   -7.3408174     287.5952  0.030765426  0.031208882            1 
  780000    1.1320585   -7.3234293    287.85609  0.030753856  0.031199499            1 
  781000    1.0970736   -7.2900939    287.88035  0.030717067  0.031190104            2 
  782000    1.1697984   -7.2751862    287.37653  0.030624097  0.031180604            2 
  783000    1.1154338   -7.3029802    288.59706  0.030714885  0.031171181            1 
  784000    1.1430601   -7.2916116    288.23865  0.030637612   0.03116191            1 
  785000      1.14908   -7.2592264     288.9619  0.030675361  0.031152402            1 
  786000    1.1211612   -7.2812134    288.47924  0.030585162  0.031142935            1 
  787000    1.1484475   -7.2727179    289.91373  0.030698192  0.031133401            1 
  788000     1.128972    -7.334242    289.68206  0.030634735  0.031123481            1 
  789000    1.1158294    -7.264818    290.43673  0.030675616  0.031113644       -1e+20 
  790000    1.1287678     -7.32255    288.72935  0.030456682  0.031103554            1 
  791000    1.0943698    -7.295892    290.52902  0.030607777  0.031093593            6 
  792000    1.1267117   -7.2739271    290.44473  0.030560262   0.03108352            1 
  793000    1.1352062   -7.2342561    290.93311  0.030573046  0.031073413            2 
  794000    1.1090751   -7.2485048    291.34649  0.030577927  0.031063335            1 
  795000    1.1471444   -7.2972621    291.50328  0.030555899   0.03105339            2 
  796000    1.1484581   -7.2934542    291.76056  0.030544447    0.0310439            1 
  797000    1.1301881   -7.2610833     292.6083  0.030594761   0.03103435            1 
  798000    1.1451921   -7.2880801    293.00334  0.030597675   0.03102487            1 
  799000    1.1501716   -7.2946799    292.42751  0.030499323  0.031015069            2 
  800000    1.1389516   -7.2885294    292.43006  0.030461465  0.031004945            1 
  801000    1.1125357   -7.3164266    293.33353  0.030517429  0.030994898            1 
  802000    1.1364926   -7.3003492    292.83516  0.030427594  0.030984673            3 
  803000    1.1087376    -7.296344    293.01867  0.030408745   0.03097406            1 
  804000    1.1260874   -7.2732692    294.34039  0.030507918  0.030963716            2 
  805000    1.0974033   -7.2432071    293.70776   0.03040453  0.030953417            1 
  806000    1.1383551   -7.3012508    294.61865  0.030460985  0.030943271            2 
  807000    1.1132005   -7.2971966    294.28566  0.030388854  0.030932977            1 
  808000    1.1451739   -7.2996967    296.21936  0.030550677  0.030923294            3 
  809000    1.1331547   -7.3159546    294.34306   0.03031964  0.030913151            2 
  810000    1.1231104   -7.2646237    295.28994  0.030379624  0.030903031            2 
  811000    1.1361423   -7.2918651     294.8851  0.030300565   0.03089261            2 
  812000    1.1053153   -7.3558992    295.33182  0.030309095  0.030882362            1 
  813000     1.109083   -7.3005947    295.93025  0.030333154  0.030872044            1 
  814000    1.1239792   -7.3102061     296.0926  0.030312511  0.030861679            1 
  815000    1.1236929   -7.3020959    295.96106  0.030261868  0.030851234            3 
  816000    1.1139818   -7.2830763    297.59039  0.030391175  0.030841231            2 
  817000    1.1173586    -7.306831    297.07302  0.030301205  0.030831235            1 
  818000    1.1348112   -7.2849831    297.68676  0.030326687  0.030821031            1 
  819000    1.1347206    -7.357921    296.52446  0.030171394  0.030810792            4 
  820000    1.0856596   -7.2724243    298.45838  0.030331136  0.030800449            2 
  821000    1.1141298   -7.2927972    297.55242  0.030202235  0.030790406            2 
  822000    1.1034432   -7.3268239    298.48508  0.030260045   0.03077984            5 
  823000    1.1258095   -7.3267355     298.3955  0.030214206  0.030769246            3 
  824000    1.1408841   -7.3070499    297.66669  0.030103832  0.030758804            2 
  825000    1.1345244   -7.3016017    298.56583  0.030158164  0.030748102            2 
  826000    1.0970296    -7.278008    298.74475  0.030139704  0.030737552            4 
  827000    1.1215464   -7.2954657    298.62547  0.030091241  0.030726852            1 
  828000    1.1055015   -7.2449979    300.50545  0.030244107  0.030716303            2 
  829000    1.1325009   -7.2699794    300.94866  0.030252178  0.030705938            3 
  830000    1.1000457   -7.2890187    300.50472  0.030171157  0.030695405            1 
  831000    1.1351562   -7.2809513     300.2331  0.030107612  0.030685077            1 
  832000    1.1299449   -7.3084751     300.5798   0.03010615  0.030674333            1 
  833000    1.1353778   -7.2236946    302.06859  0.030218946  0.030663834            2 
  834000    1.1163567   -7.2670516    301.84612  0.030160484  0.030653353            1 
  835000    1.1386416   -7.2870725    301.62139  0.030101935  0.030642886            1 
  836000    1.1338928   -7.2804633    301.37858  0.030041725   0.03063254            1 
  837000    1.1223258   -7.2819492    302.47222  0.030114717  0.030621988            2 
  838000    1.1182659   -7.3503113      301.929  0.030024761  0.030611306            2 
  839000    1.1185058   -7.2563249    302.31865  0.030027677  0.030600705            2 
  840000    1.1240016   -7.2816442    302.79475  0.030039162   0.03059007            2 
  841000    1.1173864   -7.2953962    303.74282  0.030097386  0.030579702            2 
  842000    1.1160772   -7.2845642    303.67999  0.030055423   0.03056956            2 
  843000    1.1278639   -7.2968102    303.92646  0.030044134  0.030559304            1 
  844000    1.1601688   -7.2647708    305.08874  0.030123296   0.03054908            2 
  845000    1.1114936   -7.3189789      304.522  0.030031755  0.030539061            2 
  846000    1.1245023   -7.2979302    305.00371  0.030043707  0.030528836            3 
  847000     1.099493   -7.2844314    304.97715  0.030005623  0.030518966            3 
  848000    1.0981382   -7.2937432    305.75566  0.030046744  0.030508933            1 
  849000    1.0988292   -7.2944579    306.12706  0.030047807  0.030498897            1 
  850000    1.1135297   -7.2965049    306.58834   0.03005768  0.030489248            1 
  851000    1.0929267   -7.2880433    307.27682  0.030089779  0.030479654            3 
  852000    1.1236137    -7.292462    306.84606   0.03001233  0.030469995            2 
  853000    1.1077403   -7.2606144    307.72219  0.030062739  0.030460075            1 
  854000    1.1342987   -7.3177002    306.67368  0.029925223  0.030450416            2 
  855000    1.1053741   -7.3259395     308.0362  0.030023022  0.030440748            1 
  856000    1.1256132   -7.2932543    307.88993  0.029973709  0.030431232            1 
  857000    1.1112852   -7.2873073    309.44092  0.030089549  0.030421696            3 
  858000    1.1381172   -7.2981193     308.0856  0.029922844  0.030412174            1 
  859000    1.1134578   -7.2892069    309.94756  0.030068642  0.030402675            4 
  860000     1.107655   -7.2686736     310.7831  0.030114641  0.030393416            2 
  861000    1.0982969   -7.3033014     310.5339  0.030055546  0.030384412            1 
  862000    1.1326083   -7.2751752    311.67488  0.030130982  0.030375348            4 
  863000    1.1145412   -7.2793358    310.74335  0.030006117   0.03036634            1 
  864000    1.1260497   -7.3227076    310.85111  0.029981782  0.030357315            2 
  865000    1.1018095   -7.3350988    312.13054   0.03007038  0.030348271            2 
  866000    1.1037017   -7.2855308    311.84266  0.030007954  0.030339065            1 
  867000    1.1377829     -7.31446    311.32524   0.02992361  0.030329769            1 
  868000    1.1132434   -7.2883707    311.68809  0.029923972  0.030320596            2 
  869000    1.1158472   -7.3208606    313.10774  0.030025675   0.03031136            1 
  870000    1.1311124    -7.333889    314.02271  0.030078804  0.030302434            3 
  871000    1.0996566   -7.3015859    313.27788  0.029973008  0.030293295            3 
  872000     1.125941   -7.3269536    313.56947  0.029966501  0.030284083            1 
  873000    1.1106703   -7.2870314    314.31041  0.030002903  0.030274834            3 
  874000     1.102126   -7.3296664    313.56956  0.029897937  0.030265555            2 
  875000    1.1544215   -7.3014929    313.95324  0.029900309  0.030256324            2 
  876000    1.1128892   -7.2961796     315.3885  0.030002711  0.030247256            1 
  877000    1.1302055   -7.2959086    315.03955  0.029935343  0.030238124            3 
  878000    1.1014941   -7.2919219     315.7405  0.029967777  0.030228961            2 
  879000    1.1215698    -7.264736    316.05167  0.029963185   0.03022003            4 
  880000    1.1085908   -7.2985347    316.17006  0.029940347  0.030211066            1 
  881000    1.1129447   -7.3589892    315.67384  0.029859424  0.030201981            1 
  882000    1.1228329   -7.2877929    316.69822  0.029922357   0.03019309            1 
  883000    1.1337895   -7.3225561     316.3484  0.029855455  0.030184287            4 
  884000    1.1120404    -7.304844    316.95975  0.029879313  0.030175209            1 
  885000    1.1192834   -7.2713309    317.36012   0.02988325  0.030166226            1 
  886000    1.1329625   -7.3734257    317.46531  0.029859416  0.030157246            1 
  887000    1.1224239   -7.3148095    317.54974  0.029833685  0.030148197            1 
  888000    1.1227522   -7.3062184    318.06049  0.029848019  0.030139214            1 
  889000    1.1209501   -7.3215183    317.29768   0.02974294   0.03013039            2 
  890000     1.127645   -7.2799278    318.33546  0.029806691  0.030121616            4 
  891000    1.1165161   -7.3076795    319.34608  0.029867759  0.030112687            1 
  892000    1.1127854   -7.3405372    318.44952  0.029750516  0.030103535            2 
  893000    1.1008135   -7.3493875    318.48342  0.029720364   0.03009438            1 
  894000    1.1039186   -7.3542836    318.75312  0.029712259  0.030085275            1 
  895000    1.1106169   -7.3292078    320.19366   0.02981319  0.030076483            1 
  896000    1.1185397   -7.3373468    320.18869  0.029779454  0.030067348            1 
  897000    1.1349538   -7.3151929    320.04961  0.029733334  0.030058426            1 
  898000    1.0789488     -7.32685    320.58934   0.02975031  0.030049299            2 
  899000    1.1107482   -7.3125778    320.66118  0.029723877  0.030040591            1 
  900000    1.1024635   -7.3119927     320.8561  0.029708898  0.030031391            1 
  901000    1.1073806   -7.3068288    320.86425  0.029676678  0.030022634            1 
  902000    1.0878259   -7.3458981    321.52601  0.029704916  0.030013788            1 
  903000    1.1263469   -7.3279696    321.42481   0.02966268  0.030004891            1 
  904000    1.1214657   -7.3714371    321.61472  0.029647375  0.029995803            2 
  905000    1.1200261   -7.3413681    322.84757  0.029728137  0.029986802            2 
  906000    1.1020275   -7.3576714    322.76745  0.029687956  0.029977955            2 
  907000    1.0994008   -7.3345875    321.85551  0.029571436  0.029968949            1 
  908000    1.1019739    -7.324588    322.86694  0.029631695  0.029959797            1 
  909000    1.1094973   -7.3460709    322.51582  0.029566907  0.029950654            2 
  910000    1.1219737   -7.3521277     323.5169   0.02962609  0.029941389            1 
  911000     1.111389   -7.3782523    322.88881  0.029536115  0.029931912            4 
  912000    1.0936378   -7.2881573    324.43749  0.029645239   0.02992271            3 
  913000    1.0973797   -7.2943268    324.58868  0.029626568  0.029913577            1 
  914000    1.0935998   -7.3461697    322.82084  0.029432972  0.029904052            1 
  915000    1.0878048   -7.3292957    324.33158  0.029538395  0.029894478            4 
  916000    1.0775615   -7.3148488     324.7125  0.029540803  0.029885165            3 
  917000    1.1215286   -7.3401324    325.45902  0.029576429  0.029876125            1 
  918000     1.099785   -7.3602944    325.38076  0.029537106  0.029867083            1 
  919000     1.088228   -7.3275718    326.76628  0.029630602  0.029858073            1 
  920000    1.0739651   -7.3373283    326.12798  0.029540577  0.029849596            2 
  921000    1.1220796   -7.3004635    327.75569  0.029655781  0.029840785            1 
  922000    1.1239829   -7.3179476    326.63214  0.029522066  0.029832352            4 
  923000    1.1259434    -7.337738    327.91551  0.029605951  0.029823784            2 
  924000    1.1129369   -7.3142021    328.55718   0.02963178  0.029815551            1 
  925000    1.0869143   -7.2972385    329.74385  0.029706653  0.029807085            1 
  926000    1.1132571   -7.3684105    329.09755   0.02961641  0.029798821            1 
  927000    1.1072607   -7.3248395    329.04399  0.029579647  0.029790348            1 
  928000    1.1157447   -7.3523514    329.33693  0.029574078  0.029782042            1 
  929000    1.1445456   -7.3374257    329.64221  0.029569628  0.029773962            2 
  930000    1.1199387    -7.333934     329.9216  0.029562868  0.029765794            3 
  931000    1.1035277   -7.3262887    330.63715  0.029595162  0.029757693            1 
  932000    1.1041385   -7.3627132    329.79142  0.029487788  0.029749475            3 
  933000    1.0916677   -7.3652916    331.59252  0.029617053  0.029741509            2 
  934000    1.1036177   -7.3516053    332.26619  0.029645448  0.029733677            1 
  935000    1.1112648    -7.339644     331.8375  0.029575535  0.029725993            3 
  936000    1.0939481   -7.3436689    331.87409  0.029547194  0.029718257            1 
  937000    1.0735266    -7.326293    333.38662  0.029650179   0.02971074            2 
  938000    1.0947519   -7.3543663    333.10379  0.029593443   0.02970309            1 
  939000    1.0875996   -7.3352322    332.35841  0.029495776  0.029695557            1 
  940000    1.1263888   -7.3397234    333.43539  0.029559875  0.029688061            5 
  941000    1.0774403   -7.3164247    334.58106   0.02962992  0.029680262            1 
  942000    1.0859524   -7.3540002    334.06506  0.029552819  0.029672638            2 
  943000    1.0986708   -7.3048721    336.06672  0.029698366  0.029665244            1 
  944000    1.1216958   -7.3649546    333.93987  0.029479155  0.029657837            3 
  945000    1.1087952   -7.3197128    335.98919  0.029628677  0.029650421            1 
  946000    1.1166589   -7.3085655    336.45297  0.029638211  0.029643066            2 
  947000    1.0925469   -7.3368468    335.37178  0.029511773  0.029635489            3 
  948000    1.0965208   -7.3217813    336.23274  0.029556324  0.029627825            3 
  949000    1.1324744    -7.333034    336.77664   0.02957294  0.029620079            1 
  950000      1.10855   -7.3143047    336.41534  0.029510117  0.029612595            1 
  951000    1.1053904   -7.3267944    337.46715  0.029571254  0.029604994            1 
  952000    1.1201773   -7.3442972    337.78383  0.029567912   0.02959739            1 
  953000     1.095039   -7.3367459    337.79682  0.029538022  0.029590048            2 
  954000    1.0788557   -7.3323044     337.8669  0.029513182  0.029582333            2 
  955000    1.1064651   -7.3767913    337.61676  0.029460451  0.029574673            1 
  956000    1.1013114   -7.3735691    338.03297  0.029465914  0.029566718            2 
  957000     1.106565    -7.375599    337.10268  0.029354117  0.029558696            1 
  958000     1.098975   -7.3049592    338.48309  0.029443554  0.029550823            1 
  959000     1.083325   -7.3291978    338.62931  0.029425557  0.029543221            1 
  960000    1.0850403   -7.3879036    338.75579  0.029405885  0.029535612            2 
  961000    1.1192739   -7.3429188    340.87269  0.029558853  0.029528078            2 
  962000    1.1200728   -7.3213307    340.41506  0.029488484  0.029520742            1 
  963000    1.0957864   -7.3514953    340.05958  0.029427101  0.029513216            1 
  964000    1.0930431   -7.2971077     341.4086  0.029513192  0.029506011            2 
  965000    1.0842029   -7.3292991    340.64427  0.029416604  0.029498819            2 
  966000    1.0905608   -7.2852727     341.1489  0.029429685  0.029491365            1 
  967000    1.1014991   -7.3746954    341.03352  0.029389307  0.029483926            1 
  968000    1.0862836   -7.3422494    341.44625  0.029394477  0.029476349            3 
  969000    1.0879819   -7.3464153    342.26365  0.029434439   0.02946876            1 
  970000    1.1242708   -7.3438668    342.20178  0.029398778   0.02946141            1 
  971000    1.0949313   -7.3730955    342.19402  0.029367836  0.029453769            1 
  972000    1.1152478   -7.3999504     342.1649  0.029335126  0.029446036            1 
  973000    1.0897726   -7.3541166    342.30075  0.029316611  0.029438346            2 
  974000    1.0888825   -7.3222373    344.03656  0.029435024   0.02943089            1 
  975000    1.1215213   -7.3322224    343.72414  0.029378132  0.029423676            1 
  976000    1.0873113   -7.3350567    342.84569  0.029273027  0.029416283            1 
  977000    1.0939734   -7.3262059    343.95855  0.029337986    0.0294087            4 
  978000    1.1009394   -7.3666043    343.29779  0.029251686  0.029401054            2 
  979000    1.0871988   -7.3435548    345.63162  0.029420464  0.029393513            2 
  980000    1.0892703   -7.3752509    344.08934  0.029259297  0.029385802            2 
  981000    1.1128511   -7.3602733    344.43126  0.029258517  0.029377847            1 
  982000    1.0946387   -7.3565183     344.3379  0.029220799  0.029370108            2 
  983000    1.1203611   -7.3600924    345.23379  0.029267022  0.029362481            1 
  984000    1.1073139    -7.355512    345.69923  0.029276697   0.02935474            1 
  985000    1.1453457   -7.3359109    347.48567  0.029398111  0.029347164            1 
  986000    1.1095464   -7.3507719    346.14624  0.029255092  0.029339557            2 
  987000    1.0668293   -7.3420991    346.60699  0.029264352  0.029331919            1 
  988000    1.0872757   -7.3951926    346.95523  0.029264105  0.029324382            2 
  989000    1.0833997   -7.3708742    347.31584  0.029264901  0.029316773            2 
  990000    1.0995266   -7.3386602    348.24745  0.029313759  0.029309214            1 
  991000    1.0805913   -7.2945022     349.1364  0.029358931  0.029302095            1 
  992000    1.1057871   -7.3984234    347.71476  0.029209909  0.029294981            2 
  993000    1.0942235   -7.3582963    348.05368  0.029208936  0.029287715            4 
  994000    1.0893073   -7.3442272     349.7878  0.029324933  0.029280364            2 
  995000    1.0901824   -7.3303907    349.18409  0.029244899  0.029272963            1 
  996000    1.0894133   -7.3484335    350.72795  0.029344708  0.029265539            2 
  997000    1.0809045   -7.3688175    349.45619  0.029208976  0.029257895            1 
  998000     1.072684     -7.35992    349.64294  0.029195302   0.02925033            2 
  999000    1.0861443   -7.4145641    350.05691   0.02920061  0.029243037            2 
 1000000      1.07738   -7.4028408     350.2174  0.029184783  0.029235532            2 
 1001000    1.1002565   -7.3555717    350.98184  0.029219267  0.029228374            3 
 1002000    1.0778854   -7.3407242    351.76914  0.029255584  0.029221138            1 
 1003000    1.0812269   -7.3274143    351.87486    0.0292352  0.029213828            2 
 1004000    1.0959836   -7.3418814    351.47363  0.029172778  0.029206381            2 
 1005000    1.1003687   -7.3573012    353.01934  0.029271919  0.029199197            1 
 1006000    1.0789897   -7.3442831    352.54746  0.029203733  0.029191966            2 
 1007000     1.090554   -7.3975427    352.06159  0.029134524  0.029184767            1 
 1008000    1.0778322   -7.3954462    351.43549   0.02905386  0.029177615            2 
 1009000    1.0961551   -7.3805156    352.77798  0.029135942  0.029170405            2 
 1010000    1.0712831   -7.4003688    352.15311  0.029055537  0.029162984            2 
 1011000    1.0768119   -7.3983737    352.24992  0.029034778  0.029155535            1 
 1012000    1.0801941    -7.364506    353.69069  0.029124727  0.029148095            1 
 1013000    1.1314568   -7.3605675    354.43865  0.029157507  0.029140717            3 
 1014000    1.0761653   -7.3624568    353.46463  0.029048704  0.029133358            1 
 1015000    1.1002622   -7.3775002     354.1486  0.029076239  0.029125821            2 
 1016000    1.0941254   -7.3261205    354.67201  0.029090552  0.029118282            2 
 1017000    1.0954888   -7.3980352    355.18264  0.029103789  0.029110773            1 
 1018000    1.0855077   -7.3848535    354.58409  0.029026203  0.029103011            1 
 1019000    1.0876471   -7.3554024    355.63575  0.029083722  0.029095436            2 
 1020000     1.077914   -7.3142279    356.11123  0.029094055  0.029088118            1 
 1021000    1.0885079   -7.3962807    355.23657   0.02899417  0.029080381            1 
 1022000    1.1096919   -7.3593189    355.65143  0.028999627  0.029072801            1 
 1023000    1.0991281   -7.3557663    357.43001  0.029116162  0.029065262            1 
 1024000    1.0723984   -7.3412293     356.1771  0.028985766  0.029057688            2 
 1025000    1.0976551   -7.3762897    355.86166  0.028931842  0.029050224            2 
 1026000    1.0737368   -7.3715761    356.75912  0.028976537   0.02904284            1 
 1027000    1.1113958   -7.3847054    357.42733  0.029002542  0.029035262            2 
 1028000    1.0764208   -7.3576972    357.57137  0.028986006   0.02902795            2 
 1029000    1.0940355   -7.3568244    357.90705  0.028985022  0.029020462            2 
 1030000    1.0777286   -7.3445791    359.00184  0.029045456  0.029013258            2 
 1031000    1.0984672   -7.3995555    358.57408   0.02898271   0.02900603            1 
 1032000    1.1039912    -7.366511    358.68801  0.028963825  0.028998845            1 
 1033000     1.074247   -7.3596651    359.84439  0.029029073  0.028991526            5 
 1034000    1.0831288   -7.4005413    358.53946   0.02889583  0.028984119            2 
 1035000    1.0605106   -7.4123717    358.07287  0.028830344  0.028976657            2 
 1036000    1.1068521   -7.4005777    359.52861  0.028919612  0.028969134            1 
 1037000    1.0797409   -7.3928972    359.70933  0.028906247  0.028961749            2 
 1038000    1.0943472   -7.3807598    359.56861  0.028867101  0.028954289            3 
 1039000    1.0975899   -7.3707314    362.11091  0.029043224   0.02894679            5 
 1040000    1.0912621   -7.3541353    360.97608  0.028924365  0.028939396            3 
 1041000    1.0959361   -7.3669151     360.9442  0.028894029  0.028931894            2 
 1042000    1.0510951   -7.3783732    361.25866  0.028891448  0.028924625            1 
 1043000    1.0778063   -7.3693725     361.5457  0.028886681  0.028917316       -1e+20 
 1044000    1.0936362   -7.3784586    361.55077  0.028859417  0.028909899            1 
 1045000    1.1019741   -7.3735077      362.575  0.028913477  0.028902589            2 
 1046000    1.0997481   -7.3845017    362.47002  0.028877471  0.028895305            1 
 1047000    1.0655895   -7.3590317    363.18385  0.028906706   0.02888798            2 
 1048000    1.0863589   -7.3851617    363.49054   0.02890351  0.028880485            1 
 1049000    1.0854384   -7.3530222    364.03881  0.028919512  0.028873251            2 
 1050000      1.09057   -7.3439558    364.07175  0.028894584   0.02886604            2 
 1051000    1.1150948   -7.3232305    365.00059  0.028940738  0.028858958            1 
 1052000    1.0952594   -7.3954968    363.01333  0.028755809  0.028851794            1 
 1053000    1.0784174   -7.4119661    363.37631  0.028757226  0.028844329            2 
 1054000    1.0981439   -7.3670751    365.00185  0.028858464   0.02883688            2 
 1055000    1.0742982     -7.38507    364.79806  0.028815013    0.0288294            1 
 1056000    1.0999579   -7.3408821    365.76051  0.028863677  0.028821997            3 
 1057000    1.0938483   -7.3780782    364.91745  0.028769903  0.028814961            2 
 1058000    1.0754782   -7.3834326    366.13439  0.028838562  0.028807516            2 
 1059000    1.0716606   -7.4166496    366.46675  0.028837484  0.028800322            2 
 1060000    1.0995038   -7.4024119    366.28936  0.028796333  0.028793364            2 
 1061000    1.1076702   -7.4215407    366.19299  0.028761624  0.028786255            3 
 1062000      1.10522   -7.3917327    366.88052   0.02878849   0.02877924            2 
 1063000    1.0505656   -7.3612789    367.91153  0.028842233   0.02877232            3 
 1064000    1.1085445   -7.3609159    367.81037  0.028807203  0.028765336            2 
 1065000    1.0789932   -7.3905526    368.20729  0.028811212  0.028758336            1 
 1066000    1.0647246   -7.3630385    368.26617  0.028788787  0.028751468            3 
 1067000    1.0715079     -7.36506    369.75238   0.02887788  0.028744404            2 
 1068000    1.0783536   -7.3924947    368.47981  0.028751546  0.028737602            3 
 1069000    1.0782836   -7.4483734    368.08614  0.028693962  0.028730602            1 
 1070000    1.1021223   -7.3617696    369.22848  0.028756112  0.028723506            1 
 1071000    1.0714234   -7.4116847    369.13901  0.028722301  0.028716486            1 
 1072000    1.0964558   -7.3522501    369.29317  0.028707492  0.028709536            1 
 1073000    1.0897569   -7.3545389    370.90339  0.028805793  0.028702641            3 
 1074000    1.0745371   -7.4076144    369.99402  0.028708412  0.028695428            4 
 1075000    1.0758044    -7.407211    370.89216   0.02875133  0.028688249            1 
 1076000    1.0656982   -7.4097167    369.37599  0.028607187  0.028681178            1 
 1077000    1.0665372   -7.4057555     370.7225  0.028684811  0.028673975            2 
 1078000    1.0787169   -7.3658006    370.98679  0.028678632  0.028666699            2 
 1079000    1.0849866   -7.3987574    370.42587  0.028608733   0.02865952            1 
 1080000    1.0802264    -7.377353    373.00285  0.028781084  0.028652326            2 
 1081000    1.0718955   -7.4094411     371.3634  0.028628076  0.028645143            2 
 1082000    1.0620579   -7.4144417    371.54781   0.02861582  0.028637949            2 
 1083000    1.0747161   -7.3740341    373.66338  0.028752184  0.028631033            3 
 1084000    1.0534011   -7.3904908    372.02157  0.028599444  0.028624033            2 
 1085000    1.0614095   -7.4235528    372.15231  0.028583127  0.028616743            2 
 1086000     1.110312   -7.3849115    372.11188  0.028553705  0.028609388            1 
 1087000    1.0964267   -7.4422667    372.75667  0.028576868  0.028601905            1 
 1088000    1.0775779   -7.3980921    373.20774  0.028585152  0.028594604            1 
 1089000     1.087319   -7.3730388    373.21668  0.028559587  0.028587163            2 
 1090000    1.0752037    -7.398973    373.70428  0.028570664  0.028579949            1 
 1091000    1.0609441   -7.3655507    374.41994   0.02859914   0.02857266            1 
 1092000    1.0960059   -7.3933209    374.14263  0.028551788  0.028565246            1 
 1093000    1.0710959   -7.3679903    374.57025  0.028558268  0.028557979            1 
 1094000    1.0857976   -7.3898732    374.80447  0.028550005  0.028550664            4 
 1095000     1.080144   -7.4343097    374.63167  0.028510782  0.028543361            1 
 1096000    1.0915509    -7.407357    374.61403  0.028483427  0.028536102            2 
 1097000    1.0584104   -7.3968539    375.76979  0.028545259   0.02852878            4 
 1098000    1.0789162    -7.405855    375.70768  0.028514548  0.028521607            3 
 1099000    1.0887156   -7.4247016    374.51974  0.028398525  0.028514402            1 
 1100000     1.093309   -7.3889393    376.43959  0.028518151  0.028507218            2 
 1101000    1.0853494   -7.4249106    375.67625  0.028434472  0.028500065            1 
 1102000    1.0851327   -7.4112659    376.51101  0.028471795  0.028492896            1 
 1103000    1.0927794   -7.3963962    375.15539  0.028343562  0.028485525            1 
 1104000    1.0964891   -7.3809848    376.96726  0.028454654  0.028478183            2 
 1105000     1.079921   -7.3850969    378.18301  0.028520589  0.028471031            1 
 1106000    1.0657589   -7.4480314    376.27398  0.028350963  0.028463777            5 
 1107000    1.0786788   -7.4098116    377.14487  0.028390911   0.02845625            2 
 1108000    1.0603979   -7.4091695    377.28222  0.028375618  0.028448749            1 
 1109000    1.0744757   -7.4261825    377.06216  0.028333496  0.028441213            4 
 1110000    1.1037568   -7.4061242    377.32307  0.028327557  0.028433631            1 
 1111000    1.0606572   -7.4160218    378.66127  0.028402435  0.028426163            1 
 1112000    1.0765294   -7.3704249    379.17239  0.028415197  0.028418787            1 
 1113000    1.0902085     -7.36411    380.98171  0.028525136   0.02841152            1 
 1114000    1.0784593   -7.4040203    378.67367  0.028326875  0.028404192            1 
 1115000    1.0782639   -7.4151273    379.09605  0.028333038  0.028396709            2 
 1116000    1.0704949   -7.4582886    377.68896  0.028202581  0.028389042            1 
 1117000    1.0517995   -7.4010628    380.20439  0.028364995  0.028381638            1 
 1118000    1.0390824   -7.3833833     381.3331  0.028423755  0.028374307            1 
 1119000    1.0836856   -7.4494983    380.61748  0.028345061  0.028366914            2 
 1120000    1.0886052   -7.3938941     380.9669  0.028345751  0.028359696            1 
 1121000    1.0971428   -7.3852265    382.54841  0.028438032  0.028352839            2 
 1122000    1.0839174   -7.4312139    381.38345  0.028326163  0.028345812            1 
 1123000    1.0715725   -7.4189914    382.70051  0.028398672  0.028338737            1 
 1124000    1.0906528   -7.4568396    382.38861  0.028350283  0.028331706            2 
 1125000    1.0658282   -7.3935157    382.71607  0.028349338  0.028324804            2 
 1126000    1.0759695    -7.404079    384.00617   0.02841964   0.02831783            1 
 1127000    1.0696795   -7.4620353     383.5213   0.02835857  0.028310841            2 
 1128000    1.0629682   -7.4431716    383.12065  0.028303831  0.028303741            2 
 1129000    1.0804744   -7.4039854    384.83043  0.028404962  0.028296775            3 
 1130000     1.060487   -7.4358547    384.59647  0.028362572  0.028289893            2 
 1131000     1.089701   -7.3718877    385.79037  0.028425462  0.028282961            2 
 1132000    1.0587077    -7.434509    384.69515  0.028319725  0.028276207            2 
 1133000    1.0550144   -7.4174308    385.80779  0.028376566  0.028269483            1 
 1134000    1.0723858   -7.4245576    385.63904  0.028339141  0.028262744            2 
 1135000     1.068603   -7.3977153    385.53467   0.02830651  0.028255842            1 
 1136000      1.07977   -7.3949976    385.78351  0.028299846  0.028249026            2 
 1137000    1.0583168   -7.4220392    385.28415  0.028238358  0.028242024            1 
 1138000    1.0786306    -7.423487    386.21577  0.028281764  0.028235215            1 
 1139000    1.0763865   -7.4133461    386.12145  0.028250033   0.02822835            1 
 1140000    1.0588496   -7.3693527    388.57246   0.02840442  0.028221486            2 
 1141000    1.0527105   -7.4380563    387.67696  0.028314122  0.028214845            1 
 1142000    1.0702601   -7.4054222    387.90629  0.028306063   0.02820807            1 
 1143000    1.0467129   -7.4150439    387.88028  0.028279402  0.028201332            1 
 1144000    1.0751394   -7.3633303     389.9916  0.028408479  0.028194923            1 
 1145000    1.0802077   -7.3945085    388.56825  0.028280076  0.028188535            2 
 1146000    1.0599574   -7.3892098    389.66272  0.028334986  0.028182048            2 
 1147000    1.0521432   -7.3607984    390.60568  0.028378791   0.02817562            1 
 1148000    1.0608414   -7.4253816    389.30094   0.02825936  0.028169093            2 
 1149000    1.0604478   -7.4300744    390.85301  0.028347332  0.028162518            2 
 1150000    1.1052643   -7.4107302    391.08605  0.028339569  0.028156146            2 
 1151000    1.0656991   -7.4145207    391.23835  0.028325973    0.0281498            2 
 1152000    1.0917775   -7.4274371    391.59852  0.028327439  0.028143508            3 
 1153000    1.0593535   -7.4484648     390.0875  0.028193662  0.028137069            2 
 1154000    1.0503796   -7.4052157    391.36083  0.028261181  0.028130377            2 
 1155000    1.0624125   -7.4443082    390.79296   0.02819574  0.028123843            1 
 1156000    1.0691747   -7.4153124    392.20493  0.028273135  0.028117146            1 
 1157000    1.0551612   -7.4450317    391.58072   0.02820374   0.02811064            1 
 1158000    1.0810316   -7.3865222    392.45948  0.028242622   0.02810403            1 
 1159000    1.0820319    -7.409574    392.12463  0.028194178  0.028097557            1 
 1160000    1.0543556   -7.4310441    392.88656  0.028224609  0.028090993            3 
 1161000    1.0618597   -7.4037939    392.63944  0.028182561  0.028084503            3 
 1162000    1.0917372    -7.452833    392.70577  0.028163064  0.028077977            2 
 1163000    1.0860656   -7.4602155     392.9122   0.02815364  0.028071386            1 
 1164000    1.0782421   -7.4080423     393.6199  0.028180119  0.028064868            1 
 1165000    1.0309772   -7.4030112    394.69686  0.028232966  0.028058464            2 
 1166000    1.0551871   -7.3962896    393.34722  0.028112294  0.028052046            2 
 1167000    1.0510978   -7.4033434     395.0298  0.028208355  0.028045625            1 
 1168000    1.0519545   -7.4298455    395.62173  0.028226436  0.028039323            1 
 1169000    1.0814276   -7.4463913    395.45095  0.028190116  0.028032806            3 
 1170000    1.0712993   -7.4477149    394.63029  0.028107571  0.028026411            2 
 1171000    1.0708398    -7.408107    395.40948  0.028139018  0.028020095            2 
 1172000    1.0744646   -7.4149921    395.83878  0.028145533  0.028013866            1 
 1173000    1.0577019   -7.3987786     397.2617  0.028222627  0.028007385            1 
 1174000     1.076664   -7.4435395    396.69639   0.02815846  0.028001048            1 
 1175000    1.0278182   -7.3747562    398.38961  0.028254583  0.027994751            2 
 1176000    1.0721994   -7.3845508    397.90239  0.028196031  0.027988375            1 
 1177000    1.0460494    -7.435676    397.65663  0.028154675  0.027982056            1 
 1178000    1.0687949   -7.4267488    398.12718  0.028164062  0.027975811            4 
 1179000    1.0579441   -7.3816382    398.13614  0.028140807  0.027969657            1 
 1180000    1.0515526   -7.4498819    397.39139  0.028064364   0.02796338            1 
 1181000    1.0543187   -7.4352985    397.09642  0.028019787   0.02795693            2 
 1182000    1.0650695   -7.4103975     399.2862  0.028150465  0.027950879            1 
 1183000    1.0493516    -7.413533    399.79138  0.028162256  0.027944933            1 
 1184000    1.0577828   -7.4060794    400.35115  0.028177868  0.027938835            2 
 1185000    1.0637397   -7.3846519    400.80357  0.028185905  0.027933013            2 
 1186000    1.0573633   -7.4160135    401.30346  0.028197264  0.027926904            1 
 1187000    1.0625396   -7.4583881    400.66408  0.028128621  0.027920792            3 
 1188000     1.072193   -7.4353287     401.4967  0.028163349  0.027914589            1 
 1189000    1.0604841   -7.4375902    401.08881  0.028111074  0.027908371            1 
 1190000    1.0403145   -7.4115332    401.78712  0.028136353  0.027902158            2 
 1191000    1.0444822   -7.4186448    401.73102  0.028108804  0.027895988            1 
 1192000    1.0565235   -7.4567657    400.87607  0.028025452  0.027889496       -1e+20 
 1193000    1.0524159   -7.4390857    400.76607  0.027994277  0.027883059            2 
 1194000    1.0745866   -7.4309022    401.18783  0.028000267   0.02787659            2 
 1195000    1.0589994   -7.4330679    401.88907  0.028025737  0.027870315            1 
 1196000    1.0620885   -7.4677374    402.49126  0.028044263  0.027864119            2 
 1197000     1.042727   -7.4739656    402.34855  0.028010899  0.027857747            1 
 1198000    1.0575609   -7.4055076    403.15527  0.028043633   0.02785144            3 
 1199000     1.034717   -7.4244626     402.9768   0.02800784  0.027845049            3 
 1200000    1.0695345   -7.4523809    402.71634  0.027966413  0.027838642            1 
 1201000    1.0250354   -7.4087848      403.428  0.027992506  0.027832245            1 
 1202000    1.0341409   -7.4319201    403.58673  0.027980222  0.027825783            3 
 1203000    1.0520631   -7.4111584    404.48682  0.028019314  0.027819474            3 
 1204000    1.0699321   -7.4323936    404.36368  0.027987519  0.027813095            2 
 1205000    1.0565706   -7.3995052    403.11845  0.027878178  0.027806737            2 
 1206000    1.0601379    -7.417454    404.81895  0.027972565  0.027800334            2 
 1207000    1.0447802   -7.4025746    404.78676  0.027947166  0.027794011            3 
 1208000    1.0816335   -7.4261526    406.51996  0.028043596  0.027787604            3 
 1209000    1.0584008   -7.4226615    404.89798  0.027908601  0.027781191            2 
 1210000    1.0509144    -7.497518    404.11542   0.02783164  0.027774706            2 
 1211000    1.0311436   -7.4555944    404.73262   0.02785113  0.027768045            1 
 1212000    1.0579947   -7.4122458    406.08137  0.027920886  0.027761574            2 
 1213000    1.0396999   -7.4320839    407.15415  0.027971569  0.027755123            2 
 1214000    1.0624941   -7.4412787    406.96392  0.027935469  0.027748656            1 
 1215000    1.0530343   -7.4444548    405.71666  0.027826932  0.027742159            2 
 1216000     1.046213    -7.427499    406.46057  0.027855028  0.027735745            1 
 1217000    1.0278205   -7.4424653    406.90233  0.027862389  0.027729282            1 
 1218000     1.047074   -7.4419699    407.08891  0.027852279  0.027722565            3 
 1219000    1.0561134   -7.4881368    406.63097  0.027798125  0.027716066            1 
 1220000    1.0722921   -7.4512024    406.79471  0.027786524  0.027709498            4 
 1221000     1.048164   -7.4260035     408.3752  0.027871635  0.027702949            3 
 1222000    1.0703765   -7.4111913    408.06074  0.027827383  0.027696521            2 
 1223000    1.0363561   -7.4354211    408.07407  0.027805538  0.027690195            1 
 1224000    1.0427037   -7.4644587    408.18628   0.02779046   0.02768366            2 
 1225000    1.0560137   -7.4434883    409.74138  0.027873563  0.027677246            2 
 1226000    1.0521958   -7.4276433    409.09571   0.02780694  0.027670912            1 
 1227000    1.0766239   -7.4779243    408.99507  0.027777443  0.027664512            4 
 1228000    1.0522065   -7.4393563    410.13325  0.027832061  0.027658082            1 
 1229000    1.0646152    -7.421207    410.97971   0.02786681  0.027651534            1 
 1230000    1.0674614   -7.4447453    409.23581  0.027726003  0.027644944            2 
 1231000    1.0429545   -7.4301531    409.35513  0.027711558  0.027638403            4 
 1232000    1.0614975   -7.4229463    410.75702  0.027783889  0.027631856            1 
 1233000    1.0350037   -7.4525914    411.09885  0.027784458   0.02762525            2 
 1234000    1.0194369   -7.4416237    411.18954  0.027768068  0.027618714            2 
 1235000    1.0542685   -7.4254428    411.56725   0.02777107  0.027612104            3 
 1236000    1.0461395   -7.4652303    410.83968  0.027699547  0.027605465            2 
 1237000    1.0652693   -7.4861245    410.45792  0.027651436  0.027598937            2 
 1238000    1.0454172   -7.4565393    411.61309  0.027706858  0.027592428            3 
 1239000    1.0568938   -7.4379129    413.21155  0.027792007  0.027586034            3 
 1240000    1.0752677   -7.4642034    411.81794  0.027675937  0.027579639            3 
 1241000    1.0337948   -7.4623934    412.41719  0.027693875   0.02757313            2 
 1242000    1.0751592   -7.4513893    411.39813  0.027603203  0.027566479            1 
 1243000    1.0669784   -7.4770432    412.89513  0.027681358  0.027559832            2 
 1244000    1.0356281   -7.4370216    413.67272  0.027711195   0.02755325            3 
 1245000    1.0696736   -7.4641891    412.79533   0.02763021  0.027546675            1 
 1246000    1.0490425   -7.4405388    414.26979  0.027706647  0.027540224            2 
 1247000    1.0431096   -7.4716465    414.94606  0.027729622  0.027533835            2 
 1248000    1.0607881   -7.4556816    414.22823   0.02765947  0.027527271            1 
 1249000    1.0482272   -7.4601035    414.10307  0.027628975  0.027520775            2 
 1250000    1.0358969   -7.4675335    414.85188  0.027656792  0.027514252            3 
 1251000    1.0699724   -7.4339524    415.25131  0.027661291  0.027507857            2 
 1252000    1.0778129   -7.4723995    415.15274  0.027632637  0.027501415            2 
 1253000    1.0454961   -7.4547271     415.1242  0.027608686  0.027494877            2 
 1254000    1.0469299   -7.4284072    416.71914   0.02769266  0.027488354            4 
 1255000    1.0356297   -7.4456554     416.1446  0.027632443  0.027481871            3 
 1256000    1.0428871   -7.4412416    416.76308  0.027651478  0.027475399            1 
 1257000    1.0635982   -7.4278827    416.66017  0.027622657  0.027469142            1 
 1258000    1.0332145   -7.4761115    416.12084  0.027564974  0.027462518            1 
 1259000    1.0412851   -7.4675602    417.22342  0.027616059  0.027455847            1 
 1260000    1.0612403   -7.4191645    416.71677  0.027560633  0.027449394            2 
 1261000    1.0577397   -7.4547263    416.74809  0.027540847  0.027442738            1 
 1262000    1.0321788   -7.4223523    417.42245  0.027563553  0.027436223            2 
 1263000    1.0512776   -7.4707622    417.76838  0.027564554  0.027429606            3 
 1264000    1.0388772   -7.4668154    417.70331  0.027538456  0.027423041            3 
 1265000     1.048543   -7.4726787    417.52674  0.027505055  0.027416462            1 
 1266000    1.0392495   -7.4622357    419.93596  0.027641914  0.027409976            1 
 1267000    1.0568727   -7.4728884    419.92814  0.027619583  0.027403567            2 
 1268000     1.044468   -7.4425896    419.47587  0.027568078  0.027397263            1 
 1269000    1.0482794    -7.499828     418.4043  0.027475985  0.027390917            2 
 1270000    1.0510644   -7.4560856    419.97722   0.02755756  0.027384406            8 
 1271000    1.0574607   -7.4311701    419.71505  0.027518689  0.027377735            1 
 1272000    1.0866157   -7.4538902    420.50505  0.027548811  0.027371197            2 
 1273000    1.0180801   -7.4679766    419.00358  0.027428881  0.027364454            2 
 1274000    1.0258978   -7.4725202    419.87377  0.027464271   0.02735759            2 
 1275000    1.0369228   -7.4691745    419.76446  0.027435586  0.027350838            5 
 1276000    1.0621692   -7.4505988    420.23867  0.027445054  0.027344087            3 
 1277000     1.037484   -7.4509188    420.58938  0.027446448  0.027337433            1 
 1278000    1.0479116   -7.4415907    420.06811  0.027390983  0.027330675            2 
 1279000    1.0470966   -7.4542778    420.82926   0.02741916  0.027323891            2 
 1280000    1.0568594   -7.4651859     421.0193  0.027410111  0.027317009            2 
 1281000    1.0558313   -7.4808047    421.71969  0.027434276  0.027310408            2 
 1282000    1.0444879   -7.4377927    421.23958  0.027381668   0.02730376            2 
 1283000    1.0527274    -7.444474    421.91881  0.027404443  0.027297016            3 
 1284000    1.0543379   -7.4744933    421.13964  0.027332531  0.027290076            2 
 1285000    1.0583155   -7.4776726    420.43302  0.027265436  0.027283193            2 
 1286000    1.0337464   -7.4770174    420.94871  0.027277651   0.02727613            2 
 1287000    1.0220501   -7.4832016    422.02882  0.027326394  0.027269089            2 
 1288000    1.0425163   -7.4476475     420.9557  0.027235747  0.027262106            2 
 1289000    1.0368675   -7.4628364    422.53477  0.027316703  0.027255299            1 
 1290000    1.0894471   -7.4585468    422.34192   0.02728307  0.027248547            2 
 1291000    1.0512926   -7.5175242    422.92114  0.027299325  0.027241776            4 
 1292000    1.0361328   -7.4652502    423.32406  0.027304184  0.027235082            2 
 1293000    1.0460156   -7.4430333    423.16997  0.027273136  0.027228387            1 
 1294000    1.0535602   -7.4854698    423.05825  0.027244864  0.027221689            2 
 1295000     1.051997   -7.4776376    425.19732  0.027361475  0.027214968            2 
 1296000    1.0464009   -7.4883184    424.82035  0.027316123  0.027208239            1 
 1297000     1.039321   -7.4638082    424.86339  0.027297827  0.027201587            1 
 1298000     1.065113   -7.4970199    424.91075  0.027279838  0.027194969            1 
 1299000     1.049485    -7.427724    425.62118  0.027304412   0.02718829            2 
 1300000    1.0346367    -7.459314    424.60121  0.027218026  0.027181692            2 
 1301000    1.0579403   -7.4548708    424.68932  0.027202749  0.027174973            2 
 1302000    1.0654883   -7.4865356    425.19677  0.027214335  0.027168217            1 
 1303000    1.0375436   -7.4861673    425.48099  0.027211626  0.027161417            1 
 1304000    1.0629102   -7.4980998    426.08132  0.027229123  0.027154618            4 
 1305000    1.0283324   -7.4674152    425.54146  0.027173784  0.027147911            2 
 1306000    1.0503406   -7.5028799     427.0206  0.027247358  0.027141105            2 
 1307000    1.0475552   -7.4405524    427.64409  0.027266265  0.027134466            3 
 1308000     1.034733   -7.4464749    427.23792  0.027219541   0.02712786            1 
 1309000    1.0433383    -7.486065    427.04626  0.027186546  0.027121049            2 
 1310000    1.0709257   -7.4386385    427.13955  0.027171727  0.027114396            2 
 1311000    1.0537246     -7.46641    427.35947   0.02716498  0.027107673            2 
 1312000    1.0534901    -7.482466    428.59411  0.027222695  0.027100945            1 
 1313000    1.0626955   -7.4476254    428.26851  0.027181297  0.027094286            1 
 1314000    1.0366287   -7.4789326     428.8131  0.027195148  0.027087488            2 
 1315000     1.050146   -7.4942284    428.00129  0.027123022  0.027080836            2 
 1316000    1.0273213   -7.4659402     429.5861  0.027202767   0.02707428            2 
 1317000    1.0578667   -7.4606431    429.74231  0.027191996  0.027067501            1 
 1318000    1.0291887   -7.4589214    430.72441   0.02723346  0.027060769            2 
 1319000    1.0487682   -7.5007948    429.03251  0.027105921  0.027053912            1 
 1320000    1.0224261   -7.4783516    429.48623   0.02711403  0.027047024            2 
 1321000    1.0470018   -7.4457955    430.13366  0.027134347  0.027040312            2 
 1322000     1.064534   -7.4941143    429.92271  0.027100524  0.027033562            2 
 1323000    1.0446718   -7.4786657    429.86613  0.027076476  0.027026856            1 
 1324000    1.0325017   -7.5140568    429.93676  0.027060471  0.027020175            2 
 1325000    1.0513623   -7.4466734    431.65607   0.02714818  0.027013328            2 
 1326000    1.0426325    -7.483265    430.63776  0.027063711   0.02700668            3 
 1327000    1.0561657   -7.4977342     431.3399  0.027087409  0.026999836            3 
 1328000    1.0436703   -7.5223469    431.01121  0.027046386  0.026992997            3 
 1329000    1.0629004   -7.4820324    431.43104   0.02705236  0.026986316            1 
 1330000    1.0264786   -7.4735394    433.05118  0.027133532  0.026979533            1 
 1331000    1.0298931   -7.4896328    432.43814  0.027074764  0.026972756            2 
 1332000    1.0494529   -7.5182723    432.28348  0.027044762   0.02696602            1 
 1333000     1.045908   -7.4856752    432.46694  0.027035943  0.026959219            1 
 1334000    1.0203701   -7.4850509    431.93407  0.026982388  0.026952317            2 
 1335000    1.0445843   -7.5041098    432.69614  0.027009746  0.026945429            1 
 1336000    1.0261203   -7.4786303    433.69814   0.02705203  0.026938585            2 
 1337000    1.0476303   -7.5139445    432.20803   0.02693892  0.026931626            3 
 1338000    1.0156574   -7.4850212    432.84148  0.026958238  0.026924598            5 
 1339000    1.0135651   -7.4590998     433.1944   0.02696007  0.026917494            3 
 1340000    1.0415169    -7.498539    432.08994  0.026871265  0.026910439            3 
 1341000    1.0358373   -7.4829026     432.8095  0.026895942  0.026903317            1 
 1342000    1.0307974   -7.4940164     433.0254  0.026889307  0.026896167            1 
 1343000    1.0466888   -7.4803918    433.60547  0.026905279  0.026889191            2 
 1344000     1.043936    -7.495775    434.34021  0.026930817  0.026881955            2 
 1345000    1.0617623   -7.4879964    434.06871  0.026893972  0.026874952            2 
 1346000    1.0399659   -7.4804697    435.11332  0.026938665  0.026867874            1 
 1347000    1.0274519   -7.4910503    434.96979  0.026909787  0.026860831            2 
 1348000    1.0403818   -7.5121906    434.32993  0.026850268  0.026853854            2 
 1349000    1.0415932   -7.5142346    433.82063  0.026798903  0.026846652            1 
 1350000     1.047615   -7.4977176    435.80573  0.026901588  0.026839661            1 
 1351000    1.0224562   -7.5122169    435.36673  0.026854597  0.026832664            1 
 1352000     1.048724   -7.4561329    436.22714  0.026887767  0.026825762            1 
 1353000    1.0129973   -7.4978652    434.94311  0.026788809  0.026818723            2 
 1354000    1.0396222   -7.4948472    436.14662  0.026843095  0.026811769            2 
 1355000    1.0273211   -7.4921884    437.69349  0.026918419  0.026804772            2 
 1356000    1.0340166   -7.4682907    437.01189   0.02685668  0.026797779            3 
 1357000     1.037861   -7.5089936    435.78686  0.026761659  0.026790751            1 
 1358000    1.0369851   -7.5202488     436.4514  0.026782732  0.026783591            2 
 1359000    1.0424373    -7.477639    438.65322  0.026898039  0.026776603            2 
 1360000      1.03014   -7.4667817    437.29039  0.026794754  0.026769747            3 
 1361000    1.0482741   -7.5334507    435.69716  0.026677514  0.026762747            1 
 1362000    1.0224636   -7.5010483     437.6676  0.026778488   0.02675572            1 
 1363000    1.0185238   -7.4735579    439.00859  0.026840829  0.026748754            2 
 1364000    1.0267489    -7.507054    438.06134  0.026763278  0.026741901            1 
 1365000     1.029725   -7.5221362    438.01013  0.026740545  0.026734999            1 
 1366000    1.0330007    -7.479936    440.55973  0.026876508  0.026728147            2 
 1367000    1.0264371   -7.5074081    439.69344  0.026804038  0.026721223            1 
 1368000     1.026808   -7.4684252    439.90995  0.026797633  0.026714347            3 
 1369000    1.0179566   -7.4642848    439.18817  0.026734123  0.026707444            1 
 1370000    1.0270149   -7.5228205    439.41304  0.026728287  0.026700476            3 
 1371000    1.0289506   -7.4942695    440.14707  0.026753408  0.026693507            1 
 1372000    1.0472719    -7.521905    440.22104  0.026738401  0.026686471            1 
 1373000    1.0235174   -7.4852817    440.80958  0.026754648  0.026679492            4 
 1374000    1.0601156   -7.4862644     441.2094  0.026759425  0.026672671            2 
 1375000    1.0376493   -7.4886495    440.03044  0.026668512   0.02666574            2 
 1376000    1.0385473   -7.4936576    440.22361  0.026660829  0.026658754            3 
 1377000     1.019057   -7.5278107    441.18612  0.026699717  0.026651818            1 
 1378000    1.0193058   -7.4885801    441.80636  0.026717849  0.026645025            1 
 1379000    1.0344373   -7.5019579     441.7168  0.026693063  0.026638157            2 
 1380000    1.0168446   -7.5063706    442.45951   0.02671857  0.026631217            1 
 1381000    1.0371564   -7.5031869    441.69478  0.026653076  0.026624303            1 
 1382000    1.0515945   -7.5112777    442.24178  0.026666774   0.02661727            1 
 1383000    1.0293902   -7.4526192    443.22591  0.026706791    0.0266103            5 
 1384000    1.0196394   -7.4976873    442.75203  0.026658961  0.026603441            4 
 1385000    1.0365631   -7.5056833    441.55129  0.026567467   0.02659647            2 
 1386000    1.0365149   -7.5265403    442.67933  0.026616121  0.026589575            1 
 1387000    1.0204007   -7.4784904     443.5602  0.026649856  0.026582546            2 
 1388000    1.0265804    -7.527266     442.5781  0.026571692   0.02657562            2 
 1389000    1.0070192   -7.5185378    443.54389  0.026610505  0.026568759            4 
 1390000    1.0243681   -7.4946328    444.54389  0.026651312  0.026561867            2 
 1391000    1.0233306   -7.4706146    444.74383  0.026644131   0.02655517            1 
 1392000    1.0094967   -7.4815737    445.48013  0.026669069  0.026548497            3 
 1393000    1.0340503   -7.4887647    444.82206  0.026610556  0.026541847            2 
 1394000    1.0137557   -7.5235455    444.70686   0.02658458  0.026535083            1 
 1395000    1.0410564   -7.4927592    445.53942  0.026615258  0.026528316            3 
 1396000    1.0266742   -7.5468992    445.64984  0.026602784  0.026521553            1 
 1397000    1.0385263   -7.5049236    444.55397  0.026518371  0.026514683            1 
 1398000    1.0279144   -7.4385852    447.04665  0.026647988  0.026508003            2 
 1399000     1.031513   -7.5065843    445.43406  0.026532884  0.026501251            1 
 1400000     1.047135   -7.5152386    447.28074  0.026623854  0.026494408            1 
 1401000    1.0352608   -7.4915499    447.16102  0.026597729  0.026487656            1 
 1402000    1.0198182   -7.5230872    447.64086  0.026607279  0.026480888            2 
 1403000    1.0514782   -7.5850578    446.90997  0.026544902  0.026473923            2 
 1404000    1.0194395   -7.5507375    446.56307  0.026505405  0.026466922            1 
 1405000     1.012137   -7.5313679     447.1187  0.026519496   0.02646004            2 
 1406000    1.0273749   -7.4955489    448.55183  0.026585576  0.026453185            1 
 1407000    1.0177987   -7.5449271     447.1862  0.026485797  0.026446309            1 
 1408000    1.0227515   -7.5331043    446.35636  0.026417872  0.026439243            2 
 1409000    1.0118164    -7.496382    448.92654  0.026551132  0.026432224            3 
 1410000     1.017718   -7.5338014    447.02956  0.026420187  0.026425215            1 
 1411000    1.0085744   -7.5227419    446.69775  0.026381866  0.026418191            1 
 1412000    1.0148142   -7.5257128    447.01651  0.026381994  0.026411234            1 
 1413000    1.0310285   -7.4974268    449.58622  0.026514875  0.026404316            1 
 1414000     1.040068   -7.5242844    448.46981  0.026430328  0.026397322            2 
 1415000    1.0118409   -7.5367978    447.70499  0.026366607  0.026390341            3 
 1416000    1.0415677   -7.5368009    448.63127    0.0264025  0.026383404            2 
 1417000    1.0142182   -7.4929025    448.51603   0.02637709  0.026376418            2 
 1418000    1.0510255   -7.5079679    448.82914  0.026376889  0.026369412            1 
 1419000    1.0259667   -7.4857992    449.34831   0.02638879  0.026362452            1 
 1420000    1.0436217   -7.5290246    450.02757  0.026410068  0.026355444            2 
 1421000    1.0112674   -7.4999453    449.55624  0.026363842  0.026348398            2 
 1422000    1.0037186   -7.5283131    449.49383  0.026341645  0.026341421            1 
 1423000    1.0384678   -7.4656111    451.12389  0.026418593  0.026334573            2 
 1424000    1.0228991   -7.5250807      450.825  0.026382549   0.02632756            1 
 1425000    1.0229658   -7.5370227    449.79551  0.026303831  0.026320431            2 
 1426000    1.0320007   -7.5118511    450.29697   0.02631469  0.026313357            1 
 1427000    1.0449879   -7.5186373    450.67204  0.026318152  0.026306298            2 
 1428000    1.0138029   -7.5128024    452.00638   0.02637759  0.026299162            3 
 1429000    1.0264363   -7.4934697    451.87006  0.026351181  0.026292182            2 
 1430000    1.0392603   -7.5227976    452.01225   0.02634104  0.026285118            2 
 1431000    1.0403153   -7.5182268    452.59258  0.026356428  0.026278053            1 
 1432000    1.0190235   -7.5058863    450.35623  0.026207881  0.026270869            3 
 1433000    1.0209572   -7.5489661     451.4897  0.026255507  0.026263771            1 
 1434000    1.0164832   -7.5130637    451.69231  0.026248972  0.026256635            2 
 1435000    1.0369758   -7.5710714    451.72858  0.026232786  0.026249539            3 
 1436000    1.0093902   -7.5628092    451.87131  0.026222801  0.026242217            1 
 1437000    1.0070545   -7.5464477    451.49207   0.02618256  0.026234991            4 
 1438000    1.0253485   -7.5268877    452.49758  0.026222623   0.02622782            1 
 1439000   0.99798739   -7.5016977    452.51433   0.02620537  0.026220671            1 
 1440000    1.0019895    -7.532647    452.78158  0.026202638  0.026213451            2 
 1441000    1.0128505   -7.5352833    452.71633  0.026180681  0.026206288            2 
 1442000    1.0228857   -7.5027695    453.68891   0.02621873  0.026199215            1 
 1443000    1.0044596   -7.5251304    454.92237  0.026271793  0.026192251            2 
 1444000     1.016939   -7.5692906    452.93042  0.026138644  0.026185183            2 
 1445000      1.04222   -7.5470464    453.63424  0.026161144  0.026178181            1 
 1446000    1.0290545   -7.5083101     455.2765  0.026237696  0.026171238            2 
 1447000   0.98818212   -7.5295269    455.02406  0.026205025  0.026164285            2 
 1448000    1.0324417   -7.5347857    454.26244  0.026143096  0.026157514            3 
 1449000    1.0333934   -7.5312592    454.94282  0.026164183  0.026150531            3 
 1450000   0.98978354   -7.5419562    455.42265  0.026173715   0.02614363            4 
 1451000    1.0409725   -7.5206669     457.1151  0.026252877  0.026136834            3 
 1452000    1.0307983   -7.5103843    458.11871  0.026292396  0.026130085       -1e+20 
 1453000    1.0364262   -7.5268791    456.70426  0.026193179  0.026123407            1 
 1454000    1.0259078   -7.5244607    456.77381   0.02617915  0.026116511            2 
 1455000    1.0083282   -7.5262896    456.31756  0.026135026  0.026109641            2 
 1456000     1.045211   -7.5037359    457.74072   0.02619853  0.026102922            2 
 1457000     1.018012   -7.4769519    458.46785  0.026222137  0.026096132            2 
 1458000    1.0440921   -7.5212812     456.2867  0.026079487   0.02608923            2 
 1459000    1.0255301   -7.5212262    457.30439  0.026119739  0.026082435            1 
 1460000    1.0390454   -7.5316268    457.19642  0.026095686  0.026075546            2 
 1461000    1.0070946   -7.5077409    458.04195  0.026126052  0.026068663            1 
 1462000   0.99094605   -7.5669864    456.96453   0.02604677  0.026061787            1 
 1463000    1.0306069   -7.5182872    459.05491  0.026148035  0.026054962            2 
 1464000    1.0079056     -7.57405    458.49884  0.026098522  0.026048285            4 
 1465000    1.0197473   -7.5705261    459.27747  0.026124998  0.026041496            1 
 1466000    1.0249092   -7.5513327    460.85686  0.026196957  0.026034835            2 
 1467000     1.016027   -7.5314463    460.24042  0.026144082  0.026028297            1 
 1468000     1.032947   -7.5591891    459.32213  0.026074144  0.026021703            1 
 1469000    1.0156649    -7.555468    459.60075  0.026072201  0.026015118            1 
 1470000   0.99876825   -7.5335143    460.88645   0.02612735  0.026008457            1 
 1471000    1.0195071   -7.5409768    460.50304  0.026087868  0.026001835            3 
 1472000    1.0270964   -7.5597023    461.23571  0.026111623  0.025995233            2 
 1473000    1.0384893   -7.5343443     462.2009  0.026148501  0.025988756            3 
 1474000    1.0224988   -7.5517678    462.25082  0.026133583  0.025982222            2 
 1475000    1.0087558   -7.5619467    462.55678  0.026133152  0.025975587            4 
 1476000    1.0216554   -7.5141758    461.87818  0.026077133  0.025968987            2 
 1477000    1.0128233    -7.554453    462.36904  0.026087172  0.025962429            2 
 1478000    1.0224197   -7.5235616    462.32978  0.026067308  0.025955874            2 
 1479000    1.0389826    -7.541389    462.90752  0.026082235  0.025949185            1 
 1480000    1.0071968    -7.525017    462.41212  0.026036718  0.025942498            2 
 1481000    1.0191212   -7.5285829    462.66033  0.026033104  0.025935904            2 
 1482000    1.0166888   -7.5588393    463.94248  0.026087634  0.025929295            1 
 1483000   0.99976004   -7.5684673    463.11258  0.026023409  0.025922641            1 
 1484000    1.0051143   -7.5402673    464.52057  0.026084937  0.025916091            1 
 1485000    1.0158052   -7.4603396    465.96142  0.026148228  0.025909526            1 
 1486000    1.0121606    -7.494887    465.57943   0.02610921  0.025903105            1 
 1487000    1.0145801   -7.5347615    464.72533  0.026043786  0.025896739            3 
 1488000    1.0156614   -7.5376083    464.49151   0.02601319  0.025890283            1 
 1489000   0.99328761   -7.5082087    465.33399   0.02604287  0.025883752            2 
 1490000    1.0254562   -7.5105364    465.00495  0.026006988  0.025877147            2 
 1491000    1.0169513    -7.543541    465.05513   0.02599235  0.025870565            2 
 1492000    1.0353079   -7.5129637    465.91729  0.026023084  0.025863938            5 
 1493000    1.0326666   -7.5590246    464.16735  0.025907979  0.025857337            2 
 1494000    1.0159056   -7.6002245    465.39298  0.025959001  0.025850679            2 
 1495000    1.0142528   -7.5757342    466.15457   0.02598409  0.025843978            2 
 1496000     1.010888   -7.5452478     465.6597  0.025939154  0.025837386            4 
 1497000    1.0037913   -7.5276768    465.62376  0.025919826    0.0258308            3 
 1498000    1.0157276    -7.556637    466.10708   0.02592941  0.025824267            5 
 1499000    1.0097802   -7.5658955    465.27294  0.025865741  0.025817618            1 
 1500000    1.0430697   -7.5577812    466.47148  0.025915082  0.025810855            2 
 1501000   0.99950136    -7.514852    467.03053  0.025928855  0.025804096            1 
 1502000    0.9901675   -7.5686426    466.58498  0.025886872  0.025797245            1 
 1503000    1.0378613   -7.5424895     467.1773  0.025902489  0.025790467            1 
 1504000    1.0167742    -7.541425    467.08501  0.025880153  0.025783661            1 
 1505000    1.0118294   -7.5198579    466.55009  0.025833338  0.025776952            1 
 1506000    1.0338614    -7.533352    467.43899  0.025865371  0.025770134            1 
 1507000    1.0121807   -7.5418694     467.2484  0.025837668  0.025763249            2 
 1508000    1.0106871    -7.572625    467.74904  0.025848201    0.0257565            3 
 1509000    1.0129715   -7.5418254    469.15754  0.025908854  0.025749716            3 
 1510000   0.98951509   -7.5193293    468.74049  0.025868681  0.025742909            1 
 1511000    1.0185085   -7.5474381    468.08846    0.0258156  0.025736081            1 
 1512000    1.0135749   -7.5530695     467.7517  0.025779966  0.025729141            1 
 1513000    1.0181195   -7.5599232     467.3265  0.025739508  0.025722191            2 
 1514000    1.0071487   -7.5280274    469.69847  0.025853064  0.025715317            1 
 1515000   0.99899384   -7.5493224    467.30102  0.025704126  0.025708334            2 
 1516000   0.99384903   -7.5852441    467.73722  0.025711149  0.025701362            1 
 1517000    1.0161752   -7.5476052    469.83532  0.025809455  0.025694623            1 
 1518000    1.0087549   -7.5357504    468.97728  0.025745349  0.025687752            3 
 1519000    1.0015796   -7.5465303    468.67582  0.025711862  0.025680762            2 
 1520000     1.001139   -7.5621796     469.4342  0.025736524  0.025673852            1 
 1521000    1.0125767   -7.5747446     469.0833  0.025700378   0.02566687            3 
 1522000    1.0208047   -7.5499531    470.22188  0.025745832   0.02565998            4 
 1523000    1.0046022   -7.5840183    467.70418  0.025591167   0.02565291            1 
 1524000   0.99399091   -7.5335686    470.08111  0.025704348  0.025645881            1 
 1525000   0.99895914   -7.5883228    468.97666   0.02562714  0.025638878            2 
 1526000    0.9787535   -7.5564159    469.22014  0.025623643  0.025631893            1 
 1527000     1.002229   -7.5712594    469.65639   0.02563067  0.025624884            1 
 1528000   0.97817841     -7.53787    469.89071  0.025626675  0.025617756            1 
 1529000    1.0109581   -7.5749782    470.46399  0.025641159   0.02561062            2 
 1530000    1.0054363    -7.558709    470.59976  0.025631795  0.025603685            1 
 1531000    1.0010169   -7.5406778    471.35395  0.025656104  0.025596659            4 
 1532000    1.0112508   -7.5556461     470.4667  0.025591096  0.025589639            3 
 1533000   0.99877065   -7.5649183    471.07417  0.025607424   0.02558259            2 
 1534000    1.0060838   -7.5666517    471.19409  0.025597245  0.025575661            1 
 1535000     1.010146   -7.5706675     471.3319  0.025588051  0.025568675            2 
 1536000    1.0108386   -7.5441657    471.37154  0.025573543  0.025561725            3 
 1537000   0.99222603   -7.6297307    471.05997  0.025540011  0.025554848            2 
 1538000     1.001042   -7.5577597      473.157  0.025637028  0.025548015            2 
 1539000    1.0050104   -7.5823553    471.47732  0.025529419  0.025541141            5 
 1540000    1.0293533   -7.5447124    472.86143   0.02558774   0.02553424            1 
 1541000   0.98208778   -7.5006468    474.48346   0.02565885  0.025527353            2 
 1542000    1.0026782   -7.5393492    475.41062  0.025692316  0.025520539            2 
 1543000    0.9914571   -7.5312763    473.84874  0.025591312   0.02551381            3 
 1544000    1.0128025   -7.5665886    474.12839  0.025589831  0.025507069            3 
 1545000    1.0140221   -7.5928734    472.77763  0.025500412  0.025500215            1 
 1546000   0.99293778   -7.5654949     472.5687  0.025472655  0.025493287            2 
 1547000    0.9889083   -7.5278003    475.06963  0.025590909  0.025486358            3 
 1548000    1.0047276   -7.5515963    473.20931  0.025474231  0.025479531            2 
 1549000    1.0152163   -7.5796598    474.33115  0.025518138  0.025472627            1 
 1550000   0.99023773   -7.5497346    475.21284  0.025549077  0.025465743            3 
 1551000    1.0195254   -7.5376796    476.16537  0.025583783  0.025458946            2 
 1552000     1.021745   -7.5745368    473.88663  0.025444944   0.02545219            4 
 1553000    1.0118898    -7.613478    474.78355  0.025476687  0.025445365            3 
 1554000    1.0124219   -7.5666486    475.82442   0.02551611   0.02543853            1 
 1555000    0.9986614   -7.5516266    477.15451  0.025570981  0.025431743            1 
 1556000   0.98349648   -7.5490283    476.34054  0.025510954  0.025425005            2 
 1557000    1.0184989   -7.5350945    477.29258  0.025545524  0.025418395            3 
 1558000   0.98923041   -7.5361477    477.15493  0.025521766  0.025411821            1 
 1559000    0.9930704   -7.5568522    476.96855  0.025495432  0.025405153            4 
 1560000   0.99970587    -7.559227    477.12414    0.0254874  0.025398444            5 
 1561000    1.0099393   -7.5553881    478.04393  0.025520176  0.025391707            2 
 1562000   0.97581667   -7.5436219    478.16974   0.02551055  0.025385011            3 
 1563000    1.0004676   -7.5597514     477.5579  0.025461607  0.025378252            1 
 1564000    1.0204646   -7.5806411    477.18099  0.025425244  0.025371351            2 
 1565000   0.99669749   -7.5815079     477.2911  0.025414862  0.025364567            2 
 1566000   0.99195979   -7.5645833    478.39517  0.025457385  0.025357836            2 
 1567000    1.0032917   -7.5711195    480.14796  0.025534352  0.025351161            1 
 1568000    1.0146202   -7.5548942    479.68064  0.025493231  0.025344604            1 
 1569000   0.97357998   -7.5559572    479.66033  0.025475905  0.025338024            1 
 1570000    1.0142433   -7.5624986    479.72368   0.02546304  0.025331384            2 
 1571000    1.0022308   -7.5923966    478.61022  0.025387769  0.025324818            3 
 1572000    1.0232661   -7.5394104    479.67803  0.025428225  0.025318182            1 
 1573000    1.0169226   -7.5575448    480.51192  0.025456236  0.025311692            1 
 1574000   0.98761211   -7.5275862    481.70634    0.0255033  0.025305116            1 
 1575000    1.0316592   -7.6052677    480.57094  0.025427034   0.02529845            4 
 1576000   0.99533248   -7.6145687    479.64253  0.025361809  0.025291769            1 
 1577000    1.0050985   -7.5736971    480.25585  0.025378136   0.02528506            2 
 1578000   0.98695444   -7.5450492    481.40589  0.025422787  0.025278416            1 
 1579000    1.0150358   -7.6003476    480.54315  0.025361154  0.025271753            1 
 1580000    1.0214807   -7.6209954    479.68778  0.025299988  0.025264915            3 
 1581000   0.97267354   -7.6293666    480.61013  0.025332602  0.025258214            4 
 1582000    1.0176043   -7.5862396    480.21855  0.025295962  0.025251478            1 
 1583000   0.99121792    -7.573285    480.19462  0.025278723  0.025244686            2 
 1584000   0.99337039   -7.6093476    481.34492  0.025323281  0.025237913            5 
 1585000    1.0008556   -7.5692343    481.98381  0.025340894  0.025231173            2 
 1586000   0.99057009   -7.5874582    481.87246  0.025319066  0.025224536            3 
 1587000    1.0143706   -7.5882549    481.86848  0.025302903  0.025217773            3 
 1588000   0.98702209   -7.5908633    482.47765  0.025318936  0.025210996            1 
 1589000    1.0250471   -7.5847232    482.08008  0.025282152  0.025204354            1 
 1590000   0.99357406   -7.5879934    482.46382  0.025286364  0.025197642            2 
 1591000    1.0353186   -7.5864967    483.24527  0.025311401  0.025190941            1 
 1592000     1.009401   -7.5752727     482.5049  0.025256748  0.025184151            3 
 1593000   0.98802097   -7.5990075    484.22205  0.025330721  0.025177395            2 
 1594000    1.0010444   -7.5781174    482.43185  0.025221238  0.025170627            1 
 1595000    0.9772773    -7.580636    483.06897  0.025238713  0.025163892            2 
 1596000   0.98388129   -7.5867518    484.01929  0.025272519  0.025157302            1 
 1597000   0.99479959   -7.5708978    485.06278  0.025311145  0.025150696            4 
 1598000   0.97869421   -7.6329079    483.55255  0.025216549  0.025144123            1 
 1599000    1.0027555   -7.5834169    484.77364  0.025264417  0.025137527            5 
 1600000   0.99617957   -7.5728693    484.50494  0.025234632  0.025130946            2 
 1601000   0.99559031   -7.5959663    484.39062   0.02521292  0.025124337            4 
 1602000    1.0028759   -7.5772065     485.5915   0.02525965  0.025117778            1 
 1603000    1.0022565   -7.6068599    486.18504  0.025274748  0.025111164            1 
 1604000    1.0056231   -7.6295419    484.59094  0.025176171  0.025104522            2 
 1605000   0.98653868   -7.5648496    486.66164  0.025267998  0.025097898            2 
 1606000   0.97609276    -7.563558    487.22789  0.025281646  0.025091356            3 
 1607000   0.96628367   -7.5675555    487.78469  0.025294788  0.025084837            2 
 1608000   0.97584126   -7.6049924    485.67807  0.025169883  0.025078198            2 
 1609000     1.013779   -7.5983123    486.22021  0.025182319  0.025071603            2 
 1610000   0.99938239   -7.5715268    486.48055  0.025180153  0.025064959            2 
 1611000   0.99960886   -7.5964908     486.3185   0.02515614  0.025058335            2 
 1612000   0.98887147   -7.5842418    486.35814  0.025142584  0.025051593       -1e+20 
 1613000   0.98046039   -7.5999882    487.16898  0.025168887  0.025044877            2 
 1614000   0.96629458   -7.5809487    485.91433  0.025088514  0.025038141            1 
 1615000   0.99534253   -7.6016824    487.57486  0.025158661  0.025031386            2 
 1616000   0.98882687   -7.6130051    486.32318  0.025078547  0.025024706            3 
 1617000   0.98431736   -7.6091402    487.43096  0.025120128  0.025017964            3 
 1618000   0.97367629    -7.594323    488.51445  0.025160406  0.025011343            2 
 1619000    1.0018711   -7.5953994    488.76073  0.025157542  0.025004725            2 
 1620000   0.98387734   -7.6227455     488.1895  0.025112628  0.024998136            2 
 1621000   0.99536698   -7.5891662    488.52791  0.025114534  0.024991632            1 
 1622000   0.97767694    -7.587968    488.18427  0.025081395  0.024985003            1 
 1623000   0.98278872   -7.5678119    489.93767   0.02515597   0.02497826            1 
 1624000   0.98567442   -7.5700612    490.83667   0.02518661  0.024971638            3 
 1625000   0.98823239   -7.6535211     486.5694  0.024952277  0.024964834            2 
 1626000   0.99172212   -7.6199582    487.13276  0.024965803  0.024957976            4 
 1627000   0.98365784   -7.6059789    489.00339  0.025046271  0.024951132            3 
 1628000   0.99769568   -7.6085633    488.31715  0.024995759  0.024944372            6 
 1629000    1.0049148   -7.6142649    489.86272   0.02505948  0.024937592            1 
 1630000   0.99590934   -7.5966943    488.38323  0.024968468  0.024930789            2 
 1631000   0.97276045   -7.6252667    489.18544  0.024994147  0.024923949            2 
 1632000   0.97086267   -7.6224557    490.61396  0.025051775  0.024917092            2 
 1633000   0.99050522   -7.6010003    489.05386  0.024956821  0.024910324            2 
 1634000    1.0032002   -7.6047041    489.18007  0.024947984  0.024903621            3 
 1635000   0.97425421   -7.6007639    490.68004  0.025009176  0.024896877            1 
 1636000   0.99819505   -7.6281938    489.89872  0.024954091  0.024890042            2 
 1637000   0.97904384   -7.6294977    490.47294  0.024968079   0.02488319            2 
 1638000   0.99457773   -7.6355158    489.63928  0.024910423  0.024876349            1 
 1639000    0.9877315   -7.5915298    490.33492  0.024930594  0.024869618            2 
 1640000   0.98418291   -7.6253592    491.54852  0.024977059  0.024862809            2 
 1641000   0.96935424   -7.5942149    491.61835  0.024965384  0.024856057            2 
 1642000    1.0086317   -7.5338987    494.19689  0.025081044  0.024849403            2 
 1643000   0.99171568    -7.611608     491.8806  0.024948296  0.024842671            1 
 1644000    0.9938299   -7.6118581      491.381  0.024907796  0.024835894            1 
 1645000   0.98810291   -7.6070101    491.54569  0.024900997  0.024829195            1 
 1646000     0.980553    -7.620962      491.037  0.024860115  0.024822348            2 
 1647000   0.96773298   -7.6259435    491.38101  0.024862427  0.024815425            1 
 1648000    0.9999102   -7.6101099    491.37087  0.024846828  0.024808536            2 
 1649000   0.97485955   -7.5794085    493.59873  0.024944346  0.024801731            2 
 1650000   0.98787175   -7.6229987    490.67712  0.024781673  0.024794919            4 
 1651000   0.98308597   -7.6183474    492.71292  0.024869419  0.024788112            1 
 1652000   0.98877651   -7.6346859     492.1846  0.024827714  0.024781271            3 
 1653000    1.0124103   -7.6529372    492.15557  0.024811231  0.024774452            1 
 1654000   0.99343063   -7.6004864     493.5324  0.024865599  0.024767661            1 
 1655000   0.99946355   -7.6087529    491.40003  0.024743204  0.024760766            1 
 1656000   0.99226576   -7.5837786    494.08705  0.024863479  0.024753914            2 
 1657000    1.0031647   -7.6302109    492.61825  0.024774605  0.024746937            3 
 1658000   0.97647199   -7.6034996    493.79175  0.024818645  0.024740018            2 
 1659000   0.99117932   -7.5839969    493.68241  0.024798192  0.024733186            3 
 1660000   0.96157885    -7.553729     493.2992  0.024764016  0.024726365            1 
 1661000   0.97728427   -7.6123429    492.14228  0.024691064  0.024719511            1 
 1662000   0.98045245     -7.62497    492.33583  0.024685912  0.024712579            2 
 1663000    1.0045944   -7.6422224    493.41824  0.024725307  0.024705554            1 
 1664000   0.99466989   -7.6351828    493.10375  0.024694699  0.024698451            1 
 1665000   0.99595048   -7.6166518    492.46921  0.024648109  0.024691418            1 
 1666000   0.98356959   -7.6105694    493.88246  0.024704004  0.024684389            1 
 1667000   0.99270456   -7.6237201    494.80841  0.024735474  0.024677441            1 
 1668000   0.98994877   -7.6024792    494.22339  0.024691416  0.024670521            1 
 1669000   0.95841892   -7.5827562    494.47776  0.024689323   0.02466359            1 
 1670000   0.97733362   -7.6006649    495.32671  0.024716902    0.0246567            1 
 1671000   0.98756314   -7.5869763    495.92088  0.024731741  0.024649938            4 
 1672000    0.9834291   -7.5946723    497.19742  0.024780573  0.024643202            3 
 1673000   0.97300255   -7.6235981    496.10343  0.024711269  0.024636584            2 
 1674000   0.98892661   -7.5815798    497.53561  0.024767802  0.024629913            1 
 1675000   0.97487913   -7.6392868     496.0645  0.024679826  0.024623245            2 
 1676000   0.98713327   -7.6081993    496.71052  0.024697221  0.024616539            2 
 1677000   0.98522202   -7.6306216    498.22112  0.024757559  0.024609917            1 
 1678000   0.98467927   -7.6012943     497.4207  0.024703054  0.024603396            1 
 1679000    1.0033299    -7.595571    497.47525  0.024691049  0.024596845            1 
 1680000   0.98054631   -7.6626776    498.58546  0.024731421  0.024590205            1 
 1681000   0.97321496   -7.6171035      498.262  0.024700674    0.0245836            1 
 1682000    0.9786415   -7.6485377    498.00405  0.024673209  0.024576939            2 
 1683000   0.99674078   -7.6242525    499.03797  0.024709743  0.024570374            3 
 1684000   0.99621791   -7.6443324    498.50386  0.024668639  0.024563738            1 
 1685000   0.95051332   -7.6152632    499.30968  0.024693851  0.024557104            3 
 1686000   0.97832605   -7.6769325    497.74322   0.02460178  0.024550383            2 
 1687000   0.98665581   -7.6522138     499.7006  0.024683887  0.024543655            3 
 1688000   0.99482824   -7.6218414    499.64403  0.024666471  0.024536981            1 
 1689000    0.9557921   -7.6106199    500.66835  0.024702405  0.024530294            2 
 1690000   0.96480546   -7.6013219     499.6664  0.024638383  0.024523696            3 
 1691000   0.99974171   -7.6105578    499.48815  0.024615028  0.024517056            2 
 1692000   0.98940224   -7.5914447    499.54254  0.024603159  0.024510372            3 
 1693000    1.0044802   -7.6175935    501.05639  0.024663142  0.024503734            2 
 1694000   0.96939505   -7.6058713    500.62107  0.024627168  0.024497049            1 
 1695000   0.98847802   -7.6372585    499.06327  0.024536051  0.024490291            3 
 1696000   0.97581895   -7.5922612    501.78209  0.024655173  0.024483558            3 
 1697000   0.99369593   -7.6193554    500.23227  0.024564539   0.02447687            2 
 1698000   0.97952322    -7.612445    501.02248  0.024588853  0.024470119            1 
 1699000     0.989816   -7.5849703    502.07543  0.024626027  0.024463453            3 
 1700000   0.97025164   -7.6160111    501.91128  0.024603494  0.024456812            5 
 1701000   0.96712791   -7.6230618    502.98864  0.024641811  0.024450192            2 
 1702000    0.9755915   -7.6683538    501.25703   0.02454255  0.024443543            1 
 1703000   0.96374311    -7.638176    501.66039  0.024547876  0.024436961            2 
 1704000   0.96609255   -7.6036314    502.73859  0.024586199  0.024430431            2 
 1705000   0.97635573    -7.619069    502.05767  0.024538498  0.024423957            3 
 1706000   0.97086456   -7.6275125    503.00682  0.024570478  0.024417349            1 
 1707000   0.95139626   -7.6077655    502.66685  0.024539487  0.024410789            3 
 1708000   0.97110888   -7.5795435    504.62491  0.024620653  0.024404217            2 
 1709000   0.96529627   -7.6312452    502.62427  0.024508693  0.024397576            1 
 1710000    1.0043219   -7.6623471    503.17451  0.024521175  0.024390978            2 
 1711000   0.98598523   -7.6264164    503.47231  0.024521348  0.024384467            2 
 1712000    0.9870503   -7.6325186    504.35553  0.024550016  0.024377836            3 
 1713000   0.97186889   -7.6215458    502.85863  0.024462864  0.024371159            1 
 1714000   0.95786716   -7.6348546    503.59645  0.024484464  0.024364586            3 
 1715000   0.97798242   -7.6485944    503.39454  0.024460376  0.024358064            2 
 1716000   0.96563246   -7.6700169    503.59384    0.0244558  0.024351425            1 
 1717000   0.96359885   -7.6345253    503.33192  0.024428845  0.024344855            2 
 1718000   0.98301421   -7.6326305    504.35511  0.024464256  0.024338299            2 
 1719000   0.96218491   -7.6290419    503.86703  0.024426364  0.024331658            1 
 1720000   0.97768585    -7.651334     504.8179  0.024458231  0.024325037            1 
 1721000     0.978672   -7.6374757    504.53444  0.024430294  0.024318442            2 
 1722000    0.9694249   -7.6265133    505.48324  0.024462023  0.024311869            1 
 1723000    0.9755161   -7.6170001     505.3429  0.024441038  0.024305242            3 
 1724000   0.98805806    -7.599932    505.62498  0.024440496  0.024298635            1 
 1725000   0.98764557   -7.6252784    505.95271   0.02444216  0.024292069            4 
 1726000   0.97685305   -7.6366619    505.64284  0.024413038  0.024285515            2 
 1727000   0.96744079   -7.6460064    505.95701  0.024414062  0.024278959            4 
 1728000   0.96180069   -7.6980847    505.52656  0.024379174  0.024272344            2 
 1729000   0.97482377   -7.6847191    505.30519  0.024354405  0.024265644            1 
 1730000   0.98276728   -7.6813982    504.52689  0.024302837   0.02425896            2 
 1731000   0.95773663   -7.6222155    506.47339  0.024382505  0.024252268            1 
 1732000   0.95533774    -7.641214    505.95612  0.024343539  0.024245627            1 
 1733000   0.98843997   -7.6423633    506.43988  0.024352754  0.024238934            2 
 1734000    0.9656396    -7.661832    506.44931  0.024339164  0.024232189            1 
 1735000   0.96329769   -7.6430821    507.52594  0.024376846  0.024225515            1 
 1736000    1.0009794   -7.6262233    507.20188  0.024347248  0.024218892            1 
 1737000   0.95201729   -7.6300273    507.70695  0.024357463  0.024212279            2 
 1738000   0.98120184    -7.619568     507.5921  0.024337941  0.024205704            2 
 1739000   0.98357747   -7.6328628    507.09737  0.024300238  0.024199117            2 
 1740000   0.98183156   -7.6352415    507.87262  0.024323401  0.024192575            2 
 1741000   0.95981366   -7.6793596    507.72338  0.024302287  0.024185971            4 
 1742000   0.99205089   -7.6289696    508.69309  0.024334725  0.024179285            1 
 1743000   0.98301617    -7.665956    507.31552  0.024254901  0.024172586            1 
 1744000   0.98917659   -7.6613672    506.86371  0.024219405   0.02416588            3 
 1745000   0.96352027   -7.6718134    508.02252  0.024260865  0.024159208            4 
 1746000   0.96482336   -7.6851573    509.12695  0.024299683  0.024152622            1 
 1747000   0.96481509   -7.6753197    510.59224  0.024355669  0.024146089            1 
 1748000   0.97255817   -7.6611266    508.87135  0.024259694  0.024139534            1 
 1749000   0.97624771    -7.657826    508.97192  0.024250616  0.024132931            1 
 1750000    0.9776028   -7.6527276     510.8083  0.024324205  0.024126362            2 
 1751000    0.9689848     -7.65542    509.76981  0.024260889  0.024119774            2 
 1752000   0.98035833   -7.6682727    509.65863  0.024241753  0.024113238            3 
 1753000   0.96261484   -7.6831475     509.5226  0.024221458    0.0241067            3 
 1754000   0.96961262   -7.6760144    509.78714  0.024220218  0.024100193            1 
 1755000   0.95395984   -7.6417625    510.46663  0.024238681  0.024093646            2 
 1756000   0.98278778   -7.6529505     510.6729  0.024234667  0.024087071            1 
 1757000   0.97831042   -7.6332119    511.10542  0.024241388  0.024080544            3 
 1758000   0.97739716   -7.6467756    510.97652  0.024221488  0.024073946            1 
 1759000   0.99309089   -7.6364781     510.9858  0.024208158  0.024067417            2 
 1760000   0.98208907   -7.5925292    512.04988  0.024244786  0.024061041            1 
 1761000   0.95384441   -7.6401355    510.95685  0.024179294  0.024054615            2 
 1762000   0.96527019    -7.623138    511.33603  0.024183505  0.024048242            1 
 1763000    0.9854245   -7.6394146    512.88285  0.024242903   0.02404183            4 
 1764000   0.94801554   -7.6916104    510.92319  0.024136583  0.024035385            1 
 1765000   0.98223413   -7.6731959     511.9082  0.024169414  0.024028847            3 
 1766000   0.93485423   -7.6665932    512.03909  0.024161905  0.024022324            1 
 1767000   0.95869412   -7.6728304    513.21162  0.024203528   0.02401572            3 
 1768000   0.97770864   -7.6570939    512.84093  0.024172366  0.024009116            1 
 1769000   0.95807277   -7.6660867    512.78772  0.024156196  0.024002593            1 
 1770000   0.98314238   -7.6675468     513.1034  0.024157411  0.023996126            1 
 1771000   0.96588672   -7.6279605     513.6944  0.024171579  0.023989736            2 
 1772000   0.97210642   -7.6234201    513.56293  0.024151755  0.023983338            1 
 1773000   0.96808136   -7.6562289    513.31281  0.024126378  0.023976927            2 
 1774000   0.95753129   -7.6723645    513.78856  0.024135126  0.023970411            1 
 1775000   0.96091719    -7.690374    513.64474  0.024114776  0.023963813            1 
 1776000   0.96971879   -7.7023979     512.2056  0.024033671  0.023957202            2 
 1777000   0.96735381   -7.6579804    513.02514  0.024058579  0.023950543            3 
 1778000   0.95619308   -7.6347763    513.24846  0.024055514  0.023943935            2 
 1779000    0.9601789   -7.6454107     513.6127  0.024059055  0.023937339            3 
 1780000   0.97860168   -7.6597156    513.07472  0.024020352  0.023930673            1 
 1781000   0.95937189   -7.6391046    514.22914   0.02406088  0.023924133            3 
 1782000   0.97404987   -7.6380292    514.64754  0.024066945  0.023917588            1 
 1783000   0.96458055   -7.6568354    514.67366  0.024054667  0.023911068            2 
 1784000   0.96089095   -7.6565634    514.61146  0.024038278    0.0239046            3 
 1785000   0.96118386   -7.6333569    514.58449  0.024023552  0.023898058            2 
 1786000   0.96361115   -7.6406826    515.21242    0.0240394  0.023891648            2 
 1787000   0.97421412   -7.6567497    515.92868  0.024059349  0.023885351            3 
 1788000   0.96345858   -7.6681523    516.88584  0.024090503  0.023878932            2 
 1789000   0.97426894   -7.6841183    516.27881  0.024048761  0.023872458            2 
 1790000   0.97814363   -7.6934655    515.90817  0.024018071  0.023865924            4 
 1791000   0.94322674   -7.6649955    516.90834  0.024051198  0.023859445            2 
 1792000   0.95953977   -7.6251986    517.18996  0.024050872  0.023853031            1 
 1793000   0.96567169   -7.6737068    516.56516   0.02400842  0.023846553            3 
 1794000   0.95302258   -7.6501061    516.14578  0.023975556  0.023840007            2 
 1795000   0.98436853   -7.6638946    516.25684  0.023967356  0.023833529            4 
 1796000   0.96024245   -7.7043628    514.89111  0.023890642  0.023827032            3 
 1797000    0.9604959   -7.6685491    517.19667  0.023984264   0.02382054            1 
 1798000   0.97220431   -7.6636836    516.58141  0.023942409  0.023814025            2 
 1799000   0.96257588    -7.675033    517.62111  0.023977261  0.023807533            3 
 1800000   0.97632022   -7.6363263    516.86002  0.023928705  0.023801056            3 
 1801000   0.94241337   -7.6778662    517.73653  0.023955975  0.023794539            2 
 1802000   0.98086784   -7.6620047    517.26815   0.02392102  0.023788063            2 
 1803000   0.97355906   -7.6322475    519.07461  0.023991247  0.023781663            2 
 1804000   0.97796985   -7.6533159    519.57489  0.024001057   0.02377535            2 
 1805000   0.93745773   -7.6324352    519.58127  0.023988055  0.023769008            1 
 1806000   0.97961638   -7.6455857    519.61478  0.023976319   0.02376267            2 
 1807000   0.96379156   -7.6871957    518.69295  0.023920538   0.02375625            1 
 1808000    0.9820024   -7.6972132    518.32588  0.023890389  0.023749762            4 
 1809000   0.98585921   -7.6906686    518.35011  0.023878299  0.023743283            1 
 1810000   0.95339438   -7.6880965    519.35118  0.023911196  0.023736784            1 
 1811000   0.95465309   -7.6847747    518.11051  0.023840903  0.023730245            3 
 1812000   0.94383269   -7.6687302    519.15824  0.023875931  0.023723768            2 
 1813000   0.97349112   -7.6943045    518.93124  0.023852327  0.023717269            3 
 1814000   0.94322319   -7.7000821    518.90406   0.02383793  0.023710862            1 
 1815000   0.95135622   -7.7014859    519.08988  0.023833328  0.023704382            2 
 1816000   0.97076777   -7.6788771    519.61284  0.023844202  0.023697904            1 
 1817000   0.96211143    -7.662741    520.77324  0.023884298  0.023691416            2 
 1818000    0.9534694   -7.6771201    519.50208  0.023812893  0.023684903            3 
 1819000   0.94816254    -7.649346    519.14075  0.023783249   0.02367833            2 
 1820000    0.9573177   -7.6859279     518.7582  0.023752665  0.023671691            2 
 1821000   0.97815281   -7.6847108    520.44378  0.023816757  0.023665023            2 
 1822000   0.94462269   -7.6626125     519.9455  0.023780895   0.02365847            1 
 1823000   0.97515753   -7.6729876    522.41146  0.023880575  0.023651949            4 
 1824000   0.96216765   -7.6701864    520.96103  0.023801217  0.023645377            2 
 1825000   0.96603788   -7.6808837     520.8349  0.023782416  0.023638753            2 
 1826000   0.93597493   -7.6495165     522.2616  0.023834502  0.023632205            1 
 1827000   0.96645243   -7.7077568    519.75796   0.02370726   0.02362547            3 
 1828000   0.94137912   -7.6580562    521.69675  0.023782675  0.023618847            2 
 1829000   0.97485252   -7.7101159    521.34773  0.023753769   0.02361223            3 
 1830000   0.95665985   -7.6630088    521.71472  0.023757501  0.023605615            1 
 1831000   0.95183866   -7.6211306    523.70272  0.023835005  0.023599103            1 
 1832000   0.96093796   -7.6785163    521.87611  0.023738906  0.023592622            2 
 1833000   0.95330856    -7.675222    523.64961  0.023806584  0.023586129            2 
 1834000   0.94097581   -7.6829149    521.88974  0.023713638  0.023579673            1 
 1835000   0.95979656   -7.6961237    522.32237  0.023720362  0.023573193            2 
 1836000   0.95978045   -7.6806682    521.23417  0.023658051  0.023566593            1 
 1837000   0.97749732   -7.6525525    523.90253  0.023766219  0.023560075            1 
 1838000   0.94685736   -7.6595803    522.46914    0.0236883  0.023553621            2 
 1839000   0.94251183   -7.6915571    522.20023  0.023663233  0.023547135            5 
 1840000   0.97400284   -7.6700563    525.06044  0.023779911  0.023540648            1 
 1841000   0.94661869   -7.6806413    522.91003  0.023669656  0.023534187            3 
 1842000   0.94983099   -7.6941222    522.83121   0.02365324  0.023527668            2 
 1843000   0.94351134   -7.6696482    522.78825  0.023638463  0.023521227            2 
 1844000   0.96350264   -7.6929276    525.40242  0.023743782  0.023514662            2 
 1845000   0.97023797   -7.6914278    522.38127  0.023594457  0.023508157            2 
 1846000   0.96197542   -7.7174692    522.66605  0.023594531  0.023501566            3 
 1847000   0.94927902   -7.6855333    523.70716  0.023628729  0.023494996            1 
 1848000   0.97058075   -7.6771835    524.08394  0.023632934  0.023488492            1 
 1849000   0.94731774   -7.6686381    525.58745  0.023687915  0.023481999            1 
 1850000   0.95970438   -7.6785636    525.06291  0.023651482   0.02347554            1 
 1851000   0.94476242   -7.6251146    526.85785  0.023719514  0.023469191            3 
 1852000   0.95307902   -7.6808993    525.88554  0.023662956  0.023462786            2 
 1853000   0.94837809   -7.6778436    524.07718  0.023568861  0.023456311            2 
 1854000   0.95488229   -7.6744291    525.65905   0.02362725  0.023449932            1 
 1855000   0.95683858   -7.6677695    527.12045  0.023680164  0.023443595            1 
 1856000   0.96165657   -7.6847147    526.82747  0.023654251  0.023437268            2 
 1857000   0.95729001   -7.6736139    525.74607  0.023592984  0.023430928            2 
 1858000   0.95090888   -7.6700173    527.40597  0.023654735  0.023424627            1 
 1859000   0.96480985   -7.7330578    526.02987  0.023580324  0.023418249            2 
 1860000   0.93022165     -7.72891    525.82577  0.023558502  0.023411856            2 
 1861000    0.9655571   -7.6903957    528.86582  0.023681973  0.023405427            2 
 1862000   0.93995307   -7.7213578    525.53076  0.023519994  0.023399046            1 
 1863000   0.97501752   -7.7087856    527.07582  0.023576482  0.023392682            1 
 1864000   0.96048058   -7.6979234    527.98821  0.023604623  0.023386284            2 
 1865000   0.95826997   -7.6578035    528.22878  0.023602716  0.023379962            2 
 1866000   0.94486402   -7.7026113     527.9207  0.023576309  0.023373604            2 
 1867000   0.96781376   -7.6591304     528.1064  0.023571969  0.023367242            3 
 1868000   0.94226088   -7.6806547    528.40971  0.023572882  0.023360927            2 
 1869000   0.96595974   -7.6897079     528.8821  0.023581331  0.023354634            2 
 1870000   0.99288452    -7.677863    528.22196  0.023539303  0.023348284            2 
 1871000    0.9370953   -7.6910939    528.12373  0.023522347  0.023341952            1 
 1872000   0.94750302   -7.6379496    532.04919  0.023684526  0.023335656            1 
 1873000   0.94797183   -7.6692151      530.222  0.023590586  0.023329406            1 
 1874000   0.96039579   -7.6959988    527.84103   0.02347212  0.023323077            1 
 1875000   0.95903243   -7.6808686    528.94157  0.023508514  0.023316694            3 
 1876000    0.9448711   -7.7388005    527.81445  0.023445915  0.023310361            1 
 1877000   0.94989796   -7.7249705    528.23845  0.023452249  0.023303928            3 
 1878000   0.97286668   -7.7585231    528.46153   0.02344966  0.023297552            3 
 1879000   0.95535819   -7.7245488    529.80993  0.023496981  0.023291234            3 
 1880000   0.95685087   -7.7026987    529.45268  0.023468647  0.023284931            4 
 1881000   0.95337555   -7.7078869    528.67014  0.023421502  0.023278521            2 
 1882000    0.9381557   -7.6902804    530.07929  0.023471453  0.023272253            2 
 1883000    0.9531333   -7.7315675    530.50755  0.023477941  0.023265998            2 
 1884000   0.94598865    -7.721917    529.60088  0.023425375  0.023259699            1 
 1885000   0.93349483   -7.6875997    531.29817  0.023487983  0.023253386            1 
 1886000    0.9495252   -7.6697487    529.05705  0.023376505   0.02324704            2 
 1887000   0.95553208   -7.6782315    531.00451   0.02345012  0.023240726            4 
 1888000   0.94588009    -7.688313    530.83574   0.02343025  0.023234419            2 
 1889000   0.95204482   -7.6747253    531.69073  0.023455564  0.023228123            3 
 1890000   0.95373738   -7.6914565    530.52266  0.023391652  0.023221803            3 
 1891000   0.96127816   -7.7135163    531.07348  0.023403555  0.023215474            1 
 1892000   0.95033092   -7.6884716    531.85048  0.023425409  0.023209208            2 
 1893000   0.94990121   -7.6985299    533.22572  0.023473574  0.023202873            3 
 1894000   0.96174305   -7.6951221    531.17975  0.023371161  0.023196462            2 
 1895000   0.94589619   -7.6835267    533.14911  0.023445431  0.023190102            3 
 1896000   0.93424194   -7.7012909    532.66834  0.023411935  0.023183848            2 
 1897000   0.94624193   -7.6811222     534.0463  0.023460126  0.023177549            2 
 1898000   0.95244953   -7.6858606     532.3289  0.023372361  0.023171271            3 
 1899000   0.94314795   -7.7107097    532.50512  0.023367786   0.02316492            2 
 1900000   0.92222245   -7.6927432     532.5617  0.023357969  0.023158681            4 
 1901000   0.94961772   -7.6893895    533.57211  0.023389975  0.023152393            2 
 1902000   0.92502411   -7.7185226    533.06895  0.023355632  0.023145989            2 
 1903000   0.95459622    -7.744232    532.02597  0.023297686  0.023139613            4 
 1904000   0.92810037   -7.7338728     531.9416  0.023281758  0.023133178            4 
 1905000   0.95029312   -7.7072723    533.11292  0.023320775  0.023126704            2 
 1906000   0.94839615   -7.7213443    532.43622  0.023278953  0.023120254            4 
 1907000   0.93623421    -7.689673    533.64887  0.023319737  0.023113846            1 
 1908000   0.94446728   -7.6926374    534.34112   0.02333775  0.023107493            3 
 1909000   0.93565418   -7.7265772    531.98001  0.023222456  0.023101112            1 
 1910000   0.93989385   -7.6973313    534.09972   0.02330278  0.023094714            1 
 1911000   0.93454576   -7.7087437    532.77637  0.023232879  0.023088405            5 
 1912000   0.94146507   -7.6911878    534.55856  0.023298403  0.023082074            1 
 1913000   0.95287714   -7.6805036    535.16746  0.023312749  0.023075776            2 
 1914000   0.93500399   -7.6734074    534.30363  0.023262958   0.02306942            3 
 1915000   0.96074204   -7.6898253    533.71314  0.023225115  0.023063102            2 
 1916000   0.94484332   -7.6679928    536.63967  0.023340278  0.023056831            1 
 1917000   0.95528501   -7.7267584    534.84678  0.023250164  0.023050582            2 
 1918000   0.92759623   -7.6776332    536.90543  0.023327486   0.02304435            1 
 1919000   0.94520549    -7.689537     535.1487  0.023239044  0.023038163            2 
 1920000   0.95840129   -7.6777979    536.28642   0.02327632  0.023031955            1 
 1921000   0.94595493   -7.6800098    536.12458  0.023257183  0.023025656            1 
 1922000   0.94430315   -7.7307236    534.44198  0.023172129  0.023019412            3 
 1923000   0.93475905   -7.7103941    535.23788  0.023194569  0.023013071            2 
 1924000   0.95092258   -7.7324074    535.15706  0.023179013  0.023006825            2 
 1925000   0.97432532   -7.7099477     534.8966  0.023155697  0.023000597            1 
 1926000   0.94100658   -7.7294314     535.5055   0.02317002  0.022994329            2 
 1927000   0.92589551   -7.6927279    536.20159  0.023188099   0.02298806            5 
 1928000   0.96727357   -7.7265867    536.00084  0.023167395  0.022981761            3 
 1929000   0.92602398   -7.6812715    536.88694  0.023193664  0.022975426            1 
 1930000   0.93650258   -7.7379976    535.04035  0.023101915  0.022969067            1 
 1931000   0.94470902   -7.7181465     537.4185  0.023192581  0.022962793            2 
 1932000    0.9417557   -7.7085006    536.23894  0.023129699  0.022956473            1 
 1933000   0.93991709   -7.7233347     537.5039  0.023172267  0.022950215            3 
 1934000   0.96594102   -7.7122996    537.22866  0.023148426  0.022944037            1 
 1935000    0.9535431    -7.709289    539.83867  0.023248866  0.022937944            1 
 1936000   0.93437413    -7.694719    538.06244  0.023160401  0.022931746            3 
 1937000   0.94188454   -7.7468559    537.85215  0.023139397  0.022925546            2 
 1938000   0.93966182    -7.729439    537.87574  0.023128472  0.022919358            4 
 1939000    0.9605685   -7.7456382    539.20634   0.02317373  0.022913146            1 
 1940000   0.93567449   -7.7030592    539.72767  0.023184178  0.022906947            1 
 1941000   0.95071461   -7.7067466    539.96659  0.023182491  0.022900768            5 
 1942000   0.93960089   -7.7530685    537.62087  0.023069896   0.02289453            1 
 1943000   0.93364925   -7.7102325    538.10504  0.023078789  0.022888228            1 
 1944000   0.95391202   -7.7849538    538.27749   0.02307431  0.022881862            4 
 1945000   0.94282532   -7.7475218    540.39871  0.023153329  0.022875462            2 
 1946000   0.95163728   -7.7622216    537.88965  0.023033986  0.022869126            1 
 1947000   0.92670665   -7.6841446    538.49889  0.023048232  0.022862866            2 
 1948000   0.94223697   -7.7513373    537.80152  0.023006568  0.022856514            1 
 1949000   0.92418536   -7.7584956    538.69916  0.023033143  0.022850197            2 
 1950000   0.95802356   -7.7601067    539.02721  0.023035351  0.022843861            1 
 1951000   0.95303713   -7.7470935    540.80268   0.02309938   0.02283757            4 
 1952000   0.93433571   -7.7043987    540.30983  0.023066506  0.022831379            1 
 1953000   0.91852701   -7.7566594    539.98119  0.023040672  0.022825111            1 
 1954000   0.90840601   -7.7835063    539.73704  0.023018468  0.022818801            1 
 1955000    0.9262571   -7.7633956    541.09707  0.023064666  0.022812418            2 
 1956000   0.94721048   -7.7317083    541.14903  0.023055088  0.022806147            1 
 1957000    0.9388516   -7.7160068    539.81469  0.022986488   0.02279992            2 
 1958000   0.93528457    -7.692967    542.17275  0.023075109  0.022793799            1 
 1959000   0.91829536   -7.7314143    542.28458  0.023068087  0.022787634            4 
 1960000   0.95979969   -7.7143909    541.15166  0.023008149  0.022781467            2 
 1961000   0.92747831   -7.7289028    540.81592  0.022982149  0.022775311            2 
 1962000   0.93409656    -7.723692    542.20435  0.023029406  0.022769146            4 
 1963000    0.9463821   -7.7262222    542.96684  0.023050044  0.022762989            2 
 1964000   0.91602812   -7.7320215    541.62398   0.02298133  0.022756817            4 
 1965000   0.95078873   -7.7678834     541.4949   0.02296416  0.022750593            1 
 1966000   0.92829578   -7.7341919    542.48266  0.022994348  0.022744383            2 
 1967000   0.92811764   -7.6913098    543.47883  0.023024861  0.022738251            2 
 1968000   0.93036627   -7.7277354    542.49305   0.02297142  0.022732112            1 
 1969000   0.94387577   -7.7484757    542.10282  0.022943238  0.022725914            1 
 1970000   0.94187871   -7.7525081    541.80273  0.022918897  0.022719711            1 
 1971000   0.94512358   -7.7208888    544.16452  0.023007125  0.022713589            1 
 1972000    0.9211187   -7.7070833    543.77029  0.022978799  0.022707486            2 
 1973000   0.94938099   -7.7069708    543.85284  0.022970639   0.02270141            3 
 1974000   0.93976734   -7.7995581    543.02652  0.022924118   0.02269531            2 
 1975000   0.91094618   -7.7531836     544.4344  0.022971916  0.022689149            1 
 1976000   0.93594929   -7.7167682    543.99323  0.022941685  0.022682944            2 
 1977000   0.94128659   -7.7589389     543.3701  0.022903815  0.022676801            3 
 1978000   0.93070538   -7.7409919    544.60554  0.022944284  0.022670748            1 
 1979000   0.91742296   -7.7262828    545.94469  0.022989081  0.022664619            5 
 1980000   0.93388779   -7.7405926    543.99435  0.022895385  0.022658506            1 
 1981000   0.92983032   -7.7438074    543.89813   0.02287978  0.022652362            2 
 1982000   0.92575829   -7.7204299      546.353  0.022971451  0.022646186            2 
 1983000   0.91950066   -7.7830065    544.31529  0.022874235  0.022640017            1 
 1984000   0.93308216   -7.7367076    544.30771  0.022862387  0.022633872            1 
 1985000   0.93747087    -7.761498    544.13622   0.02284367   0.02262773            1 
 1986000   0.92114357   -7.7448803    545.43858  0.022886815   0.02262159            1 
 1987000   0.94609214   -7.7168138    546.17054  0.022905995  0.022615451            1 
 1988000   0.90806981   -7.7038097    545.86516  0.022881672  0.022609418            3 
 1989000   0.94704355   -7.7192633    547.52942  0.022939895  0.022603353            2 
 1990000   0.93475141   -7.7458708    545.52192  0.022844301  0.022597276            1 
 1991000    0.9388202    -7.758076    544.25171  0.022779663    0.0225911            2 
 1992000   0.90116645   -7.7141098    547.00501  0.022883409  0.022584996            2 
 1993000   0.92989895   -7.7189022    546.94217    0.0228693   0.02257898            1 
 1994000   0.93156093   -7.7248391    548.83386  0.022936888   0.02257291            2 
 1995000   0.95565829   -7.7112273    547.52944  0.022870904  0.022566836            3 
 1996000   0.93994422   -7.7484545    544.93158  0.022750984  0.022560768            1 
 1997000   0.94039003   -7.7594144    547.37666  0.022841623  0.022554653            2 
 1998000   0.95436512    -7.763971     546.2768  0.022784318  0.022548535            1 
 1999000   0.94781715   -7.7736406    546.68247  0.022789831   0.02254242            2 
 2000000   0.93730659   -7.7684282    545.00882  0.022708701  0.022536257            4 
 2001000   0.93871159   -7.7627511    546.83798  0.022773529  0.022530115            2 
 2002000   0.94515809   -7.7161887    546.85109  0.022762699  0.022523923            1 
 2003000   0.92809734   -7.7455921    546.40668  0.022732846  0.022517822            2 
 2004000    0.9244674   -7.7686541    546.55403  0.022727629  0.022511648            4 
 2005000   0.91384477   -7.7332337     548.0285  0.022777577  0.022505527            1 
 2006000   0.93348086   -7.7654837     547.2671  0.022734592  0.022499437            5 
 2007000   0.90617989   -7.7597571     549.4772  0.022815031  0.022493358            1 
 2008000   0.94781166   -7.7514529    547.86186  0.022736631  0.022487244            2 
 2009000   0.95654971   -7.7563274    546.27725  0.022659584  0.022481094            2 
 2010000   0.93126564   -7.7190321    548.09234  0.022723563  0.022474984            3 
 2011000   0.94252413   -7.7292055    548.40773  0.022725333  0.022468862            5 
 2012000   0.94350677   -7.7512394    548.61148  0.022722477  0.022462715            1 
 2013000    0.9430478   -7.7412856    550.42145  0.022786117   0.02245664            1 
 2014000   0.93988412   -7.7608303    549.94484  0.022755083  0.022450565            2 
 2015000   0.91859239   -7.7397679    550.99365  0.022787165  0.022444442            1 
 2016000     0.929326   -7.7502328    546.94277  0.022608415  0.022438368            2 
 2017000   0.92962233   -7.7608934    549.21908  0.022691253  0.022432197            2 
 2018000    0.9413715   -7.7398864    548.19258  0.022637619    0.0224261            3 
 2019000   0.91385857   -7.7871174    548.81536  0.022652112   0.02241994            1 
 2020000   0.92815705   -7.7650764    550.09796   0.02269381  0.022413788            2 
 2021000   0.94002622   -7.7322324    550.17448  0.022685736  0.022407614            2 
 2022000   0.93176828   -7.7768374    549.14733  0.022632185  0.022401467            1 
 2023000   0.93224918   -7.7783029    549.09071  0.022618665   0.02239526            1 
 2024000   0.92001971   -7.7548543     548.5424  0.022584914    0.0223891            2 
 2025000    0.9293206   -7.7536421    550.06002  0.022636215   0.02238295            2 
 2026000   0.93128381   -7.7553515    549.86055  0.022616837  0.022376787            1 
 2027000   0.93301819   -7.7639645    550.34029  0.022625402  0.022370642            5 
 2028000   0.92932795    -7.760821    549.14572  0.022565159  0.022364506            2 
 2029000   0.91785146   -7.7583161     550.3334  0.022602817  0.022358396            3 
 2030000   0.93224433   -7.7513208    550.44022  0.022596068  0.022352295            2 
 2031000   0.91352787   -7.7675947    549.48543  0.022545767  0.022346121            2 
 2032000   0.94886109   -7.7527154    551.33021  0.022610327  0.022339947            2 
 2033000   0.94400429   -7.8058632    550.94674  0.022583487  0.022333807            1 
 2034000   0.93740789   -7.7621777    551.23155  0.022584052  0.022327667            2 
 2035000    0.9418944   -7.7613478    551.37874  0.022578982  0.022321488            2 
 2036000   0.93454521   -7.7546808    551.31565   0.02256531  0.022315322            1 
 2037000   0.90687526   -7.7566441    550.63433  0.022526359  0.022309131            1 
 2038000   0.92241539   -7.7539906    552.21007  0.022579738   0.02230293            2 
 2039000   0.91571102    -7.733828    552.47718  0.022579581   0.02229678            3 
 2040000   0.92544292   -7.7736651      551.124  0.022513235  0.022290649            1 
 2041000   0.92050758   -7.7403012    552.78958   0.02257021  0.022284576            4 
 2042000   0.90286352    -7.761992    552.68197  0.022554765   0.02227849            1 
 2043000   0.92570039   -7.7186272    552.30372  0.022528296  0.022272286            2 
 2044000    0.9253707   -7.7562016    551.92176  0.022501702  0.022266087            1 
 2045000   0.92947965   -7.7543609     551.3335  0.022466728  0.022259928            2 
 2046000   0.92632599   -7.7666809    552.58791  0.022506839  0.022253745            1 
 2047000   0.93002654   -7.7902411    550.65191  0.022417029  0.022247559            1 
 2048000   0.90863334   -7.7808875    552.30832  0.022473483   0.02224126            1 
 2049000    0.9060387   -7.7721678    552.50246  0.022470411  0.022235021            1 
 2050000   0.91197897   -7.7404969    553.11119  0.022484195  0.022228834            2 
 2051000   0.93509625   -7.8147617    552.39619  0.022444181  0.022222611            6 
 2052000   0.92929884   -7.7899551    551.19356  0.022384404  0.022216415            3 
 2053000   0.92191332   -7.7670448    552.49166  0.022426192  0.022210168            2 
 2054000   0.91583136   -7.7476578    552.84926  0.022429782  0.022203964            2 
 2055000   0.91807808   -7.7397316    553.42474  0.022442204  0.022197791            3 
 2056000    0.9420183   -7.7897252    554.66175  0.022481426  0.022191594            3 
 2057000   0.91512964     -7.79393    552.65059  0.022389021  0.022185404            2 
 2058000   0.91199665    -7.772827    553.54313  0.022414283  0.022179237            1 
 2059000   0.92559728   -7.7826657    553.49878  0.022401602  0.022173032            1 
 2060000   0.91980604   -7.7732428    554.15506  0.022417276  0.022166888            5 
 2061000   0.94634605   -7.8094942    552.60955  0.022343909  0.022160653            5 
 2062000   0.91820362   -7.7722798    553.71622  0.022377797  0.022154465            5 
 2063000   0.94294154    -7.772968    554.02136  0.022379276  0.022148206            5 
 2064000   0.90866178   -7.7970226    554.34093  0.022381336  0.022142011            3 
 2065000   0.92559945   -7.7655506    553.89131  0.022352353  0.022135833            3 
 2066000   0.91667962   -7.8374192    552.40242  0.022281479  0.022129612            1 
 2067000   0.92375587   -7.7518816    554.39038  0.022350846  0.022123333            3 
 2068000   0.91941652   -7.7982422     554.8044  0.022356721  0.022117075            4 
 2069000    0.9172606   -7.8003934    554.74727  0.022343615   0.02211083            2 
 2070000   0.94171074   -7.7860617    554.17049  0.022309601  0.022104591            4 
 2071000   0.90392035   -7.7767649     555.5512  0.022354386  0.022098418            2 
 2072000   0.90456475    -7.796982    554.21575  0.022289887  0.022092268            2 
 2073000   0.90216453   -7.7964306    555.14214  0.022316375   0.02208607            1 
 2074000   0.92746322   -7.7973507    555.44902  0.022317945    0.0220799            1 
 2075000   0.91980204   -7.7833053    554.76171  0.022279587  0.022073715            5 
 2076000   0.90135398   -7.7804128    554.69288  0.022266092  0.022067472            6 
 2077000    0.9131745   -7.7818451    554.26938   0.02223838  0.022061275            1 
 2078000   0.92369172   -7.7850772    554.20924  0.022225266  0.022055074            1 
 2079000   0.90796547   -7.7703149    556.17041  0.022293186  0.022048838            1 
 2080000   0.90074168   -7.7406671    556.39545  0.022291484  0.022042669            1 
 2081000   0.92085678   -7.7567408    556.12923  0.022270112  0.022036538            2 
 2082000   0.94673557    -7.796613    556.30792  0.022266567  0.022030406            2 
 2083000   0.93729686   -7.7860312    556.60822  0.022267892  0.022024214            2 
 2084000   0.90328324   -7.7657774    557.25873  0.022283218  0.022018083            1 
 2085000   0.93869929   -7.7983521    555.91575  0.022218855  0.022011972            2 
 2086000   0.91915618   -7.8089171    555.79624  0.022203429  0.022005776            1 
 2087000   0.91857337   -7.7431722    557.32701  0.022253914  0.021999591            3 
 2088000    0.9265812   -7.7675795    557.00341  0.022230341  0.021993446            1 
 2089000   0.90212755   -7.7820295    555.24319  0.022149481  0.021987267            4 
 2090000    0.9126006   -7.7763477    558.24052  0.022258394  0.021981088            1 
 2091000   0.92086788   -7.7467443    558.93388  0.022275382   0.02197497            2 
 2092000   0.92351741   -7.7947302     558.1123  0.022232007   0.02196891            3 
 2093000    0.8957923   -7.7736383    558.07423  0.022219869  0.021962753            1 
 2094000   0.92025233   -7.7632574    558.02167  0.022207166  0.021956603            3 
 2095000   0.92480732   -7.7609607    558.85568  0.022229741  0.021950503            3 
 2096000   0.92034356   -7.7911535    559.23003  0.022234018  0.021944395            2 
 2097000   0.93084942   -7.7972898    556.95893  0.022133164  0.021938184            1 
 2098000   0.92709681   -7.8147315    557.38795  0.022139655  0.021931943            1 
 2099000   0.92325088   -7.7935431    557.44409  0.022131336  0.021925751            1 
 2100000   0.91028931    -7.755695    558.38081  0.022157969  0.021919557            1 
 2101000   0.92251423   -7.7772025     558.8299  0.022165235  0.021913411            2 
 2102000   0.91087291   -7.8094947     558.5176  0.022142309  0.021907235            2 
 2103000   0.90414672   -7.7883056    558.09026  0.022114846  0.021901049            1 
 2104000   0.90838733    -7.800349    559.00561   0.02214059  0.021894897            2 
 2105000   0.91411121   -7.8256678    557.38148  0.022065775  0.021888634            1 
 2106000   0.91728638   -7.7982938    558.94566  0.022117192  0.021882459            2 
 2107000   0.92074057   -7.7877856    560.18632  0.022155763  0.021876316            2 
 2108000    0.9184303   -7.7853928    559.10705  0.022102587  0.021870116            1 
 2109000     0.915223   -7.7778514    558.04394    0.0220501  0.021863959            1 
 2110000   0.92787158   -7.7620568    560.11928  0.022121614  0.021857842            3 
 2111000   0.92149496   -7.7808624    560.48446  0.022125551  0.021851735            2 
 2112000   0.91208342   -7.8006691    559.85394  0.022090197  0.021845553            2 
 2113000   0.92468776    -7.779328    560.49749  0.022105123   0.02183935            3 
 2114000   0.89524504    -7.800612    560.20952  0.022083315  0.021833198            1 
 2115000   0.92438971    -7.823703    559.65061  0.022050851   0.02182704            2 
 2116000   0.91398358   -7.7720279    559.85843  0.022048615  0.021820859            2 
 2117000   0.92106565   -7.8145697    560.93576  0.022080608  0.021814746            4 
 2118000   0.90480923   -7.7853255    560.31191  0.022045637  0.021808614            2 
 2119000   0.88726355   -7.7540139    562.39772  0.022117261  0.021802491            1 
 2120000   0.91566683   -7.7886851    559.99074  0.022012215  0.021796363            3 
 2121000   0.91987666   -7.7658036    561.82274  0.022073815  0.021790257            3 
 2122000   0.91922043   -7.7723924    561.10492  0.022035223  0.021784181            1 
 2123000    0.9277608   -7.7985954     559.8908  0.021977186  0.021778087            1 
 2124000   0.90471795   -7.7967848    560.93613  0.022007852  0.021771975            5 
 2125000   0.92335129   -7.7947118    561.24083  0.022009444  0.021765791            2 
 2126000   0.91205131   -7.7887883     559.9963   0.02195031   0.02175968            1 
 2127000   0.91732685   -7.8312375    561.06538  0.021981875  0.021753558            3 
 2128000   0.90953198   -7.7861149    562.00691  0.022008416  0.021747442            1 
 2129000   0.91839717   -7.7850625    561.19454  0.021966281  0.021741301            4 
 2130000   0.91036242   -7.7575234    563.28263  0.022037661  0.021735165            2 
 2131000   0.90114155   -7.8217635    560.56689   0.02192112  0.021728974            1 
 2132000   0.92250307   -7.7928219    561.03319  0.021929065  0.021722804            2 
 2133000   0.89893072   -7.7672313    562.02192  0.021957412  0.021716647            1 
 2134000   0.91476704   -7.7873441    562.23941  0.021955616  0.021710423            2 
 2135000   0.89757961   -7.7846567    562.65454  0.021961535  0.021704212            2 
 2136000   0.91560963   -7.8009974     562.2941  0.021937192  0.021697989            2 
 2137000   0.89992958   -7.8074976    561.06043  0.021878819  0.021691767            2 
 2138000   0.92550886   -7.8213056    559.91522  0.021823948  0.021685512            2 
 2139000   0.92212421   -7.7975518    562.42161  0.021911392  0.021679246            1 
 2140000   0.91909934   -7.8239125    561.80603  0.021877182  0.021673032            1 
 2141000   0.92364822   -7.7894881    561.14317  0.021841163  0.021666756            2 
 2142000   0.91403845   -7.7997492    561.24615  0.021834973  0.021660462            1 
 2143000   0.93642691   -7.7829455    562.99093  0.021892632  0.021654206            2 
 2144000   0.91589557   -7.8081632     561.3437  0.021818396  0.021647902            3 
 2145000   0.93020477   -7.7821764    562.28917  0.021844956  0.021641645            2 
 2146000    0.8924991    -7.836956    560.95844  0.021783102  0.021635347            1 
 2147000   0.87705216   -7.8137768    563.50501  0.021871798   0.02162904            2 
 2148000   0.92112936   -7.7903286    562.84005  0.021835818  0.021622774            2 
 2149000   0.89961802   -7.8069074    561.24625  0.021763854  0.021616504            3 
 2150000   0.89422271    -7.797507    563.10448  0.021825755  0.021610196            2 
 2151000   0.92362865   -7.8222107    563.25223  0.021821332  0.021603954            5 
 2152000   0.92027828    -7.809419    563.86709  0.021835002  0.021597721            3 
 2153000   0.90328034   -7.7832304    563.72269  0.021819271  0.021591477            1 
 2154000   0.90359058   -7.8144759    562.27048  0.021752959  0.021585277            2 
 2155000   0.89726342   -7.7922727     563.9396  0.021807409  0.021578989       -1e+20 
 2156000   0.92402743    -7.807663    562.70431  0.021749548   0.02157271            1 
 2157000   0.91195256   -7.8418738     562.4098  0.021728087  0.021566369            6 
 2158000   0.90179796    -7.840334    562.22619  0.021710928  0.021560015            1 
 2159000   0.91972249   -7.8666085    561.83046  0.021685597  0.021553622            1 
 2160000     0.925668   -7.8138371    563.45491   0.02173823  0.021547242            1 
 2161000   0.91449492   -7.8706785    560.98102  0.021632771  0.021540889            3 
 2162000   0.90839938    -7.830673    563.35676  0.021714337  0.021534543            2 
 2163000   0.89275344   -7.8124129    563.97947  0.021728289  0.021528268            2 
 2164000   0.88072467   -7.8010589    563.77982   0.02171056  0.021522017            2 
 2165000   0.90980935   -7.8459129     562.4894  0.021650862  0.021515679            1 
 2166000   0.90448028   -7.8148952    564.96213  0.021736001  0.021509417            2 
 2167000   0.91455034   -7.8264467     563.8415  0.021682876  0.021503077            2 
 2168000   0.91685598   -7.8029628    565.07453   0.02172027  0.021496806            1 
 2169000   0.92002897   -7.7978262     564.4369  0.021685757  0.021490554            2 
 2170000   0.90640261   -7.8265536    564.72248  0.021686731  0.021484343            2 
 2171000   0.91706876   -7.8084659    566.03025   0.02172694  0.021478097            2 
 2172000   0.88307566   -7.8698318     564.7974  0.021669636  0.021471811            2 
 2173000   0.91271501   -7.8307386    566.78808  0.021736005  0.021465535            2 
 2174000   0.89686588   -7.8453603    564.22013  0.021627573  0.021459252            2 
 2175000   0.88244445   -7.8321605    565.05225  0.021649512  0.021452963            1 
 2176000   0.89003973   -7.8388634    564.09149  0.021602768   0.02144669            2 
 2177000   0.91068719   -7.8410207    565.05757  0.021629826  0.021440468            6 
 2178000   0.90515614   -7.8074852    566.64096  0.021680477  0.021434227            3 
 2179000   0.91051274    -7.829612    564.90105  0.021603987  0.021427995            2 
 2180000   0.90881088   -7.8320601    565.55203  0.021618961  0.021421758            1 
 2181000   0.91244262   -7.8451559    566.39596  0.021641295  0.021415468            3 
 2182000   0.88809431   -7.8618713    564.40686   0.02155541  0.021409163            2 
 2183000   0.91466767   -7.8491683    565.91916  0.021603266  0.021402858            3 
 2184000   0.89692535   -7.8049346    566.45492  0.021613817  0.021396652            2 
 2185000   0.91001789   -7.8201054    566.69616  0.021613126  0.021390488            3 
 2186000   0.90735352   -7.8555659    565.76139  0.021567604  0.021384271            2 
 2187000   0.88767245   -7.8399324    566.00249  0.021566929  0.021378036            2 
 2188000   0.90804517   -7.8128653    566.41763  0.021572884   0.02137183            3 
 2189000   0.88656462   -7.8626498    565.26776  0.021519254   0.02136566            1 
 2190000   0.92303951   -7.8308679    566.53056  0.021557479  0.021359456            1 
 2191000   0.89807376   -7.8088192    567.83675  0.021597321  0.021353247            3 
 2192000   0.89762621   -7.8300864    567.40581  0.021571085  0.021347047            4 
 2193000   0.91450478    -7.831139    567.31069  0.021557634  0.021340848            2 
 2194000   0.89757409   -7.8273333    567.81261  0.021566872  0.021334625            2 
 2195000   0.91498713   -7.7758687     566.5152   0.02150779  0.021328446            3 
 2196000   0.89719412    -7.821665    567.62015  0.021539927  0.021322272            4 
 2197000   0.90401457   -7.8180808     566.7892  0.021498604  0.021315987            2 
 2198000   0.92487349   -7.8321446    568.45876  0.021552122  0.021309733            1 
 2199000     0.898706   -7.8247773    567.96967  0.021523786  0.021303507            2 
 2200000    0.8921614   -7.8600125    567.18119  0.021484136  0.021297255            3 
 2201000   0.89203809   -7.8219004    567.50458  0.021486619  0.021291085            3 
 2202000   0.90583253   -7.8076451    570.17269  0.021577834  0.021284905            1 
 2203000   0.92549209   -7.8360957    568.42046  0.021501758  0.021278689            1 
 2204000   0.90564446   -7.8194361    569.28424  0.021524661  0.021272503            3 
 2205000   0.90279544   -7.8201174    569.29315  0.021515236  0.021266321            1 
 2206000   0.90262234    -7.855181    568.20132  0.021464238  0.021260103            4 
 2207000   0.92436478   -7.8211201    568.09823  0.021450621  0.021253842            1 
 2208000    0.9032717   -7.8462737    568.36978  0.021451154    0.0212476            8 
 2209000    0.8806765   -7.8270503    568.51918  0.021447079  0.021241352            1 
 2210000   0.89447263   -7.8151591    568.69224    0.0214439  0.021235151            1 
 2211000   0.89961321   -7.8649443    568.04408  0.021409772   0.02122898            2 
 2212000   0.91969867   -7.8631684    568.28295  0.021409093   0.02122273            1 
 2213000   0.88594384   -7.8414046    568.38377  0.021403215  0.021216482            3 
 2214000   0.90387791   -7.8490709    569.72793  0.021444141  0.021210237            1 
 2215000   0.88856239   -7.8587743    568.56919  0.021390865   0.02120401            1 
 2216000   0.92314532   -7.8215506    567.81803  0.021352964  0.021197757            1 
 2217000   0.90575106   -7.8456182     569.6648   0.02141275   0.02119149            3 
 2218000   0.89530267   -7.8304974    569.65908  0.021402881  0.021185286            2 
 2219000   0.90826588   -7.8086791    570.95426  0.021441876  0.021179108            2 
 2220000   0.90539022   -7.8459644    570.05053  0.021398293  0.021172914            1 
 2221000   0.89588742   -7.8471303    569.61623  0.021372363  0.021166722            2 
 2222000    0.9013318   -7.8237664    570.68285  0.021402747  0.021160517            3 
 2223000   0.90211703   -7.8731591    568.37809  0.021306721  0.021154203            7 
 2224000   0.89510593   -7.8704757    568.52962  0.021302818    0.0211479            1 
 2225000   0.89738761   -7.8345835    570.33579  0.021360891  0.021141669            1 
 2226000   0.89778717   -7.8272965     570.4224  0.021354537  0.021135463            4 
 2227000   0.88450118   -7.8651307    570.03258  0.021330361  0.021129247            4 
 2228000   0.88589528   -7.8471287    569.26337  0.021292017  0.021123024            2 
 2229000   0.90239598   -7.8478242    572.61532  0.021407781  0.021116827            3 
 2230000    0.8846541   -7.8307484    571.81659  0.021368333   0.02111065            2 
 2231000   0.90790521    -7.834002    570.75779  0.021319206   0.02110449            4 
 2232000    0.8908289   -7.8451119    572.08086  0.021359053  0.021098277            4 
 2233000   0.89333077    -7.838186    571.01982   0.02130989  0.021092065            2 
 2234000   0.90647019   -7.8654324    570.64704  0.021286446  0.021085855            2 
 2235000   0.90313337   -7.8453408     569.9908  0.021252453   0.02107963            3 
 2236000   0.89254667   -7.8504336    571.03933  0.021282026  0.021073381            4 
 2237000   0.89085301   -7.8471094    570.76557  0.021262314   0.02106722            2 
 2238000   0.90131636   -7.8478855    571.28457  0.021272139  0.021061011            3 
 2239000   0.88127447   -7.8354412      572.067   0.02129176  0.021054853            2 
 2240000    0.8834715   -7.8008334    573.19357  0.021324166  0.021048676            3 
 2241000   0.88891076   -7.8227507    570.62213  0.021219029  0.021042488            1 
 2242000   0.86500224   -7.8735365     571.3047  0.021234935  0.021036253            1 
 2243000   0.89803871   -7.8795643    570.44703  0.021193604  0.021030023            1 
 2244000   0.87840565   -7.8395032    571.69219  0.021230399  0.021023783            1 
 2245000   0.90207067   -7.8133211    573.04093  0.021271007  0.021017606            2 
 2246000   0.90597256   -7.8429948    571.89166  0.021218895  0.021011426            2 
 2247000   0.88613048   -7.8152103    572.21006   0.02122126  0.021005239            3 
 2248000    0.8961856   -7.8435199    569.90617  0.021126415  0.020999017            3 
 2249000   0.90146519   -7.8266277    571.17469  0.021164024  0.020992795            3 
 2250000   0.88978544   -7.8073063    572.27004  0.021195187  0.020986552            3 
 2251000   0.90342262    -7.840002    571.90984  0.021172436  0.020980287            2 
 2252000   0.89999059   -7.8518505    571.34015  0.021141954  0.020974036            4 
 2253000   0.90672238   -7.8289716    572.27483  0.021167141  0.020967807            3 
 2254000   0.88893034   -7.8465311    571.29634  0.021121574  0.020961514            3 
 2255000   0.89391239   -7.8432008    572.39885  0.021152951  0.020955259            1 
 2256000   0.89191144   -7.8230944    573.97711  0.021201873  0.020949018            5 
 2257000   0.89742338   -7.8523573    572.33854   0.02113198  0.020942794            2 
 2258000   0.90130241   -7.8696877    571.58678  0.021094877  0.020936552            1 
 2259000   0.88813939   -7.8780884    572.66313  0.021125245   0.02093029            2 
 2260000   0.88204279   -7.8369265    572.76708   0.02111973  0.020924033            2 
 2261000   0.89743981    -7.838324    572.96027  0.021117509   0.02091773            2 
 2262000   0.88667634   -7.8345734    573.55388  0.021130043   0.02091143            2 
 2263000     0.888545   -7.8369948    572.92124  0.021097409  0.020905193            1 
 2264000   0.87559695   -7.8365256    572.89401  0.021087088  0.020898934            1 
 2265000   0.89035059   -7.8598338    573.19202  0.021088742  0.020892713            2 
 2266000   0.88438958   -7.8473532    573.15387  0.021078033  0.020886447            1 
 2267000    0.8894761    -7.867327     573.2885  0.021073684  0.020880164            1 
 2268000   0.90116651   -7.8436744    574.16173  0.021096477  0.020873946            4 
 2269000   0.88975677   -7.8683297    574.39483  0.021095741  0.020867717            1 
 2270000   0.87120934   -7.8550021    572.47736  0.021016056  0.020861451            3 
 2271000   0.89014393   -7.8359274    573.59612  0.021047854  0.020855199            1 
 2272000   0.89312812   -7.8702264    572.74137  0.021007239  0.020848918            2 
 2273000   0.89016556   -7.8877917    573.55095  0.021027678  0.020842642            2 
 2274000   0.88126874   -7.8676921    573.37075  0.021011828  0.020836326            3 
 2275000   0.87856149   -7.8933265    571.58921  0.020937334  0.020829943            3 
 2276000   0.87119741   -7.8244552    572.90947  0.020976474  0.020823568            2 
 2277000   0.89252832   -7.8810885    572.32471  0.020945861  0.020817187            2 
 2278000   0.90316403   -7.8699815    574.01566  0.020998524  0.020810842            1 
 2279000   0.89285253   -7.8552037    573.51047  0.020970838  0.020804538            2 
 2280000   0.89175471   -7.8449078    573.36825  0.020956442  0.020798248            2 
 2281000   0.86321556   -7.8275426    574.61732  0.020992888  0.020791961            2 
 2282000    0.8650211   -7.8549413    574.47743   0.02097858  0.020785678            3 
 2283000   0.87672038   -7.8526093    575.05269  0.020990389  0.020779391            4 
 2284000    0.8618651   -7.8363141     575.5384   0.02099892  0.020773146            2 
 2285000   0.87303029   -7.8455803    573.70188  0.020922753  0.020766867            3 
 2286000    0.8876948   -7.8459259    573.74886  0.020915313  0.020760579            2 
 2287000   0.91577864   -7.8499222    575.13741  0.020956763  0.020754299            3 
 2288000   0.88079992   -7.8531356    574.70044  0.020931688  0.020748033            1 
 2289000   0.88990244   -7.8385615    576.52812  0.020989083  0.020741796            2 
 2290000   0.89419917   -7.8518122    574.99209  0.020924021  0.020735574            1 
 2291000   0.89472581   -7.8664007    574.56293  0.020899277  0.020729322            3 
 2292000   0.89431522   -7.8933028    573.58857  0.020854733  0.020722957            4 
 2293000   0.89500756    -7.870849    574.29773   0.02087141  0.020716615            1 
 2294000   0.86973543   -7.8345106    574.91324  0.020884671  0.020710283            2 
 2295000   0.89081656   -7.8713482    575.92894  0.020912452  0.020703989            2 
 2296000    0.8962733   -7.8954857    574.01337  0.020833818  0.020697654            3 
 2297000   0.87857026   -7.8434043    576.22442  0.020904964  0.020691349            2 
 2298000   0.88657297   -7.8862284    575.15078  0.020856933  0.020685099            2 
 2299000   0.87618471   -7.9117478    575.39381   0.02085667  0.020678778            2 
 2300000   0.88735354   -7.8473552    576.84697  0.020900252   0.02067252            3 
 2301000   0.89366719   -7.8699875    576.95842  0.020895206  0.020666262            2 
 2302000    0.8781482   -7.8588513    574.81626  0.020808582  0.020659973            1 
 2303000   0.87609369   -7.8496517    576.39445  0.020856652  0.020653689            3 
 2304000   0.89469127   -7.8861517    575.73377  0.020823704  0.020647424            2 
 2305000   0.90187803   -7.8635337    575.12212  0.020792557   0.02064112            1 
 2306000   0.89104266   -7.8642493    577.13316  0.020856214   0.02063483            1 
 2307000   0.87213594   -7.8222956     577.6067  0.020864279  0.020628547            2 
 2308000    0.8912784   -7.8720503    576.14659   0.02080252  0.020622285            2 
 2309000   0.86415486   -7.8590893    575.50745  0.020770444  0.020615996            2 
 2310000   0.88035052    -7.877383    575.20107  0.020750399  0.020609681            1 
 2311000   0.88185867   -7.8518336    577.02338  0.020807132  0.020603342            1 
 2312000   0.87495443   -7.9013613    574.69626  0.020714254  0.020596969            1 
 2313000   0.88207422   -7.8738641    576.34584   0.02076473  0.020590617            1 
 2314000   0.88545227    -7.884958    576.35743  0.020756174   0.02058427            3 
 2315000   0.88174298   -7.8944034    577.04549  0.020771976  0.020577973            2 
 2316000   0.85782228   -7.8847979    576.77753  0.020753365   0.02057161            2 
 2317000   0.86861489   -7.9288041    575.53717  0.020699797  0.020565188            1 
 2318000   0.88762139   -7.8694069    577.46179  0.020760058  0.020558807            2 
 2319000   0.88065552   -7.9130336     575.5924   0.02068393  0.020552465            3 
 2320000   0.89210805   -7.8799954    577.95433  0.020759854  0.020546132            3 
 2321000   0.88934733   -7.8736233    576.48385  0.020698113  0.020539856            2 
 2322000   0.89140705   -7.8598176    578.20002   0.02075079  0.020533596            1 
 2323000   0.87022753   -7.9019241     576.2851  0.020673163  0.020527266            3 
 2324000   0.89030532   -7.9000948    576.75684  0.020681183  0.020520931            3 
 2325000   0.87928486   -7.8865351    576.64745  0.020668367  0.020514584            2 
 2326000   0.87326376   -7.8731837    576.90812  0.020668821  0.020508267            1 
 2327000   0.87622209   -7.8745895    577.34988  0.020675758  0.020502007            3 
 2328000   0.89710334   -7.8835881    579.21624  0.020733686  0.020495692            1 
 2329000    0.8863357   -7.8846815     577.2839  0.020655642  0.020489352            1 
 2330000   0.88936451   -7.8779469    577.10202  0.020640272  0.020482996            1 
 2331000   0.88793322   -7.9039802    577.88097  0.020659265  0.020476685            2 
 2332000   0.88256645    -7.882919    577.98299  0.020654052  0.020470347            4 
 2333000   0.87681267   -7.8914378    577.34775  0.020622509  0.020464029            2 
 2334000   0.87380487   -7.9081014    576.59501  0.020586797  0.020457702            2 
 2335000   0.89882229   -7.8509551    578.71671  0.020653701  0.020451346            4 
 2336000   0.88619754   -7.8621737    578.61356   0.02064118  0.020445031            4 
 2337000   0.86059375   -7.8826707    578.17932  0.020616864   0.02043875            1 
 2338000   0.88696896   -7.8849218    577.68141  0.020590298  0.020432452            3 
 2339000   0.88376465   -7.8720854    578.02018  0.020593565  0.020426179            2 
 2340000   0.88180253    -7.848946    578.82503  0.020613427  0.020419931            2 
 2341000   0.88451267   -7.8469557    579.05438  0.020612786  0.020413674            3 
 2342000   0.87638249     -7.85492    578.61454  0.020588334  0.020407417            2 
 2343000   0.88920347   -7.8579684    578.86184  0.020588343  0.020401143            2 
 2344000   0.89137856     -7.85731    579.43518  0.020599942  0.020394916            3 
 2345000    0.8725396   -7.8525191     579.1992  0.020582772  0.020388649            2 
 2346000   0.89326643   -7.8695298    578.26921  0.020540964  0.020382341            4 
 2347000   0.86499981   -7.9157156    578.47275  0.020539438  0.020376028            8 
 2348000   0.87694601   -7.9034491    576.70881  0.020468087  0.020369688            1 
 2349000   0.88718362    -7.874092    577.93663  0.020502931  0.020363407            2 
 2350000   0.88292579   -7.8749881    578.35407   0.02050901  0.020357085            3 
 2351000   0.88538093   -7.9039581    580.08832  0.020561758  0.020350734            1 
 2352000   0.86204189   -7.8768123    578.39494  0.020493018  0.020344412            1 
 2353000   0.88084895    -7.883519    578.89999  0.020502195   0.02033809            2 
 2354000   0.86277385   -7.8652513    578.84145  0.020491414  0.020331768            2 
 2355000   0.85339717   -7.8965108    580.09667  0.020527129  0.020325474            1 
 2356000   0.85700563   -7.9129982    578.93859  0.020477454  0.020319148            2 
 2357000   0.86983984     -7.90559    578.53644  0.020454548  0.020312824            1 
 2358000   0.86805738   -7.9165024     579.3555   0.02047482  0.020306516            2 
 2359000   0.88045025   -7.8711765    579.73212  0.020479445  0.020300215            3 
 2360000   0.88467595   -7.9089805     578.4204  0.020424449  0.020293858            3 
 2361000   0.86923798    -7.886711    579.11709  0.020440388  0.020287529            4 
 2362000   0.86345119   -7.8867745      577.935   0.02039003  0.020281167            1 
 2363000   0.85977895   -7.8955871    578.73735  0.020409696  0.020274837            1 
 2364000   0.88085688   -7.8855414    578.75681  0.020401749   0.02026848            1 
 2365000   0.87785938   -7.8764861    578.52371  0.020384909  0.020262155            1 
 2366000   0.87632999   -7.8852509    578.16293  0.020363586  0.020255836            1 
 2367000   0.87581284    -7.882168    578.85194   0.02037924  0.020249492            1 
 2368000   0.86909049   -7.8761199     578.2736  0.020350281  0.020243167            1 
 2369000     0.870452   -7.9119228    579.56844  0.020387239  0.020236828            1 
 2370000   0.85631664   -7.8990378    581.06163   0.02043114   0.02023051            2 
 2371000   0.85742018   -7.9132781    581.20486  0.020427557  0.020224122            3 
 2372000   0.88142169    -7.877703    579.34954  0.020353764  0.020217777            1 
 2373000   0.85197279   -7.9033616    578.33624  0.020309602  0.020211435            2 
 2374000   0.85459108   -7.9143818    579.91601  0.020356501  0.020205082            1 
 2375000   0.89519265   -7.8975211    580.59105  0.020371616  0.020198726            2 
 2376000   0.87871129   -7.8855683    580.05991  0.020344413  0.020192386            1 
 2377000   0.86270426   -7.9267392    579.32804  0.020310196  0.020186032            1 
 2378000   0.87331048    -7.877175    580.61489  0.020346751  0.020179643            2 
 2379000   0.85800034   -7.9105732    579.89031  0.020312817  0.020173284            1 
 2380000   0.87491464   -7.8757564    581.84286  0.020372649  0.020166906            1 
 2381000    0.8674004   -7.9327223    579.98122  0.020298937  0.020160505            5 
 2382000    0.8833369   -7.8960493    580.36495   0.02030384  0.020154126            2 
 2383000   0.86892683   -7.9094017    580.21475  0.020290067   0.02014776            5 
 2384000   0.89037554    -7.904917     580.6819  0.020297885  0.020141421            1 
 2385000   0.88262301   -7.8960974    579.91587  0.020262609  0.020135079            3 
 2386000   0.85555295   -7.9342547    578.99938  0.020222108  0.020128733            1 
 2387000   0.87928147   -7.9297895    579.75099  0.020239875  0.020122384            2 
 2388000   0.89114228   -7.9180567     581.0018  0.020275049   0.02011606            1 
 2389000    0.8660026   -7.8830291    581.93122  0.020298982  0.020109703            2 
 2390000   0.85590043   -7.8592215    580.61513    0.0202446  0.020103338            1 
 2391000   0.86158192   -7.9352306    580.71875  0.020239745  0.020096984            1 
 2392000   0.85789411   -7.9255103    579.88863  0.020202363  0.020090604            3 
 2393000   0.87961148   -7.9301904    580.03174  0.020198904  0.020084161            3 
 2394000   0.87269468   -7.8763499    582.51558  0.020276928  0.020077774            1 
 2395000   0.86817277    -7.919986    580.32726  0.020192319  0.020071407            1 
 2396000   0.85332539   -7.8916866    582.49784  0.020259385  0.020065037            3 
 2397000   0.87740522   -7.9330848    580.15986  0.020169652  0.020058682            1 
 2398000    0.8636426   -7.9251514    580.86413  0.020185715  0.020052278            3 
 2399000   0.85617726   -7.9104716    580.47307  0.020163717  0.020045886            2 
 2400000   0.87507532    -7.944838    579.84035  0.020133345  0.020039505            3 
 2401000    0.8642534   -7.9086378    581.82677  0.020193904  0.020033126            3 
 2402000   0.86485649   -7.8686129    582.55145  0.020210639  0.020026825            1 
 2403000   0.86650852   -7.9089167    583.06624  0.020220081  0.020020531            2 
 2404000   0.87023893   -7.8777554    582.39898  0.020188539  0.020014226            1 
 2405000   0.87040738   -7.8863408    584.51887  0.020253599  0.020007908            1 
 2406000   0.86441094     -7.91122    580.90561  0.020120034  0.020001563            3 
 2407000   0.87042651   -7.9382159    581.36757  0.020127668  0.019995246            2 
 2408000   0.87781075   -7.8884945    583.24441  0.020184261  0.019988955            1 
 2409000   0.87680831   -7.8897456    581.92608  0.020130278  0.019982655            2 
 2410000   0.88217821   -7.9373301    582.31183  0.020135264  0.019976322            2 
 2411000   0.85130795   -7.9277947    582.10963  0.020119924  0.019969952            2 
 2412000   0.87711494   -7.9065436    582.49038  0.020124737  0.019963625            1 
 2413000   0.86543899   -7.9092973    583.03973  0.020135368  0.019957339            2 
 2414000   0.86727567   -7.8948415    582.69166  0.020115012  0.019951075            4 
 2415000   0.86924381   -7.8812222    584.87115  0.020181889  0.019944814            2 
 2416000   0.87381912   -7.9468127    583.11931  0.020113111  0.019938576            3 
 2417000    0.8773397   -7.9115384    582.94669  0.020098838  0.019932284            2 
 2418000   0.88802605   -7.9318098    582.30836  0.020068526  0.019926012            1 
 2419000   0.87906426    -7.931381    583.55689  0.020103241  0.019919726            3 
 2420000   0.89613669   -7.9336533    582.18076  0.020047547  0.019913397            1 
 2421000   0.87985218   -7.9023073    584.52074  0.020119811  0.019907072            1 
 2422000   0.87406943   -7.9187347    581.98346  0.020024204   0.01990073            5 
 2423000   0.85099972   -7.9477057    582.92006  0.020048152  0.019894397            1 
 2424000   0.89328876    -7.967104    581.59761  0.019994417  0.019888048            1 
 2425000   0.85914471   -7.9291872    582.77952  0.020026788  0.019881699            3 
 2426000   0.86301408   -7.9075383    585.31127  0.020105498  0.019875419            2 
 2427000   0.86446125   -7.9517255    583.93972  0.020050121  0.019869149            1 
 2428000   0.86879264   -7.9226767    583.30384  0.020020038  0.019862831            1 
 2429000   0.85286939   -7.9388013    582.07435  0.019969615  0.019856494            2 
 2430000   0.90076973   -7.9248759    584.44267  0.020042615  0.019850177            2 
 2431000    0.8705477   -7.9438071    583.36015  0.019997263  0.019843869            5 
 2432000   0.85934194   -7.9275447    585.62678  0.020066707  0.019837554            2 
 2433000   0.86313264   -7.9172474    584.11317  0.020006616  0.019831274       -1e+20 
 2434000   0.89545616   -7.9351361    583.77835  0.019986933  0.019825006            2 
 2435000   0.88297584   -7.8662984    585.78361  0.020047352  0.019818756            2 
 2436000   0.85242977   -7.9158706    584.55055   0.01999694  0.019812479            2 
 2437000   0.87159949   -7.9546752     583.0316  0.019936794  0.019806153            3 
 2438000   0.86263585   -7.9278248    582.49824  0.019910386  0.019799825            1 
 2439000   0.86337326   -7.8727659    585.34843  0.019999605  0.019793573            2 
 2440000   0.85314594   -7.9138764    585.74951  0.020005106  0.019787329            2 
 2441000   0.83358772   -7.9309319    582.91218  0.019900047  0.019781042            1 
 2442000   0.86838428    -7.921979    584.43729  0.019943942  0.019774746            3 
 2443000   0.86127433   -7.9392666    584.80821  0.019948431  0.019768475            1 
 2444000   0.86021641   -7.8952837     585.5897  0.019966916  0.019762182            2 
 2445000   0.86938769   -7.9434877    586.29134  0.019982663   0.01975595            1 
 2446000    0.8605228   -7.9333432    585.22966  0.019938323  0.019749729            2 
 2447000   0.86120746   -7.9267524    586.15472  0.019961678  0.019743499            1 
 2448000   0.86405095   -7.9472788    584.61259  0.019901028   0.01973729            2 
 2449000    0.8616287   -7.9266939    585.09321  0.019909256  0.019731047            1 
 2450000   0.87976894   -7.9091544    585.86401  0.019927347  0.019724813            4 
 2451000   0.85002602   -7.9339905     586.3505  0.019935757  0.019718561            1 
 2452000   0.85848338   -7.9117488    585.73539  0.019906722  0.019712329            3 
 2453000    0.8519821    -7.929419    584.53904  0.019857965  0.019706077            1 
 2454000      0.85189   -7.9317965    585.30932  0.019876029  0.019699841            2 
 2455000   0.85596044   -7.9318941    585.32373  0.019868423  0.019693585            3 
 2456000   0.85402776   -7.9390415    583.97358  0.019814521   0.01968731            2 
 2457000   0.87053527   -7.9331749    585.15034  0.019846369   0.01968103            3 
 2458000   0.85586501   -7.9569342    588.53385  0.019953006  0.019674761            2 
 2459000   0.83659461   -7.9422426     584.8975  0.019821659  0.019668498            4 
 2460000    0.8600374   -7.8924381    587.42364  0.019899175  0.019662303            2 
 2461000    0.8625029   -7.8797921    585.94487  0.019841015  0.019656103            5 
 2462000   0.87253496   -7.9096331     586.7616  0.019860601  0.019649929            1 
 2463000   0.85188439   -7.9120557    587.60178  0.019880964  0.019643699            3 
 2464000   0.85950948   -7.9064663    586.98267  0.019851957  0.019637518            1 
 2465000    0.8749634   -7.8839626    587.54905  0.019863051   0.01963136            2 
 2466000   0.86614867   -7.9261954    588.45029  0.019885452  0.019625222            3 
 2467000   0.85817668   -7.9439354    587.03815   0.01982969  0.019619055            2 
 2468000   0.84309209   -7.9453342     588.2926  0.019864013  0.019612819            2 
 2469000   0.83365957   -7.9432266    587.05208  0.019814098  0.019606596            2 
 2470000   0.84125136   -7.9463889    586.80502   0.01979774  0.019600349            1 
 2471000   0.86216741    -7.959782    587.74709  0.019821499  0.019594096            2 
 2472000   0.85440098   -7.9497114    586.65988   0.01977683  0.019587868            1 
 2473000   0.85739595   -7.9487408     587.9834  0.019813432  0.019581641            2 
 2474000   0.84949705   -7.9688994    587.38134  0.019785144  0.019575382            2 
 2475000   0.87053161   -7.9529787    587.07849  0.019766952   0.01956913            1 
 2476000   0.87603065   -7.9235674    588.27587  0.019799269  0.019562921            3 
 2477000   0.86652067    -7.940187    585.65784  0.019703197  0.019556705            2 
 2478000   0.87204868   -7.9553063    587.16851  0.019746049  0.019550485            5 
 2479000   0.86256426   -7.9269367    587.45992   0.01974788  0.019544272            2 
 2480000   0.84510012   -7.9469067    588.91876  0.019788937  0.019538082            1 
 2481000   0.82590531   -7.9031504    589.28773  0.019793354   0.01953192            3 
 2482000   0.85928469   -7.9333674     588.9708  0.019774738  0.019525807            2 
 2483000   0.85913478   -7.9212952    588.55373  0.019752777  0.019519651            1 
 2484000   0.84629959   -7.9367194     588.0249  0.019727083   0.01951351            2 
 2485000   0.85444207   -7.9333353    589.17169  0.019757602  0.019507336            1 
 2486000   0.87136991   -7.9483362    588.39528  0.019723628  0.019501192            3 
 2487000   0.84841282   -7.9703364    588.35667  0.019714404   0.01949503            3 
 2488000   0.83659763   -7.9438403    588.44253  0.019709356  0.019488863            2 
 2489000   0.83732274   -7.9278022    589.45573   0.01973536   0.01948272            4 
 2490000   0.85294423   -7.9310618    588.64632  0.019700345  0.019476529            4 
 2491000   0.85042867   -7.9434849    589.00133  0.019704313  0.019470359            1 
 2492000    0.8726364   -7.9383045    588.39318  0.019676069  0.019464195            2 
 2493000   0.86959532   -7.9551576    588.94085  0.019686484  0.019458061            2 
 2494000   0.86042063   -7.9396257     590.6625  0.019736117  0.019451913            3 
 2495000   0.84803614    -7.947668     589.1122  0.019676426  0.019445788            1 
 2496000    0.8355168   -7.9436903    588.87452  0.019660608  0.019439664            2 
 2497000   0.85983619   -7.9711821    588.82077   0.01965094  0.019433483            2 
 2498000   0.84648788   -7.9959533    588.18426  0.019621839  0.019427314            1 
 2499000   0.86472956   -7.9812325    588.85305   0.01963629  0.019421183            2 
 2500000   0.85277938   -7.9746889    589.24308  0.019641436  0.019415044            1 
 2501000   0.85680529   -7.9906346    588.56035  0.019610834  0.019408936            2 
 2502000   0.85269778   -7.9586092    590.31117   0.01966131  0.019402825            2 
 2503000   0.84363083   -7.9551421    591.18728  0.019682624   0.01939669            2 
 2504000   0.84500625   -7.9586676    590.77911  0.019661179  0.019390613            4 
 2505000   0.86172257   -7.9331645    589.91894  0.019624715  0.019384508            2 
 2506000   0.85679728   -7.9284014    589.18204   0.01959238   0.01937838            2 
 2507000   0.84348646   -7.9402105    591.35858  0.019656913  0.019372269            3 
 2508000    0.8562541    -7.960213    589.63902   0.01959194  0.019366154            2 
 2509000   0.83666529   -7.9712219    589.41396  0.019576656  0.019360032            2 
 2510000   0.86096486   -7.9614192    588.74734  0.019546724  0.019353889            4 
 2511000   0.83391773   -7.9121299    592.09097  0.019649906  0.019347791            2 
 2512000   0.85926568   -7.9324891    590.69822   0.01959588  0.019341751            2 
 2513000   0.83708723   -7.9838136    589.86326  0.019560395  0.019335689            2 
 2514000   0.84148427   -7.9508114    590.12589   0.01956132  0.019329606            2 
 2515000   0.82953147   -7.9541465    590.21645  0.019556542  0.019323492            4 
 2516000   0.85145058   -7.9505742    591.27831   0.01958394  0.019317395            2 
 2517000   0.86115256    -7.960367    589.53697  0.019518506   0.01931127            2 
 2518000   0.84926762   -7.9624175    590.88079  0.019555229  0.019305145            2 
 2519000   0.84374152   -7.9162519    590.68233    0.0195409  0.019299015            3 
 2520000    0.8432395   -7.9407423    590.75195  0.019535448  0.019292925            2 
 2521000   0.85075304   -7.9495411    590.69729  0.019525892   0.01928678            3 
 2522000   0.84810565   -8.0011909    590.14027  0.019499744  0.019280615            1 
 2523000   0.85753228   -7.9574761    590.85633  0.019515667  0.019274394            2 
 2524000   0.84413754   -7.9752351    589.26837  0.019455506  0.019268201            3 
 2525000   0.82596978   -7.9487571    588.35801  0.019417756  0.019262005            3 
 2526000   0.85436478   -7.9601086    590.75095  0.019489013    0.0192558            3 
 2527000   0.83509047   -7.9473212     589.7069  0.019446871  0.019249643            2 
 2528000   0.85180353   -7.9589319    591.50872  0.019498573  0.019243484            2 
 2529000   0.84212541   -7.9405402    589.99546     0.019441  0.019237347            2 
 2530000   0.83943251   -7.9941932    590.63224   0.01945429  0.019231155            2 
 2531000   0.85118199   -7.9907251    590.35561  0.019437495  0.019224996            1 
 2532000   0.82578318   -7.9640895    589.66974  0.019407245  0.019218798            1 
 2533000   0.84034877   -7.9711048    591.19242  0.019449678  0.019212607            2 
 2534000   0.83354455   -7.9572476    590.90715  0.019432621  0.019206447            4 
 2535000   0.85146371   -7.9637714    591.61114  0.019448098  0.019200264            1 
 2536000   0.84895408   -8.0048769     590.8696  0.019416062  0.019194099            3 
 2537000   0.84282869   -7.9983041    590.62081  0.019400237  0.019187938            2 
 2538000   0.82102527   -7.9716431    591.16207  0.019410365  0.019181771            1 
 2539000   0.83918312   -7.9790117    590.32268   0.01937517  0.019175644            2 
 2540000   0.84761026   -7.9641088    592.97883  0.019454686  0.019169508            2 
 2541000   0.82939107   -7.9497129    592.79278  0.019440928  0.019163383            1 
 2542000   0.85162645   -7.9398999    592.31767  0.019417705  0.019157288            4 
 2543000   0.82856881    -7.935194    592.72574  0.019423441   0.01915117            2 
 2544000   0.85556843   -7.9715349    591.67356   0.01938134  0.019145035            2 
 2545000   0.83702891   -7.9939381    591.78914  0.019377509  0.019138928            5 
 2546000   0.85274983   -7.9918722    591.82672  0.019371128  0.019132786            1 
 2547000   0.85176415   -8.0012212    591.87952  0.019365251  0.019126647            2 
 2548000   0.86885236   -7.9771372    592.34882  0.019372999  0.019120535            1 
 2549000   0.86298019   -7.9324577    592.27617  0.019363024  0.019114437            1 
 2550000   0.85715046   -7.9829665    591.51395  0.019330521  0.019108372            2 
 2551000   0.85085024   -7.9917738    592.14106   0.01934343  0.019102295            3 
 2552000   0.84116664   -7.9476549     592.8299  0.019358343  0.019096209            2 
 2553000   0.83406536    -7.937269    593.27508  0.019365292  0.019090128            2 
 2554000   0.83838505   -7.9803362    592.32261  0.019326632  0.019084085            2 
 2555000   0.85055369   -8.0078784    592.98984   0.01934083  0.019077982            2 
 2556000   0.83944686   -7.9977495    591.73031  0.019292198  0.019071852            1 
 2557000   0.84104301    -7.968396    592.91286  0.019323193  0.019065753            2 
 2558000   0.84136441   -7.9990664    592.95909  0.019317145  0.019059655            2 
 2559000   0.85712376   -7.9887475     592.4352  0.019292536  0.019053579            1 
 2560000   0.83042618   -8.0128867    593.00333  0.019303494  0.019047514            1 
 2561000   0.86463011   -7.9917564    593.76451  0.019320725  0.019041423            2 
 2562000   0.86546493   -7.9792184    593.85409  0.019316097  0.019035351            1 
 2563000   0.84733752   -7.9800243    592.57805  0.019267072   0.01902928            3 
 2564000   0.83154393   -7.9598165     594.4491  0.019320369  0.019023207            3 
 2565000   0.84035989   -7.9908124    593.46227  0.019280775  0.019017112            2 
 2566000   0.82547767   -8.0055358    593.15993  0.019263443  0.019011017            1 
 2567000   0.84171135   -7.9804043     593.2969  0.019260385  0.019004976            3 
 2568000   0.83322076   -7.9798559    594.22175  0.019282897  0.018998943            1 
 2569000   0.83668904   -7.9733394    594.42661  0.019282036  0.018992895            4 
 2570000   0.83371789   -7.9587587    593.78095  0.019253598  0.018986858            5 
 2571000   0.84491866   -7.9628833     595.3712  0.019297653  0.018980811            2 
 2572000   0.84629232     -7.96006    595.05775  0.019279994  0.018974749            2 
 2573000   0.83026724   -7.9912549    593.79594  0.019231634  0.018968686            2 
 2574000   0.84789618    -7.998036    592.01843  0.019166616  0.018962606            1 
 2575000   0.83995028    -7.952558    593.22209  0.019198126  0.018956548            1 
 2576000    0.8450677   -8.0091259    591.73196  0.019142468  0.018950451            3 
 2577000   0.84908414   -8.0651533    592.47654  0.019159117  0.018944343            2 
 2578000    0.8564461   -7.9684433    594.49216   0.01921684  0.018938261            3 
 2579000    0.8286556   -7.9758132    593.95391  0.019191997  0.018932257            7 
 2580000   0.83679186   -7.9803872    595.69526  0.019240803  0.018926208            1 
 2581000   0.84883984   -7.9696528    593.68286  0.019168373   0.01892016            1 
 2582000   0.82636453   -8.0196508    594.26904  0.019179868  0.018914065            2 
 2583000   0.83958657   -7.9991732    594.63553  0.019184267  0.018908011            1 
 2584000   0.83876038   -8.0059236    594.18784  0.019162405   0.01890196            3 
 2585000   0.83181131    -7.982149    595.09039  0.019184087  0.018895916            2 
 2586000   0.85171911   -7.9843198    594.57949  0.019160205  0.018889901            2 
 2587000   0.86403584     -7.99702    593.51402  0.019118478  0.018883875            8 
 2588000   0.83845511   -7.9892356    594.87287  0.019154845   0.01887785            1 
 2589000   0.80864055   -7.9970504    594.99032  0.019151227  0.018871776            1 
 2590000   0.85221217   -7.9921035    594.39921  0.019124814  0.018865775            5 
 2591000   0.84191372   -7.9540401    595.89901   0.01916567  0.018859747            2 
 2592000   0.84146783   -7.9742441    594.78126   0.01912234  0.018853747            2 
 2593000   0.83386275   -8.0044606    595.82944  0.019148652  0.018847742            2 
 2594000   0.85098201    -7.947201    596.16805  0.019152148  0.018841774            2 
 2595000    0.8395057   -8.0021977    595.91128  0.019136521  0.018835826            2 
 2596000   0.83042785   -7.9790021    595.34934  0.019111111  0.018829876            3 
 2597000   0.83580489   -7.9442745    597.20983  0.019163452  0.018823924            4 
 2598000   0.84177511   -7.9725259    596.04162  0.019118605  0.018817964            3 
 2599000   0.83124833   -7.9816881    596.67938  0.019131697  0.018811996            1 
 2600000   0.83829641   -7.9725817    597.50182  0.019150699  0.018805997            2 
 2601000   0.84275579   -8.0377339     595.1168  0.019066923  0.018799994            2 
 2602000   0.84460051   -8.0140909    596.17485  0.019093481  0.018794008            3 
 2603000     0.820886    -8.004137    596.93649  0.019110529  0.018788013            2 
 2604000   0.84205892   -8.0000221    594.87198  0.019037122  0.018782034            1 
 2605000   0.83793245   -7.9966556    596.57707  0.019084359  0.018776051            2 
 2606000   0.85729895   -8.0391034    595.23324  0.019034064  0.018770096            1 
 2607000    0.8293708   -7.9975186    596.25147  0.019059311  0.018764146            2 
 2608000   0.82616258   -8.0039076    596.86884  0.019071729  0.018758224            3 
 2609000   0.84556782   -8.0065865    596.76559  0.019061121  0.018752298            7 
 2610000   0.83849638   -7.9991905    597.51326   0.01907769  0.018746387            2 
 2611000   0.83150957    -8.010803    597.92148  0.019083413  0.018740482            2 
 2612000   0.85094709    -7.979353    596.84946  0.019041905  0.018734604            1 
 2613000   0.82651617   -7.9637885    598.81256  0.019097224  0.018728728            1 
 2614000   0.83411051   -8.0102122    596.66998  0.019021614  0.018722838            3 
 2615000   0.83766842   -8.0098011    597.38786  0.019037217  0.018716905            4 
 2616000   0.82585264   -8.0190827    596.07782  0.018988208   0.01871098            3 
 2617000   0.83368745   -7.9780001     598.1493  0.019046914  0.018705088            2 
 2618000   0.83858906   -7.9787854    598.45291  0.019049303  0.018699247            3 
 2619000     0.835761   -7.9951544    597.10583  0.018999167  0.018693409            2 
 2620000    0.8400317    -7.982236    598.57055  0.019038504   0.01868756            2 
 2621000   0.82711924   -7.9567779    599.65272  0.019065647  0.018681754            2 
 2622000   0.81746428    -7.987195    597.85048  0.019001096  0.018675951            2 
 2623000   0.82175738   -7.9892833    599.41976  0.019043708  0.018670112            2 
 2624000   0.83887964    -7.984187    598.36296  0.019002889  0.018664259            3 
 2625000   0.85425084   -7.9581704     598.0109  0.018984473  0.018658389            2 
 2626000   0.85198272   -8.0490778    597.35138  0.018956314   0.01865248            3 
 2627000   0.81466259   -7.9926193    599.97615  0.019032361  0.018646604            3 
 2628000   0.84571498   -8.0110103    599.99223  0.019025629  0.018640749            2 
 2629000   0.83863691   -8.0396667    597.93218  0.018953093  0.018634841            2 
 2630000   0.81274823   -8.0307946    597.76829  0.018940693  0.018628949            3 
 2631000   0.82429433   -7.9966961      598.912   0.01896972  0.018623059            1 
 2632000   0.84200787    -8.022298    599.27612  0.018974041  0.018617181            2 
 2633000   0.84306101    -7.963266    600.47418  0.019004753  0.018611347            2 
 2634000   0.83376407   -8.0026057    598.90024  0.018947742  0.018605519            1 
 2635000   0.81610077   -7.9933225    598.85908   0.01893925  0.018599686            4 
 2636000     0.834523   -8.0035396    599.63162  0.018956488  0.018593862            4 
 2637000   0.83050689   -8.0058926    598.88354  0.018925659  0.018588007            1 
 2638000   0.82429777   -7.9749554    599.71731  0.018944823   0.01858217            5 
 2639000   0.84132377   -8.0151987     597.7275   0.01887481  0.018576312            2 
 2640000   0.83069597   -7.9995716    600.25035  0.018947296  0.018570472            1 
 2641000   0.83895287   -8.0132306    598.75882  0.018893059  0.018564564            2 
 2642000   0.81327547    -8.022746     599.4545  0.018907851  0.018558699            2 
 2643000   0.81486587   -8.0009368    599.78367  0.018911075  0.018552845            1 
 2644000   0.80538853   -8.0104434    599.23037  0.018886484  0.018547005            2 
 2645000   0.82678549   -7.9868494     600.3452  0.018914467   0.01854116            3 
 2646000   0.82285869   -8.0355101    600.21791   0.01890331  0.018535276            1 
 2647000   0.82848335   -8.0128246    598.52271    0.0188428  0.018529412            2 
 2648000   0.81463443   -8.0419302    598.21502  0.018826001  0.018523538            3 
 2649000   0.82655565   -8.0262412    598.76074  0.018836062  0.018517639            3 
 2650000   0.82599537   -8.0036026    597.70574  0.018795778  0.018511749            3 
 2651000   0.83281711   -8.0150264    599.94612  0.018859114  0.018505849            2 
 2652000   0.82963532   -8.0308073    599.90913   0.01885084  0.018499974            3 
 2653000   0.83379259   -8.0030444    599.72684  0.018838009   0.01849408            2 
 2654000   0.83335566   -8.0320372    598.47556  0.018791621  0.018488197            2 
 2655000   0.82845527    -8.047195    599.24546  0.018808709  0.018482283            4 
 2656000   0.81076304   -8.0223603    599.71481  0.018816353  0.018476387            3 
 2657000   0.84220484   -7.9997419    599.03288  0.018787883  0.018470521            3 
 2658000    0.8246887   -8.0452777    599.16653  0.018785005  0.018464648            1 
 2659000   0.82450743    -8.021475    599.72682    0.0187955  0.018458794            2 
 2660000   0.82171882   -8.0148869    600.93088  0.018826155  0.018452953            2 
 2661000   0.80597972   -8.0327112    600.01567  0.018790419  0.018447118            3 
 2662000   0.83182568   -8.0037866    600.68485  0.018804309   0.01844132            5 
 2663000   0.83190935   -8.0385426    599.71432  0.018766877  0.018435491            2 
 2664000   0.82091767    -8.010077    600.71096  0.018791008  0.018429673            2 
 2665000   0.83109239   -8.0188723    600.93932  0.018791098  0.018423852            3 
 2666000   0.82374059   -8.0298432    599.93027  0.018752509   0.01841803            6 
 2667000    0.8283105    -8.038861    599.73681  0.018739433  0.018412207            3 
 2668000   0.80698983   -8.0279911    600.29825  0.018749945  0.018406392            5 
 2669000   0.84209311   -8.0231495     600.5169  0.018749747  0.018400573            1 
 2670000   0.82200029   -8.0376561    600.62134  0.018745985   0.01839475            3 
 2671000   0.84915857   -7.9996684     601.7735  0.018774912  0.018388959            1 
 2672000    0.8178613   -8.0349958    600.17556   0.01871805  0.018383187            2 
 2673000   0.84505032   -8.0207296    600.70776  0.018727639   0.01837739            2 
 2674000   0.81545547    -8.032402    599.66158  0.018688032  0.018371595            1 
 2675000   0.82789738   -8.0128222    602.17903  0.018759471   0.01836578            5 
 2676000   0.82447797   -7.9843766    602.04598  0.018748318  0.018359999            1 
 2677000   0.80588177    -8.045509    600.11045  0.018681062  0.018354219            2 
 2678000   0.82218585   -7.9936256    600.24461  0.018678262  0.018348426            2 
 2679000   0.81630409   -8.0477009    599.88248  0.018660025  0.018342579            3 
 2680000   0.81618056   -8.0410796    600.80513  0.018681752  0.018336704            2 
 2681000   0.81998059   -8.0892386    600.58485  0.018667936  0.018330872            1 
 2682000   0.83061595   -8.0624288    601.30777  0.018683438   0.01832503            1 
 2683000   0.81126888   -8.0144135     602.9472  0.018727395  0.018319223            1 
 2684000   0.81250773   -8.0330097    600.92231  0.018657548  0.018313408            4 
 2685000   0.82023551   -8.0305549    600.19887  0.018628146  0.018307564            1 
 2686000   0.81929417    -8.034115    599.46207  0.018598352   0.01830172            3 
 2687000   0.83253964   -8.0294572    601.35937  0.018650272  0.018295901            2 
 2688000   0.80501785   -8.0600156    601.33062  0.018642442  0.018290072            3 
 2689000   0.81451721    -8.071894    600.66126  0.018614766   0.01828426            2 
 2690000   0.82685779   -8.0193048     602.3373  0.018659768  0.018278422            5 
 2691000   0.82401451   -8.0442211    602.07219  0.018644624  0.018272605            4 
 2692000    0.8049365   -8.0464427    602.93217  0.018664319  0.018266798            4 
 2693000   0.82634993   -8.0331416    602.21342  0.018635147  0.018260958            3 
 2694000   0.83349344   -8.0364234    601.59893  0.018609222  0.018255157            1 
 2695000   0.81557577   -8.0344661    602.97667  0.018644919  0.018249341            3 
 2696000   0.83092688   -8.0263564    602.47777  0.018622582  0.018243579            2 
 2697000   0.84218067   -8.0276581    602.23878  0.018608293  0.018237813            1 
 2698000   0.82244463   -8.0117798    602.18378  0.018599697  0.018232034            2 
 2699000   0.80654095   -8.0267007    602.59543  0.018605515  0.018226264            2 
 2700000   0.82856948   -8.0232905    602.11159  0.018583691  0.018220493            7 
 2701000    0.8154116   -8.0249412    603.60601  0.018622918  0.018214718            2 
 2702000   0.82636042   -8.0155331     604.0806  0.018630663  0.018208959            8 
 2703000   0.81141178    -8.063348    601.72362  0.018551104  0.018203166            3 
 2704000   0.81898075    -8.065324    600.74609  0.018514118  0.018197349            3 
 2705000   0.81749068   -8.0380489    601.07803  0.018517499  0.018191537            3 
 2706000   0.81312913    -8.029053    601.42642  0.018521385  0.018185733            2 
 2707000   0.81681153   -8.0406168    600.55865  0.018487829  0.018179895            1 
 2708000   0.82154614   -8.0623414    601.09213  0.018497419  0.018174067            3 
 2709000    0.8394484   -8.0147753    603.25097  0.018557001  0.018168271            2 
 2710000   0.81960281   -8.0476722    602.32908  0.018521805  0.018162498            1 
 2711000   0.83053618   -8.0208291    602.69482  0.018526215  0.018156728            3 
 2712000   0.81558769   -8.0429986     602.3642  0.018509224  0.018150968            1 
 2713000   0.81250102   -8.0283141    602.96559  0.018520875  0.018145202            3 
 2714000   0.80775706   -8.0121727     604.3928  0.018557873  0.018139455            2 
 2715000   0.81107441   -8.0391982    601.41342  0.018459589  0.018133686            2 
 2716000   0.81919645   -7.9977753    603.45854  0.018515542  0.018127933            1 
 2717000   0.82574362   -8.0356605     603.7623  0.018518044  0.018122183            1 
 2718000   0.80501807    -8.038988    601.54426  0.018443226  0.018116426            1 
 2719000   0.80593547   -8.0089916    603.66279  0.018501373  0.018110652            2 
 2720000   0.81769561   -8.0469801    602.67571  0.018464329  0.018104868            5 
 2721000   0.80456857   -8.0501553    603.52834  0.018483656    0.0180991            3 
 2722000   0.81570057   -8.0274064    602.96115  0.018459501  0.018093357            1 
 2723000   0.81878489   -8.0437513    601.66998  0.018413208  0.018087598            3 
 2724000    0.8120411   -8.0233892    603.57207  0.018464638  0.018081846            3 
 2725000   0.83520318   -8.0388477    604.14874  0.018475497  0.018076072            2 
 2726000   0.80582659   -8.0530971    603.07887  0.018436014  0.018070291            2 
 2727000   0.83900876   -8.0594341    603.23082  0.018433896  0.018064495            1 
 2728000   0.81238035   -8.0274675    604.00449  0.018450773  0.018058722            2 
 2729000   0.82729617   -8.0540515     602.6442  0.018402473  0.018052925            3 
 2730000   0.79616316   -8.0577687    602.93924  0.018404739   0.01804713            4 
 2731000   0.81171454   -8.0451593    602.70657    0.0183909   0.01804132            3 
 2732000   0.82134674   -8.0749994    602.59788  0.018380853  0.018035524            2 
 2733000   0.79792881   -8.0293047    602.72926  0.018378133  0.018029727            2 
 2734000   0.82678417   -8.0325559    602.99075  0.018379381  0.018023924            1 
 2735000   0.81651801   -8.0404314    602.38753  0.018354282  0.018018085            5 
 2736000   0.81821344   -8.0332005    603.54048   0.01838269  0.018012249            1 
 2737000    0.8025391   -8.0414489    602.32823  0.018339064  0.018006437            2 
 2738000   0.82440486   -8.0362701    603.66978  0.018373197  0.018000599            2 
 2739000    0.8133714   -8.0740915    602.36457  0.018326779  0.017994777            2 
 2740000   0.81067849   -8.0756899    601.91963  0.018306558  0.017988892            3 
 2741000   0.82256337   -8.0565256     603.4817   0.01834737  0.017983021            3 
 2742000   0.81513532   -8.0708469    603.41621  0.018338689  0.017977162            3 
 2743000   0.81326112   -8.0531697    602.88859  0.018315974  0.017971306            2 
 2744000   0.80423009   -8.0466133    604.35133  0.018353721   0.01796549            3 
 2745000   0.80944192   -8.0768679    602.19879  0.018281688  0.017959646            3 
 2746000   0.81364766   -8.0613143    602.30734  0.018278324  0.017953807            2 
 2747000   0.81793588   -8.0574427    603.76929   0.01831602  0.017947994            2 
 2748000   0.82923267    -8.048174    603.61954  0.018304814  0.017942181            9 
 2749000   0.80172697   -8.0444853    603.76242  0.018302486  0.017936369            1 
 2750000   0.80478976   -8.0200273    604.45089  0.018316694  0.017930537            1 
 2751000   0.81238707   -8.0370998     602.8682  0.018262092  0.017924746            1 
 2752000   0.81777675   -8.0492073     602.2074  0.018235447  0.017918918            2 
 2753000   0.80985904     -8.06808    602.57841  0.018240054  0.017913096            3 
 2754000   0.81370002   -8.0623774    601.88161  0.018212346  0.017907276            2 
 2755000   0.80887617   -8.0641126    603.78769  0.018263391  0.017901462            2 
 2756000    0.8090003   -8.0696756    603.51357  0.018248475  0.017895646            3 
 2757000   0.79940772   -8.0560084    602.66484  0.018216203  0.017889824            2 
 2758000    0.8002941   -8.0291847    603.87862  0.018246272  0.017884044            2 
 2759000   0.81840104   -8.0783245    603.32941   0.01822307  0.017878228            3 
 2760000   0.82475404    -8.077314    602.95561  0.018205181  0.017872395            2 
 2761000   0.79783135    -8.066056    602.92838  0.018197766   0.01786655            2 
 2762000   0.81322624   -8.0657284     603.9697  0.018222595  0.017860681            2 
 2763000   0.80341897   -8.0628592    601.63128  0.018145472  0.017854851            3 
 2764000   0.80397477   -8.0568626    603.71281  0.018201665  0.017849057            2 
 2765000   0.78844562   -8.0692264    603.15495  0.018178269  0.017843225            2 
 2766000   0.81482098   -8.0440989    603.17742  0.018172374  0.017837399            1 
 2767000   0.82085688   -8.0755954    602.91773  0.018157985  0.017831578            4 
 2768000   0.80063209   -8.0888068    603.32416  0.018163661  0.017825761            2 
 2769000   0.81064995   -8.0706723    604.36604  0.018188457  0.017819962            3 
 2770000   0.79932702   -8.0970355    601.94097  0.018108934  0.017814144            1 
 2771000   0.79408894   -8.0920054    602.45288  0.018117794  0.017808286            5 
 2772000   0.80650067   -8.0613487    602.98197  0.018127164  0.017802395            2 
 2773000    0.7789339   -8.0869834    602.29041  0.018099844   0.01779653            1 
 2774000   0.80276181   -8.0251144    603.10268   0.01811772  0.017790677            3 
 2775000   0.80835292   -8.0775128    602.62526  0.018096855  0.017784845            2 
 2776000   0.81657681   -8.0489391    605.18729  0.018167246  0.017779025            2 
 2777000   0.78959499   -8.0609094    603.19274   0.01810085  0.017773199            2 
 2778000   0.78579981   -8.0468535    605.00954  0.018148834  0.017767371            2 
 2779000   0.78878571    -8.051688    604.06959  0.018114117  0.017761548            2 
 2780000    0.8101383   -8.0841647    603.69134  0.018096263  0.017755716            1 
 2781000   0.82392325   -8.0897463    602.80824  0.018063294  0.017749856            4 
 2782000   0.80678849   -8.0768035    604.53338  0.018108477  0.017744004            4 
 2783000   0.80757897   -8.0682972    603.79317  0.018079805  0.017738145            2 
 2784000   0.79793072   -8.0918997    602.83695  0.018044688    0.0177323            1 
 2785000   0.79344616   -8.0831484    603.07386  0.018045298  0.017726441            1 
 2786000   0.81457575     -8.10132    602.71727  0.018028155  0.017720558            1 
 2787000   0.83372647   -8.1179825    603.09933   0.01803311  0.017714672            3 
 2788000   0.81618813   -8.1101654    603.72094  0.018045222  0.017708766            3 
 2789000   0.79449173   -8.1156433    602.43522  0.018000335  0.017702838            2 
 2790000   0.78491195   -8.0945385    603.13923  0.018014911  0.017696956            1 
 2791000   0.81111774   -8.0848411    603.73246  0.018026169  0.017691093            1 
 2792000   0.82697521   -8.0871985    603.04881  0.017999308  0.017685253            5 
 2793000   0.80280956   -8.0876524    603.88395  0.018017781  0.017679409            1 
 2794000   0.82013072   -8.0974047    602.48454  0.017969594  0.017673563            1 
 2795000   0.79905415   -8.0808467    604.18273  0.018013796  0.017667717            7 
 2796000   0.81176146   -8.1025956     603.0497  0.017973584   0.01766187            6 
 2797000   0.80631896   -8.0765418    603.65195  0.017985102  0.017656042            3 
 2798000   0.80158017    -8.084702    604.03657  0.017990129  0.017650214            2 
 2799000   0.79797022   -8.0759466    603.96388  0.017981537  0.017644379            2 
 2800000   0.81890234   -8.0785505    603.10734  0.017949623  0.017638541            2 
 2801000   0.81146968   -8.0469598    602.57898  0.017927496  0.017632709            3 
 2802000   0.80667407   -8.1043585    603.48527  0.017948051  0.017626862            1 
 2803000   0.79416608   -8.0740182    605.81989  0.018011056  0.017621036            2 
 2804000   0.79201689    -8.103002    603.91306  0.017947963  0.017615206            2 
 2805000   0.79862757   -8.0893266    604.23823  0.017951225  0.017609355            1 
 2806000   0.80857319   -8.0517105    603.66409  0.017927776  0.017603521            4 
 2807000   0.80666337   -8.0715152    603.85627  0.017927095  0.017597687            3 
 2808000   0.80016659    -8.114539    603.82632  0.017919822  0.017591845            2 
 2809000   0.79050141   -8.0851531    603.51673  0.017904258  0.017586022            2 
 2810000    0.7850436   -8.0943858    604.30493  0.017921261  0.017580197            2 
 2811000   0.77985191   -8.0588656    604.65494  0.017925262  0.017574377            3 
 2812000   0.80460988   -8.0638301    604.59729  0.017917179  0.017568558            1 
 2813000   0.81396404   -8.0795956    606.64291   0.01797141  0.017562744            1 
 2814000   0.82258846   -8.0985158    603.96935  0.017885849  0.017556914            3 
 2815000   0.80796058   -8.0935001    604.09989   0.01788336   0.01755108            1 
 2816000   0.78962827   -8.0810491    605.85583  0.017928972  0.017545229            1 
 2817000    0.8001926   -8.1001041    604.51155  0.017882841  0.017539377            2 
 2818000   0.79135029   -8.0595618    603.37598  0.017842914  0.017533532            2 
 2819000   0.79881231   -8.0948135    603.29982  0.017834333  0.017527674            3 
 2820000   0.79423115   -8.0667067    605.29359  0.017886926  0.017521841            1 
 2821000   0.79807382   -8.0751105    603.72576  0.017834272  0.017515999            1 
 2822000   0.80515607   -8.0987203    603.38541  0.017817901  0.017510191            3 
 2823000   0.81003456   -8.0874556    604.62716  0.017848245  0.017504363            1 
 2824000   0.78247997   -8.0864293    604.59343   0.01784093  0.017498533            1 
 2825000   0.79657729    -8.060275    605.33752  0.017856564  0.017492731            1 
 2826000    0.7997084   -8.0716171    604.66426  0.017830392  0.017486911            2 
 2827000   0.80619141    -8.119304    604.11383   0.01780786  0.017481079            1 
 2828000   0.79976077    -8.086404    605.17192  0.017832742  0.017475281            1 
 2829000   0.81724551   -8.1107587    604.04634  0.017793282  0.017469417            4 
 2830000    0.8042889   -8.1013703    603.35425  0.017766615  0.017463562            2 
 2831000   0.79557664   -8.1367365    603.30132  0.017758781  0.017457673            2 
 2832000   0.79081332   -8.0886377     603.3468  0.017753849  0.017451811            1 
 2833000   0.80323239   -8.0794944    605.11231  0.017799515   0.01744599            2 
 2834000     0.788716    -8.079329    604.14474  0.017764783  0.017440201            2 
 2835000   0.77450007   -8.0874553    604.50921   0.01776923  0.017434394            2 
 2836000   0.79907988   -8.1323289    603.49957  0.017733297  0.017428584            1 
 2837000   0.79517951   -8.0769948    604.78254  0.017764732  0.017422738            9 
 2838000   0.79809222   -8.1041333    603.97283  0.017734697  0.017416938            5 
 2839000   0.78770601   -8.1188178    603.41475  0.017712068  0.017411113            3 
 2840000   0.80099481     -8.13995    603.30597   0.01770264   0.01740526            3 
 2841000   0.78177662   -8.1036934    604.76882  0.017739318  0.017399406            1 
 2842000   0.78696181   -8.1432398    603.84733  0.017706056  0.017393537            2 
 2843000   0.79928183   -8.1097194    605.58214  0.017750678  0.017387696            2 
 2844000   0.79040843   -8.1138593    605.36065  0.017737947  0.017381835            1 
 2845000   0.80096909   -8.1163834    603.16778   0.01766748  0.017375965            1 
 2846000   0.80507941      -8.1131    605.66075  0.017734269  0.017370131            2 
 2847000    0.7889331   -8.0848656     605.4262  0.017721174  0.017364332            3 
 2848000   0.78643608   -8.0814273    607.60564  0.017778723  0.017358547            3 
 2849000   0.80452112   -8.0926216    606.34424  0.017735587  0.017352754            2 
 2850000   0.79903102   -8.1240224    606.80329  0.017742786  0.017346994            1 
 2851000   0.79704997   -8.0941744    606.00108  0.017713115   0.01734119            2 
 2852000   0.79804209   -8.1050213    605.46537  0.017691251  0.017335406            1 
 2853000   0.77920183   -8.0627448    606.12642  0.017704359  0.017329633            1 
 2854000   0.80073807   -8.1050857       604.58  0.017653002  0.017323849            5 
 2855000   0.78562053   -8.1164561    604.86165   0.01765504  0.017318064            2 
 2856000   0.80031078   -8.1087055    604.72638  0.017644911  0.017312259            1 
 2857000   0.78597093   -8.1037816    605.71674  0.017667622  0.017306477            3 
 2858000   0.79110159   -8.0937343    604.27236  0.017619325  0.017300676            1 
 2859000   0.80413711   -8.0820182    607.55352    0.0177088  0.017294899            3 
 2860000    0.7702808   -8.1184188    605.65988  0.017647433  0.017289137            3 
 2861000   0.79420129   -8.1294723    605.48561  0.017636188  0.017283346            3 
 2862000   0.80225502   -8.0826639     608.2733  0.017711196  0.017277583            2 
 2863000   0.78462112   -8.1185172    605.68681  0.017629724  0.017271821            2 
 2864000   0.79571527   -8.1128529    604.98664  0.017603196   0.01726606            3 
 2865000   0.80683603   -8.0794014    605.00834  0.017597683  0.017260316            3 
 2866000   0.81230758   -8.1341531    605.88662   0.01761708  0.017254564            1 
 2867000   0.79842218   -8.0924722    606.21927  0.017620604  0.017248808            4 
 2868000   0.80915998   -8.1086603    605.85189  0.017603786  0.017243068            1 
 2869000   0.77605581   -8.1023849    607.13587  0.017634944  0.017237329            2 
 2870000   0.81365856   -8.1254064     605.7233  0.017587785  0.017231592            2 
 2871000   0.80993798   -8.1105541    606.67723  0.017609347  0.017225868            2 
 2872000    0.7957582   -8.1127353    607.57416  0.017629241  0.017220139            2 
 2873000   0.79962098   -8.1036254    608.73441  0.017656759  0.017214446            3 
 2874000    0.7975223   -8.1327035    606.85045  0.017595988  0.017208734            1 
 2875000    0.7875131   -8.1005148    608.20588  0.017629156  0.017203018            2 
 2876000   0.78790192   -8.1254088    607.58754   0.01760511  0.017197288            3 
 2877000   0.79771698   -8.1053134    605.99563   0.01755288  0.017191566            1 
 2878000   0.80085756   -8.0860722    607.53937   0.01759148  0.017185832            1 
 2879000   0.79327678    -8.109814    606.47465  0.017554552  0.017180092            2 
 2880000   0.78312788   -8.1343057     606.1277  0.017538417  0.017174341            1 
 2881000   0.78736556   -8.1273559    605.28918  0.017508075  0.017168611            3 
 2882000    0.7880181    -8.142378    606.64721  0.017541268  0.017162861            1 
 2883000   0.79193248   -8.1169219    605.82313  0.017511363  0.017157102            2 
 2884000   0.79615654   -8.0985923    607.51898  0.017554293  0.017151375            2 
 2885000   0.76584733   -8.1227834    606.00255  0.017504406  0.017145635            2 
 2886000   0.77769705   -8.0922398    606.29943  0.017506914   0.01713991            1 
 2887000   0.78341131    -8.107217     607.3978  0.017532554  0.017134203            2 
 2888000    0.7850978   -8.0825133    608.09911   0.01754672  0.017128506            2 
 2889000   0.77704841   -8.0902756    607.47339  0.017522597  0.017122811            4 
 2890000   0.77472865   -8.0961788    607.00411  0.017503002  0.017117104            2 
 2891000   0.78665881   -8.1129635    608.21988  0.017531992  0.017111398            2 
 2892000   0.77640014   -8.1132376    607.76542  0.017512835   0.01710571            1 
 2893000   0.79320726   -8.0869449    607.76653  0.017506813   0.01710004            3 
 2894000   0.76901967   -8.1181071    606.43405  0.017462395  0.017094354            1 
 2895000   0.78358843   -8.1059576    607.71235  0.017493159  0.017088674            5 
 2896000   0.80061752   -8.1230195    607.53421  0.017481993  0.017083002            1 
 2897000   0.79105466   -8.0948543    606.25869  0.017439267  0.017077338            1 
 2898000   0.79214752   -8.0942489    607.36738  0.017465131  0.017071676            4 
 2899000   0.81008146   -8.0999469    608.89426  0.017502997  0.017066016            2 
 2900000   0.80157214   -8.1312302    607.33107  0.017452042  0.017060375            2 
 2901000   0.78833829   -8.1126028    608.83132  0.017489122  0.017054752            2 
 2902000   0.78309573   -8.1097677    608.42314  0.017471374  0.017049114            4 
 2903000   0.78220145   -8.1021401    607.82522  0.017448192  0.017043496            3 
 2904000   0.77765776   -8.0927533    608.51167  0.017461882  0.017037889            2 
 2905000   0.78601601   -8.1452083    607.41652  0.017424455  0.017032264            1 
 2906000   0.79729715   -8.1135055    608.11083   0.01743837  0.017026601            2 
 2907000   0.78474869   -8.1052528    608.51007  0.017443816  0.017020951            2 
 2908000   0.76854908   -8.1452777    607.14154    0.0173986  0.017015295            3 
 2909000   0.77558113   -8.1254081    606.99452  0.017388407  0.017009661            2 
 2910000   0.76984091   -8.1561566    606.97154  0.017381774  0.017004023            1 
 2911000   0.77446802   -8.1249468    607.86085  0.017401261  0.016998352            1 
 2912000   0.77991793   -8.1213012    607.36073  0.017380973   0.01699268            5 
 2913000   0.80282726   -8.1288458    608.38363  0.017404269  0.016987023            1 
 2914000   0.78245506   -8.1079572    608.47019  0.017400772  0.016981372            1 
 2915000    0.7855952   -8.1155363    606.86226  0.017348835  0.016975712            1 
 2916000   0.79349668   -8.1298271    608.78478  0.017397827   0.01697009            2 
 2917000   0.79065776   -8.1204192    608.95889  0.017396837  0.016964454            1 
 2918000   0.77376533   -8.1473726    607.47479  0.017348492  0.016958805            3 
 2919000   0.77766598   -8.1381107     608.0857  0.017359989  0.016953148            1 
 2920000   0.78314443    -8.165696    607.64641  0.017341507  0.016947495            1 
 2921000   0.80192736   -8.1569898    607.32896  0.017326514  0.016941818            2 
 2922000   0.79612952   -8.1383877    607.44154  0.017323795  0.016936154            4 
 2923000   0.78322931   -8.1526126    609.31059  0.017371154  0.016930478            1 
 2924000   0.77712889   -8.1545798    607.35838  0.017309575  0.016924824            2 
 2925000   0.78529319   -8.1668636    608.30214  0.017330545  0.016919202            1 
 2926000   0.80090472   -8.1801952    606.97298  0.017286767   0.01691356            2 
 2927000    0.7884749   -8.1802871    606.60803  0.017270471  0.016907877            2 
 2928000   0.78631701   -8.1197884    608.27734  0.017312083  0.016902216            2 
 2929000   0.79302736   -8.1386804    608.29778  0.017306754   0.01689657            2 
 2930000   0.79509696   -8.1382868    607.13573  0.017267797  0.016890932            3 
 2931000    0.7851359   -8.1436133    608.49062  0.017300427  0.016885263            2 
 2932000   0.78385059   -8.1565632    608.53875  0.017295894  0.016879578            3 
 2933000   0.76524582   -8.1467309    609.41512  0.017314897  0.016873917            2 
 2934000   0.77182471   -8.1754197    608.97432  0.017296476  0.016868271            1 
 2935000   0.78273553   -8.1342169    609.08478  0.017293719  0.016862647            1 
 2936000   0.77720737   -8.1192599    609.91595   0.01731142   0.01685706            2 
 2937000   0.78298323   -8.1363772    609.46054  0.017292604  0.016851466            2 
 2938000   0.78967124   -8.1621823    610.19894  0.017307662  0.016845874            3 
 2939000    0.7775843   -8.0967464      610.197  0.017301718  0.016840285            2 
 2940000   0.76599993   -8.0920767    610.88395  0.017315305  0.016834695            1 
 2941000   0.78517847    -8.153606    609.25562  0.017263278  0.016829104            1 
 2942000   0.77151384   -8.1503098    608.94753  0.017248684  0.016823511            1 
 2943000   0.78649522   -8.1562641     609.7111  0.017264444  0.016817915            3 
 2944000   0.78693088   -8.1737781    608.76786   0.01723188  0.016812333            5 
 2945000   0.76616455   -8.1257192    610.34895  0.017270768  0.016806738            2 
 2946000   0.77812911   -8.1504233    608.49757  0.017212536  0.016801141            2 
 2947000    0.7631158    -8.123184    609.28629  0.017228998  0.016795565            3 
 2948000    0.7748144   -8.1507014    608.52966  0.017201766  0.016789975            2 
 2949000   0.80927079   -8.1530209    608.15255  0.017185276  0.016784357            2 
 2950000    0.7736093   -8.1321732    608.19693  0.017180704  0.016778732            4 
 2951000   0.77537841   -8.1440187    609.84115  0.017221313   0.01677311            3 
 2952000   0.77848499   -8.1238199     608.9429  0.017190123  0.016767496            7 
 2953000   0.78410954   -8.1372684    608.85762  0.017181895  0.016761895            4 
 2954000    0.7830419   -8.1458759     609.4851   0.01719378  0.016756295            1 
 2955000   0.78348961   -8.1295792    608.84791  0.017169992  0.016750703            2 
 2956000   0.77244689   -8.1335203    609.15714  0.017172901  0.016745113            2 
 2957000   0.78342162   -8.1504238    609.68916  0.017182087  0.016739537            2 
 2958000   0.78239291   -8.1598392     609.4199  0.017168692  0.016733961            3 
 2959000   0.78991013   -8.1681693    608.37304  0.017133408   0.01672838            3 
 2960000   0.78542581   -8.1448461    610.23929   0.01718016  0.016722795            2 
 2961000    0.7877033   -8.1053371    609.91959   0.01716536  0.016717205            4 
 2962000   0.79417075   -8.1422972    609.31571  0.017142576  0.016711625            4 
 2963000   0.79431219   -8.1441662    609.17903  0.017132946  0.016706026            1 
 2964000   0.78881328   -8.1487549    607.83745  0.017089447  0.016700437            2 
 2965000   0.79203976    -8.140792    610.02947  0.017145291  0.016694841            2 
 2966000   0.78644591   -8.1679535    609.87824  0.017135262  0.016689236            2 
 2967000   0.77588742   -8.1308188    609.16192  0.017109368  0.016683668            2 
 2968000   0.77845279    -8.118742    610.24163  0.017133918  0.016678093            2 
 2969000   0.78972849   -8.1220724    610.09956   0.01712416  0.016672533            4 
 2970000   0.78361463   -8.1382733    610.47982  0.017129063  0.016666969            3 
 2971000     0.781791   -8.1336443    610.89111  0.017134834  0.016661421            2 
 2972000   0.77489924   -8.1475907    610.05278  0.017105563  0.016655863            2 
 2973000   0.77934885   -8.1121858    610.41314   0.01710991  0.016650331            2 
 2974000   0.77440558   -8.1509755    609.68927  0.017083873  0.016644793            4 
 2975000   0.77457721   -8.1393155    610.87795  0.017111427  0.016639237            3 
 2976000   0.76949547   -8.1665309    609.94034  0.017079423  0.016633669            2 
 2977000   0.78874522   -8.1721572    609.38119  0.017058033  0.016628089            2 
 2978000   0.79030482   -8.1555763    609.03657  0.017042662  0.016622514            4 
 2979000   0.78027139    -8.172418    608.84607  0.017031612  0.016616949            3 
 2980000   0.76406417   -8.1554648    608.67611  0.017021144  0.016611381            3 
 2981000   0.77478984   -8.1230546      609.077  0.017026641  0.016605815            6 
 2982000   0.78498902   -8.1340271    609.94746  0.017045257  0.016600252            4 
 2983000   0.76866623   -8.1410277    610.76079  0.017062264  0.016594728            8 
 2984000    0.7624958   -8.1643092    611.20339  0.017068906  0.016589168            4 
 2985000   0.76623061   -8.1415412    611.37393  0.017067949  0.016583605            1 
 2986000   0.76923696   -8.1559612     610.8442  0.017047449  0.016578059            1 
 2987000   0.75620024   -8.1670213    609.78721  0.017012253  0.016572474            3 
 2988000   0.75975421    -8.153976    609.03658  0.016985625  0.016566889            3 
 2989000    0.7650237   -8.1639553    610.80489  0.017029243  0.016561302            2 
 2990000   0.78705094   -8.1479991     610.2246  0.017007375  0.016555714            3 
 2991000   0.78165092   -8.1485204    610.22836  0.017001793  0.016550165            2 
 2992000   0.77090803   -8.1452319    608.86283  0.016958078  0.016544596            2 
 2993000   0.76465618   -8.1656758     609.9026  0.016981362  0.016539037            3 
 2994000   0.76556986   -8.1416405    610.48923  0.016992018  0.016533462            2 
 2995000   0.76981516    -8.156592    609.78013  0.016966615  0.016527907            1 
 2996000   0.76149493   -8.1556821    610.67734  0.016985907  0.016522342            2 
 2997000   0.76862949   -8.1606719    609.92204  0.016959238  0.016516758            3 
 2998000   0.77126493   -8.1962457    608.95885  0.016926808  0.016511178            1 
 2999000   0.77511409   -8.1599412    609.16639  0.016926931  0.016505582            2 
 3000000   0.77842448   -8.1501394    608.55068  0.016904185  0.016499985            1 
 3001000   0.76844244    -8.166776    607.61626  0.016872605  0.016494392            2 
 3002000   0.76309028    -8.170708    609.58919  0.016921752  0.016488779            1 
 3003000   0.75522612   -8.1833313    608.28255  0.016879858  0.016483165            1 
 3004000   0.76582648   -8.1951189     608.3601   0.01687639  0.016477533            1 
 3005000   0.76274793   -8.1772386    608.48014  0.016874103  0.016471891            2 
 3006000   0.77861407   -8.1924162    607.38002  0.016837991  0.016466241            1 
 3007000   0.77455383    -8.218419     607.2693  0.016829323    0.0164606            2 
 3008000   0.77021581   -8.1914014    607.86741  0.016840298  0.016454969            1 
 3009000   0.76763385   -8.1815892    609.41208  0.016877481  0.016449363            2 
 3010000   0.78037791   -8.1638968    608.44072  0.016844981   0.01644375            2 
 3011000   0.77014639   -8.1858883     608.6591  0.016845431  0.016438154            2 
 3012000   0.77064252   -8.1654349    609.76549  0.016870448  0.016432567            2 
 3013000   0.77861293   -8.1574455    608.31226  0.016824656   0.01642696            3 
 3014000   0.76473708   -8.1921227    608.91835  0.016835832  0.016421342            2 
 3015000   0.77781307   -8.1783357    609.01397   0.01683289  0.016415718            2 
 3016000   0.78671338   -8.1687103    610.06815  0.016856436  0.016410117            2 
 3017000   0.75368546   -8.1911563    608.46074  0.016806451  0.016404518            1 
 3018000    0.7829109   -8.1550216    609.20266  0.016821368  0.016398928            2 
 3019000   0.76093899   -8.1593704    609.71154  0.016829843  0.016393362            1 
 3020000   0.77574643   -8.1637561    609.01306  0.016804996    0.0163878            2 
 3021000   0.75126334   -8.1532604    610.18026   0.01683163  0.016382244            1 
 3022000   0.76277204   -8.1688595     611.2002  0.016854186  0.016376691            2 
 3023000    0.7677741   -8.1532688    609.06665  0.016789796  0.016371145            4 
 3024000   0.77179358   -8.1539237    611.08426  0.016839844  0.016365587            3 
 3025000   0.77475792   -8.1893072    609.56735  0.016792489  0.016360016            2 
 3026000   0.75649034   -8.1832666    610.28129  0.016806601  0.016354447            1 
 3027000   0.77328751   -8.1823403    609.11061   0.01676882  0.016348849            3 
 3028000   0.77712247   -8.1745544    609.58693  0.016776391  0.016343261            1 
 3029000   0.77006456   -8.1877341    608.62042  0.016744262  0.016337682            5 
 3030000   0.76367697    -8.190109    608.77898  0.016743096  0.016332078            1 
 3031000   0.77624423   -8.1746109    609.95023  0.016769774  0.016326479            3 
 3032000    0.7795793   -8.1597819    610.29264  0.016773654  0.016320884            3 
 3033000   0.77498166   -8.1869391    609.73931  0.016752921  0.016315299            2 
 3034000   0.76339293   -8.2086887      609.371  0.016737283  0.016309721            2 
 3035000   0.74420379    -8.172341    609.86567  0.016745351  0.016304126            4 
 3036000   0.75914222   -8.1771702    610.15651  0.016747818  0.016298561            5 
 3037000   0.78259934   -8.1713453    609.52526  0.016724983  0.016293007            2 
 3038000   0.77983295   -8.1824233    609.98642  0.016732127  0.016287466            1 
 3039000   0.77494494     -8.17956    609.84185  0.016722657  0.016281911            1 
 3040000    0.7694437   -8.1887863    610.08733  0.016723885  0.016276359            3 
 3041000   0.77176948   -8.1900021    610.52034  0.016730252  0.016270831            4 
 3042000   0.77356773   -8.1633512    610.32817  0.016719487  0.016265321            3 
 3043000   0.76909073   -8.1969514    608.39484  0.016661048  0.016259787            3 
 3044000   0.75578179   -8.1876995     608.7046  0.016664055  0.016254236            3 
 3045000   0.76430546   -8.1803901    609.96882  0.016693181  0.016248714            3 
 3046000   0.75985614   -8.1500486    610.88936  0.016712885   0.01624317            2 
 3047000   0.76904744   -8.1935577    610.35904  0.016692896  0.016237651            2 
 3048000   0.77330329   -8.1695341     611.1825  0.016709933  0.016232137            2 
 3049000   0.76830549   -8.1923272    609.26143  0.016651947    0.0162266            1 
 3050000   0.77870784   -8.1722433     611.4607  0.016706577  0.016221091            3 
 3051000   0.75949823   -8.1843444    610.61404  0.016677976  0.016215592            1 
 3052000   0.75176381   -8.1976388    610.62185  0.016672724  0.016210059            2 
 3053000   0.77229825   -8.2185041    610.17625    0.0166551  0.016204526            1 
 3054000   0.76054737   -8.2246085    609.23555  0.016623978  0.016198988            2 
 3055000   0.76921418   -8.1823405    609.23192  0.016618438  0.016193458            8 
 3056000   0.77068883   -8.1899719    611.25056  0.016668045  0.016187943            4 
 3057000   0.76495994   -8.1775277    611.55903  0.016671002   0.01618246            2 
 3058000   0.76064418   -8.2032152    611.63267  0.016667557  0.016176967            3 
 3059000   0.77216264   -8.1738642    611.82082  0.016667234  0.016171464            2 
 3060000   0.76065741   -8.1898402    611.03683  0.016640436   0.01616597            3 
 3061000    0.7530623   -8.2068466     611.6062  0.016650501  0.016160464            3 
 3062000   0.77668718   -8.2097359    610.42531  0.016612925  0.016154943            6 
 3063000   0.75658746   -8.1750614     610.0997  0.016598642  0.016149424            2 
 3064000   0.76539093    -8.193452    609.48476    0.0165765  0.016143909            4 
 3065000   0.77282812   -8.2134588    609.63568  0.016575195  0.016138385            3 
 3066000    0.7693116   -8.1783324    610.67093  0.016597927  0.016132856            3 
 3067000   0.76146783   -8.1914852    611.68517  0.016620073  0.016127357            1 
 3068000   0.76196867   -8.1775549    611.03712  0.016597053  0.016121871            4 
 3069000   0.76892189   -8.1837399    610.37451  0.016573654   0.01611638            2 
 3070000   0.76495708   -8.1943492    610.39763  0.016568882  0.016110892            2 
 3071000   0.75655466   -8.1974107    610.94977   0.01657847  0.016105403            4 
 3072000   0.73153372   -8.1955167    611.72488    0.0165941  0.016099911            3 
 3073000   0.76333942   -8.1837435    609.89329  0.016539031  0.016094428            1 
 3074000   0.77695428   -8.1729222     610.9798  0.016563104  0.016088937            6 
 3075000   0.76529733   -8.2104704    609.83068  0.016526577  0.016083451            1 
 3076000   0.75732537   -8.1977205    610.60939    0.0165423  0.016077975            2 
 3077000   0.76437275    -8.197389    610.97362  0.016546789  0.016072478            2 
 3078000   0.75184267   -8.2148344    610.84339  0.016537887  0.016066981            1 
 3079000   0.76945763   -8.1984373    611.17443  0.016541475  0.016061506            1 
 3080000   0.73101051   -8.1933046    612.15883  0.016562739   0.01605604            1 
 3081000     0.766053   -8.2092216    610.62145  0.016515781   0.01605059            2 
 3082000    0.7560236   -8.1925333    611.83127  0.016543134  0.016045126            2 
 3083000   0.76368353   -8.2129139    610.26079  0.016495318  0.016039685            4 
 3084000   0.76180084   -8.1864195    611.80275  0.016531635   0.01603422            5 
 3085000   0.75697318   -8.1968209    610.85713  0.016500733  0.016028763            1 
 3086000   0.75915894   -8.1965326    612.00074  0.016526268  0.016023311            1 
 3087000   0.75020466   -8.2262725    610.56852  0.016482251  0.016017843            2 
 3088000   0.74930294   -8.2211676    609.84487  0.016457385  0.016012367            1 
 3089000   0.77217818   -8.2040395    610.99485  0.016483081  0.016006901            1 
 3090000    0.7611898   -8.2031954    612.09596  0.016507442  0.016001425            1 
 3091000   0.77233931   -8.2175393    610.74766  0.016465752  0.015995943            3 
 3092000   0.76192245   -8.2232409    609.17784  0.016418118   0.01599044            2 
 3093000    0.7616949   -8.1918059    612.75719  0.016509246  0.015984927            1 
 3094000   0.74983829   -8.2268943    610.43972  0.016441492  0.015979429            1 
 3095000   0.75204496   -8.2515194     611.2661   0.01645843   0.01597393            1 
 3096000   0.75606679   -8.2443637    608.88079   0.01638891  0.015968421            2 
 3097000   0.74606821   -8.2338927     609.5163  0.016400718  0.015962932            2 
 3098000   0.77071651    -8.217946    610.74351  0.016428435  0.015957435            3 
 3099000   0.75698448   -8.2213194    609.78552  0.016397373  0.015951928            1 
 3100000   0.75276051   -8.2250082    610.56854  0.016413133  0.015946426            3 
 3101000   0.75502289   -8.1900942     612.6257  0.016463122  0.015940943            2 
 3102000   0.76645057   -8.2032139    610.40931  0.016398273  0.015935471            1 
 3103000   0.77143528   -8.2092667    611.40287  0.016419671      0.01593            4 
 3104000   0.75965167   -8.2114272    612.47792  0.016443243  0.015924545            2 
 3105000   0.75781114   -8.2259588    610.34532  0.016380712  0.015919061            3 
 3106000   0.75749281   -8.2663658    611.40104  0.016403763  0.015913577            3 
 3107000   0.74242488   -8.2206044     610.7407  0.016380772  0.015908101            2 
 3108000   0.74020845   -8.2338916    611.49052  0.016395606  0.015902641            1 
 3109000   0.75463683   -8.2095511    611.28633  0.016384859  0.015897157            2 
 3110000   0.75877269   -8.2443266    610.40686  0.016356025  0.015891668            1 
 3111000   0.73354884   -8.2289849    611.88252  0.016390296  0.015886216            1 
 3112000   0.75980218   -8.2275853     610.5835  0.016350244  0.015880753            1 
 3113000   0.74480432   -8.2376883    610.28634  0.016337037  0.015875284            2 
 3114000   0.75230679   -8.2335583    610.68609  0.016342488  0.015869823            4 
 3115000   0.76073395   -8.2265111    609.50845  0.016305737  0.015864373            3 
 3116000   0.74478464    -8.230036    609.94073  0.016312065  0.015858917            1 
 3117000    0.7650226   -8.2142207    612.46776  0.016374392  0.015853467            2 
 3118000   0.74540455   -8.2293991    611.18226  0.016334784  0.015848017            3 
 3119000   0.75556655    -8.223576    610.08111  0.016300126  0.015842573            1 
 3120000    0.7395143   -8.2324018    610.57675   0.01630814  0.015837115            2 
 3121000   0.75220411   -8.2505516    611.33666  0.016323205  0.015831659            2 
 3122000   0.74771568   -8.2234769    611.15053  0.016313008  0.015826235            2 
 3123000   0.73954557   -8.2357172    611.36698   0.01631356  0.015820804            1 
 3124000    0.7428403   -8.2586051    609.87098  0.016268432  0.015815362            2 
 3125000   0.74996701    -8.224471    612.01165  0.016320311  0.015809914            2 
 3126000   0.76030238   -8.2299481    611.02329  0.016288742   0.01580447            1 
 3127000   0.73484718   -8.2262377     611.4871  0.016295893  0.015799044            1 
 3128000   0.74751587   -8.2305675    611.03848  0.016278732  0.015793601            2 
 3129000   0.76892768   -8.2495333    609.77409  0.016239855  0.015788162            2 
 3130000   0.75247631   -8.2006634    613.06036  0.016322161  0.015782742            1 
 3131000   0.75124515   -8.2300036    611.01542  0.016262521  0.015777324            1 
 3132000   0.74327357   -8.2225856    611.35024  0.016266237  0.015771894            3 
 3133000   0.74082476   -8.2213532    612.82458   0.01630026  0.015766456            2 
 3134000   0.74972083   -8.2184167    610.41856  0.016231083  0.015761016            2 
 3135000   0.73856204   -8.2319903    610.77525  0.016235387  0.015755583            5 
 3136000   0.73535111   -8.2349654    610.74328   0.01622936  0.015750157            2 
 3137000   0.75675094   -8.2294428    610.77618  0.016225061  0.015744721            3 
 3138000   0.75521865   -8.2535328    611.23432  0.016232056  0.015739289            1 
 3139000   0.75008576   -8.2533006     610.4404  0.016205809  0.015733859            2 
 3140000   0.74599837    -8.255755    611.78181  0.016236248  0.015728429            2 
 3141000   0.75710283   -8.1984045    611.58001  0.016225725     0.015723            2 
 3142000   0.75848521   -8.2255674    612.69665  0.016250176  0.015717576            3 
 3143000   0.74092577    -8.181511    611.87201  0.016223142  0.015712171            5 
 3144000   0.75009456   -8.2264763    610.77812  0.016188988  0.015706768            6 
 3145000   0.75327725   -8.1988844    611.98922  0.016215931  0.015701367            4 
 3146000   0.73717014   -8.2171889    611.23736   0.01619086  0.015695965            2 
 3147000   0.76472871   -8.2133789    611.44257  0.016191149   0.01569056            4 
 3148000   0.74153269   -8.1906826    612.18549  0.016205673  0.015685162            2 
 3149000   0.75471663   -8.2515969    611.18123   0.01617395  0.015679752            1 
 3150000   0.75290802   -8.2357755    611.28287  0.016171504  0.015674347            2 
 3151000   0.74186146   -8.2218298    612.65185  0.016202577  0.015668945            3 
 3152000   0.74476646   -8.2457579    611.62708  0.016170344  0.015663547            2 
 3153000   0.73418167   -8.2194026    611.42494  0.016159873  0.015658139            2 
 3154000    0.7348412     -8.25559    610.29801  0.016124974   0.01565272            4 
 3155000   0.75729998   -8.2439963    612.04615  0.016166037  0.015647303            2 
 3156000   0.74900132   -8.2315932    611.57104  0.016148369  0.015641873            2 
 3157000    0.7405509   -8.1952841    611.59118  0.016143786  0.015636453            2 
 3158000    0.7525916   -8.2200938    611.82184   0.01614476   0.01563105            2 
 3159000   0.72773384   -8.2107819    611.72459  0.016137084  0.015625653            3 
 3160000   0.74211992   -8.2164556    611.43991   0.01612447  0.015620251            1 
 3161000   0.75062071   -8.2507016    609.19538  0.016060197  0.015614853            2 
 3162000   0.74104852   -8.2362411    610.83841  0.016098419  0.015609429            1 
 3163000   0.72939798   -8.2142487    610.94862  0.016096233  0.015604006            1 
 3164000   0.75973302   -8.2197759    610.01161  0.016066467  0.015598576            2 
 3165000   0.73420503    -8.238606    612.05621  0.016115224  0.015593153            3 
 3166000   0.74776131   -8.2162745     611.0632  0.016083997  0.015587743            5 
 3167000   0.72567171   -8.2350477    610.76766  0.016071141   0.01558231            6 
 3168000   0.73637947   -8.2497092    609.61434  0.016035731  0.015576867            2 
 3169000   0.74712574   -8.2612744    609.53013  0.016028456  0.015571425            4 
 3170000   0.74969835   -8.2532644    610.88128  0.016058919   0.01556599            3 
 3171000   0.75208916   -8.2621237    610.97717  0.016056375  0.015560536            2 
 3172000   0.74722105   -8.2497128     609.7696  0.016019588  0.015555111            2 
 3173000   0.72605534   -8.2635291    609.24998  0.016000893  0.015549678            2 
 3174000   0.74780198   -8.2585625    609.35153  0.015998517  0.015544237            4 
 3175000   0.75339874   -8.2566244    610.93308  0.016034989  0.015538804            1 
 3176000   0.73927025   -8.2464486     611.1417  0.016035414  0.015533372            3 
 3177000   0.74494774   -8.2347082    610.05609  0.016001891  0.015527939            1 
 3178000   0.75707359   -8.2318346     609.8292  0.015990906  0.015522532            2 
 3179000   0.73511653   -8.2186929    610.44823  0.016002103  0.015517115            3 
 3180000   0.74170371   -8.2391272    611.24302  0.016017899  0.015511707            3 
 3181000   0.73499544   -8.2344507    610.66612   0.01599775  0.015506287            4 
 3182000   0.73945125   -8.2354264      610.848  0.015997486  0.015500894            1 
 3183000   0.74880431   -8.2811656    610.30827  0.015978329  0.015495477            1 
 3184000   0.75344122   -8.2522686    610.32746  0.015973813  0.015490067            3 
 3185000   0.75512904   -8.2322503    610.74658  0.015979764  0.015484665            1 
 3186000   0.75210208   -8.2213427    610.72517  0.015974188   0.01547928            7 
 3187000   0.73113856   -8.2431261    610.88122  0.015973256  0.015473874            3 
 3188000   0.74111687   -8.2275847    611.31535  0.015979594  0.015468447            4 
 3189000   0.73930911    -8.219775    610.51966  0.015953791  0.015463051            2 
 3190000   0.73618811   -8.2396758    611.12119  0.015964503  0.015457658            8 
 3191000   0.75670275   -8.2138036     612.0075  0.015982647   0.01545227            2 
 3192000   0.72572123   -8.2401268    610.79637  0.015946021  0.015446887            3 
 3193000   0.73177891    -8.214562    612.76495  0.015992404  0.015441515            2 
 3194000   0.74570261   -8.2393125    609.97405  0.015914581  0.015436154            3 
 3195000   0.73099162   -8.2508245    612.45018  0.015974183   0.01543077            2 
 3196000   0.75297859   -8.2554729    610.24789  0.015911762  0.015425379            7 
 3197000   0.74827773   -8.2545854    611.58542  0.015941649  0.015419986            1 
 3198000   0.75184327   -8.2384079    611.48376  0.015934015    0.0154146            2 
 3199000   0.75021182   -8.2508395    610.88924  0.015913547  0.015409216            1 
 3200000   0.72966562   -8.2442369    611.62967  0.015927856  0.015403849            2 
 3201000   0.72786408   -8.2414586    610.90041  0.015903895   0.01539849            3 
 3202000   0.73657994   -8.2695576    611.81872  0.015922827  0.015393093            1 
 3203000   0.73478234   -8.2439161     610.5313  0.015884361  0.015387699            1 
 3204000   0.74295293   -8.2392928    611.30573  0.015899546  0.015382294            3 
 3205000   0.74041269   -8.2510612    610.88113  0.015883545  0.015376909            1 
 3206000   0.71565325   -8.2467468     611.3804  0.015891568  0.015371526            1 
 3207000   0.73673123   -8.2555704    610.16711  0.015855085  0.015366142            2 
 3208000   0.72584216   -8.2353676     610.1579  0.015849904   0.01536076            3 
 3209000   0.74559335   -8.2692295    611.81811  0.015888078  0.015355383            3 
 3210000    0.7350556    -8.265156    609.86659  0.015832466  0.015350007            3 
 3211000   0.74049162   -8.2490977    610.11186  0.015833901   0.01534463            3 
 3212000   0.73114517     -8.24132    611.59516  0.015867454  0.015339248            1 
 3213000   0.74181917   -8.2613901    611.71435  0.015865607  0.015333869            1 
 3214000    0.7504929   -8.2669963    610.31616  0.015824418  0.015328499            1 
 3215000    0.7335458    -8.230791    611.00934  0.015837463  0.015323124            1 
 3216000   0.73071609   -8.2589982    610.64745  0.015823162  0.015317744            2 
 3217000   0.73500843   -8.2524395    611.58875  0.015842626  0.015312359            2 
 3218000    0.7308034   -8.2723057    610.04473  0.015797719  0.015306968            2 
 3219000   0.74907087   -8.2724068    610.43595  0.015802939  0.015301587            3 
 3220000   0.71563982   -8.2634864    610.72363  0.015805477  0.015296188            2 
 3221000   0.73192247   -8.2873965    610.37192  0.015791471  0.015290776            1 
 3222000   0.73623304   -8.2733753    609.75205  0.015770537  0.015285375            2 
 3223000   0.74816136   -8.2702376    610.24372  0.015778357  0.015279953            3 
 3224000   0.76581078   -8.2846171    609.83095  0.015762793  0.015274537            2 
 3225000   0.73049388   -8.2892455     609.7676  0.015756269  0.015269104            3 
 3226000   0.73322805   -8.2621807    608.30675  0.015713648  0.015263695            1 
 3227000   0.72068505   -8.2728263    611.45067  0.015789967   0.01525828            2 
 3228000   0.71829687   -8.2937372    608.64264  0.015712584  0.015252865            2 
 3229000   0.74182174   -8.2697941    611.07861  0.015770585  0.015247462            2 
 3230000   0.73808014   -8.2470689    609.20049  0.015717247  0.015242073            1 
 3231000   0.73976788   -8.2584371    610.79015  0.015753383  0.015236675            3 
 3232000   0.73723048   -8.2682117    609.99963  0.015728126  0.015231276            2 
 3233000   0.73341395   -8.2436093    610.74453  0.015742461  0.015225869            2 
 3234000   0.73162727   -8.3018702    608.87942  0.015689534  0.015220462            1 
 3235000   0.72976103   -8.3051198    609.63796  0.015704224  0.015215049            4 
 3236000   0.74207974   -8.2719278    608.90375  0.015680463  0.015209634            2 
 3237000   0.73116184   -8.2869352    610.56112  0.015718286  0.015204219            3 
 3238000   0.72552536   -8.2571931    609.82382  0.015694457  0.015198804            2 
 3239000   0.72949474   -8.2650675    609.92382  0.015692184  0.015193388            3 
 3240000   0.73044783   -8.2686052    609.23012  0.015669499  0.015187997            2 
 3241000   0.73052385   -8.2729939    609.85403  0.015680706   0.01518261            1 
 3242000   0.71872106   -8.2638986    610.79479  0.015700051  0.015177227            1 
 3243000   0.74786532   -8.2551207    610.43107  0.015685864   0.01517184            8 
 3244000   0.71960343   -8.2696434    609.94394  0.015668515  0.015166464            2 
 3245000   0.73885959   -8.2871433    609.13239  0.015642845  0.015161093            4 
 3246000   0.73168937   -8.2693485    611.23068  0.015691895  0.015155719            5 
 3247000   0.73399892   -8.2630658    610.31936  0.015663673   0.01515035            2 
 3248000   0.73340962   -8.2622828    609.82625  0.015646199  0.015144977            5 
 3249000   0.74022326   -8.2883641    611.21386  0.015676974  0.015139611            2 
 3250000   0.73607618   -8.3014487    609.65678  0.015632225  0.015134245            2 
 3251000   0.73169095   -8.2688236    610.74349  0.015655272  0.015128901            2 
 3252000   0.74230233   -8.2620873    610.22378  0.015637141  0.015123556            1 
 3253000   0.74230686   -8.2572598    611.58805  0.015667283  0.015118224            1 
 3254000   0.72723062   -8.2676757    610.90875  0.015645071   0.01511289            2 
 3255000   0.72960201    -8.248675    612.58999  0.015683308  0.015107571            4 
 3256000     0.730164   -8.2548845    611.35229  0.015646813  0.015102264            4 
 3257000    0.7406021    -8.252887    609.88479  0.015604462  0.015096955            3 
 3258000   0.73430082   -8.2809188    611.01905  0.015628685  0.015091634            3 
 3259000   0.73228022   -8.2569276    610.56589  0.015612302  0.015086291            2 
 3260000   0.71233518   -8.2953136    611.46154  0.015630407  0.015080957            2 
 3261000   0.72354516   -8.2873345    610.98936  0.015613548  0.015075624            1 
 3262000   0.73651755   -8.2632919    610.63376  0.015599677   0.01507029            2 
 3263000   0.73293489   -8.2989027    610.14215  0.015582341  0.015064952            2 
 3264000   0.72130646   -8.2843849    608.55631  0.015537079  0.015059606            2 
 3265000   0.73168796   -8.2716218    610.03349  0.015570023  0.015054262            1 
 3266000   0.72446627   -8.3015124    609.40041  0.015549102  0.015048938            2 
 3267000    0.7129904    -8.277832    610.65779  0.015576416  0.015043591            2 
 3268000   0.72810403   -8.2726441    610.97003  0.015579611  0.015038263            2 
 3269000   0.72924488    -8.267033    611.47531  0.015587726  0.015032931            2 
 3270000   0.72178526   -8.3157155    610.73463  0.015564083  0.015027606            4 
 3271000   0.74270124   -8.2826182    610.62051  0.015556418  0.015022294       -1e+20 
 3272000   0.73310807   -8.2673699    610.90955  0.015559025  0.015016969            1 
 3273000   0.71930678   -8.2810746    611.01568  0.015556973  0.015011655            2 
 3274000   0.73994596   -8.2639621    610.88793   0.01554897  0.015006334            5 
 3275000   0.73010258   -8.2503129     610.9534  0.015545888  0.015001022            2 
 3276000   0.74214558   -8.2804907     611.0613  0.015543887  0.014995715            1 
 3277000   0.73162179   -8.2796394    610.48968  0.015524608  0.014990399            3 
 3278000   0.71823329   -8.2793614    610.11848  0.015510435  0.014985099            1 
 3279000   0.72995021   -8.2837383    609.98952  0.015502428  0.014979784            4 
 3280000   0.73141361   -8.2754448    611.05676  0.015524816  0.014974474            4 
 3281000   0.73282249   -8.2957987    611.12217  0.015521746  0.014969156            2 
 3282000   0.72322092   -8.2694121    611.41345  0.015524412  0.014963855            2 
 3283000   0.74284712   -8.2687873     610.2604  0.015490415  0.014958577            2 
 3284000   0.72340664   -8.2517026    611.65312  0.015521039  0.014953294            1 
 3285000   0.73482287   -8.2543117    612.39903  0.015535237  0.014948024            2 
 3286000   0.72386322   -8.2435045    611.47377  0.015507044  0.014942761            2 
 3287000   0.71950489   -8.2564816    612.06586  0.015517337  0.014937487            3 
 3288000   0.72836419   -8.2643123    612.10884  0.015513707  0.014932214            1 
 3289000   0.72341397   -8.2908873    610.46031  0.015467222   0.01492691            2 
 3290000   0.72417627   -8.2863484    610.93365   0.01547451  0.014921616            2 
 3291000   0.71912759   -8.3045735    610.02938   0.01544691  0.014916331            2 
 3292000   0.70682532   -8.2883223    611.05657   0.01546822  0.014911039            2 
 3293000   0.73358153   -8.2877832    611.98339  0.015486977  0.014905756            3 
 3294000   0.71494103    -8.292133    610.06328    0.0154337  0.014900465            2 
 3295000   0.73683509   -8.2940298    609.43571  0.015413144  0.014895178            2 
 3296000   0.71980936   -8.3022533     610.3697  0.015432082  0.014889873            2 
 3297000   0.71523607   -8.3044987    609.53677  0.015406349  0.014884566            4 
 3298000   0.72586535   -8.3126062     610.4613  0.015425038  0.014879269            1 
 3299000   0.74364279   -8.2850735    610.04136  0.015409755  0.014873977            2 
 3300000    0.7270303   -8.2651862    610.31707  0.015412047    0.0148687            2 
 3301000   0.73810521   -8.2996311    611.38327  0.015434294  0.014863436            3 
 3302000   0.72356066   -8.2895393    610.63411  0.015410713  0.014858162            3 
 3303000   0.71669542   -8.2953654    611.69956  0.015432929  0.014852876            4 
 3304000   0.74334345   -8.3273915    610.20047  0.015390448    0.0148476            2 
 3305000   0.70433187   -8.3019391    611.10356  0.015408562  0.014842338            1 
 3306000   0.71772503   -8.2999972    611.05272  0.015402619  0.014837075            3 
 3307000   0.71328441   -8.3205169    610.58545  0.015386187  0.014831804            4 
 3308000   0.72794835   -8.3175745    610.99514  0.015391856  0.014826538            2 
 3309000   0.71229082   -8.3106201    610.02885   0.01536287  0.014821275            2 
 3310000   0.71334016   -8.2967863    611.35466  0.015391608  0.014815999            2 
 3311000   0.72559992   -8.3056885    611.29631  0.015385491  0.014810739            3 
 3312000   0.71456831   -8.3195194    611.48131    0.0153855  0.014805476            3 
 3313000   0.72914702   -8.3031458    610.36451  0.015352765  0.014800222            2 
 3314000   0.71941743   -8.3195948    610.87501  0.015360969  0.014794977            2 
 3315000     0.722592    -8.312856     612.2783  0.015391611  0.014789728            1 
 3316000   0.71069232    -8.300366     611.6431  0.015371007  0.014784489            1 
 3317000   0.73328773   -8.2730624    610.66301   0.01534175  0.014779247            2 
 3318000   0.73402931   -8.3235929    610.44049  0.015331537  0.014773996            5 
 3319000   0.71910086   -8.2956887    610.51152  0.015328701  0.014768756            1 
 3320000   0.71201283   -8.3031928    612.27077  0.015368242  0.014763529            3 
 3321000   0.71893252   -8.3218664    611.07354  0.015333573  0.014758305            5 
 3322000    0.6978474   -8.2823322    610.84955  0.015323338  0.014753068            3 
 3323000   0.72316506   -8.2697736     610.3483  0.015306157  0.014747832            7 
 3324000   0.71870582   -8.2816807    612.29843  0.015350442    0.0147426            3 
 3325000   0.70145487   -8.3057524    612.08329  0.015340433  0.014737356            2 
 3326000   0.72035523   -8.3356523    609.97685  0.015283044   0.01473212            2 
 3327000   0.71875383   -8.3242123    609.70964  0.015271757  0.014726881            1 
 3328000    0.7106292   -8.3098591    610.74649  0.015293131  0.014721652            2 
 3329000    0.7181047   -8.2991364     610.6509  0.015286145  0.014716431            1 
 3330000   0.71713169    -8.326571    609.60338   0.01525534  0.014711213            1 
 3331000   0.69814942   -8.3062672    611.40395  0.015295806  0.014705997            1 
 3332000   0.70947566   -8.3005545     610.1369  0.015259526  0.014700762            4 
 3333000   0.73311292   -8.3238562    610.63919  0.015267507  0.014695533            4 
 3334000   0.71703485   -8.3102719    611.35359  0.015280784  0.014690301            2 
 3335000   0.73596197   -8.3298987     610.0609  0.015243901  0.014685073            2 
 3336000   0.72238756   -8.2933582    610.37263  0.015247118  0.014679839            2 
 3337000   0.71023658   -8.2954866    610.78931  0.015252954  0.014674623            3 
 3338000   0.71207524   -8.3102917    610.86685  0.015250321   0.01466941            1 
 3339000    0.7293424   -8.2886373    610.80829  0.015244292    0.0146642            3 
 3340000   0.71516505   -8.3310193    609.82436  0.015215179  0.014658991            2 
 3341000   0.73452677   -8.3030898    610.81652  0.015235372  0.014653785            1 
 3342000   0.71430118   -8.3517182     609.9925  0.015210266  0.014648569            4 
 3343000   0.71805499   -8.3373897    610.86777  0.015227534  0.014643341            2 
 3344000   0.69751622   -8.2885493    610.27915  0.015208312   0.01463813            2 
 3345000   0.72381216    -8.324822    609.92176  0.015194862  0.014632911            1 
 3346000   0.72649708   -8.3363103    611.11755  0.015220102  0.014627707            2 
 3347000   0.71561712   -8.3014754    611.36363  0.015221682    0.0146225            2 
 3348000   0.70163174    -8.333017    612.02021  0.015233478  0.014617307            2 
 3349000   0.71291377   -8.3346491    610.09951  0.015181136  0.014612096            1 
 3350000   0.71514958   -8.3154614    611.86517  0.015220527  0.014606887            4 
 3351000   0.70854024   -8.3225607    610.76467  0.015188617  0.014601681            1 
 3352000   0.69872471   -8.3189725    610.20075  0.015170066  0.014596483            1 
 3353000   0.72345176   -8.3194597    610.29556  0.015167898  0.014591272            5 
 3354000   0.70209367   -8.3286721    610.56247  0.015170008   0.01458607            2 
 3355000   0.71029892   -8.3347121    611.45166  0.015187572  0.014580866            1 
 3356000   0.70060156   -8.3516848    610.60733  0.015162081  0.014575671            3 
 3357000   0.72037563   -8.2953774    611.40492  0.015177364  0.014570477            3 
 3358000   0.70836203   -8.3022471    611.23234  0.015168561  0.014565274            2 
 3359000    0.7121164   -8.3126678    610.38597  0.015143048  0.014560082            1 
 3360000   0.71433568   -8.3526891    611.26658  0.015160381  0.014554886            2 
 3361000   0.72108769    -8.354078    610.24197  0.015130466    0.0145497            2 
 3362000   0.70762007   -8.3237006    611.87556  0.015166458  0.014544519            2 
 3363000   0.71280779    -8.315957    611.38559  0.015149806  0.014539341            2 
 3364000   0.70901063   -8.3516563    611.32035  0.015143687  0.014534161            2 
 3365000   0.72918427   -8.3322776    611.78785  0.015150764  0.014528977            2 
 3366000     0.720085   -8.3309739    610.47592  0.015113783  0.014523797            2 
 3367000   0.70046245   -8.3572925    609.41274   0.01508298  0.014518597            3 
 3368000   0.70221038   -8.3506755    611.24149   0.01512375  0.014513408            1 
 3369000   0.71235154   -8.3313505    611.42949  0.015123911  0.014508218            2 
 3370000   0.69349309   -8.3705688    610.10356  0.015086636  0.014503028            2 
 3371000   0.68846464   -8.3310587    610.53393    0.0150928  0.014497841            4 
 3372000   0.69812498   -8.3253203    611.14162  0.015103342  0.014492664            2 
 3373000   0.73898172   -8.3191481    610.74986  0.015089185  0.014487498            2 
 3374000   0.71220901   -8.3449034    611.15525  0.015094725  0.014482328            3 
 3375000   0.70486987    -8.322203    612.39908  0.015120965   0.01447717            2 
 3376000    0.6997787   -8.3265572    610.69718  0.015074476  0.014472023            1 
 3377000   0.70822275   -8.3238426    610.74233  0.015071127   0.01446688            2 
 3378000   0.71268912   -8.3657397    612.20976  0.015102865  0.014461729            2 
 3379000   0.71393789   -8.3437294    610.75798  0.015062592  0.014456583            4 
 3380000    0.7148637   -8.3417795    610.39401  0.015049162  0.014451432            2 
 3381000   0.70683622   -8.3297853    612.44488   0.01509526  0.014446291            2 
 3382000   0.71747855   -8.3361167    610.32747  0.015038623  0.014441158            2 
 3383000   0.70899983   -8.3593469    611.47089  0.015062343  0.014436022            2 
 3384000    0.7045278   -8.3517374    611.42361  0.015056728  0.014430874            3 
 3385000   0.69912635   -8.3514461    611.10745  0.015044497  0.014425731            2 
 3386000   0.71034118   -8.3092518    611.72792  0.015055324  0.014420595            1 
 3387000   0.72887572   -8.3440134     611.7125  0.015050499  0.014415457            3 
 3388000   0.69900818   -8.3595911    611.12805  0.015031682  0.014410315            1 
 3389000   0.71493413    -8.363433    611.30989  0.015031718  0.014405153            3 
 3390000   0.72058912   -8.3572394    611.10365  0.015022214   0.01440001            6 
 3391000   0.71945817   -8.3465451    609.74194   0.01498432  0.014394861            1 
 3392000   0.71902902   -8.3424134    610.73012  0.015004179    0.0143897            6 
 3393000    0.7061619   -8.3350243    609.32114  0.014965152  0.014384551            1 
 3394000    0.7194211   -8.3548696    609.16814  0.014956986  0.014379404            1 
 3395000   0.72623424   -8.3465268    610.14703  0.014976609  0.014374244            2 
 3396000   0.72024972   -8.3663489    610.98401  0.014992737  0.014369085            2 
 3397000   0.71265337   -8.3766727    609.28135  0.014946555   0.01436391            2 
 3398000   0.70198433   -8.3518972    610.22259  0.014965239  0.014358759            3 
 3399000   0.71761474   -8.3453123    611.14513  0.014983454  0.014353616            1 
 3400000   0.70046332   -8.3610373    610.48839  0.014962951  0.014348478            2 
 3401000   0.70460824   -8.3488706    609.12385  0.014925116  0.014343328            2 
 3402000   0.70616847    -8.356461    610.99841  0.014966647  0.014338183            2 
 3403000   0.69971288   -8.3212988    610.81239  0.014957694  0.014333034            2 
 3404000   0.71269742   -8.3562209    608.67626  0.014901005  0.014327891            4 
 3405000   0.71586322    -8.353277    610.49468  0.014941133  0.014322739            2 
 3406000    0.6994212    -8.346256      610.188  0.014929242  0.014317594            3 
 3407000   0.69092791   -8.3541451    611.03356  0.014945542  0.014312453            3 
 3408000   0.70542687   -8.3467488    610.03743  0.014916799  0.014307302            3 
 3409000   0.71712441    -8.362678    608.26587  0.014869118  0.014302151            1 
 3410000   0.69073358   -8.3697198    610.84862  0.014927874  0.014297007            2 
 3411000   0.69811553    -8.336359    610.47013  0.014914251  0.014291876            2 
 3412000    0.6924642   -8.3522752    609.32797  0.014881984   0.01428674            4 
 3413000   0.70355609   -8.3674041    610.56861  0.014907916  0.014281609            1 
 3414000   0.71851727   -8.3414362     610.4925  0.014901692  0.014276486            3 
 3415000    0.7100199   -8.3531545    610.62588  0.014900583  0.014271359            2 
 3416000   0.70625576   -8.3497374    609.17115  0.014860733  0.014266246            2 
 3417000    0.6901436   -8.3451269    609.86601   0.01487333  0.014261127            2 
 3418000    0.7258918    -8.361518    610.55735  0.014885833  0.014256004            1 
 3419000   0.69985272   -8.3412094    610.84386  0.014888463  0.014250874            3 
 3420000    0.7044309   -8.3621094    609.29175   0.01484629  0.014245754            2 
 3421000   0.71093102   -8.3366433    611.13331   0.01488681  0.014240633            2 
 3422000   0.70905704   -8.3516318    609.68126  0.014847099   0.01423552            1 
 3423000   0.71513839   -8.3505027    610.47546  0.014862096  0.014230405            6 
 3424000    0.7135176   -8.3560679    610.32247  0.014854032  0.014225291            3 
 3425000   0.70994038   -8.3519347    610.58292  0.014856032  0.014220188            2 
 3426000   0.69553386   -8.3432271    610.09318  0.014839784   0.01421508            1 
 3427000   0.70931649   -8.3686232    609.95252  0.014832033  0.014209986            3 
 3428000    0.7096271   -8.3710491     610.0333   0.01482967  0.014204882            2 
 3429000   0.70944722   -8.3579726    611.12327  0.014851834  0.014199785            2 
 3430000   0.70825999   -8.3582618    610.49936  0.014832346  0.014194699            2 
 3431000   0.71073908   -8.3773542    609.03996  0.014792576  0.014189622            3 
 3432000    0.7048043   -8.3784931    610.90163   0.01483347  0.014184544            2 
 3433000    0.6908126   -8.3258106    611.55353  0.014844973  0.014179464            2 
 3434000   0.70604694   -8.3713656    610.76371  0.014821484  0.014174372            2 
 3435000   0.69917959   -8.3764437    611.04218  0.014823925  0.014169284            1 
 3436000   0.71420328   -8.3479176    611.67572  0.014834976  0.014164207            5 
 3437000   0.70098435   -8.3524344    609.26262  0.014772152  0.014159142            2 
 3438000   0.70699411   -8.3844333    609.73593  0.014779327  0.014154069            1 
 3439000   0.69925472   -8.3598314    610.12882   0.01478455  0.014148994            3 
 3440000   0.71909359   -8.3949688    610.20393  0.014782072  0.014143911            5 
 3441000   0.71218292   -8.3637383     610.3186  0.014780553  0.014138825            3 
 3442000   0.70156051   -8.3594282    610.32968  0.014776527  0.014133757            1 
 3443000   0.70578073   -8.3679364     610.5794   0.01477828  0.014128677            2 
 3444000   0.70465641   -8.3818051    610.54105  0.014773061  0.014123602            1 
 3445000   0.69240806    -8.385803    610.73675  0.014773506   0.01411852            3 
 3446000   0.69819104   -8.3682829    611.36272  0.014784357  0.014113449            4 
 3447000   0.71224543   -8.3716882    610.55803  0.014760614  0.014108385            1 
 3448000   0.70735777   -8.3662009    610.88922  0.014764337  0.014103321            1 
 3449000   0.68519561   -8.3505431    610.75874  0.014756904  0.014098257            1 
 3450000   0.70479577   -8.3772219    610.05821  0.014735705  0.014093187            1 
 3451000    0.6977958   -8.4012605    610.34575  0.014738379  0.014088111            2 
 3452000   0.70364345   -8.3893382    609.89227  0.014723162  0.014083046            1 
 3453000   0.70068014   -8.3707036    610.05869  0.014722915  0.014077982            1 
 3454000   0.69694222   -8.3937388    609.96837  0.014716473  0.014072911            6 
 3455000   0.67448288   -8.3932031    609.04573   0.01468996  0.014067846            1 
 3456000   0.69259839   -8.3824855    608.73241  0.014678154  0.014062792            2 
 3457000   0.70042871    -8.392804    609.49383  0.014692263  0.014057734            1 
 3458000   0.67739148   -8.3625207    609.36754  0.014684971  0.014052686            2 
 3459000   0.71179718   -8.3648867    610.55565  0.014709349  0.014047641            1 
 3460000   0.69312717   -8.3965031    609.69171   0.01468429  0.014042586            3 
 3461000   0.70730083   -8.3686514    610.56716  0.014701126  0.014037539            2 
 3462000   0.70633935   -8.3766012    609.69531  0.014675893  0.014032509            1 
 3463000   0.71323542   -8.3813928    610.34874  0.014687379  0.014027474            1 
 3464000     0.677154   -8.3579649     610.6672  0.014690801  0.014022445            2 
 3465000   0.70575245   -8.3594537    610.16498  0.014674483   0.01401741            1 
 3466000   0.69130987   -8.3669869    610.28162  0.014673053  0.014012397            2 
 3467000   0.68892346   -8.3582592    611.19597  0.014690798  0.014007384            3 
 3468000   0.69267983   -8.3703143    610.29814  0.014664988  0.014002373            5 
 3469000   0.69713498    -8.353793    609.88381  0.014650807  0.013997356            2 
 3470000   0.70595491   -8.3745695    610.55192   0.01466263  0.013992338            2 
 3471000    0.6923974   -8.3531263     610.4498  0.014655954  0.013987318            3 
 3472000   0.69820459   -8.3869564    610.38495  0.014650176  0.013982301            1 
 3473000     0.704711   -8.3738637    611.54158  0.014673711   0.01397729            3 
 3474000   0.69160916   -8.3830316    611.03337  0.014657296  0.013972291            1 
 3475000     0.704805   -8.4116457    609.68418  0.014620724  0.013967286            3 
 3476000   0.70321975   -8.3844605    610.23881  0.014629814  0.013962272            1 
 3477000   0.69274727   -8.3830582    611.01787  0.014644278  0.013957263            2 
 3478000   0.70717478   -8.3892342    610.73103  0.014633195  0.013952249            1 
 3479000   0.69547627   -8.4100139    610.31012  0.014618907  0.013947225            3 
 3480000   0.69971458   -8.3916855    609.81771  0.014602914  0.013942205            2 
 3481000   0.69502988   -8.3984145    609.68143  0.014595457  0.013937182            3 
 3482000   0.68378633   -8.3820165    610.51266  0.014611159  0.013932164            2 
 3483000   0.69576947   -8.3958691     610.0282  0.014595373  0.013927162            1 
 3484000   0.69240566   -8.3842237    609.85038   0.01458693   0.01392215            2 
 3485000   0.66912003   -8.3925319    610.89271  0.014607669  0.013917144            2 
 3486000   0.70429081   -8.3855721    608.93539  0.014556688  0.013912136            1 
 3487000   0.68554604   -8.3998772    610.70327  0.014594763  0.013907123            2 
 3488000   0.70513304   -8.4056414    610.05338  0.014575052  0.013902115            4 
 3489000   0.68253963   -8.3958976    609.97661  0.014569041  0.013897103            2 
 3490000   0.69312991   -8.3842907    608.91848  0.014539601    0.0138921            1 
 3491000   0.68862259   -8.4160017    610.53838  0.014574104   0.01388711            2 
 3492000   0.68529253   -8.3968053    609.63157  0.014548291  0.013882114            3 
 3493000    0.6789291   -8.3990102    608.78081  0.014523829  0.013877109            2 
 3494000   0.70552713   -8.3929825    608.47786  0.014512446  0.013872102            2 
 3495000   0.69664148   -8.3877671    608.87727  0.014517818   0.01386709            2 
 3496000   0.69077034   -8.3970493    608.90143  0.014514241  0.013862077            2 
 3497000   0.69136063    -8.390315    609.24345  0.014518241  0.013857067            1 
 3498000   0.69433877   -8.4054145    609.50026  0.014520208  0.013852064            1 
 3499000    0.7040789   -8.4091701    610.19754  0.014532665  0.013847064            4 
 3500000    0.6868082   -8.4027268    610.60186   0.01453814  0.013842068            4 
 3501000   0.70917364   -8.4016163    610.11501  0.014522399  0.013837075            2 
 3502000   0.69010453   -8.3917425    610.24165  0.014521265   0.01383209            2 
 3503000   0.69764272   -8.4031895    610.03467  0.014512196   0.01382711            1 
 3504000   0.69407967   -8.3957334    610.44754  0.014517873  0.013822129            1 
 3505000   0.70165215   -8.3767425    611.44749  0.014537506  0.013817161            3 
 3506000   0.70981369   -8.3880043    609.21804  0.014480368  0.013812183            1 
 3507000   0.69752591   -8.4024698    610.93968  0.014517149  0.013807207            1 
 3508000   0.69025221   -8.3627234    610.73387  0.014508121  0.013802228            2 
 3509000   0.69886325   -8.4094467    609.56275  0.014476174  0.013797249            1 
 3510000   0.69344598   -8.4122263    609.66223  0.014474412  0.013792273            1 
 3511000   0.69141146   -8.4090312    610.32264  0.014485964  0.013787303            2 
 3512000   0.68324922   -8.4024289    609.85361   0.01447071  0.013782321            2 
 3513000   0.68536451   -8.4017997    609.19359  0.014450934  0.013777364            2 
 3514000   0.68573637   -8.4100707    610.04841  0.014467094  0.013772402            2 
 3515000   0.68439011   -8.3934448    610.33265  0.014469717  0.013767447            2 
 3516000   0.68931892   -8.4013953     609.7949  0.014452856  0.013762495            1 
 3517000   0.69242071    -8.381483    609.82206   0.01444939   0.01375755            3 
 3518000   0.70383887   -8.3793483    609.66951  0.014441669   0.01375261            3 
 3519000   0.67730099   -8.3941191    610.04144  0.014446373  0.013747669            1 
 3520000   0.68273727   -8.3864403    610.28283  0.014447984  0.013742721            3 
 3521000   0.68565697   -8.4197917    609.71776  0.014430506   0.01373776            2 
 3522000   0.69765675   -8.3895647    610.39558  0.014442447  0.013732811            3 
 3523000   0.70879919    -8.404313    609.10778  0.014407886  0.013727849            3 
 3524000   0.69858759   -8.4110187    610.44399  0.014435395  0.013722893            2 
 3525000   0.67289362   -8.3923979    610.36778  0.014429498  0.013717935            1 
 3526000   0.67431477   -8.4005037    610.12819  0.014419743  0.013712982            1 
 3527000   0.70156604   -8.4041593    610.31385  0.014420042  0.013708034            1 
 3528000   0.69838317    -8.403455     610.1637  0.014412408  0.013703084            2 
 3529000   0.69016761   -8.4010724    610.94932  0.014426875  0.013698141            3 
 3530000   0.68134758   -8.4089493    609.56052  0.014390003  0.013693188            2 
 3531000   0.67923957   -8.3858943    610.75522  0.014414123  0.013688251            2 
 3532000   0.68068935   -8.3820333    610.29756  0.014399244  0.013683325            1 
 3533000   0.68181941   -8.4286352    609.49508   0.01437624  0.013678398            2 
 3534000    0.6807535   -8.3936853    609.31279  0.014367874  0.013673463            1 
 3535000   0.67183812   -8.4044258    609.48393  0.014367844  0.013668551            1 
 3536000   0.67492381   -8.3972327    610.13744  0.014379182  0.013663636            3 
 3537000   0.68437014   -8.4304497    609.18051  0.014352571  0.013658703            3 
 3538000   0.67535631   -8.4078539    609.78007  0.014362636  0.013653777            1 
 3539000   0.67762894   -8.3743274    610.79022  0.014382364  0.013648878            3 
 3540000   0.68667836   -8.4093043    610.24923  0.014365566  0.013643964            2 
 3541000   0.67529909   -8.3935688    610.73352  0.014372906  0.013639062            2 
 3542000   0.68640921   -8.3699953    611.06904  0.014376742  0.013634166            1 
 3543000   0.68553065   -8.4024594    610.12079  0.014350381  0.013629268            2 
 3544000   0.68526683   -8.3867865    610.74418   0.01436099  0.013624376            2 
 3545000   0.67613408   -8.4117145    609.25568  0.014321948   0.01361948            2 
 3546000   0.68076112    -8.417145    609.30581  0.014319088  0.013614573            2 
 3547000    0.6901518   -8.3957109    609.60142  0.014321996  0.013609661            3 
 3548000   0.69004304   -8.4090224    609.61588  0.014318299  0.013604752            1 
 3549000    0.6886213    -8.383304    610.64374  0.014338399  0.013599853            1 
 3550000   0.68055747   -8.3986073    610.90982  0.014340606  0.013594946            3 
 3551000   0.68439114   -8.4040729    610.38283    0.0143242  0.013590044            2 
 3552000    0.6732146   -8.3952874    610.32032  0.014318701  0.013585161            2 
 3553000   0.68846554   -8.3779687    610.19092  0.014311636  0.013580271            1 
 3554000   0.67839134   -8.3792442     611.1388  0.014329835  0.013575378            1 
 3555000   0.69361557   -8.4065766    609.45861  0.014286418  0.013570481            1 
 3556000   0.67793109   -8.4175556    609.36183  0.014280133  0.013565585            2 
 3557000   0.69823353    -8.402561    609.70461  0.014284149    0.0135607            2 
 3558000   0.67679458     -8.41013    609.26204  0.014269769  0.013555825            2 
 3559000   0.68257085   -8.3921404    611.28706  0.014313175  0.013550943            2 
 3560000   0.69004209   -8.4067179      610.717   0.01429581  0.013546064            1 
 3561000   0.68805672    -8.384602    610.39948  0.014284365  0.013541189            1 
 3562000   0.68942491   -8.4167854     609.8752  0.014268089  0.013536324            2 
 3563000   0.67922341   -8.4096601    608.66929   0.01423588  0.013531437            2 
 3564000   0.66122038   -8.3976747    610.67446  0.014278771   0.01352656            2 
 3565000    0.6765552   -8.4084053    610.36007  0.014267416  0.013521676            2 
 3566000   0.68117556    -8.409436    610.27148  0.014261345  0.013516794            3 
 3567000   0.67791506   -8.4258096    609.85024  0.014247506  0.013511922            2 
 3568000   0.68410107   -8.4080712    610.30914  0.014254231  0.013507047            1 
 3569000   0.69268916   -8.4259675    609.82211  0.014238865  0.013502172            1 
 3570000   0.68315504     -8.41627    610.08761  0.014241074  0.013497294            4 
 3571000   0.68292453   -8.4269692    609.98016  0.014234578  0.013492417            1 
 3572000   0.68838456   -8.4068771    609.75103  0.014225248  0.013487538            1 
 3573000   0.68043937   -8.4422943    609.62357  0.014218294  0.013482661            1 
 3574000    0.6927522   -8.4164515    609.23235  0.014205194  0.013477772            1 
 3575000   0.68800389   -8.4439778    609.52701  0.014208089  0.013472887            1 
 3576000   0.68944153   -8.4241478    609.52704  0.014204116  0.013468002            3 
 3577000   0.67917104   -8.4335296    609.63592  0.014202682  0.013463122            1 
 3578000   0.66920143   -8.4316915    609.68997  0.014199971  0.013458243            2 
 3579000   0.66619467   -8.4473903    609.91559  0.014201257  0.013453367            1 
 3580000   0.67609778   -8.4351036    610.01105  0.014199512  0.013448508            2 
 3581000   0.68092547    -8.432021     609.0359  0.014172854  0.013443646            2 
 3582000   0.68519468   -8.4160153    609.00671  0.014168219  0.013438779            1 
 3583000   0.68993325   -8.4453886    608.92739   0.01416242  0.013433909            2 
 3584000   0.68161913   -8.4207409     610.4323  0.014193459   0.01342904            1 
 3585000   0.68039261   -8.4480353    609.80091  0.014174824   0.01342418            2 
 3586000   0.69055584   -8.4211301    608.64211  0.014143942  0.013419324            2 
 3587000   0.66763314   -8.4550587    609.29713  0.014155216  0.013414455            4 
 3588000   0.66962228   -8.4393702    608.88079  0.014141601  0.013409593            1 
 3589000   0.67292935   -8.4106005    609.43112  0.014150439  0.013404735            3 
 3590000    0.6913688   -8.4426235    608.26944  0.014119532  0.013399875            2 
 3591000   0.68843524   -8.4233906    609.75509  0.014150076  0.013395018            3 
 3592000    0.6778853   -8.4437578    608.49818  0.014116977  0.013390166            1 
 3593000   0.67115228   -8.4574619    607.85321  0.014098089  0.013385306            1 
 3594000   0.67595628   -8.4390391    608.02992  0.014098264  0.013380447            2 
 3595000   0.67701635   -8.4530847     608.7135  0.014110188  0.013375601            2 
 3596000   0.68112573   -8.4236035    609.46842  0.014123758   0.01337075            1 
 3597000   0.69265016   -8.4486488    608.20958  0.014090668  0.013365904            1 
 3598000     0.671288   -8.4357306    608.86905  0.014102025  0.013361054            2 
 3599000   0.67778699    -8.423378    610.02451  0.014124861  0.013356219            3 
 3600000   0.67946139   -8.4244943    608.81325  0.014092899  0.013351387            3 
 3601000   0.68316338    -8.423151    610.19174  0.014120886  0.013346554            2 
 3602000   0.66723577   -8.4221397     610.5611  0.014125511   0.01334173            2 
 3603000   0.66798194   -8.4340032    610.65532   0.01412377  0.013336904            1 
 3604000   0.66900074   -8.4446366    609.50847  0.014093333  0.013332071            1 
 3605000   0.67418568   -8.4440236    609.36161  0.014086029   0.01332725            2 
 3606000   0.68692806   -8.4166675    610.00355  0.014096958  0.013322433            1 
 3607000   0.68154888   -8.4225347    610.89228  0.014113582  0.013317617            3 
 3608000   0.66787091   -8.4257847    609.60361  0.014079906  0.013312803            2 
 3609000   0.67784337   -8.4615035     607.9656  0.014038182  0.013307977            2 
 3610000   0.67586934   -8.4271555     609.3373  0.014065958  0.013303155            2 
 3611000    0.6680709   -8.4368768    610.34629  0.014085348  0.013298337            2 
 3612000   0.68252586   -8.4230473    609.84181  0.014069809  0.013293527            2 
 3613000   0.68560468   -8.4357791     609.6748  0.014062063  0.013288723            2 
 3614000   0.68571443    -8.424725    609.19266  0.014047054  0.013283916            4 
 3615000   0.67670192   -8.4550793    608.98064  0.014038281  0.013279102            6 
 3616000   0.66897358   -8.4269753    609.45191   0.01404526  0.013274295            2 
 3617000   0.66579023   -8.4258944    610.47899   0.01406504  0.013269502            2 
 3618000   0.65426936   -8.4580484    609.45771  0.014037629  0.013264708            2 
 3619000   0.67364043   -8.4173657    610.31894  0.014053582  0.013259911            1 
 3620000   0.69062345    -8.434022    609.55681  0.014032155   0.01325513            2 
 3621000   0.66161983   -8.4594391    608.85128  0.014012043  0.013250333            2 
 3622000   0.67977536   -8.4518767    609.51506  0.014023446  0.013245526            2 
 3623000   0.66206725   -8.4410087    609.43278  0.014017683  0.013240715            2 
 3624000   0.67322235   -8.4400583     609.2312   0.01400918  0.013235909            4 
 3625000   0.68039797   -8.4417737    609.54617  0.014012556  0.013231107            1 
 3626000   0.68504055   -8.4250284    609.20162  0.014000773  0.013226312            1 
 3627000   0.66282654    -8.453613    609.23979  0.013997789   0.01322152            3 
 3628000   0.68108895   -8.4287909    608.28287  0.013971951   0.01321673            2 
 3629000   0.66386533   -8.4674641    609.27696  0.013990929   0.01321194            3 
 3630000   0.65946769   -8.4409471    609.83797  0.013999953  0.013207148            2 
 3631000   0.66029132   -8.4374809     610.2914  0.014006504  0.013202354            4 
 3632000   0.67170724   -8.4484221    609.25769   0.01397893  0.013197567            1 
 3633000   0.65535403   -8.4623769    608.92751  0.013967509  0.013192778            4 
 3634000   0.65676923   -8.4457403    609.56057  0.013978182  0.013187997            4 
 3635000   0.67562821   -8.4631322     608.2024    0.0139432  0.013183208            2 
 3636000   0.67500774   -8.4513029    607.77053  0.013929468  0.013178425            2 
 3637000   0.66637922   -8.4322894    609.25467  0.013959643  0.013173644            3 
 3638000   0.68597574   -8.4661051    609.14839  0.013953372  0.013168859            1 
 3639000   0.66580997   -8.4701822    608.45957  0.013933763   0.01316408            1 
 3640000    0.6744859    -8.449735    609.85238  0.013961822  0.013159299            2 
 3641000   0.67187403   -8.4545772    608.95502  0.013937449  0.013154523            2 
 3642000   0.67221679    -8.456582    607.30834  0.013895944  0.013149749            3 
 3643000   0.68159116   -8.4474704    608.13187  0.013910968  0.013144975            2 
 3644000   0.66879193   -8.4591026    608.92157   0.01392521    0.0131402            1 
 3645000   0.66141267   -8.4530305    608.97262  0.013922556  0.013135424            4 
 3646000   0.66395098   -8.4601632    608.35603  0.013904645  0.013130655            2 
 3647000   0.66497539   -8.4572204    608.37142  0.013901184  0.013125891            1 
 3648000   0.66122662   -8.4552927    608.36667  0.013897265  0.013121122            1 
 3649000   0.66447513   -8.4355583    609.19088  0.013912279  0.013116346            2 
 3650000   0.65235266   -8.4659666    608.86953  0.013901131  0.013111577            1 
 3651000   0.67018714   -8.4727833    608.49759  0.013888834  0.013106809            2 
 3652000   0.67999463   -8.4657301    608.38614  0.013882488  0.013102051            3 
 3653000   0.68155047   -8.4430584     609.0077  0.013892867  0.013097295            1 
 3654000   0.66851384   -8.4563565    609.62841  0.013903221  0.013092537            2 
 3655000    0.6817315   -8.4510471    608.76688  0.013879774  0.013087776            4 
 3656000   0.66603037   -8.4912778    607.80947  0.013854155  0.013083019            1 
 3657000   0.68107887   -8.4417027    609.33074  0.013885032  0.013078266            2 
 3658000   0.65908154   -8.4669861    608.03336   0.01385168  0.013073521            2 
 3659000   0.67315796   -8.4561693    608.12177  0.013849908   0.01306877            2 
 3660000   0.67163142   -8.4427272    609.57862  0.013879295  0.013064028            2 
 3661000   0.66503641   -8.4545892    609.25843  0.013868215  0.013059289            1 
 3662000   0.65946414   -8.4675976    608.57698  0.013848921  0.013054547            1 
 3663000   0.66376527   -8.4351053    609.32788  0.013862223  0.013049809            2 
 3664000   0.67102407   -8.4566989    608.91754  0.013849107  0.013045072            1 
 3665000   0.68249908   -8.4457463    609.82324  0.013865922  0.013040341            1 
 3666000   0.66939676   -8.4455434    609.02605  0.013844018  0.013035611            2 
 3667000   0.67437784   -8.4460002    609.43641  0.013849569  0.013030871            2 
 3668000   0.66340486     -8.46662    607.93755   0.01381174  0.013026129            1 
 3669000   0.67725101   -8.4622353    607.74211  0.013803537   0.01302139            2 
 3670000   0.66547986   -8.4737231    608.33635  0.013813269  0.013016655            1 
 3671000   0.67337548   -8.4568265    607.56031  0.013791889  0.013011921            1 
 3672000   0.65715773   -8.4565275    608.32155  0.013805409  0.013007196            3 
 3673000   0.66405805   -8.4777193    609.08469  0.013818965  0.013002474            3 
 3674000    0.6741047   -8.4527201    608.94836  0.013812111  0.012997755            1 
 3675000     0.662368   -8.4829761    607.61509   0.01377812  0.012993025            2 
 3676000   0.66697783    -8.476713    607.90793   0.01378101  0.012988306            1 
 3677000   0.65539991   -8.4782835    608.17055  0.013783214  0.012983584            1 
 3678000   0.65550319   -8.4584199    607.84746  0.013772147  0.012978865            3 
 3679000    0.6643886   -8.4623608    608.68313  0.013787332  0.012974151            1 
 3680000   0.66166948   -8.4619623    608.14094  0.013771308  0.012969441            1 
 3681000   0.66747474   -8.4471457    609.22315  0.013792066  0.012964727            3 
 3682000   0.67071356   -8.4576186     607.9123  0.013758652  0.012960011            8 
 3683000    0.6542389   -8.4425163    608.49138  0.013768019  0.012955302            1 
 3684000   0.65406187   -8.4326697    608.13386  0.013756195   0.01295059            4 
 3685000   0.67239149   -8.4821009    608.50061  0.013760755  0.012945881            4 
 3686000    0.6681019   -8.4957264    608.29703   0.01375242  0.012941168            3 
 3687000   0.66213298   -8.4699263    607.54322  0.013731652   0.01293645            3 
 3688000   0.66807784   -8.4544697    607.62032  0.013729671  0.012931734            1 
 3689000   0.65823044   -8.4518238    608.33962  0.013742198  0.012927027            1 
 3690000   0.66816321   -8.4700936    609.19091  0.013757699  0.012922322            1 
 3691000   0.65699213   -8.4433089      608.823  0.013745665  0.012917634            1 
 3692000    0.6671536   -8.4666059    608.52606   0.01373524  0.012912943            2 
 3693000    0.6516214   -8.4598287    609.77513  0.013759706  0.012908247            2 
 3694000   0.65639608   -8.4738048     608.0729   0.01371758  0.012903555            1 
 3695000   0.64821664   -8.4728174    608.60888  0.013725956  0.012898865            2 
 3696000   0.67034003   -8.4486479    608.91855  0.013729224  0.012894183            2 
 3697000   0.65146341   -8.4836657    608.95037  0.013726228  0.012889495            1 
 3698000   0.67180881   -8.4530044    608.78027  0.013718683  0.012884806            4 
 3699000   0.66019867   -8.4684448    608.65977  0.013712259  0.012880126            4 
 3700000   0.66555526   -8.4517908    608.69396  0.013709324  0.012875441            2 
 3701000   0.65112247   -8.5061141    609.25747  0.013718307  0.012870755            4 
 3702000   0.65623032   -8.4869333    607.44862  0.013673884  0.012866079            2 
 3703000   0.65963977   -8.4686482    607.47029  0.013670679  0.012861404            2 
 3704000   0.64999566    -8.488034    609.91307  0.013721946  0.012856734            2 
 3705000   0.66121892   -8.4939769    608.83689  0.013694037  0.012852055            1 
 3706000   0.64957994   -8.4884214    607.09291  0.013651127  0.012847376            3 
 3707000   0.65260789   -8.4793765    607.55668   0.01365787  0.012842691            2 
 3708000   0.65550455    -8.495902    607.19823  0.013646131  0.012838016            2 
 3709000   0.65503926   -8.5039754    608.00498  0.013660577  0.012833341            1 
 3710000   0.66624722   -8.4817122    608.34106  0.013664444  0.012828669            1 
 3711000   0.66575392   -8.4718996    609.48552  0.013686462     0.012824            1 
 3712000   0.65132789   -8.4699294    608.86788  0.013668909   0.01281934            1 
 3713000   0.63778781   -8.4927657    608.34718  0.013653541  0.012814683            1 
 3714000   0.65261075   -8.4878824    608.88589  0.013661952  0.012810029            1 
 3715000   0.64429458   -8.4595588    608.60811  0.013652044  0.012805371            1 
 3716000   0.65971975   -8.4845066    608.47825  0.013645458  0.012800723            6 
 3717000    0.6456308   -8.4727098    608.81231  0.013649276  0.012796076            2 
 3718000   0.66356736   -8.4598368    609.62841  0.013663897  0.012791442            2 
 3719000   0.65958803   -8.4750843    608.50787  0.013635114  0.012786807            1 
 3720000   0.66424521   -8.4632874    609.48763  0.013653397  0.012782181            2 
 3721000   0.64334471   -8.4941838    609.82096  0.013657192  0.012777556            4 
 3722000   0.65890344   -8.4692377    609.11274  0.013637667  0.012772926            1 
 3723000   0.65430513   -8.4520394    608.48721  0.013620002  0.012768299            3 
 3724000   0.66057795    -8.474943    608.30676  0.013612307  0.012763686            2 
 3725000   0.64016186   -8.4797896    608.60024  0.013615218  0.012759075            4 
 3726000   0.66155548   -8.4614318     608.8101  0.013616257  0.012754462            4 
 3727000   0.65566183   -8.4897487    608.19521  0.013598855  0.012749848            3 
 3728000   0.65870231   -8.4708061    608.52787  0.013602644   0.01274523            1 
 3729000   0.65858267   -8.4865862    607.89228  0.013584792  0.012740617            1 
 3730000   0.65034998   -8.4827184    609.35612  0.013613854  0.012736005            2 
 3731000   0.65000148   -8.4453197    608.48645  0.013590781  0.012731403            4 
 3732000   0.67026624   -8.4883621    608.97858  0.013598128  0.012726793            2 
 3733000   0.65648511   -8.4790789    608.51955  0.013584239  0.012722182            4 
 3734000   0.66078919   -8.4929757    609.06964  0.013592877  0.012717575            3 
 3735000   0.65220982   -8.4655208    609.36637  0.013595858  0.012712977            2 
 3736000   0.64251637   -8.4777894    609.81882  0.013602311  0.012708389            2 
 3737000   0.65508488   -8.5069263    608.92027  0.013578634  0.012703793            1 
 3738000   0.65079427    -8.483972    609.01797   0.01357718  0.012699193            4 
 3739000    0.6529198   -8.5034554    607.92695  0.013549232  0.012694587            1 
 3740000   0.65313338   -8.5132415    607.48126  0.013535679  0.012689983            1 
 3741000   0.65508534   -8.4903997    607.65213  0.013535867  0.012685375            2 
 3742000   0.64870276   -8.4863551    608.96532  0.013561494  0.012680772            3 
 3743000   0.65196027   -8.5061019    607.37205  0.013522399   0.01267618            2 
 3744000   0.65618127    -8.502783    609.09922   0.01355723  0.012671599            1 
 3745000   0.65737806   -8.4827495    608.94839  0.013550254  0.012667016            1 
 3746000   0.64814903   -8.4871624       608.82   0.01354378  0.012662438            3 
 3747000   0.66133297   -8.5004273    607.69128  0.013515063  0.012657854            3 
 3748000   0.65194314   -8.4948332    608.14517  0.013521549  0.012653266            2 
 3749000   0.64562132   -8.4950861    608.11486  0.013517268  0.012648682            1 
 3750000   0.64365515    -8.511154    607.75393  0.013505643  0.012644108            1 
 3751000    0.6452216   -8.4989275     609.1436  0.013532916  0.012639533            3 
 3752000   0.65369368   -8.4976127    608.51456  0.013515338   0.01263496            3 
 3753000    0.6536292   -8.5095472     607.7654  0.013495102  0.012630389            1 
 3754000   0.65372969   -8.4959934    609.62388  0.013532762  0.012625818            2 
 3755000   0.65711303   -8.5031796    607.64018  0.013485135  0.012621243            2 
 3756000    0.6550287   -8.5061415    609.87379  0.013531101  0.012616679            1 
 3757000   0.64988086   -8.5053086    608.60193  0.013499289  0.012612121            2 
 3758000   0.65495887   -8.4989296    608.16391  0.013485983  0.012607547            1 
 3759000   0.65358187   -8.4895764     608.8345  0.013497262  0.012602971            2 
 3760000   0.64305289     -8.48414    609.04153  0.013498261  0.012598406            3 
 3761000    0.6489344   -8.4936686    609.16465    0.0134974  0.012593838            1 
 3762000   0.65370906   -8.5255208     608.3756  0.013476334  0.012589275            2 
 3763000   0.65139248   -8.4882778    608.51045  0.013475738  0.012584714            3 
 3764000   0.65756709   -8.4972818    609.02034  0.013483447  0.012580159            3 
 3765000   0.63734316     -8.50119    608.38492  0.013465802  0.012575598            2 
 3766000   0.64710059    -8.498775    607.97485  0.013453152  0.012571044            3 
 3767000   0.64531596   -8.5167117    607.29102  0.013434453  0.012566491            2 
 3768000   0.64292094   -8.5007411    608.60882  0.013460032  0.012561938            3 
 3769000   0.65489155    -8.505934    608.98153  0.013464702  0.012557383            2 
 3770000   0.63826415   -8.4930608    607.80545  0.013435134  0.012552829            1 
 3771000   0.65951089   -8.4926238    608.91779  0.013456152  0.012548275            1 
 3772000    0.6392337   -8.4924927    608.18625  0.013436423  0.012543723            2 
 3773000   0.65277132   -8.5241741    607.64712  0.013420954  0.012539173            1 
 3774000   0.65182128   -8.5207986    608.32503  0.013432367  0.012534623            4 
 3775000   0.64945294   -8.5172581    608.02174  0.013422113   0.01253007            1 
 3776000    0.6359935   -8.5191594    606.74321  0.013390343   0.01252551            5 
 3777000   0.64316285   -8.4999366    607.89682   0.01341225  0.012520957            5 
 3778000   0.64969759   -8.5171673    607.71124  0.013404606   0.01251641            2 
 3779000   0.66785697   -8.4897676    608.00266  0.013407486  0.012511874            4 
 3780000   0.63640284   -8.5181995    608.13877  0.013406939  0.012507336            5 
 3781000   0.65029026   -8.5124351    608.38949  0.013408919    0.0125028            2 
 3782000   0.65005792   -8.4923291    608.42773  0.013406216  0.012498264            2 
 3783000   0.66449393   -8.5219353    608.26769  0.013399147  0.012493735            2 
 3784000   0.63600507   -8.5180151    608.56988  0.013402261  0.012489207            2 
 3785000    0.6416146   -8.5041415    609.81102  0.013426046  0.012484682            2 
 3786000   0.64538324   -8.5087004    607.63162  0.013374529  0.012480156            4 
 3787000   0.63730716   -8.4957575     608.2206  0.013383958  0.012475642            1 
 3788000   0.62508077    -8.501766    608.71066  0.013391206   0.01247112            2 
 3789000   0.66036776   -8.5185748    607.64245  0.013364178   0.01246661            3 
 3790000     0.634154   -8.4998719    608.31413  0.013375421  0.012462102            1 
 3791000   0.64747382   -8.5021614    608.54962  0.013377069  0.012457587            1 
 3792000   0.65253847   -8.5016415    608.06296  0.013362846  0.012453079            1 
 3793000   0.63396877   -8.4896645    609.62823  0.013393713  0.012448567            2 
 3794000   0.63686538   -8.5216449    607.85439  0.013351221  0.012444063            4 
 3795000   0.65049488   -8.5077549    607.32233   0.01333602  0.012439553            4 
 3796000   0.64527571   -8.4944755    608.58667  0.013360262  0.012435041            2 
 3797000   0.64309745   -8.5066324    607.71706  0.013337658  0.012430533            2 
 3798000   0.65681124   -8.4943573    607.94314  0.013339107  0.012426036            1 
 3799000   0.63904989   -8.5197211    608.67628  0.013351678  0.012421535            1 
 3800000   0.64404955   -8.4982889    607.66812  0.013326055  0.012417031       -1e+20 
 3801000   0.65641063   -8.5102628    609.25957   0.01335744  0.012412542            3 
 3802000    0.6393759   -8.5124108    607.66326  0.013318939  0.012408047            3 
 3803000   0.64053531   -8.5078313    607.19307  0.013305133  0.012403555            1 
 3804000   0.63185638    -8.529011    606.86253  0.013294395  0.012399062            2 
 3805000   0.64732167   -8.4981079    608.91504  0.013335853  0.012394577            2 
 3806000   0.67058417   -8.4910108    609.28907  0.013340538  0.012390103            1 
 3807000   0.65039636   -8.5143527      608.361  0.013316719  0.012385624            4 
 3808000   0.64530309   -8.5136965    608.46669  0.013315535   0.01238114            2 
 3809000    0.6339788   -8.5053923    607.37916  0.013288246  0.012376669            2 
 3810000   0.62260158   -8.4919064    609.23682   0.01332539  0.012372195            2 
 3811000   0.64503074   -8.5259491    608.49939  0.013305768  0.012367725            2 
 3812000   0.63871311   -8.5168692    607.30361  0.013276137  0.012363245            2 
 3813000   0.64071672   -8.5194047    608.66144  0.013302331  0.012358764            2 
 3814000   0.64400104   -8.5233785    608.23179  0.013289455   0.01235428            1 
 3815000   0.62314932   -8.5234966    608.00529  0.013281024  0.012349795            3 
 3816000   0.63569999   -8.5161656    607.87119  0.013274615  0.012345315            3 
 3817000   0.64415785   -8.5212929    607.68214   0.01326701  0.012340838            3 
 3818000    0.6492969   -8.5088089    608.45804  0.013280471   0.01233636            1 
 3819000   0.64969165   -8.5128033    608.83306  0.013285176   0.01233188            1 
 3820000   0.63810865   -8.5456817    607.33897  0.013249105  0.012327404            1 
 3821000    0.6330334   -8.5000038    608.98471   0.01328153  0.012322934            1 
 3822000   0.62733362    -8.519114     607.6923  0.013249876  0.012318462            3 
 3823000   0.64217444   -8.5210001    608.11475  0.013255618  0.012314002            1 
 3824000   0.65097058   -8.5114319    608.31589  0.013256535  0.012309541            2 
 3825000   0.63347466   -8.5027412    607.85218  0.013242967  0.012305089            1 
 3826000   0.64662758   -8.5023959    607.89709  0.013240484  0.012300631            1 
 3827000   0.65325006   -8.5233143    608.77696  0.013256183  0.012296177            2 
 3828000   0.64304144   -8.5186553    607.35138  0.013221686  0.012291716            1 
 3829000   0.63828015    -8.506485      606.795  0.013206124  0.012287265            3 
 3830000   0.63599075   -8.5317795    606.54071  0.013197143  0.012282808            4 
 3831000   0.63910244   -8.4969095    607.68467  0.013218583  0.012278353            1 
 3832000   0.64103555   -8.5128178    607.83205  0.013218338  0.012273903            3 
 3833000   0.64054114   -8.5227923    607.07939  0.013198526  0.012269465            2 
 3834000   0.64954418   -8.5208696     606.6744  0.013186281  0.012265026            3 
 3835000   0.63944528   -8.5081844    607.92705  0.013210062   0.01226059            2 
 3836000   0.62642764   -8.5255735    606.41481  0.013173766  0.012256147            4 
 3837000   0.64034056   -8.5022043    606.82555  0.013179254  0.012251709            5 
 3838000   0.63287964   -8.5110062    608.20859  0.013205849  0.012247271            2 
 3839000   0.64073296     -8.51544    607.72171   0.01319184  0.012242841            7 
 3840000   0.64519719   -8.5125832    607.73974  0.013188796  0.012238416            1 
 3841000   0.64472124   -8.5406189    606.62005   0.01316107   0.01223399            2 
 3842000   0.63368185   -8.5078481    608.76645    0.0132042  0.012229563            2 
 3843000   0.65302521   -8.5176055    608.92931  0.013204296  0.012225154            1 
 3844000   0.62541789   -8.5511941    607.16047  0.013162515  0.012220739            1 
 3845000   0.62953774   -8.5066985    608.97021  0.013198314   0.01221633            3 
 3846000   0.62331894   -8.5046009    608.58425   0.01318652  0.012211927            1 
 3847000    0.6267191   -8.4863576    608.93912  0.013190779  0.012207527            5 
 3848000   0.64378137   -8.5047753     608.6525  0.013181144  0.012203128            2 
 3849000   0.63113699   -8.5350277    609.10947  0.013187613  0.012198731            1 
 3850000    0.6274865   -8.4977571    607.42264  0.013147676   0.01219433            2 
 3851000   0.62697006   -8.5080622    608.76326  0.013173272  0.012189934            2 
 3852000   0.62693677   -8.5064313    607.48859  0.013142277  0.012185537            3 
 3853000   0.62878908   -8.5250476    608.70579  0.013165191  0.012181137            6 
 3854000   0.63815908   -8.5114441    609.36489  0.013176027  0.012176735            3 
 3855000   0.63459452   -8.5154624     608.3437  0.013150534  0.012172339            2 
 3856000   0.62414258    -8.551074    607.84859  0.013136423  0.012167944            3 
 3857000   0.63873496   -8.5058605     608.1772  0.013140118  0.012163556            2 
 3858000   0.64296198   -8.5315007    608.36115  0.013140685  0.012159166            4 
 3859000   0.64030734   -8.5277949    607.79766  0.013125111  0.012154775            3 
 3860000   0.62987949   -8.5391133    609.00838  0.013147849  0.012150382            2 
 3861000   0.63795906   -8.5293897    608.19013  0.013126783  0.012145998            2 
 3862000   0.62707859   -8.5368583    607.78957  0.013114741  0.012141604            4 
 3863000   0.62821786   -8.5215434    608.02334  0.013116389  0.012137226            3 
 3864000   0.63924725   -8.5113494    608.37241  0.013120523  0.012132847            1 
 3865000   0.63143374   -8.5233876     608.2161  0.013113758  0.012128473            1 
 3866000   0.62879144   -8.5223607    607.37489  0.013092233  0.012124092            1 
 3867000   0.63923675   -8.5385235    608.22593  0.013107188  0.012119705            4 
 3868000   0.62815918    -8.512846    607.31111   0.01308409   0.01211533            2 
 3869000   0.63925981   -8.5084762    609.09696  0.013119173  0.012110946            1 
 3870000   0.61889859   -8.5240223     608.3447  0.013099584   0.01210657            4 
 3871000   0.63723247   -8.5231075    608.14215   0.01309184  0.012102199            3 
 3872000   0.64270721   -8.5163726    608.04063  0.013086274  0.012097835            2 
 3873000   0.63992896   -8.5250611    609.15959  0.013106971  0.012093472            3 
 3874000   0.63298599   -8.5366357    607.99454  0.013078527  0.012089099            4 
 3875000   0.62397633    -8.515473    606.86183  0.013050792  0.012084736            2 
 3876000   0.62387616   -8.5444166    607.29581  0.013056755  0.012080368            1 
 3877000   0.62374172    -8.529542    607.26834  0.013052797  0.012075999            3 
 3878000   0.62193663   -8.5338725    607.48468   0.01305408  0.012071633            3 
 3879000   0.62841759   -8.5491811    608.13329  0.013064649  0.012067275            7 
 3880000    0.6372593   -8.5198738    607.73839    0.0130528  0.012062916            5 
 3881000   0.62778307   -8.5452191    608.20943  0.013059552  0.012058556            6 
 3882000   0.62704101   -8.5351825     608.4827  0.013062054  0.012054206            4 
 3883000   0.62859568   -8.5447463    607.91718  0.013046553  0.012049851            3 
 3884000   0.62984774   -8.5161543    607.84704  0.013041689  0.012045505            3 
 3885000   0.63898744   -8.5358363    606.84488  0.013016836  0.012041156            4 
 3886000   0.63179216   -8.5422113    606.55347  0.013007237  0.012036811            2 
 3887000   0.63387016   -8.5259924    607.56889   0.01302566  0.012032463            2 
 3888000   0.63062801   -8.5495654    607.04599  0.013011102  0.012028108            1 
 3889000    0.6135086   -8.5371143    607.75734     0.013023  0.012023762            3 
 3890000   0.62350059    -8.558271    606.92711  0.013001866  0.012019402            3 
 3891000   0.62342421   -8.5582835    607.41114  0.013008891  0.012015042            8 
 3892000   0.62789638   -8.5370891    608.34932  0.013025636  0.012010692            3 
 3893000   0.60985175   -8.5189624    606.97302  0.012992829  0.012006348            4 
 3894000   0.61648135    -8.555591    606.79544  0.012985692  0.012002006            2 
 3895000   0.61966282   -8.5430665     607.4981  0.012997392  0.011997669            3 
 3896000   0.63868133   -8.5064195    606.20674  0.012966434  0.011993334            4 
 3897000   0.62863807   -8.5379687    606.89148   0.01297775     0.011989            4 
 3898000   0.62388055   -8.5221439    606.50184   0.01296609  0.011984659            3 
 3899000   0.62089115   -8.5284482    608.02826  0.012995389   0.01198032            2 
 3900000   0.63000067   -8.5669023    607.84207  0.012988078  0.011975984            1 
 3901000   0.63542164   -8.5583543    608.04637  0.012989113  0.011971651            1 
 3902000   0.62765612   -8.5466073    606.49472  0.012952646  0.011967315            2 
 3903000   0.62058222   -8.5573056     606.7869  0.012955566  0.011962982            2 
 3904000   0.63281222   -8.5586501     607.6759  0.012971224  0.011958653            2 
 3905000   0.63293976   -8.5277572     606.4516  0.012941776   0.01195432            1 
 3906000    0.6347812   -8.5424271    607.73655  0.012965876      0.01195            3 
 3907000   0.63312492   -8.5456722     606.5843  0.012937981  0.011945678            2 
 3908000   0.63278614    -8.555076    607.37713  0.012951576  0.011941359            2 
 3909000   0.61393599   -8.5561295    607.20737  0.012944644   0.01193704            2 
 3910000   0.64791686   -8.5390591    607.87283  0.012955516  0.011932723            1 
 3911000   0.61746943   -8.5389396    606.85896  0.012930601  0.011928411            2 
 3912000   0.61473574   -8.5198469    607.56273  0.012942287  0.011924106            1 
 3913000   0.62253322   -8.5702833    606.85999  0.012924014  0.011919801            2 
 3914000   0.62662963    -8.557968     606.8242   0.01291995  0.011915494            2 
 3915000   0.62795868   -8.5416913    608.41134  0.012950433  0.011911188            1 
 3916000   0.62239019    -8.528636    606.70723  0.012910862  0.011906888            1 
 3917000   0.63409036   -8.5499727    607.90386  0.012933024  0.011902584            1 
 3918000   0.62509191   -8.5377057    607.44131  0.012919885  0.011898285            2 
 3919000   0.61026328   -8.5486168    606.91802  0.012905461  0.011893982            2 
 3920000   0.61167648   -8.5405459    606.83695  0.012900445  0.011889676            2 
 3921000   0.61913577   -8.5635343    607.70534  0.012915611  0.011885371            2 
 3922000   0.63005026   -8.5426576    607.50633   0.01290809  0.011881071            2 
 3923000   0.61988872   -8.5588428    607.07675  0.012895674  0.011876773            1 
 3924000   0.61946415   -8.5539494    607.35198  0.012898233   0.01187247            4 
 3925000   0.63086822   -8.5634029    607.77283  0.012903882  0.011868175            1 
 3926000   0.62726655   -8.5426348    606.06137  0.012864267  0.011863885            3 
 3927000   0.60700319   -8.5677469    606.95079  0.012879866  0.011859592            2 
 3928000   0.61566027   -8.5420712    607.26607  0.012883275  0.011855304            4 
 3929000   0.62490475   -8.5577899     607.1933  0.012878453   0.01185101            7 
 3930000   0.61951789   -8.5570948    608.07299  0.012893829  0.011846724            2 
 3931000   0.63210615   -8.5673307    606.23307  0.012851545  0.011842437            4 
 3932000   0.62766944   -8.5638552    606.33081  0.012850348  0.011838149            7 
 3933000    0.6228704   -8.5761723    606.58827  0.012852535  0.011833868            5 
 3934000     0.637614   -8.5695278    606.84123  0.012854627  0.011829588            4 
 3935000    0.6257308   -8.5862036    606.94336  0.012853523  0.011825309            4 
 3936000   0.61638435   -8.5799732    606.37738  0.012838275  0.011821031            4 
 3937000   0.62919491   -8.5495063    606.94414   0.01284701   0.01181675            8 
 3938000   0.61896615   -8.5592231    606.45716  0.012833442  0.011812477            2 
 3939000   0.62535291   -8.5595499    606.58389  0.012832866  0.011808197            2 
 3940000   0.64227674   -8.5854214    609.01098  0.012880943   0.01180393            2 
 3941000   0.61836724   -8.5837791    606.76944  0.012830277  0.011799657            2 
 3942000   0.62837821   -8.5686009    606.27744  0.012816621  0.011795382            3 
 3943000   0.62723813   -8.5726879     606.8403  0.012825266   0.01179111            2 
 3944000   0.61677405   -8.5643596    607.05602  0.012826573  0.011786841            5 
 3945000   0.61758117   -8.5659714    608.05391    0.0128444  0.011782569            4 
 3946000    0.6222913   -8.5780337    606.93183  0.012817449  0.011778302            2 
 3947000   0.62216862   -8.5728262     606.9128    0.0128138   0.01177404            4 
 3948000   0.62276297   -8.5851671    606.37417  0.012799185  0.011769779            3 
 3949000   0.61769624   -8.5759185    606.85121   0.01280601  0.011765515            3 
 3950000   0.60920782    -8.573898    606.74053  0.012800433  0.011761248            5 
 3951000   0.61964517   -8.5681456    606.68042  0.012795925  0.011756993            7 
 3952000   0.60525369   -8.5974259     606.3256  0.012785206  0.011752729            2 
 3953000   0.60211814   -8.5659601    606.74044  0.012790717  0.011748466            2 
 3954000   0.62896831   -8.5767262    605.54447  0.012762276  0.011744213            6 
 3955000    0.6266996   -8.5560239    606.53311   0.01277988  0.011739955            6 
 3956000   0.61176213   -8.5683266    607.19426  0.012790577  0.011735704            2 
 3957000   0.62391783   -8.5477903     606.8816   0.01278076  0.011731456            4 
 3958000   0.61288004   -8.5653843    606.46124   0.01276868  0.011727215            4 
 3959000   0.62265087   -8.5806532    606.95948  0.012775943  0.011722971            5 
 3960000   0.60750457   -8.6014615      606.486  0.012762753  0.011718727            2 
 3961000    0.6208214   -8.5794809    607.81482  0.012787487  0.011714491            3 
 3962000   0.60706454   -8.5680391    606.44177   0.01275538  0.011710248            1 
 3963000   0.62061826   -8.5594139    606.64198  0.012756371  0.011706013            2 
 3964000   0.62720161   -8.5689476    607.52116  0.012771636  0.011701776            2 
 3965000   0.62018794   -8.5816876    606.20346   0.01274072  0.011697538            2 
 3966000   0.60834934   -8.5554002    606.01706  0.012733591  0.011693301            4 
 3967000   0.62265753   -8.5672492    607.00458  0.012751126  0.011689071            6 
 3968000    0.6146744   -8.5931199    605.56205  0.012717617  0.011684835            5 
 3969000   0.61648528   -8.5813007    606.11188  0.012725957  0.011680607            2 
 3970000   0.61881653   -8.5778109    605.63862  0.012712817   0.01167638            3 
 3971000   0.63690121   -8.5811519    606.80436   0.01273408  0.011672151            2 
 3972000     0.611715   -8.5974212     604.9793  0.012692584  0.011667923            2 
 3973000   0.61430839   -8.5711209    607.10907  0.012734061  0.011663696            2 
 3974000   0.60776384   -8.5734235    607.35241  0.012735959  0.011659476            3 
 3975000    0.6150675   -8.5874605      606.506   0.01271501  0.011655264            3 
 3976000   0.62106623   -8.5623784    607.11568  0.012724591  0.011651051            2 
 3977000   0.61341518   -8.5722505    605.64372  0.012690548  0.011646841            2 
 3978000   0.61554031   -8.5627049    607.71666  0.012730783  0.011642635            6 
 3979000   0.61687136   -8.5794589    607.23724  0.012717543  0.011638435            2 
 3980000   0.60229538   -8.5988443     606.5721  0.012700421  0.011634233            1 
 3981000    0.6162052   -8.5856368    606.73117   0.01270056  0.011630025            2 
 3982000   0.60982416    -8.595283     606.7845  0.012698487   0.01162582            1 
 3983000   0.60506829   -8.5615788    606.91183  0.012697963  0.011621619            2 
 3984000   0.61182578   -8.5846696    606.30791  0.012682143   0.01161742            2 
 3985000   0.61647714   -8.6084478       605.84  0.012669176  0.011613219            1 
 3986000   0.61684333   -8.5702942    607.26012  0.012695687  0.011609014            3 
 3987000   0.61434736   -8.5864049    605.72987  0.012660519  0.011604815            2 
 3988000   0.59961659   -8.5882146    605.67341  0.012656165  0.011600611            1 
 3989000   0.61109726   -8.5843548    604.92807  0.012637421  0.011596407            2 
 3990000   0.61331457   -8.5725075     605.9261  0.012655098  0.011592209            3 
 3991000   0.60731127    -8.562233    605.16138   0.01263596  0.011588011            1 
 3992000   0.61105258   -8.6002502    606.19936  0.012654462  0.011583811            1 
 3993000   0.60505669   -8.5601947    606.69199  0.012661574  0.011579621            3 
 3994000   0.61134808   -8.5786051    606.10109  0.012646075  0.011575428            2 
 3995000   0.61145508   -8.5959366    605.83353  0.012637329  0.011571235            1 
 3996000   0.61200704   -8.5791671    604.83151   0.01261327  0.011567043            2 
 3997000   0.61039513   -8.6140762    605.72552  0.012628753  0.011562847            2 
 3998000   0.61212228   -8.5761551    606.41597  0.012639986  0.011558659            1 
 3999000    0.6041388   -8.5939496    605.61422  0.012620118  0.011554468            2 
 4000000    0.6062377   -8.5716302    605.54386  0.012615497  0.011550283            2 
 4001000    0.6126985   -8.5997346     606.3156  0.012628418  0.011546103            2 
 4002000   0.60434411   -8.5829677    605.19836  0.012601998  0.011541922            3 
 4003000   0.60961117   -8.5909809     606.6312  0.012628678  0.011537741            4 
 4004000   0.61931517    -8.607371    606.01078  0.012612612  0.011533559            4 
 4005000   0.61734228   -8.5685468    605.57732  0.012600444  0.011529381            1 
 4006000   0.60265777   -8.6026263    605.03961  0.012586113  0.011525203            1 
 4007000   0.60685201   -8.6009489    605.51205  0.012592797  0.011521031            3 
 4008000    0.6161132   -8.5863841     605.6084  0.012591658  0.011516856            2 
 4009000   0.60179583   -8.6037524     606.4639  0.012606301  0.011512684            3 
 4010000   0.61349289   -8.6001975    605.74428  0.012588202  0.011508514            2 
 4011000   0.60795428   -8.6112388    605.76628  0.012585521  0.011504345            4 
 4012000    0.6110084   -8.6052293    605.05019   0.01256751  0.011500173            1 
 4013000   0.62124006   -8.5900948    605.73973  0.012578697  0.011496009            2 
 4014000   0.61765398   -8.5764036    604.35256  0.012546765  0.011491843            2 
 4015000   0.61623887   -8.5870318     605.3141  0.012563597  0.011487675            6 
 4016000   0.60873758   -8.6038432    605.20678  0.012558242  0.011483513            2 
 4017000   0.61293059    -8.616635    604.64678  0.012543498  0.011479348            2 
 4018000   0.61754481   -8.6009792     605.9063  0.012566499  0.011475181            1 
 4019000   0.59517002   -8.5996084    605.57581  0.012556519  0.011471021            1 
 4020000   0.62098848   -8.5742532    605.03317  0.012542147  0.011466865            2 
 4021000   0.60642965   -8.5936015    605.22659  0.012543036  0.011462714            1 
 4022000   0.60616894   -8.6203987    605.19061  0.012539172   0.01145856            3 
 4023000    0.6056611   -8.5864341    606.05434  0.012553947  0.011454404            2 
 4024000   0.60544729   -8.5867596    605.47701  0.012538871  0.011450258            1 
 4025000   0.60403296   -8.5993407    605.62568  0.012538834  0.011446111            3 
 4026000   0.60840966   -8.5842869     604.8735   0.01252015  0.011441971            2 
 4027000   0.61425678   -8.5986988    604.92099  0.012518024  0.011437836            2 
 4028000   0.59624843   -8.6104896    606.58896  0.012549424  0.011433702            2 
 4029000   0.61625357   -8.6009139    605.39604  0.012521636  0.011429567            2 
 4030000   0.60670691   -8.5988824    605.57256  0.012522179  0.011425437            2 
 4031000   0.60609759   -8.6002834    605.33005  0.012514059   0.01142131            2 
 4032000   0.59843309   -8.6003258    605.97289  0.012524241  0.011417177            2 
 4033000    0.6068657   -8.6009224    605.42416  0.012509797  0.011413051            3 
 4034000   0.59760108   -8.5829895    607.50346   0.01254965  0.011408922            7 
 4035000   0.60446994   -8.5863581    605.47065  0.012504557  0.011404796            4 
 4036000   0.60921679   -8.6061088    604.93722  0.012490445  0.011400676            6 
 4037000   0.59952481   -8.5794869    605.47409  0.012498433  0.011396559            3 
 4038000   0.61704948    -8.606836    606.29882  0.012512358  0.011392441            3 
 4039000   0.60537557   -8.5818575    606.30291  0.012509345  0.011388324            3 
 4040000   0.60359957   -8.6093031    604.16424  0.012462134  0.011384203            4 
 4041000   0.61721164   -8.5983588    605.66556   0.01249001  0.011380089            3 
 4042000   0.60510475   -8.6094997    605.69564   0.01248754   0.01137597            4 
 4043000   0.59555842   -8.6044436    606.55305  0.012502124  0.011371858            2 
 4044000   0.60351226   -8.6048168     605.3072   0.01247336  0.011367741            2 
 4045000    0.5975309   -8.6134626    604.88891  0.012461659  0.011363622            3 
 4046000   0.60953339   -8.6067527    603.75181  0.012435158  0.011359504            1 
 4047000    0.5982851   -8.6008634    605.06739  0.012459175   0.01135539            3 
 4048000   0.59626415   -8.6227259    606.73053  0.012490335  0.011351277            2 
 4049000   0.59753303   -8.5911292    604.76111  0.012446717   0.01134717            2 
 4050000    0.6008101    -8.610165    605.19319  0.012452535  0.011343059            1 
 4051000   0.60226871   -8.6171069    605.09413  0.012447423  0.011338953            5 
 4052000   0.61650537   -8.6023906    605.14272  0.012445351  0.011334857            1 
 4053000   0.60628431   -8.6024422    605.10762  0.012441558  0.011330758            3 
 4054000   0.61932405   -8.6165862    604.91131  0.012434454  0.011326662            3 
 4055000    0.5986843   -8.5975781    604.90496  0.012431257  0.011322563            3 
 4056000   0.59539186    -8.598924    604.36357  0.012417069  0.011318469            2 
 4057000   0.59943811    -8.601485     605.6254  0.012439927  0.011314376            1 
 4058000   0.60989617   -8.6073485    605.02841  0.012424602  0.011310283            4 
 4059000   0.60028518   -8.5879886    604.73729  0.012415564  0.011306193            2 
 4060000   0.59984273   -8.5851976     606.3039  0.012444661  0.011302107            6 
 4061000   0.59832801   -8.5949837    605.77388  0.012430721  0.011298021            2 
 4062000   0.60087825   -8.5925326    606.23796  0.012437181  0.011293942            2 
 4063000   0.60389729   -8.5998399    605.38422   0.01241661  0.011289866            2 
 4064000   0.59075837   -8.6156859    604.80639  0.012401706  0.011285784            2 
 4065000   0.59684073   -8.6093074    604.76868  0.012397882  0.011281703            3 
 4066000   0.60519424   -8.6100596     604.6997  0.012393419  0.011277621            4 
 4067000   0.60191145   -8.6278147    604.39999  0.012384231  0.011273538            6 
 4068000   0.59438553   -8.6191235    604.56353  0.012384536  0.011269461            1 
 4069000   0.60997141   -8.6149495     606.0087   0.01241109   0.01126538            2 
 4070000   0.59086456   -8.6152834    603.74049  0.012361599    0.0112613            2 
 4071000   0.58576017   -8.6136239    605.86304  0.012402011  0.011257226            4 
 4072000   0.59912739    -8.598399     604.6289  0.012373709  0.011253157            1 
 4073000   0.60219811   -8.6040907    604.57503  0.012369568  0.011249086            3 
 4074000   0.59003494   -8.5870538    605.68452  0.012389227  0.011245014            3 
 4075000   0.60291054   -8.5926027    604.06398  0.012353047  0.011240947            5 
 4076000   0.60204523   -8.6266002    605.05519  0.012370281   0.01123688            4 
 4077000   0.60130105    -8.629839    604.30798  0.012351974  0.011232813            2 
 4078000   0.59104071   -8.6013249    605.00955  0.012363282  0.011228751            4 
 4079000   0.60084708   -8.6242828    605.59687   0.01237225  0.011224685            3 
 4080000   0.59823756   -8.6188265    605.06562  0.012358366  0.011220633            3 
 4081000   0.59690307   -8.6290422    604.09329  0.012335483  0.011216574            3 
 4082000   0.59513996   -8.6356965    603.57017  0.012321782  0.011212518            2 
 4083000   0.60913226   -8.6161747    606.05783  0.012369537  0.011208463            2 
 4084000   0.60131982   -8.6323639    605.33377  0.012351734  0.011204417            3 
 4085000   0.58722833    -8.625148    605.31051  0.012348236  0.011200368            2 
 4086000   0.59573313   -8.6129319    605.63768  0.012351886  0.011196322            6 
 4087000   0.58872542    -8.625347    604.18743  0.012319294  0.011192272            4 
 4088000    0.5927037   -8.6070948    604.87379  0.012330271   0.01118823            2 
 4089000   0.59844283   -8.5915553    604.84368  0.012326642  0.011184195            1 
 4090000   0.60137869   -8.6134171     603.8309  0.012302993  0.011180155            3 
 4091000   0.59075223   -8.5979315     605.2773  0.012329449  0.011176119            3 
 4092000    0.5859211   -8.6157487    605.63989   0.01233382  0.011172087            5 
 4093000   0.59448787   -8.6326488    605.25144  0.012322898  0.011168058            1 
 4094000   0.60015272     -8.63323    604.98066  0.012314376  0.011164028            3 
 4095000    0.5981377   -8.5928671    605.99919  0.012332096  0.011159997            3 
 4096000   0.58702708   -8.6204021    603.75099  0.012283345   0.01115597            2 
 4097000   0.59931168    -8.613908     605.2505  0.012310847  0.011151941            4 
 4098000   0.59622782   -8.6199382    605.05673  0.012303903  0.011147915            1 
 4099000   0.60117613   -8.6225232    604.78266  0.012295329  0.011143896            2 
 4100000   0.58603556   -8.6167547    604.62392  0.012289104  0.011139875            2 
 4101000   0.60582937    -8.624337    604.53967  0.012284395  0.011135861            1 
 4102000   0.57428887   -8.6145487    606.26127  0.012316376  0.011131848            2 
 4103000   0.60176684   -8.6185736    604.94661  0.012286673  0.011127834            3 
 4104000   0.58422734   -8.6113045    604.80913  0.012280887  0.011123823            1 
 4105000   0.59064038   -8.6207176    604.72786  0.012276246   0.01111981            2 
 4106000   0.58864683   -8.6166336    604.30395  0.012264652  0.011115795            2 
 4107000   0.59916367   -8.6355587     604.0785  0.012257092  0.011111786            3 
 4108000   0.59636707   -8.6387982    605.32132  0.012279319  0.011107771            3 
 4109000   0.58887133   -8.6384059    605.62045  0.012282397  0.011103761            2 
 4110000    0.5830738   -8.6219343    605.55659  0.012278114  0.011099751            2 
 4111000   0.58948919   -8.6346349    604.62698  0.012256284   0.01109575            2 
 4112000   0.59598849   -8.6120781    605.13527  0.012263604  0.011091744            2 
 4113000   0.59406885     -8.62684    604.50489   0.01224785  0.011087749            2 
 4114000   0.59305414   -8.6333542    604.37844  0.012242312  0.011083751            1 
 4115000   0.59521162   -8.6140045     604.4898  0.012241592  0.011079755            3 
 4116000   0.58172001   -8.6070057    603.76181  0.012223879  0.011075761            1 
 4117000   0.58982073   -8.6080452     604.8038  0.012242001  0.011071765            2 
 4118000    0.5817437      -8.6412    603.43101  0.012211248  0.011067773            2 
 4119000   0.59484499   -8.6322988    605.24132  0.012244908  0.011063783            1 
 4120000   0.59101039   -8.6296365    604.97958  0.012236642  0.011059796            4 
 4121000   0.59278383    -8.640792    603.73555  0.012208516  0.011055809            3 
 4122000   0.60375431   -8.6501948    604.60821  0.012223197  0.011051823            1 
 4123000   0.58300224   -8.6237337    604.04446  0.012208838  0.011047841            3 
 4124000   0.59249161   -8.6198043    604.70447  0.012219214  0.011043858            1 
 4125000    0.5931549    -8.650312    603.52892  0.012192503  0.011039877            2 
 4126000   0.58391773     -8.60339    604.70956  0.012213394  0.011035893            3 
 4127000   0.60365491   -8.6201562    605.32787   0.01222292  0.011031915            2 
 4128000   0.58492262   -8.6330227    604.21184  0.012197429  0.011027939            2 
 4129000   0.58849177   -8.6057983    604.02566  0.012190717  0.011023968            4 
 4130000   0.60093172   -8.6168028    604.85023  0.012204403  0.011019995            4 
 4131000   0.58970556   -8.6288339    605.12011  0.012206893  0.011016027            4 
 4132000   0.58031169   -8.6243943    605.07641  0.012203058   0.01101206            2 
 4133000   0.60258301    -8.616117    605.05996  0.012199773  0.011008095            5 
 4134000   0.58423765   -8.6176362     605.7505  0.012210742  0.011004133            1 
 4135000    0.5982329   -8.6457439    604.63985  0.012185406  0.011000175            2 
 4136000   0.58988785   -8.6129911    604.96718  0.012189055  0.010996214            2 
 4137000   0.58879405   -8.6227638    604.80715  0.012182885  0.010992256            1 
 4138000   0.58834083   -8.6556655    604.30911  0.012169911  0.010988296            3 
 4139000    0.5863496   -8.6358849    603.78508   0.01215642  0.010984338            2 
 4140000   0.58809163   -8.6480369    603.87966  0.012155388   0.01098038            3 
 4141000   0.59420749   -8.6480298    604.99171  0.012174831   0.01097643            3 
 4142000   0.59439669   -8.6335604    605.03429  0.012172748  0.010972479            1 
 4143000   0.58572964   -8.6332947    604.59101  0.012160894  0.010968532            2 
 4144000   0.58899657   -8.6552262    605.35617  0.012173346  0.010964579            1 
 4145000   0.59611449   -8.6409964    604.42572  0.012151703  0.010960631            4 
 4146000   0.58231083    -8.647257     604.4675  0.012149612  0.010956689            2 
 4147000   0.59451858   -8.6409008    603.87999  0.012134876  0.010952741            2 
 4148000   0.59364748   -8.6496976    605.68153  0.012168144  0.010948798            6 
 4149000   0.58868127   -8.6449041    604.88432  0.012149199  0.010944857            4 
 4150000   0.59386491   -8.6431101    604.52591  0.012139075  0.010940913            4 
 4151000   0.58019996   -8.6533283    605.40945  0.012153888  0.010936977            4 
 4152000   0.57757247   -8.6440209    604.08652  0.012124408   0.01093304            5 
 4153000   0.56388631   -8.6321501     603.6588  0.012112906  0.010929102            2 
 4154000   0.58413096   -8.6422236    605.25225  0.012141957  0.010925165            4 
 4155000    0.5959125   -8.6339113    605.10039  0.012135989  0.010921234            1 
 4156000   0.59502785   -8.6454702    605.13649  0.012133792  0.010917301            7 
 4157000    0.5964936   -8.6615631    603.95903  0.012107269  0.010913374            4 
 4158000   0.58643421   -8.6351725    604.25287  0.012110247  0.010909451            2 
 4159000   0.59678094   -8.6722428    603.56287  0.012093509   0.01090552            3 
 4160000   0.58237787   -8.6205374    604.91013  0.012117591  0.010901597            4 
 4161000   0.58699201   -8.6569822    603.76143  0.012091673  0.010897676            2 
 4162000   0.58201865   -8.6355466    603.61568   0.01208585  0.010893757            1 
 4163000   0.57857256    -8.648045    604.17345  0.012094112   0.01088984            3 
 4164000   0.59733664   -8.6520897     603.3615  0.012074958  0.010885921            4 
 4165000   0.59141974   -8.6566855    603.57912  0.012076413  0.010882008            5 
 4166000   0.58978019   -8.6355887    603.71263  0.012076185  0.010878092            2 
 4167000   0.57308452   -8.6563969    604.37771  0.012086587  0.010874181            1 
 4168000   0.58927972   -8.6453717     604.9534  0.012095197  0.010870267            3 
 4169000   0.58127266   -8.6516028    604.68136  0.012086859   0.01086636            2 
 4170000   0.58251283   -8.6600945    603.75565  0.012065461  0.010862449            5 
 4171000   0.59093543   -8.6516591    604.27255  0.012072895  0.010858544            2 
 4172000    0.5895367   -8.6379717    604.06466  0.012065849  0.010854636            4 
 4173000   0.58199544   -8.6431774    604.10741  0.012063811  0.010850737            2 
 4174000   0.57751293   -8.6476895    604.33555  0.012065476  0.010846832            2 
 4175000   0.58445841   -8.6432812    605.06565  0.012077159  0.010842931            2 
 4176000   0.58347731   -8.6515543    603.93494  0.012051703   0.01083903            4 
 4177000   0.58604528   -8.6558682    605.60535  0.012082143  0.010835134            3 
 4178000   0.57105375   -8.6522145    604.74917  0.012062174  0.010831238            6 
 4179000   0.58609742   -8.6408132    605.07126  0.012065711  0.010827343            3 
 4180000   0.57609439   -8.6345232    603.74571  0.012036398   0.01082345            2 
 4181000   0.57710489   -8.6518976    604.03129  0.012039211  0.010819561            2 
 4182000   0.57498788   -8.6573069    604.70321  0.012049721  0.010815673            1 
 4183000   0.57526078   -8.6427747    603.60848  0.012025032  0.010811788            2 
 4184000   0.58885868   -8.6461184    603.37177  0.012017443    0.0108079            3 
 4185000    0.5649223   -8.6511546     604.4656  0.012036352  0.010804013            3 
 4186000   0.57953338     -8.66602    603.78838  0.012019995  0.010800127            4 
 4187000   0.57285561    -8.660175    603.71182    0.0120156  0.010796242            3 
 4188000    0.5759641   -8.6553864    603.54782  0.012009468  0.010792361            4 
 4189000   0.57313227   -8.6689491    603.90512  0.012013709  0.010788479            3 
 4190000   0.56886451   -8.6599378    604.52294  0.012023129  0.010784599            2 
 4191000   0.57349906   -8.6650383    603.18875  0.011993732  0.010780717            3 
 4192000   0.57782079   -8.6405817    603.85928    0.0120042  0.010776838            4 
 4193000   0.56912386   -8.6543543    605.02376   0.01202448  0.010772962            3 
 4194000   0.58766706   -8.6468727    603.49179  0.011991174  0.010769091            3 
 4195000   0.57281618   -8.6566507    604.11879  0.012000771  0.010765224            2 
 4196000   0.57576055   -8.6362612    604.04631  0.011996471  0.010761355            3 
 4197000   0.58772464   -8.6461327    604.44996  0.012001627  0.010757484            1 
 4198000   0.58737851   -8.6687274    602.61382   0.01196232  0.010753614            2 
 4199000    0.5780669   -8.6490083    603.96849  0.011986356  0.010749747            4 
 4200000   0.57884111   -8.6682085    604.23617  0.011988813  0.010745877            2 
 4201000   0.59195467   -8.6544564    603.86389  0.011978574  0.010742018            4 
 4202000   0.58356814   -8.6526326     603.1514  0.011961594  0.010738157            4 
 4203000   0.57501153   -8.6638025    603.46335  0.011964933  0.010734302            5 
 4204000   0.57708773   -8.6383918    603.13679  0.011955614  0.010730446            3 
 4205000   0.57044413   -8.6646305    604.03594  0.011970589  0.010726588            5 
 4206000   0.56930599   -8.6814563    603.25848   0.01195234  0.010722733            3 
 4207000   0.58361782   -8.6713643    604.18602  0.011967871  0.010718883            3 
 4208000   0.57274317   -8.6478007    603.78538  0.011957093  0.010715031            2 
 4209000   0.56916567   -8.6625189    604.30089  0.011964459  0.010711184            3 
 4210000    0.5756138   -8.6662924    603.62011  0.011948142  0.010707336            2 
 4211000    0.5809909   -8.6735262    603.45471  0.011942031  0.010703485            4 
 4212000   0.57337281   -8.6547685    603.73122  0.011944666  0.010699639            2 
 4213000    0.5836156   -8.6473032    603.13973  0.011930132  0.010695792            2 
 4214000   0.57275276   -8.6685976    603.03031  0.011925137  0.010691953            3 
 4215000   0.58441147   -8.6434052    603.79553  0.011937436  0.010688114            4 
 4216000   0.58363265   -8.6635284    604.59467  0.011950401  0.010684274            1 
 4217000   0.58419274   -8.6604742    603.48018  0.011925543  0.010680437            2 
 4218000   0.57928471   -8.6688893    605.00556  0.011952852  0.010676599            1 
 4219000   0.57010644   -8.6539943    604.00682  0.011930292  0.010672763            4 
 4220000   0.56647358   -8.6651963    603.55869  0.011918616  0.010668928            6 
 4221000   0.57615858   -8.6816739    604.15219  0.011927509  0.010665096            4 
 4222000   0.59047443   -8.6722177    603.10278  0.011903971  0.010661269            3 
 4223000   0.57275329   -8.6491458    603.39187  0.011906857  0.010657442            3 
 4224000   0.58459123   -8.6748302     603.4012  0.011904222   0.01065362            3 
 4225000   0.57886023   -8.6614329    603.82047  0.011909674  0.010649796            1 
 4226000   0.56823347    -8.635942    603.32188  0.011897024  0.010645973            3 
 4227000   0.59096891   -8.6521379     604.3375  0.011914232  0.010642157            1 
 4228000   0.57287533   -8.6429778    602.94988  0.011884064   0.01063834            1 
 4229000   0.57728254   -8.6608218    604.37551  0.011909346  0.010634523            4 
 4230000   0.56613309   -8.6685417    604.61622  0.011911273  0.010630708            3 
 4231000   0.56841852   -8.6508098    604.97218  0.011915469  0.010626902            4 
 4232000   0.57513808   -8.6464344    604.23265  0.011898091  0.010623101            2 
 4233000   0.58023818   -8.6518037    603.28698  0.011876663  0.010619298            4 
 4234000   0.58031514   -8.6596217    604.60222  0.011899744  0.010615498            4 
 4235000   0.57856258   -8.6588943     604.7665  0.011900167  0.010611699            3 
 4236000    0.5658959   -8.6627796    603.98275  0.011881939  0.010607904            3 
 4237000   0.57058272   -8.6503017    603.65923  0.011872772  0.010604105            2 
 4238000   0.57796829   -8.6532253    603.78516  0.011872447   0.01060031            3 
 4239000   0.56500306    -8.664018    604.16064  0.011877028  0.010596517            5 
 4240000   0.56597951   -8.6508982    602.96979  0.011850821  0.010592728            3 
 4241000    0.5706971   -8.6714574    604.52292  0.011878545  0.010588941            2 
 4242000   0.57513934   -8.6384728    603.33062  0.011852322  0.010585158            1 
 4243000   0.56883467   -8.6594985    603.69214  0.011856629  0.010581373            2 
 4244000   0.55710863   -8.6599314    603.89311  0.011857782  0.010577589            1 
 4245000   0.56997935   -8.6530644    603.96334  0.011856367  0.010573804            3 
 4246000   0.58915227   -8.6836712    603.25103  0.011839595   0.01057002            2 
 4247000   0.57136578   -8.6643282    603.82226  0.011848015  0.010566237            1 
 4248000   0.56986039   -8.6710309    604.40489  0.011856656  0.010562454            4 
 4249000   0.57230289   -8.6318235    603.26583  0.011831526  0.010558675            2 
 4250000   0.57004785   -8.6555017    603.82187  0.011839645  0.010554899            1 
 4251000   0.57051039     -8.67492    603.60882  0.011832683  0.010551124            1 
 4252000   0.57421391    -8.687085    604.46524  0.011846685  0.010547346            2 
 4253000   0.57264671   -8.6683737    603.70926  0.011829086  0.010543572            3 
 4254000   0.56909727   -8.6607367    603.39848  0.011820218  0.010539798            2 
 4255000   0.56692099     -8.69722    604.08332  0.011830852  0.010536027            2 
 4256000   0.55740233   -8.6441603    603.38516  0.011814402  0.010532255            1 
 4257000    0.5653949   -8.6817051    603.16054   0.01180723  0.010528485            4 
 4258000   0.57236013   -8.6768567    604.13605  0.011823549  0.010524719            5 
 4259000   0.56481832   -8.6650438    603.27641  0.011803953  0.010520957            4 
 4260000   0.57069028    -8.676835    604.57383  0.011826562  0.010517191            1 
 4261000   0.56432741   -8.6769853    603.64238  0.011805569  0.010513429            3 
 4262000   0.57232717   -8.6726265    603.34973  0.011797077  0.010509672            3 
 4263000   0.57605482   -8.6717281    602.69215  0.011781456  0.010505913            3 
 4264000   0.56873644   -8.6674918     602.8527   0.01178183   0.01050216            2 
 4265000   0.55880396   -8.6708795    603.00347  0.011782014  0.010498403            3 
 4266000   0.56185636   -8.6658863    602.17399  0.011763049   0.01049465            3 
 4267000   0.57079812   -8.6618785    604.31262  0.011802059  0.010490897            3 
 4268000   0.56647056   -8.6609792    603.82412  0.011789756  0.010487145            2 
 4269000   0.56161708   -8.6622263    604.36597  0.011797571  0.010483395            1 
 4270000   0.56246339   -8.6635688    603.77809  0.011783335  0.010479645            2 
 4271000   0.57513371   -8.6831668    603.78514  0.011780714  0.010475898            3 
 4272000    0.5726864   -8.6899242    604.83118  0.011798361  0.010472155            3 
 4273000   0.56214346   -8.6646387    603.66678  0.011772891  0.010468408            3 
 4274000   0.56502953   -8.6739556    603.90089  0.011774702  0.010464666            2 
 4275000   0.57632771   -8.6779587    603.56652  0.011765429  0.010460924            3 
 4276000   0.57574397   -8.6606433    603.39143  0.011759265  0.010457186            3 
 4277000   0.56881558   -8.6828267       602.98    0.0117485  0.010453446            3 
 4278000   0.56087396   -8.6671063    603.20783  0.011750192   0.01044971            2 
 4279000   0.56671732   -8.6752771    602.90521  0.011741552   0.01044597            2 
 4280000   0.55830413   -8.6740034    601.50336  0.011711514  0.010442233            3 
 4281000   0.55288585   -8.6725327    603.13269  0.011740495  0.010438498            1 
 4282000   0.57170062   -8.6687423    603.91504  0.011752978  0.010434765            2 
 4283000    0.5618109   -8.6681817    602.74893  0.011727545  0.010431036            2 
 4284000   0.57365228   -8.6834889    603.80464  0.011745344  0.010427309            1 
 4285000   0.57232198   -8.6734018    604.95513  0.011764977  0.010423587            2 
 4286000    0.5594136   -8.6689716    603.25721  0.011729219  0.010419872            3 
 4287000   0.56935029   -8.6642963    603.49854  0.011731175   0.01041615            3 
 4288000   0.56530602   -8.6839418    601.91406  0.011697646  0.010412427            3 
 4289000   0.56718987   -8.6776587    603.34771  0.011722774  0.010408707            3 
 4290000   0.56727249   -8.6929339    602.48144  0.011703214   0.01040499            3 
 4291000   0.57624554   -8.6774781    602.94554  0.011709499  0.010401271            3 
 4292000   0.56170542   -8.6833448     602.9781  0.011707403  0.010397552            3 
 4293000   0.55376919   -8.6744532    603.18286  0.011708651  0.010393838            3 
 4294000   0.55848663   -8.6858166    603.99154  0.011721618  0.010390129            2 
 4295000   0.56035309   -8.6878784     603.5032  0.011709414  0.010386422            4 
 4296000   0.56534975   -8.6665766    603.29492  0.011702648  0.010382716            3 
 4297000   0.55324105   -8.6760862    603.09123  0.011695975  0.010379017            3 
 4298000   0.56089709   -8.6765512    603.17299  0.011694838  0.010375315            4 
 4299000   0.56780316   -8.6819214    603.35657  0.011695677  0.010371614            2 
 4300000   0.55858726   -8.6779757    603.21652  0.011690243   0.01036792            3 
 4301000    0.5605454   -8.6956797    603.24742  0.011688123   0.01036422            3 
 4302000   0.57461068   -8.6804241    603.65801   0.01169336  0.010360522            3 
 4303000    0.5784918   -8.6893986    603.35192  0.011684715   0.01035683            4 
 4304000   0.55981908   -8.6760176    603.31288  0.011681244  0.010353133            1 
 4305000   0.56119788   -8.6739176    603.34058  0.011679067  0.010349443            2 
 4306000   0.56182207   -8.6899465    602.95769  0.011668944  0.010345748            3 
 4307000   0.56493597   -8.6772816    603.23109  0.011671525  0.010342055            4 
 4308000   0.56255647   -8.6873848     601.8914  0.011642901  0.010338365            5 
 4309000   0.56325324    -8.687911    602.53228  0.011652593  0.010334678            3 
 4310000   0.56474555   -8.6978079    603.06193   0.01166013  0.010330989            5 
 4311000   0.56517295   -8.6818696    602.66534  0.011649759  0.010327303            3 
 4312000   0.55949381   -8.6877393    602.98207  0.011653179  0.010323617            2 
 4313000   0.55429962   -8.6881608    605.30432  0.011695346  0.010319931            4 
 4314000   0.55409459   -8.6893201    603.20094  0.011652004   0.01031625            4 
 4315000    0.5466427   -8.6872699     603.9172  0.011663136  0.010312575            2 
 4316000   0.56508242   -8.6650865    603.51963  0.011652758  0.010308901            1 
 4317000   0.56895005   -8.7073495    602.75193  0.011635239  0.010305223            3 
 4318000   0.56197849   -8.6983324    602.65097  0.011630596  0.010301545            3 
 4319000   0.58089834   -8.6895727    603.40694  0.011642489  0.010297867            4 
 4320000   0.56820408    -8.693692    602.88517  0.011629729  0.010294199            2 
 4321000   0.57243181   -8.7088739    602.15391  0.011612935  0.010290531            3 
 4322000   0.55916395   -8.6967026    603.44458  0.011635134  0.010286857            2 
 4323000   0.55547775   -8.7158627    602.50947  0.011614417  0.010283184            3 
 4324000   0.57032319   -8.6869589    601.81801  0.011598405  0.010279516            2 
 4325000   0.56175278   -8.6882455    602.37286  0.011606414  0.010275853            5 
 4326000   0.55852755   -8.7029973    603.00879  0.011615981  0.010272192            2 
 4327000   0.55968755   -8.7071865    602.27278  0.011599121   0.01026853            5 
 4328000   0.55064945   -8.7084321    602.82848  0.011607141  0.010264867            4 
 4329000   0.54590433   -8.6803672    602.87612  0.011605377  0.010261212            3 
 4330000   0.55885023   -8.6549765    602.61848  0.011597738  0.010257557            3 
 4331000   0.57205844   -8.6761104    603.16077  0.011605495  0.010253904            5 
 4332000   0.55912555   -8.6859436    602.85306  0.011596896  0.010250252            3 
 4333000   0.54353011   -8.6920227    603.69584  0.011610429  0.010246599            5 
 4334000   0.54735552   -8.6873412    603.16509  0.011597544  0.010242954            2 
 4335000   0.56578523    -8.688152    603.52163  0.011601723  0.010239304            3 
 4336000    0.5663768    -8.685015    602.98634   0.01158876  0.010235656            3 
 4337000   0.55837211   -8.7042601    603.61487  0.011598164   0.01023201            2 
 4338000    0.5603604   -8.6945471    602.92713  0.011582279  0.010228367            1 
 4339000   0.54339153   -8.7096443    602.90828  0.011579248  0.010224724            4 
 4340000    0.5489559   -8.7056058    602.00977  0.011559327  0.010221079            3 
 4341000   0.56262178   -8.6954693    602.23717   0.01156103   0.01021744            1 
 4342000   0.55723278   -8.6850718     601.8148  0.011550261  0.010213802            3 
 4343000   0.54868495   -8.6878425    603.49197  0.011579783  0.010210162            3 
 4344000   0.56794599   -8.6865771    603.28953  0.011573234  0.010206529            2 
 4345000   0.55424954   -8.6942503    603.52962  0.011575175  0.010202896            6 
 4346000   0.56300655   -8.6854936    602.51696  0.011553094  0.010199263            5 
 4347000   0.55105625   -8.6950344     602.3987  0.011548169  0.010195631            4 
 4348000   0.54833525   -8.7064105    603.14613  0.011559838  0.010192003            2 
 4349000   0.55624713   -8.6981265    602.36953    0.0115423  0.010188374            5 
 4350000   0.55178407   -8.6958545    602.97867  0.011551315  0.010184743            4 
 4351000   0.56147983   -8.6957946    603.24751   0.01155381  0.010181117            5 
 4352000   0.55308699   -8.7293051    603.21595   0.01155055  0.010177489            3 
 4353000   0.55633302   -8.7030457    603.49686  0.011553275  0.010173865            4 
 4354000   0.54496067   -8.6966952    602.64644  0.011534345  0.010170243            4 
 4355000   0.56078554   -8.6966576     603.8091  0.011553944  0.010166625            5 
 4356000   0.56456083   -8.6951386    603.02651   0.01153632  0.010163007            3 
 4357000    0.5545051   -8.6879197    603.59343  0.011544515   0.01015939            4 
 4358000   0.55265469   -8.6816028    602.17877  0.011514815  0.010155776            3 
 4359000   0.53809492   -8.6819422    602.98589  0.011527604   0.01015216            3 
 4360000   0.55865905   -8.7011194    602.52544  0.011516159   0.01014855            2 
 4361000   0.54758087   -8.6853068    602.31869  0.011509568   0.01014494            2 
 4362000   0.55128751   -8.7119708    603.18426  0.011523465  0.010141332            3 
 4363000    0.5515805   -8.6955375    603.02697   0.01151782  0.010137721            4 
 4364000   0.56112268   -8.6897355    603.60897  0.011526294   0.01013412            4 
 4365000    0.5472159   -8.7066817    602.40478  0.011500664  0.010130514            2 
 4366000   0.55451447   -8.7017823    602.35073  0.011496998  0.010126907            4 
 4367000   0.53801404   -8.7272512    602.61034  0.011499319  0.010123305            4 
 4368000   0.56244568   -8.6848745    602.60781  0.011496639  0.010119704            3 
 4369000   0.54819605   -8.7166077    602.01729  0.011482744  0.010116105            3 
 4370000   0.54989467   -8.7062776    602.46332  0.011488622  0.010112508            4 
 4371000   0.54592746   -8.7021697    602.45382  0.011485812  0.010108912            6 
 4372000   0.55586293   -8.7112784    601.74736  0.011469719  0.010105316            2 
 4373000   0.55813518   -8.7225781    601.55537  0.011463438  0.010101719            4 
 4374000   0.55454264   -8.6983242    601.88214  0.011467043  0.010098126            4 
 4375000    0.5574145   -8.7318795    603.32649  0.011491933  0.010094534            4 
 4376000   0.54391932   -8.7178479    602.65009  0.011476426  0.010090944            4 
 4377000    0.5560598   -8.6951493    601.71202  0.011455944   0.01008736            2 
 4378000   0.56311402   -8.6968709    601.80639  0.011455124  0.010083778            3 
 4379000   0.56054763   -8.6997204    602.47432  0.011465219  0.010080197            3 
 4380000   0.55031736   -8.7251353    602.83736  0.011469508   0.01007662            7 
 4381000   0.55946493   -8.7068823    603.04894  0.011470915   0.01007304            2 
 4382000    0.5418978   -8.7091214    602.16777   0.01145154  0.010069464            7 
 4383000   0.54921264   -8.7158237    601.37198  0.011433797  0.010065889            4 
 4384000   0.55735421   -8.7142877    602.52963  0.011453194  0.010062318            4 
 4385000   0.55185893   -8.7165068    602.93943   0.01145837  0.010058746            6 
 4386000    0.5433264    -8.703071    602.49787  0.011447368  0.010055175            6 
 4387000   0.55025934   -8.7113508    602.01904  0.011435663  0.010051608            3 
 4388000   0.53149933   -8.6948947    602.09966  0.011434588  0.010048042            3 
 4389000   0.55078425   -8.7102722    601.79301   0.01142616  0.010044474            2 
 4390000   0.55764126    -8.692123    603.24784  0.011451174  0.010040913            4 
 4391000   0.56156383   -8.7179522    602.50055  0.011434384  0.010037355            1 
 4392000   0.56040495   -8.7064029    602.33739  0.011428685  0.010033798            3 
 4393000   0.54852915   -8.6794805    602.91105  0.011436965   0.01003024            4 
 4394000   0.55352685   -8.7219426    602.26886  0.011422183  0.010026683            2 
 4395000   0.55086806   -8.7087662    602.02356  0.011414933  0.010023127            4 
 4396000   0.54333253   -8.7158094    601.95151   0.01141097   0.01001957            6 
 4397000    0.5508809   -8.7403872    602.42087  0.011417271   0.01001601            2 
 4398000   0.54747842   -8.7084569    601.30737  0.011393576  0.010012453            4 
 4399000   0.54892735   -8.7198027    602.59334  0.011415347  0.010008901            2 
 4400000   0.54295896   -8.7390985    601.60317  0.011393999  0.010005342            2 
 4401000   0.55237484   -8.7072865    602.05345  0.011399937  0.010001787            3 
 4402000   0.54550244   -8.7090436    601.29242   0.01138294 0.0099982372            2 
 4403000   0.54975934   -8.7291616    601.58013    0.0113858  0.009994687            2 
 4404000   0.54208479   -8.7233753    602.52136  0.011401025 0.0099911423            3 
 4405000    0.5573963   -8.7064191    601.83452  0.011385443 0.0099875956            2 
 4406000   0.54484246   -8.7119968    601.29733  0.011372699 0.0099840528            1 
 4407000   0.53323988   -8.7366051    601.89564  0.011381432 0.0099805062            2 
 4408000   0.53756185   -8.7182996    601.24302  0.011366512 0.0099769681            3 
 4409000   0.54040169   -8.7070889    602.83707  0.011394063  0.009973428            2 
 4410000   0.54978177    -8.705676    601.73428   0.01137064   0.00996989            2 
 4411000   0.56093748   -8.6938659    601.64157  0.011366311 0.0099663533            4 
 4412000   0.54134109   -8.7222932     602.1995  0.011374273 0.0099628205            2 
 4413000   0.54531736   -8.7177679    602.54673  0.011378252  0.009959288            2 
 4414000   0.54250282   -8.7254088    602.01032  0.011365547 0.0099557529            2 
 4415000   0.53672147     -8.72829    601.41641  0.011351763 0.0099522189            2 
 4416000   0.54590672    -8.726312    600.99448   0.01134123 0.0099486894            1 
 4417000   0.53755678   -8.7107349    602.10259  0.011359569 0.0099451622            3 
 4418000   0.54899692   -8.7190277     602.2535  0.011359844 0.0099416394            4 
 4419000   0.55885037   -8.7030087     601.6877  0.011346604 0.0099381145            4 
 4420000   0.53913618   -8.7079426    602.29562  0.011355498 0.0099345947            3 
 4421000   0.53172609   -8.7175202    602.09425  0.011349134  0.009931078            3 
 4422000    0.5342565   -8.7180384    602.26444  0.011349775 0.0099275592            2 
 4423000   0.53665513   -8.7275362    601.31391    0.0113293 0.0099240451            2 
 4424000   0.54382634   -8.7370977    602.65919  0.011352079 0.0099205275            2 
 4425000   0.54876122   -8.7179227    601.62975  0.011330127  0.009917014            4 
 4426000   0.54446208   -8.7378262    601.36968  0.011322671 0.0099134997            1 
 4427000   0.53909591   -8.7155548    601.65596  0.011325502 0.0099099914            6 
 4428000   0.53701843   -8.7148693    601.55807  0.011321102 0.0099064824            3 
 4429000   0.53303644     -8.71662    604.08231   0.01136604 0.0099029743            3 
 4430000   0.54307482   -8.7188703     601.9622  0.011323593 0.0098994713            1 
 4431000   0.55248417   -8.7370676    601.33931  0.011309323 0.0098959679            2 
 4432000   0.54251229   -8.7258324    602.51677   0.01132891 0.0098924662            2 
 4433000   0.55289413   -8.7079149    602.67639  0.011329355  0.009888967            3 
 4434000   0.53871781   -8.7020963    601.75618  0.011309506 0.0098854713            4 
 4435000   0.54757756    -8.708188     602.1381  0.011314132 0.0098819764            3 
 4436000   0.56167775   -8.7279968    601.13367  0.011292712 0.0098784823            3 
 4437000   0.54393234   -8.7448339    602.76027  0.011320717 0.0098749921            2 
 4438000   0.52839185   -8.7085263    602.55278   0.01131427 0.0098715012            4 
 4439000   0.54523618   -8.7250846    601.78149  0.011297242 0.0098680096            2 
 4440000   0.53856408   -8.7304466    601.61883  0.011291645 0.0098645233            5 
 4441000   0.54478801   -8.7281692    602.73967  0.011310134  0.009861041            3 
 4442000   0.54410405   -8.7094972    601.45089   0.01128341 0.0098575579            3 
 4443000   0.52843688   -8.7166614    601.62629   0.01128416 0.0098540746            2 
 4444000   0.54286313   -8.7322987     601.6051  0.011281224 0.0098505959            1 
 4445000   0.54894444   -8.7299341    600.70752  0.011261858 0.0098471181            4 
 4446000   0.55064485   -8.7315025    602.15435  0.011286444 0.0098436446            2 
 4447000    0.5476245   -8.7170101    602.37676  0.011288074 0.0098401727            1 
 4448000   0.53450722   -8.7259538    601.90072  0.011276617 0.0098367027            1 
 4449000   0.52995821   -8.7206038    601.82155    0.0112726 0.0098332357            3 
 4450000   0.53655392   -8.7152244    602.32211   0.01127944 0.0098297692            3 
 4451000   0.54410857    -8.727343    601.43072  0.011260217 0.0098263029            2 
 4452000   0.53543765   -8.7494774     602.6977  0.011281403  0.009822839            2 
 4453000   0.54902452   -8.7343005    601.76938  0.011261497 0.0098193734            2 
 4454000   0.53195983   -8.7280766    602.13513  0.011265812 0.0098159081            1 
 4455000   0.53260667   -8.7473935    602.97135  0.011278925 0.0098124491            1 
 4456000   0.52977136   -8.7255463    601.93603  0.011257032  0.009808991            8 
 4457000   0.55077881   -8.7178814    601.49776  0.011246312  0.009805529            3 
 4458000    0.5438644   -8.7381284    602.52151  0.011262926  0.009802073            2 
 4459000   0.53819542   -8.7320702    601.75725  0.011246117 0.0097986164            2 
 4460000   0.52899351   -8.7147684    601.64012  0.011241407 0.0097951623            3 
 4461000   0.53060665   -8.7187307    601.27607  0.011232087 0.0097917121            2 
 4462000   0.54358738   -8.7250996    602.06892  0.011244377 0.0097882622            4 
 4463000   0.53646425   -8.7409292    601.78021  0.011236467 0.0097848151            2 
 4464000   0.53729399   -8.7343695    600.68799   0.01121356 0.0097813665            1 
 4465000   0.53323531   -8.7281665     602.2129  0.011239509 0.0097779184            2 
 4466000   0.54077761   -8.7354569    602.67659  0.011245645 0.0097744729            1 
 4467000   0.52406598   -8.7416824    601.95431  0.011229653 0.0097710303            3 
 4468000   0.53146891   -8.7377398    602.56187  0.011238471 0.0097675887            1 
 4469000     0.537444   -8.7365576    602.19516  0.011229118 0.0097641452            3 
 4470000   0.53860591   -8.7354867    602.68141  0.011235671 0.0097607041            3 
 4471000   0.52843306   -8.7361708    602.62169  0.011232045  0.009757264            2 
 4472000   0.54435527   -8.7561462    602.13012  0.011220373 0.0097538248            4 
 4473000   0.52324688   -8.7418917    602.65678  0.011227677 0.0097503922            3 
 4474000   0.53883889   -8.7294162    601.86003  0.011210327 0.0097469575            3 
 4475000   0.54283086   -8.7435531    601.54382  0.011201933 0.0097435221            3 
 4476000     0.537315   -8.7487357    601.16958  0.011192463 0.0097400885            1 
 4477000     0.539716   -8.7372753    601.58181  0.011197636 0.0097366571            2 
 4478000   0.53412526   -8.7376252    602.56943  0.011213515 0.0097332287            2 
 4479000     0.529357   -8.7307011    601.49893  0.011191094 0.0097297962            2 
 4480000   0.53991482   -8.7268778    601.50296  0.011188671 0.0097263709            3 
 4481000   0.54220844   -8.7370934    602.13302  0.011197891 0.0097229441            3 
 4482000   0.54444647   -8.7272291    601.04894  0.011175237 0.0097195172            3 
 4483000     0.540847      -8.7336    602.46121  0.011198996 0.0097160933            3 
 4484000   0.53657868   -8.7502518    600.84323  0.011166429 0.0097126723            1 
 4485000   0.54621351   -8.7427061    602.06715  0.011186681 0.0097092515            2 
 4486000   0.53991342   -8.7273813    602.26005   0.01118777 0.0097058336            2 
 4487000   0.53931912   -8.7414823    601.13112   0.01116431 0.0097024152            4 
 4488000   0.53281079   -8.7383734    602.17526   0.01118121 0.0096989991            2 
 4489000   0.53484031   -8.7393774    602.07208  0.011176804 0.0096955811            2 
 4490000   0.54100711   -8.7509771    600.97405  0.011153936 0.0096921686            2 
 4491000   0.53958799   -8.7386229    601.96297  0.011169802 0.0096887549            2 
 4492000   0.53792834   -8.7569729    602.12256  0.011170276 0.0096853456            2 
 4493000   0.54510336   -8.7400233    601.35599  0.011153572 0.0096819389            3 
 4494000   0.53615808   -8.7488552    602.26534  0.011167953 0.0096785301            4 
 4495000   0.51955341   -8.7179016    601.94494  0.011159528 0.0096751267            3 
 4496000   0.52902975   -8.7365449    601.38461   0.01114666  0.009671722            1 
 4497000   0.52722427   -8.7274707    601.57945  0.011147792 0.0096683181            2 
 4498000   0.53663444   -8.7468725    601.78862  0.011149189 0.0096649162            4 
 4499000   0.51129549   -8.7745498    600.97425  0.011131626 0.0096615105            3 
 4500000   0.52830736    -8.734722    601.29193  0.011135036  0.009658106            2 
 4501000   0.53229756   -8.7392893    601.88843  0.011143606 0.0096547054            2 
 4502000   0.51613655   -8.7519201    601.00411  0.011124761 0.0096513067            2 
 4503000   0.53810044   -8.7495527    602.21277  0.011144659 0.0096479098            3 
 4504000    0.5228323   -8.7447326    601.67266  0.011132191 0.0096445181            2 
 4505000   0.53177517   -8.7670622    601.75066  0.011131163 0.0096411234            2 
 4506000   0.54054908   -8.7422173    601.83924  0.011130331 0.0096377366            1 
 4507000   0.53574059   -8.7551899    601.65652  0.011124483 0.0096343475            3 
 4508000   0.52675091    -8.755911    601.17143  0.011113048 0.0096309559            2 
 4509000   0.53994748   -8.7335402     601.7098  0.011120533 0.0096275718            4 
 4510000   0.53939663   -8.7523309    602.11563  0.011125566 0.0096241875            4 
 4511000   0.52825338   -8.7534605    601.44457  0.011110703  0.009620805            2 
 4512000    0.5258053    -8.743643    601.88374  0.011116352 0.0096174221            1 
 4513000   0.52396574   -8.7831327    602.14931  0.011118792 0.0096140411            2 
 4514000   0.53909381   -8.7611886    601.90364  0.011111794 0.0096106596            2 
 4515000   0.53972601   -8.7375694    601.23177  0.011096932 0.0096072826            4 
 4516000   0.54206387   -8.7641685    601.31007  0.011095919 0.0096039082            2 
 4517000   0.53087636   -8.7451456    600.58497  0.011080086   0.00960053            3 
 4518000   0.52850079   -8.7349586    600.83073  0.011082166 0.0095971552            2 
 4519000   0.52731089   -8.7555926    601.58314  0.011093589 0.0095937809            3 
 4520000   0.52537579   -8.7532263    601.12838   0.01108275 0.0095904073            2 
 4521000   0.52983749   -8.7609853    600.45338  0.011067857 0.0095870361            3 
 4522000   0.53786955   -8.7383882    601.16596  0.011078541 0.0095836674            5 
 4523000   0.52196919   -8.7462949    601.00263  0.011073083 0.0095803003            2 
 4524000   0.51924418   -8.7345246    601.17937  0.011073891 0.0095769331            3 
 4525000   0.52714825   -8.7583563    601.05141  0.011069087 0.0095735691            3 
 4526000   0.54343265   -8.7530892    601.78268  0.011080105 0.0095702063            1 
 4527000   0.51965481   -8.7648723    601.56943  0.011073732 0.0095668476            3 
 4528000   0.53220728    -8.758714    601.48277  0.011069692 0.0095634867            1 
 4529000   0.52333874    -8.731536    599.98247  0.011039642  0.009560132            1 
 4530000   0.51154101   -8.7598601     600.4755  0.011046275  0.009556776            3 
 4531000   0.53237081    -8.759761    601.39296  0.011060711 0.0095534194            4 
 4532000   0.52921469   -8.7622254    601.15832  0.011053956 0.0095500649            2 
 4533000   0.53736654   -8.7553445     600.8208  0.011045312 0.0095467133            1 
 4534000   0.52965436   -8.7589781    600.63222   0.01103941  0.009543363            2 
 4535000   0.52580412   -8.7518032    601.49346  0.011052801 0.0095400135            2 
 4536000   0.52743822     -8.75268    601.79671  0.011055936 0.0095366645            3 
 4537000    0.5204231   -8.7527306    601.25078  0.011043472 0.0095333208            2 
 4538000   0.52226826    -8.757409    601.21466  0.011040375 0.0095299749            3 
 4539000   0.52275238   -8.7851594    600.56249  0.011025969 0.0095266316            2 
 4540000   0.52635105   -8.7393275    601.12616  0.011033887 0.0095232895            2 
 4541000    0.5320235   -8.7441501    601.33432  0.011035277 0.0095199468            2 
 4542000   0.51121802   -8.7490614    602.15123  0.011047836 0.0095166076            3 
 4543000   0.52986209   -8.7746707      600.781  0.011020269  0.009513268            1 
 4544000   0.53171374    -8.761479    600.46891  0.011012121 0.0095099313            2 
 4545000   0.51556503   -8.7615371    600.99075  0.011019266 0.0095065959            3 
 4546000   0.53537036   -8.7485429    600.84519  0.011014173 0.0095032606            3 
 4547000   0.52350571   -8.7749963    600.75211  0.011010045 0.0094999319            3 
 4548000    0.5224297    -8.768675    600.56701  0.011004233 0.0094966006            2 
 4549000   0.52847142   -8.7780777    601.23789  0.011014104 0.0094932737            5 
 4550000   0.51928779   -8.7420837    600.52247   0.01099858 0.0094899473            2 
 4551000   0.52292038   -8.7563604    601.66158  0.011017022 0.0094866214            2 
 4552000   0.51753884   -8.7737822    600.96243  0.011001802  0.009483296            3 
 4553000   0.51945759   -8.7736074    599.79674   0.01097805 0.0094799717            2 
 4554000   0.51393782    -8.773963    600.99767  0.010997615 0.0094766486            1 
 4555000     0.525072   -8.7577394    600.96803  0.010994658 0.0094733271            2 
 4556000   0.53356415   -8.7614599    600.88109  0.010990655 0.0094700064            2 
 4557000   0.51624077   -8.7602874    601.03596  0.010991075 0.0094666882            5 
 4558000   0.52263251   -8.7774105    601.51854  0.010997487 0.0094633712            2 
 4559000   0.50732228   -8.7621899    601.01276  0.010985829 0.0094600585            2 
 4560000   0.53085376   -8.7663093    601.50023  0.010992329 0.0094567417            4 
 4561000   0.52209801   -8.7769583    601.76824  0.010994816 0.0094534268            3 
 4562000   0.52651333   -8.7595772    601.57156  0.010988813 0.0094501133            2 
 4563000   0.51808357   -8.7734859    600.88867  0.010973933  0.009446805            2 
 4564000   0.51611361   -8.7523129    601.35661  0.010980072 0.0094434951            2 
 4565000   0.53016185   -8.7611651    600.11738  0.010955045 0.0094401879            1 
 4566000   0.51998716    -8.768039    600.73354  0.010963891 0.0094368832            1 
 4567000   0.53688623   -8.7787627    600.40972  0.010955582 0.0094335814            2 
 4568000   0.51789264   -8.7740554    599.90796   0.01094403 0.0094302774            7 
 4569000   0.51674126    -8.777805     601.2033   0.01096526 0.0094269761            2 
 4570000   0.52684912   -8.7518354    601.49672  0.010968211   0.00942368            2 
 4571000    0.5201348   -8.7684469    601.32091  0.010962607  0.009420381            3 
 4572000   0.51859261   -8.7588297    600.43411  0.010944046 0.0094170839            3 
 4573000   0.53037461   -8.7752587    601.48065  0.010960723 0.0094137874            3 
 4574000   0.52418166   -8.7733103    600.89303  0.010947621 0.0094104905            6 
 4575000   0.52165659   -8.7686282    601.17044  0.010950281 0.0094071975            1 
 4576000   0.51754241   -8.7673894    600.74314  0.010940107 0.0094039051            1 
 4577000   0.52109564   -8.7668062    600.43157  0.010932044 0.0094006155            3 
 4578000   0.52501119   -8.7795943    600.84641  0.010937207  0.009397325            1 
 4579000   0.50826473   -8.7528668    599.79844  0.010915747 0.0093940382            4 
 4580000   0.51692206   -8.7810411     600.9636  0.010934563 0.0093907531            2 
 4581000   0.52259817   -8.7694974    600.98877  0.010932634 0.0093874673            1 
 4582000   0.51344794    -8.771323    600.85116  0.010927746 0.0093841855            3 
 4583000   0.51796367   -8.7576874    600.57191  0.010920284 0.0093809051            2 
 4584000   0.52589925   -8.7740427    601.66423  0.010937759 0.0093776264            1 
 4585000   0.51557236   -8.7797752    600.81906  0.010920012 0.0093743472            2 
 4586000   0.50616266   -8.7627572    599.65708  0.010896516 0.0093710668            2 
 4587000   0.51627795   -8.7582701    600.81183  0.010915119 0.0093677914            2 
 4588000   0.52759855   -8.7625398     601.2722  0.010921102 0.0093645205            2 
 4589000   0.51384769   -8.7641707    600.38624  0.010902634 0.0093612487            3 
 4590000   0.52829499   -8.7717985    601.07703    0.0109128 0.0093579762            5 
 4591000   0.51552775   -8.7712772      600.393  0.010898007 0.0093547056            1 
 4592000   0.50746647    -8.759913    600.33532  0.010894587 0.0093514388            4 
 4593000   0.51482077   -8.7800129    600.98305  0.010903967 0.0093481704            5 
 4594000   0.52639186   -8.7818531    600.47584  0.010892393 0.0093449045            2 
 4595000   0.51498689   -8.7795388    601.09739  0.010901295 0.0093416411            2 
 4596000   0.52481962   -8.7809838    599.81269  0.010875629 0.0093383781            2 
 4597000   0.50805992   -8.7691603    601.51365  0.010904098  0.009335117            3 
 4598000   0.51473072   -8.7636117    600.71497  0.010887251 0.0093318584            4 
 4599000   0.51716983   -8.7701586    601.20949  0.010893845 0.0093285999            3 
 4600000   0.50895631   -8.7820698    600.91562  0.010886153 0.0093253438            2 
 4601000   0.51353737   -8.7809883     599.8106  0.010863772 0.0093220885            2 
 4602000   0.51821222   -8.7699382    601.22223  0.010886974 0.0093188357            2 
 4603000   0.52126389   -8.7665691     600.3766  0.010869299 0.0093155861            2 
 4604000   0.52038019   -8.7927888    600.85721  0.010875637 0.0093123348            2 
 4605000   0.52537198   -8.7723701      600.522   0.01086721  0.009309087            1 
 4606000   0.50929913   -8.7703158    600.59859  0.010866236 0.0093058412            1 
 4607000   0.52710918    -8.770533    601.97861   0.01088884  0.009302598            2 
 4608000   0.52454538   -8.7864878    600.17944  0.010853939 0.0092993512            1 
 4609000   0.50576916   -8.7717429    601.28287  0.010871535 0.0092961045            2 
 4610000    0.5137154   -8.7748118    600.81851  0.010860783 0.0092928599            5 
 4611000   0.52393237   -8.7720535    600.94503  0.010860714 0.0092896174            2 
 4612000   0.51206591   -8.7755436    600.03297  0.010841879 0.0092863779            2 
 4613000   0.50541272   -8.7768349    600.84221  0.010854148 0.0092831393            2 
 4614000   0.51409465   -8.7758912    600.67247   0.01084873 0.0092799033            1 
 4615000   0.50349075   -8.7834344     600.0764  0.010835616 0.0092766693            1 
 4616000   0.51259002   -8.7794397    600.30012  0.010837307 0.0092734371            3 
 4617000   0.51573098   -8.7565702    600.50073  0.010838581 0.0092702054            3 
 4618000   0.51447874   -8.7768639    601.44931  0.010853351  0.009266979            2 
 4619000   0.51866225   -8.7766047      601.206  0.010846612   0.00926375            2 
 4620000   0.50669053   -8.7743247    599.79453  0.010818805 0.0092605216            2 
 4621000   0.52092987   -8.7727988    599.86605  0.010817753 0.0092572942            2 
 4622000     0.516315   -8.7922733    600.31243  0.010823461 0.0092540701            3 
 4623000   0.51786882   -8.7645677    600.04893   0.01081637 0.0092508454            2 
 4624000   0.51549622   -8.7712367    600.19027  0.010816578 0.0092476253            6 
 4625000   0.51893926   -8.7782602    600.27181  0.010815708 0.0092444084            3 
 4626000   0.51014451   -8.7743195    600.61003  0.010819463 0.0092411899            2 
 4627000   0.51449942   -8.7927411    600.61693  0.010817249 0.0092379703            2 
 4628000   0.49304253   -8.7661357    601.35011  0.010828113 0.0092347538            1 
 4629000   0.50425194   -8.7851887    599.87637  0.010799243 0.0092315398            2 
 4630000   0.51156541    -8.760292    600.80333  0.010813595 0.0092283251            1 
 4631000   0.51556645   -8.7762421    600.32864  0.010802718 0.0092251122            2 
 4632000   0.51693004    -8.778302     600.5807   0.01080492 0.0092218997            2 
 4633000    0.5122594   -8.7870893    600.06079  0.010793237 0.0092186904            4 
 4634000   0.51360444   -8.7694192    600.63408  0.010801217 0.0092154853            2 
 4635000   0.51197308    -8.797979    600.46177  0.010795789 0.0092122805            3 
 4636000   0.49901434   -8.7795326    599.54866  0.010777047 0.0092090745            2 
 4637000    0.5000795    -8.773163    600.58367  0.010793323 0.0092058718            2 
 4638000   0.52272872   -8.7889377    600.81641  0.010795178   0.00920267            2 
 4639000   0.50333595   -8.7682537    600.26411  0.010782929 0.0091994711            3 
 4640000   0.49930715    -8.775935    600.65619  0.010787647 0.0091962721            2 
 4641000   0.50613041   -8.7834445    600.81729  0.010788215 0.0091930774            2 
 4642000   0.51142551   -8.7663304    599.94805  0.010770287 0.0091898826            5 
 4643000   0.51958185   -8.7697858    600.66306    0.0107808 0.0091866878            1 
 4644000   0.50780483   -8.7620861    599.73505  0.010761826 0.0091834961            4 
 4645000     0.520607   -8.7888874    600.14783  0.010766915 0.0091803039            2 
 4646000   0.50095318   -8.7645463    601.75092  0.010793351  0.009177114            2 
 4647000   0.50774437   -8.7863631    600.60079  0.010770404 0.0091739261            2 
 4648000   0.49640742   -8.7898025    600.09734   0.01075906  0.009170743            2 
 4649000    0.5208595   -8.7665819    599.93563  0.010753847 0.0091675573            1 
 4650000   0.50662656   -8.7711866    599.82124  0.010749485 0.0091643727            1 
 4651000   0.49929796    -8.775087    600.43167  0.010758111 0.0091611907            2 
 4652000   0.49917161   -8.7807676    600.35196   0.01075437 0.0091580075            2 
 4653000   0.50721492   -8.7981206    599.80006  0.010742175 0.0091548259            1 
 4654000   0.50249746   -8.7925719    599.77633  0.010739441 0.0091516436            4 
 4655000   0.51385891   -8.7956086    599.68319  0.010735467 0.0091484665            1 
 4656000   0.49729724   -8.7767254    599.79375   0.01073514 0.0091452905            2 
 4657000   0.50351852   -8.7861637     600.2117  0.010740314 0.0091421148            3 
 4658000   0.50124303   -8.7811965     600.8986  0.010750297 0.0091389387            4 
 4659000   0.50436826   -8.7791879    600.49353  0.010740744 0.0091357658            1 
 4660000   0.50912835   -8.7801576    600.22856  0.010733701 0.0091325967            2 
 4661000   0.50086758   -8.7945139    599.27568  0.010714362 0.0091294293            2 
 4662000   0.49286166   -8.7824486    600.22148   0.01072897 0.0091262625            2 
 4663000   0.50773146   -8.7805358    601.22512  0.010744605 0.0091230977            3 
 4664000   0.49816351   -8.7891355    600.47552  0.010728908 0.0091199317            1 
 4665000   0.50434531   -8.7761197     600.3361  0.010724118 0.0091167693            3 
 4666000   0.51156093   -8.7877129    600.72078  0.010728689 0.0091136082            3 
 4667000   0.50378358   -8.7741797    599.90582  0.010711839 0.0091104456            2 
 4668000   0.50750232   -8.7986129    599.77205  0.010707156 0.0091072844            3 
 4669000   0.49996546   -8.7971434    600.09969   0.01071071 0.0091041233            4 
 4670000   0.49663484   -8.7907672    599.84449  0.010703863  0.009100966            2 
 4671000   0.49846943   -8.7946703    600.40019  0.010711486 0.0090978082            2 
 4672000   0.49961819   -8.7813073    600.19174  0.010705475 0.0090946529            3 
 4673000   0.49788929   -8.7775577    599.85116   0.01069711 0.0090915001            1 
 4674000   0.49221143   -8.7771166    599.44796  0.010687633 0.0090883463            1 
 4675000   0.50147057   -8.7835418    599.96759  0.010694609 0.0090851941            1 
 4676000   0.49489306    -8.790457    601.19013   0.01071411 0.0090820456            3 
 4677000   0.50231817   -8.7786264    599.45268  0.010680862 0.0090788958            4 
 4678000   0.51105003   -8.7707397    601.01037  0.010706327 0.0090757491            2 
 4679000    0.5064189   -8.8021091    600.78265  0.010699983 0.0090726032            3 
 4680000   0.50675119   -8.7986075    599.95589  0.010682975 0.0090694564            3 
 4681000   0.51733926   -8.7990099    598.38555  0.010652737 0.0090663123            2 
 4682000   0.49490881   -8.7936345     599.8281  0.010676137 0.0090631706            4 
 4683000    0.4889664   -8.7921021    600.46337  0.010685162 0.0090600287            1 
 4684000   0.51184091   -8.7961771    601.43294  0.010700131 0.0090568871            1 
 4685000   0.49820588   -8.7716209    599.88398  0.010670295 0.0090537532            2 
 4686000   0.50191694   -8.8107361    600.54232  0.010679725 0.0090506223            2 
 4687000   0.50271469   -8.7866694    599.62666  0.010661167 0.0090474887            2 
 4688000   0.51169203   -8.8001689    600.06521  0.010666688 0.0090443536            4 
 4689000   0.49853834   -8.7917086    599.92305  0.010661887 0.0090412226            4 
 4690000   0.50115316   -8.7819061    600.71208  0.010673633 0.0090380911            3 
 4691000   0.48567472   -8.7986494    599.93231  0.010657506 0.0090349644            1 
 4692000   0.50420199   -8.7914458      598.852  0.010636047  0.009031838            3 
 4693000   0.49310984   -8.7979649    600.17667  0.010657303 0.0090287076            5 
 4694000   0.48412162   -8.7950084    600.48095  0.010660435 0.0090255841            2 
 4695000   0.50555433   -8.7821037    600.32232  0.010655348 0.0090224595            2 
 4696000   0.50891222   -8.7909691    600.31745  0.010652993 0.0090193384            3 
 4697000   0.50272754   -8.8023677    599.58315  0.010637697 0.0090162168            3 
 4698000   0.49959812   -8.7709803    600.14079  0.010645324 0.0090130968            1 
 4699000   0.49976526   -8.7920364    598.97495  0.010622383 0.0090099787            2 
 4700000   0.51135151   -8.8074857    600.35715   0.01064463 0.0090068651            4 
 4701000   0.49301439   -8.8001836    599.73882  0.010631405 0.0090037498            2 
 4702000   0.49550781   -8.7901956    600.57136  0.010643899 0.0090006378            4 
 4703000   0.50348914   -8.7914009    599.57694  0.010624015 0.0089975265            3 
 4704000   0.50223707   -8.7920578    600.58515  0.010639618 0.0089944141            5 
 4705000   0.51045316   -8.8057819    600.29781  0.010632267 0.0089913054            2 
 4706000   0.48603435    -8.775388    600.74314  0.010637894 0.0089881966            2 
 4707000   0.49277912   -8.8045705    600.39311  0.010629437 0.0089850853            1 
 4708000   0.49332691   -8.7908255    599.57987  0.010612785 0.0089819779            2 
 4709000    0.5028189   -8.8035706    600.56959  0.010628045 0.0089788736            1 
 4710000   0.49235961   -8.8038536    599.82637  0.010612639 0.0089757707            1 
 4711000   0.49170287   -8.8042281    599.38973  0.010602663 0.0089726688            3 
 4712000   0.48478619   -8.7941113    599.90103  0.010609455 0.0089695702            2 
 4713000   0.49786303    -8.805106    599.99188   0.01060881  0.008966472            2 
 4714000   0.49076301   -8.8080714    598.98166  0.010588701  0.008963375            2 
 4715000   0.49860269   -8.8215991    600.56016  0.010614354 0.0089602803            2 
 4716000    0.5047263   -8.8127355    598.96945  0.010583995 0.0089571874            4 
 4717000    0.4948986   -8.8002099    599.86161  0.010597513 0.0089540927            2 
 4718000    0.4958415    -8.804086    599.48715  0.010588653 0.0089509991            5 
 4719000   0.49357802   -8.7812188     599.6884  0.010589963 0.0089479067            2 
 4720000    0.4919115   -8.8059701    599.95352    0.0105924 0.0089448158            1 
 4721000   0.48504911   -8.7944252    599.59516   0.01058383 0.0089417231            1 
 4722000   0.49644948    -8.819493    600.18608  0.010592018  0.008938632            3 
 4723000   0.50132452   -8.8141301    599.20639  0.010572489  0.008935546            1 
 4724000   0.50082744   -8.8070833    600.13286  0.010586594 0.0089324591            1 
 4725000   0.49188556    -8.804072    600.07716  0.010583371 0.0089293736            2 
 4726000   0.50057711   -8.8071239    599.58363   0.01057243 0.0089262887            3 
 4727000   0.49992496   -8.8012157    599.77695  0.010573601 0.0089232053            2 
 4728000   0.50328788   -8.8057795    600.11779  0.010577372 0.0089201268            2 
 4729000   0.49562143   -8.8223824    599.09124  0.010557046 0.0089170469            2 
 4730000   0.50306706   -8.7970006    599.76184  0.010566629 0.0089139692            4 
 4731000   0.49505757   -8.8081329    599.56877  0.010560994  0.008910891            1 
 4732000   0.49350198   -8.8056225    600.23612  0.010570515 0.0089078134            2 
 4733000   0.49123639   -8.8050285    599.31335  0.010552034 0.0089047394            2 
 4734000   0.48650559   -8.7855042    600.30301  0.010567227 0.0089016664            1 
 4735000   0.50349943    -8.799809    598.59976  0.010535019 0.0088985949            2 
 4736000   0.49355984   -8.7963911    600.04379  0.010558203 0.0088955227            2 
 4737000   0.49193845   -8.7815928    599.41368  0.010544889 0.0088924536            2 
 4738000   0.48508897   -8.8013493    599.82286   0.01054986 0.0088893852            2 
 4739000   0.50237481   -8.7899998    600.32771  0.010556512 0.0088863213            1 
 4740000   0.48901279   -8.8178033    600.06101  0.010549596 0.0088832593            1 
 4741000   0.48967927   -8.7946368    598.27598  0.010515995  0.008880197            2 
 4742000   0.49241173   -8.7958896    600.07342  0.010545364 0.0088771361            2 
 4743000    0.4914208   -8.8107404    600.42097  0.010549247 0.0088740756            3 
 4744000   0.48602544   -8.8151235    599.43664  0.010529733 0.0088710139            1 
 4745000   0.48848782   -8.8204402    599.03959  0.010520541 0.0088679552            3 
 4746000   0.50053127   -8.8122718    599.09106  0.010519228 0.0088648975            2 
 4747000   0.48155302   -8.8048134    600.03584  0.010533597 0.0088618394            2 
 4748000    0.4832783   -8.8045005    598.73666  0.010508577 0.0088587853            2 
 4749000   0.48554129   -8.8032557    598.85024  0.010508357 0.0088557316            2 
 4750000   0.48729878   -8.8209263    599.96205   0.01052565 0.0088526809            1 
 4751000    0.4892486   -8.8152145    599.08271  0.010508011 0.0088496319            2 
 4752000   0.49409628   -8.8090222    600.04303   0.01052264 0.0088465809            4 
 4753000   0.48488525   -8.8025036    599.93732  0.010518573 0.0088435361            4 
 4754000   0.49737704   -8.7979523    598.45526  0.010490381 0.0088404905            2 
 4755000   0.50249088   -8.8058861    600.43197  0.010522818 0.0088374485            3 
 4756000   0.47925561   -8.8199006    599.38994  0.010502347 0.0088344069            3 
 4757000    0.4949624   -8.8037768    598.96409  0.010492679 0.0088313648            2 
 4758000   0.49545383   -8.8002747     600.4873  0.010517152 0.0088283246            2 
 4759000   0.48662561   -8.8086714    599.28041  0.010493808 0.0088252855            4 
 4760000   0.48779482   -8.8151084    600.08543  0.010505697 0.0088222491            5 
 4761000   0.49530461   -8.8037928     600.1301  0.010504273 0.0088192141            4 
 4762000   0.49486613   -8.8120138    600.30492  0.010505126 0.0088161809            1 
 4763000    0.5015779   -8.8196692    599.95083  0.010496725 0.0088131482            1 
 4764000   0.49038214   -8.8204635    599.41348  0.010485123 0.0088101163            2 
 4765000    0.4898809   -8.8223954    598.90862  0.010474093 0.0088070846            1 
 4766000   0.49163229   -8.8095061    598.91673  0.010472037 0.0088040539            2 
 4767000    0.4921039   -8.8098213    599.24849   0.01047564 0.0088010232            2 
 4768000   0.48890431   -8.8258222    599.72347  0.010481744  0.008797993            1 
 4769000   0.48951688   -8.7952616    600.00656  0.010484493 0.0087949683            2 
 4770000   0.49791448   -8.8078999    599.44079  0.010472411 0.0087919459            3 
 4771000   0.48891825   -8.8117779    599.77971  0.010476135 0.0087889252            2 
 4772000   0.48637342   -8.8065694    599.29638    0.0104655 0.0087859064            1 
 4773000   0.48462751   -8.8067224    599.22802  0.010462114 0.0087828875            2 
 4774000   0.48092739   -8.8187788    599.72468  0.010468592 0.0087798708            3 
 4775000   0.49145948   -8.8195906    599.57007  0.010463701  0.008776855            2 
 4776000   0.49611742   -8.8225033    600.13417  0.010471353   0.00877384            3 
 4777000   0.49886058   -8.8078803    599.31316  0.010454839 0.0087708267            2 
 4778000   0.48645031   -8.8176549    600.10782   0.01046651  0.008767814            2 
 4779000    0.4832338   -8.8056624    598.43613   0.01043517 0.0087648006            2 
 4780000   0.48894711   -8.8282065    598.91226  0.010441288 0.0087617924            2 
 4781000   0.47104767   -8.8228645    599.35497   0.01044682  0.008758785            2 
 4782000   0.47984789   -8.8115807    599.41045  0.010445602 0.0087557766            1 
 4783000    0.4690603   -8.8311531     598.8367  0.010433422 0.0087527688            3 
 4784000   0.49119228   -8.8064933     599.5924  0.010444405 0.0087497621            2 
 4785000   0.48729652   -8.8145311    599.99944  0.010449311 0.0087467574            3 
 4786000   0.49039942   -8.8036144    599.06036  0.010430777 0.0087437543            5 
 4787000   0.48624145   -8.8176958    598.69217  0.010422188 0.0087407516            3 
 4788000   0.48165099   -8.8183412    599.16555   0.01042825 0.0087377488            2 
 4789000   0.47543936   -8.8208053    599.69283  0.010435248 0.0087347479            2 
 4790000    0.4877563   -8.8265753    598.57997  0.010413709 0.0087317519            2 
 4791000   0.48331969   -8.8142943    598.63587  0.010412507 0.0087287559            1 
 4792000   0.48525948   -8.8214203     598.7302  0.010411975 0.0087257572            3 
 4793000   0.48378599   -8.8085601     599.3108  0.010419897 0.0087227609            4 
 4794000   0.48928368   -8.8235907    598.92805   0.01041107 0.0087197685            2 
 4795000   0.49019858   -8.8279226    599.02068  0.010410509 0.0087167727            1 
 4796000   0.47642966   -8.8289149    599.13401  0.010410307 0.0087137791            2 
 4797000   0.48093967    -8.806078    598.97037  0.010405294 0.0087107904            3 
 4798000   0.48347235   -8.8221066    599.45591  0.010411559 0.0087078016            2 
 4799000   0.48269403   -8.8301345    599.56346  0.010411257  0.008704813            5 
 4800000   0.48558807   -8.8320051    598.04468   0.01038272 0.0087018283            1 
 4801000   0.48052864   -8.8112449    599.27624  0.010401934 0.0086988459            2 
 4802000   0.47999249   -8.8204146    598.75477  0.010390719 0.0086958604            2 
 4803000   0.48717147   -8.8186425    598.57809   0.01038549 0.0086928773            3 
 4804000   0.48908316   -8.8345031    599.29655  0.010395791 0.0086898964            2 
 4805000   0.48599592   -8.8398802    598.68796  0.010383072 0.0086869162            2 
 4806000   0.47071462   -8.8274311    599.03186  0.010386875 0.0086839346            2 
 4807000   0.48117115   -8.8205702    599.00186  0.010384194 0.0086809564            2 
 4808000   0.48605537   -8.7970678    598.14715  0.010367221   0.00867798            4 
 4809000   0.50011427   -8.8244274    598.87425  0.010377664 0.0086750063            2 
 4810000   0.47403766   -8.8248428    598.90526  0.010376044 0.0086720349            2 
 4811000   0.47980271   -8.8136116    598.84136   0.01037278 0.0086690626            2 
 4812000   0.48782263   -8.8126657    599.02457  0.010373798 0.0086660923            3 
 4813000    0.4855284   -8.8334876    598.95583  0.010370452 0.0086631236            3 
 4814000   0.47765299   -8.8114589    598.89127   0.01036718 0.0086601553            2 
 4815000   0.48716454   -8.8343186    599.05438   0.01036785 0.0086571871            2 
 4816000    0.4815321    -8.829339    598.59377  0.010357727  0.008654223            3 
 4817000   0.47731959   -8.8227517     599.3142   0.01036804 0.0086512608            3 
 4818000    0.4905929   -8.8248155    599.18509  0.010363655 0.0086482986            3 
 4819000   0.48665264   -8.8253064    599.97557  0.010375174 0.0086453407            2 
 4820000   0.48122152   -8.8206155    598.08308  0.010340302 0.0086423823            2 
 4821000   0.48170408   -8.8124811    599.30424  0.010359266 0.0086394244            2 
 4822000   0.47492345   -8.8304147    598.99806  0.010351826 0.0086364699            1 
 4823000   0.47703453   -8.8195896    597.95576   0.01033167 0.0086335147            2 
 4824000   0.48618353   -8.8357864    599.23009  0.010351542 0.0086305618            5 
 4825000   0.46673284   -8.8336292    598.65959  0.010339544 0.0086276102            2 
 4826000   0.47541056   -8.8250204    599.64936  0.010354492 0.0086246602            3 
 4827000   0.47835449   -8.8321567    599.44502  0.010348819 0.0086217139            4 
 4828000   0.47932715   -8.8287633    598.64951  0.010332945 0.0086187667            2 
 4829000   0.48055145   -8.8263608     598.7962  0.010333337  0.008615822            3 
 4830000   0.47186794   -8.8251179    598.59222  0.010327678 0.0086128766            2 
 4831000   0.47611136   -8.8340377    599.04173  0.010333294 0.0086099351            2 
 4832000   0.47759801   -8.8454063    599.57027  0.010340271 0.0086069933            2 
 4833000   0.47702972   -8.8267867    598.85815  0.010325853 0.0086040545            2 
 4834000   0.48703303   -8.8189524    599.53213  0.010335335  0.008601114            2 
 4835000   0.48274419    -8.830343    599.70191  0.010336124 0.0085981752            1 
 4836000   0.48716302    -8.829529    598.89153  0.010320022 0.0085952402            4 
 4837000   0.47902876   -8.8193683    599.55576  0.010329332 0.0085923056            2 
 4838000    0.4814338   -8.8286535    600.34849  0.010340852 0.0085893725            1 
 4839000   0.47075937   -8.8168752    599.38891   0.01032219 0.0085864414            1 
 4840000   0.47346623   -8.8340125    598.63063  0.010307001 0.0085835084            2 
 4841000   0.47390029   -8.8367613     599.0551  0.010312179  0.008580579            2 
 4842000   0.48396041   -8.8115528    599.43222   0.01031654 0.0085776511            3 
 4843000   0.47929019   -8.8333266    598.10915  0.010291643 0.0085747243            3 
 4844000   0.48201814   -8.8275394    599.10874  0.010306715 0.0085718005            3 
 4845000   0.46756931   -8.8368407    598.38537  0.010292146 0.0085688751            2 
 4846000   0.46295609   -8.8285608    599.32488  0.010306178 0.0085659522            4 
 4847000   0.47862642   -8.8356075    599.36287  0.010304705 0.0085630301            2 
 4848000   0.48175414     -8.82951    599.26235  0.010300852 0.0085601111            4 
 4849000   0.47184318   -8.8249807    598.92245  0.010292886 0.0085571904            1 
 4850000   0.47693205   -8.8276414    598.22372  0.010278758 0.0085542754            2 
 4851000   0.47474515   -8.8269599    598.98145  0.010289656 0.0085513586            2 
 4852000   0.47621459   -8.8165159    599.01515  0.010288114 0.0085484462            2 
 4853000    0.4739294   -8.8244149    599.04646  0.010286532 0.0085455338            5 
 4854000   0.48534556   -8.8353282    597.81647  0.010263296 0.0085426178            2 
 4855000   0.47201058   -8.8496241    598.15317  0.010266961 0.0085397053            2 
 4856000   0.47525523   -8.8473747    599.34548  0.010285308 0.0085367923            1 
 4857000   0.47751699   -8.8212592    598.90296  0.010275598 0.0085338816            1 
 4858000   0.47290293   -8.8486718    598.76857  0.010271178 0.0085309727            3 
 4859000   0.47563001   -8.8199408    598.69628  0.010267824 0.0085280641            3 
 4860000   0.47102356   -8.8057903    598.28012  0.010258576 0.0085251576            1 
 4861000   0.46948032   -8.8250567    598.77992  0.010265033  0.008522252            2 
 4862000   0.48479221    -8.838397    598.09578  0.010251196 0.0085193465            3 
 4863000   0.48050313   -8.8259175    598.22508  0.010251304  0.008516445            1 
 4864000   0.46861063   -8.8458552     598.5446   0.01025467 0.0085135426            1 
 4865000   0.48436224   -8.8355458    598.76711  0.010256374 0.0085106424            2 
 4866000   0.48675247   -8.8435471    598.99507   0.01025817 0.0085077413            2 
 4867000   0.47977031   -8.8378302    599.10583  0.010257959 0.0085048415            3 
 4868000   0.47784572   -8.8264813    598.11311  0.010238858 0.0085019428            3 
 4869000   0.46586982   -8.8395978    598.61797  0.010245395 0.0084990464            2 
 4870000   0.45879489   -8.8453978      598.417  0.010239853 0.0084961495            2 
 4871000   0.46569529    -8.835959    597.71542  0.010225748 0.0084932529            4 
 4872000   0.46985861    -8.839978    598.20946  0.010232099 0.0084903575            2 
 4873000   0.47141852   -8.8315527    598.48259  0.010234671 0.0084874666            2 
 4874000    0.4715295   -8.8266677    597.98964  0.010224142 0.0084845756            3 
 4875000   0.47167992   -8.8507633    597.91622   0.01022079 0.0084816838            3 
 4876000   0.46621916    -8.855345    598.71963  0.010232425 0.0084787941            4 
 4877000   0.46939478   -8.8383221     598.1992  0.010221434 0.0084759048            1 
 4878000   0.47089249   -8.8366898    598.72155  0.010228262 0.0084730188            2 
 4879000   0.47018807   -8.8528565    598.44725  0.010221481 0.0084701326            3 
 4880000   0.45064936   -8.8394008    598.80883  0.010225561  0.008467247            2 
 4881000   0.47332337   -8.8512809    598.44551  0.010217263 0.0084643649            2 
 4882000   0.46266451   -8.8413143    598.59667   0.01021775 0.0084614832            2 
 4883000   0.45574456   -8.8441982    597.43163  0.010195775 0.0084586029            1 
 4884000   0.47752334   -8.8437668    598.29171  0.010208363 0.0084557238            1 
 4885000   0.45959245   -8.8509347    599.15318  0.010220969  0.008452845            3 
 4886000   0.46144122   -8.8420711    598.47062  0.010207235 0.0084499665            2 
 4887000   0.46795008   -8.8343251    598.44301  0.010204676 0.0084470909            2 
 4888000   0.47081719   -8.8607703    598.94234  0.010211101 0.0084442168            2 
 4889000   0.46282862   -8.8244074    598.60414  0.010203248  0.008441344            2 
 4890000   0.47106742   -8.8514098    598.77648  0.010204098 0.0084384737            1 
 4891000   0.46538623   -8.8394372    598.37483  0.010195169 0.0084356035            2 
 4892000   0.45589451   -8.8384781    598.42881  0.010194004 0.0084327341            2 
 4893000   0.46271418   -8.8450053    597.72498  0.010179934 0.0084298656            1 
 4894000   0.46895551   -8.8424704    599.01509  0.010199821 0.0084270005            5 
 4895000   0.47062387   -8.8450157    598.81299  0.010194297  0.008424136            2 
 4896000   0.46654687    -8.843191    597.76633    0.0101744 0.0084212746            2 
 4897000   0.46946686   -8.8640313    598.43262   0.01018366 0.0084184151            2 
 4898000   0.46362635   -8.8496085    598.07744  0.010175538 0.0084155539            1 
 4899000   0.47465369   -8.8509473    597.78738  0.010168527  0.008412693            1 
 4900000   0.46671709   -8.8510881    598.96625  0.010186501 0.0084098345            3 
 4901000   0.46818369   -8.8594752    598.81696  0.010181884 0.0084069781            1 
 4902000   0.47147509   -8.8524824    598.48393  0.010174145  0.008404123            1 
 4903000   0.46314925   -8.8314949    599.52221  0.010189717   0.00840127            1 
 4904000   0.47779717   -8.8375144    597.90274   0.01016012 0.0083984192            1 
 4905000   0.46851479   -8.8440568    598.38732  0.010166281 0.0083955685            1 
 4906000   0.46544535   -8.8412033     599.3061  0.010179815 0.0083927209            2 
 4907000   0.48191669   -8.8509482    598.22969  0.010159461 0.0083898719            1 
 4908000   0.46375809   -8.8518537    597.91724  0.010152086 0.0083870251            1 
 4909000   0.46291264   -8.8507833    598.39589  0.010158143 0.0083841756            2 
 4910000   0.45777127   -8.8476273    597.86926  0.010147136 0.0083813298            2 
 4911000   0.48010699   -8.8488798     597.3008  0.010135424 0.0083784854            2 
 4912000   0.46049063   -8.8660117     598.2075  0.010148743 0.0083756403            3 
 4913000   0.47017327   -8.8639353    597.73144  0.010138602 0.0083727974            2 
 4914000   0.47021521   -8.8476867    598.56871  0.010150738 0.0083699559            2 
 4915000   0.46394483     -8.83914    597.07268  0.010123308 0.0083671163            2 
 4916000   0.46793553    -8.830587    597.81676  0.010133862  0.008364279            1 
 4917000   0.45685507   -8.8610964    598.45663  0.010142645 0.0083614439            2 
 4918000   0.46516794   -8.8469615    598.01849  0.010133159 0.0083586081            2 
 4919000   0.45714405   -8.8364873    597.63681  0.010124633 0.0083557718            3 
 4920000   0.46394638   -8.8469182    597.32642  0.010117317 0.0083529369            2 
 4921000   0.47048441   -8.8730017    597.81639  0.010123559 0.0083501032            2 
 4922000   0.46334833   -8.8480779    598.82514  0.010138581 0.0083472706            3 
 4923000   0.46594856   -8.8477173     598.4424  0.010130043 0.0083444383            1 
 4924000    0.4714074   -8.8650823    598.11279  0.010122407 0.0083416076            2 
 4925000   0.46511689   -8.8535168    597.72015  0.010113708 0.0083387779            4 
 4926000   0.45162162   -8.8452949     597.7315  0.010111847 0.0083359529            1 
 4927000   0.46549296   -8.8645078    598.48807  0.010122591 0.0083331298            2 
 4928000   0.46534426   -8.8555177    597.98815  0.010112083 0.0083303027            2 
 4929000   0.47170832   -8.8499072    598.37184  0.010116519 0.0083274803            2 
 4930000    0.4607574   -8.8569401    598.27527  0.010112834 0.0083246567            2 
 4931000   0.46511911   -8.8402597    599.14935  0.010125555 0.0083218358            1 
 4932000     0.467069   -8.8600847    597.37949  0.010093598  0.008319016            3 
 4933000   0.45895471   -8.8518195    597.93525   0.01010094 0.0083161968            1 
 4934000   0.46025712   -8.8463005    597.17001  0.010085968 0.0083133806            1 
 4935000   0.45658569   -8.8567974    597.66223  0.010092236  0.008310565            1 
 4936000   0.46863802   -8.8592446     598.5632  0.010105403 0.0083077476            3 
 4937000   0.45432516   -8.8443004    598.42218  0.010100975 0.0083049322            2 
 4938000   0.46199781   -8.8580113    597.84246  0.010089146 0.0083021188            2 
 4939000   0.46444364   -8.8735571    597.74632  0.010085482 0.0082993086            3 
 4940000   0.46401391   -8.8557018    598.24008  0.010091769 0.0082965003            2 
 4941000   0.45878996   -8.8555854    597.94682  0.010084781 0.0082936916            1 
 4942000   0.46195622    -8.881656    598.11238  0.010085532 0.0082908834            1 
 4943000   0.46643505   -8.8510501    598.01197  0.010081799 0.0082880785            2 
 4944000   0.46307629   -8.8350815    598.78664  0.010092817 0.0082852755            2 
 4945000   0.45735847   -8.8496473    597.14303  0.010063078 0.0082824745            2 
 4946000   0.46920652   -8.8598821    598.70378   0.01008734 0.0082796717            2 
 4947000    0.4687954   -8.8741628    599.17817  0.010093292 0.0082768723            2 
 4948000   0.45141928   -8.8706458    598.58245  0.010081219 0.0082740715            2 
 4949000   0.46159788   -8.8425768      597.915  0.010067943  0.008271275            2 
 4950000   0.46099778   -8.8698347    597.71318  0.010062511 0.0082684791            2 
 4951000   0.45541758   -8.8658109     597.7372  0.010060883 0.0082656837            2 
 4952000   0.45804213   -8.8601659    597.99812  0.010063242 0.0082628898            4 
 4953000   0.46111336   -8.8657466     598.0694   0.01006241 0.0082600961            2 
 4954000   0.46515304   -8.8583814    597.44888  0.010049941 0.0082573055            2 
 4955000   0.45506818   -8.8618515    597.93786  0.010056136 0.0082545153            2 
 4956000   0.45446643   -8.8607013     598.4263   0.01006232 0.0082517266            1 
 4957000    0.4513129   -8.8718578    598.23195  0.010057023 0.0082489394            3 
 4958000    0.4692619   -8.8794909    598.63213  0.010061721 0.0082461526            4 
 4959000   0.46119028   -8.8686457    597.45458  0.010039904 0.0082433672            1 
 4960000    0.4536462   -8.8695616    598.12327  0.010049114 0.0082405829            3 
 4961000   0.45662386   -8.8666216    598.27057  0.010049563 0.0082377988            4 
 4962000   0.46703814   -8.8728361    597.85969  0.010040637 0.0082350158            2 
 4963000   0.45303596   -8.8521715    598.71637  0.010052998 0.0082322342            2 
 4964000   0.45485972   -8.8516531    597.79225   0.01003546  0.008229454            2 
 4965000   0.45394956   -8.8667788    598.02816  0.010037398 0.0082266776            2 
 4966000   0.44945471   -8.8579664    598.60536  0.010045062 0.0082238981            2 
 4967000   0.45504282    -8.839344    597.23875  0.010020112  0.008221121            2 
 4968000   0.46339047   -8.8620398    598.54482  0.010040003 0.0082183462            3 
 4969000   0.45831516   -8.8418958    598.06556  0.010029945 0.0082155734            2 
 4970000   0.44520066   -8.8547347    597.68357  0.010021522  0.008212801            2 
 4971000   0.46087042   -8.8731908    598.15769  0.010027454 0.0082100283            1 
 4972000   0.44429464   -8.8663966    597.48276  0.010014125 0.0082072571            2 
 4973000   0.45609969    -8.869012    597.87576  0.010018697 0.0082044885            2 
 4974000   0.46027079   -8.8667402    598.34003  0.010024461  0.008201721            1 
 4975000   0.45899393    -8.882507    597.98893  0.010016565 0.0081989527            1 
 4976000   0.44232689   -8.8572599    596.52109 0.0099899701 0.0081961861            1 
 4977000   0.44748734   -8.8647679     597.3398  0.010001671  0.008193421            2 
 4978000    0.4558603   -8.8527458    597.09274 0.0099955261 0.0081906575            2 
 4979000   0.45540534   -8.8675592    597.39785  0.009998625 0.0081878935            1 
 4980000   0.45972106   -8.8701244    597.24416 0.0099940456 0.0081851308            2 
 4981000   0.45948358   -8.8726911    597.60671 0.0099981046 0.0081823698            5 
 4982000   0.45229963   -8.8731715     597.7857 0.0099990918 0.0081796093            2 
 4983000   0.44290802   -8.8710394    597.84056 0.0099980025  0.008176852            1 
 4984000   0.44974631   -8.8604057    597.04147 0.0099826356  0.008174094            3 
 4985000    0.4497264    -8.860967    598.01217 0.0099968601 0.0081713376            2 
 4986000   0.44649624   -8.8726097    598.04487 0.0099954017  0.008168583            2 
 4987000   0.45853986   -8.8517875    597.35891 0.0099819348 0.0081658304            2 
 4988000   0.44996886    -8.877095    597.16727  0.009976732  0.008163079            2 
 4989000   0.46254789   -8.8724518    598.43602 0.0099959247 0.0081603297            1 
 4990000   0.45110851   -8.8409346    597.86756 0.0099844282 0.0081575793            1 
 4991000   0.45319694   -8.8877751    597.68874 0.0099794421 0.0081548343            1 
 4992000   0.44568884   -8.8533278    597.34556 0.0099717141 0.0081520877            1 
 4993000   0.45301042   -8.8621059    598.27488 0.0099852273  0.008149343            3 
 4994000   0.45509644   -8.8453585    598.18456 0.0099817207 0.0081466004            2 
 4995000   0.44796937   -8.8699998    597.36909 0.0099661176  0.008143859            2 
 4996000   0.45787745   -8.8740434    597.04472 0.0099587123 0.0081411159            2 
 4997000   0.45919636   -8.8815834    598.16527 0.0099754064 0.0081383755            3 
 4998000   0.45546463   -8.8648483     598.0075   0.00997078 0.0081356379            4 
 4999000    0.4582114   -8.8639603    597.27368 0.0099565527 0.0081328975            2 
 5000000   0.45764616   -8.8866807    598.03276 0.0099672127 0.0081301594            3 
 5001000   0.45023318   -8.8622115    598.20987 0.0099681709 0.0081274211            2 
 5002000   0.45063694   -8.8716904     597.4494 0.0099535085  0.008124684            1 
 5003000    0.4631408   -8.8592798     597.9854  0.009960447 0.0081219513            2 
 5004000   0.45481705   -8.8716225     597.7548 0.0099546163 0.0081192167            2 
 5005000    0.4527025   -8.8558406    596.62803 0.0099338666 0.0081164848            3 
 5006000   0.44755804   -8.8620613    596.75757 0.0099340386 0.0081137528            2 
 5007000   0.44569509    -8.876725    597.47023 0.0099439157 0.0081110223            2 
 5008000   0.45799322   -8.8745429    597.46611 0.0099418615 0.0081082932            3 
 5009000   0.44888024   -8.8759097    597.67655 0.0099433777 0.0081055648            2 
 5010000   0.45543092   -8.8780188    596.95548 0.0099293992 0.0081028385            3 
 5011000   0.45176854   -8.8732307    598.29988 0.0099497751 0.0081001132            2 
 5012000   0.45182938   -8.8726077    596.93242 0.0099250535 0.0080973873            2 
Loop time of 12168.9 on 48 procs for 5000000 steps with 4000 atoms

Performance: 71000.893 tau/day, 410.885 timesteps/s
99.4% CPU use with 48 MPI tasks x no OpenMP threads

MPI task timing breakdown:
Section |  min time  |  avg time  |  max time  |%varavg| %total
---------------------------------------------------------------
Pair    | 799.28     | 867.06     | 951.12     | 116.4 |  7.13
Neigh   | 79.579     | 83.173     | 89.111     |  20.0 |  0.68
Comm    | 747.59     | 839.55     | 925.05     | 133.8 |  6.90
Output  | 13.841     | 13.869     | 13.954     |   0.3 |  0.11
Modify  | 10227      | 10256      | 10291      |  12.0 | 84.28
Other   |            | 109.5      |            |       |  0.90

Nlocal:        83.3333 ave          90 max          74 min
Histogram: 1 0 0 7 8 11 7 5 6 3
Nghost:        2130.67 ave        2156 max        2103 min
Histogram: 1 2 6 6 9 7 5 3 7 2
Neighs:        13998.3 ave       15776 max       12418 min
Histogram: 2 3 5 9 7 8 7 5 0 2
FullNghs:      27997.7 ave       30565 max       24481 min
Histogram: 1 0 0 4 15 8 6 9 3 2

Total # of neighbors = 1343889
Ave neighs/atom = 335.97225
Neighbor list builds = 267288
Dangerous builds = 0

#clear
#
#next RN
#
#jump SELF
Total wall time: 3:22:52
