
units lj                  # Use reduced LJ style units
atom_style atomic         # Uncharged point particles
atom_modify map hash      # Needed for indexing of clusters etc
                          # Used to be able to find where atoms are in relation to each other.

lattice fcc 1.0 spacing 1 1 1
Lattice spacing in x,y,z = 1.5874011 1.5874011 1.5874011
region box block 0 10 0 10 0 10 units lattice
create_box 2 box
Created orthogonal box = (0.0000000 0.0000000 0.0000000) to (15.874011 15.874011 15.874011)
  3 by 4 by 4 MPI processor grid
create_atoms 1 box
Created 4000 atoms
  using lattice units in orthogonal box = (0.0000000 0.0000000 0.0000000) to (15.874011 15.874011 15.874011)
  create_atoms CPU = 0.003 seconds
set type 1 type/fraction 2 0.11 78393
Setting atom values ...
  470 settings made for type/fraction
mass 1 1.0
mass 2 1.0
pair_style lj/cut  3.5
pair_modify tail  yes
pair_coeff 1  1  1.0  1.0   # Intearaction between 1 and 1 set with epsilon = 1 and sigma = 1
pair_coeff 1  2  1.5  0.8
pair_coeff 2  2  0.5  0.88

write_data data.0
System init for write_data ...
Neighbor list info ...
  update every 1 steps, delay 10 steps, check yes
  max neighbors/atom: 2000, page size: 100000
  master list distance cutoff = 3.8
  ghost atom cutoff = 3.8
  binsize = 1.9, bins = 9 9 9
  1 neighbor lists, perpetual/occasional/extra = 1 0 0
  (1) pair lj/cut, perpetual
      attributes: half, newton on
      pair build: half/bin/atomonly/newton
      stencil: half/bin/3d
      bin: standard
WARNING: Not all mixed pair coeffs generated from mixing. Use write_data with 'pair ij' option to store all pair coeffs. (../write_data.cpp:312)


#############################
#   M E L T   S Y S T E M   #
#############################

velocity all create 2.4 9580093 mom yes dist gaussian # Assign velocities
                                                    # Temperature 2.4, random number seed, zero linear momentum
                                                                                # Gaussian distribution

timestep 0.002   # simulation timestep
thermo 1000       # output thermodynamic data every 1000 steps bf 100

# Define a fix  in this case with index 1 applied to all
# particles in the simulation. This fix is for simulations
# in the anisotropic NPT ensemble. Note that we use the MTK
# correction.
fix 1 all npt temp 2.4 2.4 0.1 iso 5.68 5.68 0.5 mtk yes tchain 5 pchain 5 # Use NPT ensemble
                                                                         # Set temperature and pressure and damping
                                                                         # Numbers of thermostats in chain and in barostat
run 10000          # run for 10000 steps
Per MPI rank memory allocation (min/avg/max) = 3.642 | 3.644 | 3.648 Mbytes
Step Temp E_pair E_mol TotEng Press Volume 
       0          2.4   -7.6169122            0   -4.0178122   -3.1065461         4000 
    1000    2.4382433   -4.6346746            0  -0.97822399    5.5565829     4818.999 
    2000    2.4492766   -4.6342297            0  -0.96123333    5.9498075     4766.219 
    3000    2.3852856   -4.6342817            0   -1.0572479    6.0490951    4752.6906 
    4000     2.353311   -4.7023413            0   -1.1732572    5.2770388    4807.3144 
    5000    2.3955659   -4.6260833            0   -1.0336329     5.700234     4803.706 
    6000    2.3804523   -4.6953392            0   -1.1255534    5.4309872     4790.527 
    7000    2.4060699   -4.6194558            0   -1.0112531     5.812173    4789.8671 
    8000    2.4291535   -4.6440641            0   -1.0012448    5.9023175    4762.7397 
    9000    2.4477037   -4.6425133            0  -0.97187566    5.7371069    4792.8744 
   10000    2.3518464   -4.6074793            0   -1.0805917    5.5387602    4830.6004 
Loop time of 2.24951 on 48 procs for 10000 steps with 4000 atoms

Performance: 768168.494 tau/day, 4445.420 timesteps/s
99.6% CPU use with 48 MPI tasks x no OpenMP threads

MPI task timing breakdown:
Section |  min time  |  avg time  |  max time  |%varavg| %total
---------------------------------------------------------------
Pair    | 0.89135    | 0.9661     | 1.0197     |   2.6 | 42.95
Neigh   | 0.19225    | 0.2004     | 0.21035    |   0.9 |  8.91
Comm    | 0.66748    | 0.78479    | 0.87875    |   5.7 | 34.89
Output  | 0.00024598 | 0.00025518 | 0.00039727 |   0.0 |  0.01
Modify  | 0.22469    | 0.28386    | 0.3631     |   8.0 | 12.62
Other   |            | 0.0141     |            |       |  0.63

Nlocal:        83.3333 ave          97 max          74 min
Histogram: 2 6 8 8 9 5 6 2 1 1
Nghost:        1452.46 ave        1487 max        1423 min
Histogram: 3 2 7 6 9 7 8 4 0 2
Neighs:        7887.69 ave        9682 max        6933 min
Histogram: 7 8 6 8 9 5 2 1 0 2

Total # of neighbors = 378609
Ave neighs/atom = 94.652250
Neighbor list builds = 915
Dangerous builds = 264

# Equilibrate just above the melting temperature to avoid step fn in T

fix 1 all npt temp 1.25 1.25 0.1 iso 5.68 5.68 0.5 mtk yes tchain 5 pchain 5
run 2000
Per MPI rank memory allocation (min/avg/max) = 3.642 | 3.644 | 3.648 Mbytes
Step Temp E_pair E_mol TotEng Press Volume 
   10000    2.3518464   -4.6074793            0   -1.0805917    5.5387602    4830.6004 
   11000    1.2322494   -6.2248154            0   -4.3769034    5.5692814    3957.2531 
   12000    1.2355279   -6.2511199            0   -4.3982914    5.8324353    3933.4279 
Loop time of 0.485809 on 48 procs for 2000 steps with 4000 atoms

Performance: 711390.700 tau/day, 4116.844 timesteps/s
99.6% CPU use with 48 MPI tasks x no OpenMP threads

MPI task timing breakdown:
Section |  min time  |  avg time  |  max time  |%varavg| %total
---------------------------------------------------------------
Pair    | 0.21263    | 0.22849    | 0.24445    |   1.7 | 47.03
Neigh   | 0.032101   | 0.033558   | 0.035408   |   0.5 |  6.91
Comm    | 0.14508    | 0.16723    | 0.18651    |   2.1 | 34.42
Output  | 5.408e-05  | 5.5644e-05 | 7.0734e-05 |   0.0 |  0.01
Modify  | 0.041035   | 0.051899   | 0.061844   |   2.6 | 10.68
Other   |            | 0.004575   |            |       |  0.94

Nlocal:        83.3333 ave          92 max          77 min
Histogram: 3 0 9 8 17 2 4 0 3 2
Nghost:        1658.21 ave        1676 max        1634 min
Histogram: 2 0 3 8 8 6 5 6 3 7
Neighs:        9687.46 ave       10748 max        8910 min
Histogram: 4 3 9 8 11 4 3 1 2 3

Total # of neighbors = 464998
Ave neighs/atom = 116.24950
Neighbor list builds = 142
Dangerous builds = 12

#############################
# L I N E A R  Q U E N C H  #
#############################

# Define solid atoms. This closely follows ten Wolde  Ruiz-Montero and Frenkel  Faraday Discuss  1996  104  93-110
# Compute components of the per-atom q6 vector
compute q6 all orientorder/atom degrees 1 6 components 6 nnn NULL cutoff 1.3 # compute the Q6 parameter.
                                                                             # Use all neighbours within 1.3 unit cell.

# get number of connections
compute coord_number all coord/atom orientorder q6 0.5

# An atom is solid if it has 8 or more connections (of a possible 14)
variable is_solid atom c_coord_number>=8
group solid dynamic all var is_solid    # Must be dynamic to update
dynamic group solid defined

# do clustering
compute cluster solid cluster/atom 1.3 # Create a cluster where all atoms within are solid and max 1.3 units from another member

# define chunks one chunk per cluster
compute clus_chunks solid chunk/atom c_cluster nchunk every compress yes  # Says which atoms are in which chunk

# count the size of each chunk
compute size_chunks solid property/chunk clus_chunks count


# Find the maximum entry in the vector of chunk sizes
variable max_n equal max(c_size_chunks)


# Thermo style which includes this variable
# thermo_style custom step temp pe vol v_max_n

thermo ${N}  # Print the thermo information every 100 steps
thermo 1000  

# Reset the npt fix at a lower temperature (below freezing)
fix 1  all npt temp  ${temp} ${temp}  0.1  iso  5.68  5.68  0.5  mtk yes tchain  5  pchain  5
fix 1  all npt temp  0.45 ${temp}  0.1  iso  5.68  5.68  0.5  mtk yes tchain  5  pchain  5
fix 1  all npt temp  0.45 0.45  0.1  iso  5.68  5.68  0.5  mtk yes tchain  5  pchain  5

dump dmp2 all dcd ${N} traj.dcd
dump dmp2 all dcd 1000 traj.dcd


compute msd all msd com yes
variable twopoint equal c_msd[4]/6/(step*dt+1.0e-6)
fix 9 all vector 10 c_msd[4]
variable fit equal slope(f_9)/6/(10*dt)
thermo_style custom step temp pe c_msd[4] v_twopoint v_fit v_max_n

fix 1 all npt temp 1.25 ${temp} 0.1 iso 5.68 5.68 0.5 mtk yes tchain 5 pchain 5
fix 1 all npt temp 1.25 0.45 0.1 iso 5.68 5.68 0.5 mtk yes tchain 5 pchain 5
run 5000000 # 5000000  # Run for this many steps
Neighbor list info ...
  update every 1 steps, delay 10 steps, check yes
  max neighbors/atom: 2000, page size: 100000
  master list distance cutoff = 3.8
  ghost atom cutoff = 3.8
  binsize = 1.9, bins = 9 9 9
  4 neighbor lists, perpetual/occasional/extra = 1 3 0
  (1) pair lj/cut, perpetual
      attributes: half, newton on
      pair build: half/bin/atomonly/newton
      stencil: half/bin/3d
      bin: standard
  (2) compute orientorder/atom, occasional
      attributes: full, newton on
      pair build: full/bin/atomonly
      stencil: full/bin/3d
      bin: standard
  (3) compute coord/atom, occasional
      attributes: full, newton on
      pair build: full/bin/atomonly
      stencil: full/bin/3d
      bin: standard
  (4) compute cluster/atom, occasional
      attributes: full, newton on
      pair build: full/bin/atomonly
      stencil: full/bin/3d
      bin: standard
Per MPI rank memory allocation (min/avg/max) = 9.752 | 9.758 | 9.762 Mbytes
Step Temp PotEng c_msd[4] v_twopoint v_fit v_max_n 
   12000    1.2355279   -6.2511199 2.0380221e-30 1.4152931e-32 8.3333333e+20            2 
   13000    1.2054522   -6.2904698   0.55973861 0.0035880678  0.046774684            2 
   14000    1.2518263   -6.2485895    1.0836717 0.0064504263  0.044656523            2 
   15000    1.2400963   -6.2761631    1.6315106 0.0090639473  0.044499807            2 
   16000    1.2727515   -6.2457954    2.2038003  0.011478126  0.045250274            2 
   17000    1.2112147   -6.2895419    2.7383855  0.013423458  0.045470117            4 
   18000    1.2236068   -6.2761198    3.2739044  0.015156964  0.045462824            1 
   19000    1.2884344   -6.2598688    3.8897872   0.01706047  0.045796802            2 
   20000    1.2204885   -6.2652142    4.4678997  0.018616248   0.04615419            2 
   21000    1.2510128   -6.2113414    5.0160701  0.019905039  0.046412148            2 
   22000    1.2297167   -6.2801497    5.5033355  0.020845968  0.046309462            2 
   23000    1.2465411   -6.2739897    6.1058518  0.022122651  0.046245643            2 
   24000    1.2443903   -6.1913589    6.6770349  0.023184149  0.046256609            3 
   25000    1.2710231   -6.2561958    7.2373115  0.024124371  0.046252149            1 
   26000    1.2435263   -6.2366149    7.7762989  0.024924035  0.046363945            1 
   27000    1.2444824   -6.2508562    8.4031628  0.025935687  0.046489402            4 
   28000    1.2508722   -6.2471271    8.7704211  0.026102443  0.046429696            1 
   29000    1.2405721   -6.2838265    9.2524092  0.026587382  0.046151274            3 
   30000    1.2424093   -6.2817698    9.7437264  0.027065906   0.04586193            2 
   31000    1.2448743   -6.2299696    10.172354  0.027345037  0.045541079            1 
   32000    1.2250598   -6.2727291    10.581896   0.02755702  0.045137183            4 
   33000    1.2650121   -6.2384431    11.164456  0.028193069  0.044841365            4 
   34000    1.2537642    -6.201438    11.760998  0.028825976  0.044640004            2 
   35000    1.2443947   -6.2313591     12.37867  0.029473023  0.044529988            2 
   36000     1.256472   -6.2341189    12.884412  0.029825027  0.044502497            2 
   37000    1.2708278   -6.2125476    13.430173  0.030248136  0.044446495            2 
   38000    1.2518322     -6.24064    13.926437  0.030540431  0.044421799            5 
   39000    1.2510551   -6.2727021    14.520047  0.031025741  0.044405083            2 
   40000    1.2619688   -6.2450041    15.079112  0.031414815  0.044384896            2 
   41000     1.240807   -6.2344287    15.580985  0.031668668  0.044375081            2 
   42000    1.2432019   -6.2555183    16.202477  0.032147771  0.044378924            3 
   43000    1.2274221    -6.224124    16.779818  0.032519026  0.044451105            2 
   44000    1.2735628    -6.258164    17.309419  0.032782991  0.044514475            1 
   45000    1.2619135   -6.2271205    17.835536   0.03302877   0.04455471            2 
   46000    1.2460909     -6.27613    18.391807   0.03331849  0.044589582            4 
   47000    1.2280964   -6.2631835    18.868748  0.033455227  0.044613777            2 
   48000    1.2203562   -6.2544411    19.469054   0.03380044  0.044645892            1 
   49000    1.2088004   -6.2218239    20.116438  0.034211629  0.044703977            1 
   50000    1.2479307   -6.2356402    20.717967  0.034529944  0.044764687            2 
   51000    1.2558163   -6.2461574    21.184194  0.034614696  0.044802374            3 
   52000    1.2219076   -6.3067107      21.6087  0.034629327  0.044824028            2 
   53000    1.2460575   -6.2345961     22.27399  0.035021996  0.044856228            3 
   54000    1.2421254   -6.2974194    22.713573   0.03505181  0.044899803            3 
   55000    1.2533371   -6.2854106    23.311495  0.035320447   0.04493357            1 
   56000    1.2229934    -6.244955     23.87135  0.035522843  0.044939379            1 
   57000    1.2691479   -6.2110153    24.584316  0.035941982  0.044979819            4 
   58000     1.256228   -6.2758029    25.007667  0.035930555  0.045020405            2 
   59000    1.2432058   -6.2255249    25.473459  0.035979462  0.045047906            5 
   60000    1.2414664   -6.2457346    26.095001  0.036243057  0.045059733            2 
   61000    1.2445732   -6.2453864    26.638938  0.036391991  0.045080608            1 
   62000    1.2232013   -6.2505667    27.102377  0.036427926   0.04509815            1 
   63000    1.2445023   -6.2228697    27.950939  0.036972141  0.045132121            1 
   64000    1.2609427    -6.229485    28.387172  0.036962463  0.045179601            4 
   65000    1.2210155   -6.2663945    28.820727  0.036949649  0.045211399            2 
   66000    1.2273085    -6.315365    29.414523  0.037139549  0.045229275            2 
   67000    1.2579682   -6.3035788    29.967902   0.03727351  0.045254961            4 
   68000    1.2593767   -6.2761751    30.438043  0.037301523  0.045265571            1 
   69000    1.2279736    -6.247954    30.984662   0.03742109  0.045263339            3 
   70000    1.2120288   -6.2848682    31.401353  0.037382563  0.045255162            3 
   71000    1.2447553   -6.2819727    31.893947   0.03743421  0.045231178            2 
   72000    1.2483342   -6.3041829    32.328345  0.037417065  0.045206814            1 
   73000    1.2261621    -6.290131    32.953217  0.037617828   0.04518581            3 
   74000    1.2595378   -6.2452531    33.401109  0.037613862  0.045163739            3 
   75000    1.2333201   -6.2887031    33.772921  0.037525468  0.045130369            5 
   76000    1.2389839   -6.2289114    34.464072  0.037789552  0.045090357            2 
   77000    1.2439357   -6.2849158    35.034827  0.037916479  0.045063475            3 
   78000    1.2377108   -6.3069405    35.758652  0.038203687  0.045055926            4 
   79000    1.2493416   -6.2833367    36.086367  0.038065788  0.045042465            1 
   80000    1.2707234   -6.2640565    36.622262   0.03814819  0.045028292            3 
   81000    1.2332477   -6.2734003    37.175359  0.038246254   0.04501971            2 
   82000    1.2479185   -6.2737406    37.600685  0.038212078  0.045002151            3 
   83000    1.2400259   -6.2816814    37.960146  0.038112596  0.044970138            1 
   84000    1.2288385   -6.2298386    38.807884  0.038499885  0.044943689            1 
   85000    1.2341387   -6.2572191    39.426716  0.038653643  0.044929994            4 
   86000    1.2052066   -6.2748252    40.000302  0.038759983  0.044930516            2 
   87000    1.2561089   -6.2604317    40.473485  0.038767706  0.044931676            2 
   88000     1.231674   -6.2722913    41.085992  0.038907189  0.044937726            2 
   89000    1.2575005   -6.2221051    41.600545   0.03895182  0.044936375            3 
   90000     1.260983   -6.3126201    41.889931  0.038786973  0.044933413            3 
   91000    1.2480428   -6.2738757    42.377786  0.038807496  0.044914542            4 
   92000    1.2459718   -6.2246178    43.156833  0.039091334  0.044903062            4 
   93000    1.2386123   -6.2799928    43.552704  0.039025721  0.044896051            4 
   94000    1.2215143   -6.2320389    44.227861  0.039209096  0.044885192            2 
   95000    1.2357041   -6.3297148     44.52095  0.039053464  0.044868853            3 
   96000    1.2398335   -6.2811237    45.217431  0.039251242  0.044861486            2 
   97000    1.2721935   -6.2807334    45.676259  0.039240772  0.044852464            3 
   98000    1.2170624    -6.244338    46.159354  0.039251151  0.044831426            1 
   99000    1.2237152   -6.2978727    46.579753  0.039208546  0.044810263            2 
  100000     1.251697   -6.2845598    47.115244  0.039262703  0.044792502            1 
  101000    1.2144102    -6.229185    47.931491  0.039547435  0.044773687            3 
  102000      1.26618   -6.2919513    48.273046  0.039438763  0.044763626            3 
  103000    1.2572719   -6.2859074    48.983906  0.039630992  0.044757199            1 
  104000    1.2452547   -6.2905205    49.532731  0.039689688  0.044755875            2 
  105000    1.2201669   -6.2693577    50.264624  0.039892559  0.044761695            3 
  106000    1.2559801   -6.2729845     50.95218  0.040056745  0.044768693            6 
  107000    1.2369072   -6.2594464    50.943754  0.039675821  0.044770011            2 
  108000    1.2158436   -6.2857396    51.611918   0.03982401  0.044765772            3 
  109000    1.2402484    -6.263281    51.847704  0.039638917  0.044760964            2 
  110000     1.211241   -6.2841107     52.62365  0.039866401  0.044746875            5 
  111000    1.2339592   -6.2702082    52.997437  0.039787865  0.044743242            2 
  112000    1.2127636   -6.2913695    53.554354   0.03984699  0.044734933            3 
  113000    1.2479525   -6.2550525    54.060278  0.039867461  0.044720223            2 
  114000    1.2297548   -6.2545152    54.801368  0.040059479  0.044709938            2 
  115000    1.2077364   -6.2464637    55.217742  0.040012856  0.044704723            2 
  116000    1.2189976   -6.2890314    55.510052  0.039877911  0.044690291            3 
  117000    1.2151006    -6.281467    56.147344  0.039990985  0.044677302            2 
  118000    1.2114289   -6.2480689    56.555818  0.039940549  0.044662649            4 
  119000    1.2415573   -6.2182491     56.98581  0.039906029  0.044640415            2 
  120000    1.2576581   -6.3106607    57.470292  0.039909925  0.044619231            2 
  121000    1.2186557   -6.2847136    58.272191  0.040132362  0.044601168            3 
  122000    1.2437601   -6.3133808    58.489143    0.0399516  0.044583987            2 
  123000     1.259048   -6.2783517    59.269346  0.040155383  0.044568555            2 
  124000    1.2163864   -6.2963222    59.497194  0.039984674  0.044550456            3 
  125000    1.2481266   -6.2749102    60.283152  0.040188768  0.044532822            3 
  126000    1.2238493   -6.2550871    60.636034  0.040103197  0.044508454            2 
  127000    1.2443808   -6.2877266     60.99244  0.040021286  0.044484276            3 
  128000    1.2392584   -6.3026351     61.41418   0.03998319  0.044459763            3 
  129000    1.1867945   -6.2828169    62.268005  0.040224809  0.044434289            4 
  130000    1.2249429   -6.2650974    62.675195  0.040176407   0.04441169            3 
  131000    1.2096105   -6.3227683    62.929991  0.040031801  0.044389185            2 
  132000    1.2371995   -6.2846256    63.685937  0.040205768  0.044366649            2 
  133000    1.2227656   -6.2674498    64.128825  0.040180968  0.044346034            2 
  134000    1.2365194   -6.2550386    64.532083  0.040131892    0.0443232            5 
  135000    1.2086042   -6.2961648     65.02628  0.040139679  0.044301816            2 
  136000    1.2302836   -6.2354324    65.961159  0.040417377   0.04428895            2 
  137000    1.2548179   -6.2831123    66.275812  0.040313754  0.044276553            3 
  138000    1.2129063   -6.3200861    66.844935  0.040365299   0.04426545            2 
  139000    1.2240756   -6.2736382    67.746588   0.04061546  0.044255696            2 
  140000    1.2234395    -6.305796    68.293213  0.040650722  0.044250512            1 
  141000    1.2163011   -6.2665539    69.077975  0.040826226  0.044252841            3 
  142000      1.20434   -6.3185208    69.407571  0.040732143  0.044252799            2 
  143000    1.2248451   -6.2683114    69.752468  0.040648291  0.044249526            3 
  144000    1.2576685   -6.3038101    70.218653  0.040635795  0.044244979            2 
  145000    1.2270701    -6.294132    70.545564  0.040543428  0.044239965            2 
  146000    1.2266688   -6.3086064     70.96958  0.040507751  0.044231028            4 
  147000    1.2007659   -6.3034472    71.640228  0.040612374  0.044222609            3 
  148000    1.2300545   -6.2870549    72.124388  0.040610579  0.044211313            3 
  149000    1.2242237   -6.2415215    72.796926  0.040714164  0.044198657            2 
  150000    1.2209665   -6.2776674    73.025909   0.04056995  0.044183791            2 
  151000    1.2004498   -6.2484528    73.560721  0.040596424  0.044170497            2 
  152000    1.1996427   -6.3174226    74.136629  0.040645081  0.044158098            2 
  153000    1.2117964   -6.2833439    74.810172  0.040746281  0.044149743            2 
  154000    1.2158072   -6.2710203    75.395448  0.040798402  0.044142177            2 
  155000    1.2009523   -6.2643546     75.66488  0.040680043   0.04413265            3 
  156000    1.2323486   -6.2744627    76.348078   0.04078423   0.04412064            2 
  157000    1.2275218   -6.2913597     76.53756  0.040625032   0.04410813            2 
  158000    1.2051959   -6.2873081    77.154029  0.040693053  0.044094183            3 
  159000    1.2327199   -6.2604233    77.852398  0.040803144  0.044081257            2 
  160000    1.2426004   -6.3345367    78.306521  0.040784646  0.044074148            2 
  161000    1.2254952   -6.2757766    79.061327  0.040922012  0.044065716            2 
  162000    1.2160316   -6.3048221    79.284974  0.040784452  0.044060132            2 
  163000    1.2193771   -6.2551006    80.073443  0.040937343  0.044053307            2 
  164000    1.2238934   -6.2807559    80.573688  0.040941914  0.044046352            3 
  165000    1.2474252   -6.3073233    81.020781  0.040919586  0.044036647            3 
  166000    1.2231312   -6.3180603    81.340926  0.040833798  0.044030475            3 
  167000     1.219747   -6.3022544     81.75693  0.040796871  0.044021805            3 
  168000    1.2202612   -6.3330748    82.297903  0.040822372  0.044012105            1 
  169000    1.2441181   -6.2757169    82.806466  0.040831591  0.043998897            1 
  170000    1.2025436    -6.282555      82.9032  0.040638823  0.043981895            4 
  171000    1.2460373   -6.2994944     83.24723  0.040568826  0.043962739            3 
  172000    1.2424292   -6.3149196    84.100657  0.040746442  0.043946601            2 
  173000    1.2340644   -6.3032531    84.158782  0.040538912  0.043928537            6 
  174000    1.2142949   -6.2839327    84.818584  0.040621927  0.043910696            1 
  175000    1.2342636   -6.2970315    85.588248  0.040756308   0.04389403            5 
  176000    1.2128884   -6.3255728    86.111247  0.040772371   0.04387646            6 
  177000    1.2346057   -6.3048684    86.494751  0.040722576  0.043861918            2 
  178000    1.2366012   -6.3519262     86.94302  0.040703661  0.043844537            4 
  179000    1.2091612   -6.3080599    87.415502   0.04069623  0.043827853            2 
  180000    1.2274639   -6.2922555    88.414535  0.040932655  0.043812046            2 
  181000    1.2201368   -6.2412258    89.055273  0.041001507  0.043802007            3 
  182000    1.2178819   -6.3001678    89.370605  0.040920607  0.043791934            2 
  183000    1.2106972   -6.3192382    89.667636  0.040832257  0.043777095            2 
  184000    1.2326546   -6.2626792     90.22633  0.040863374  0.043761542            3 
  185000    1.2178851   -6.2862058    90.773753  0.040889078  0.043751174            2 
  186000    1.2118646   -6.2974363    91.096981   0.04081406  0.043740594            2 
  187000    1.2290064   -6.3005802     91.80915  0.040913168   0.04373069            3 
  188000    1.2093619   -6.2977085    92.272518  0.040900939  0.043719182            3 
  189000     1.227369   -6.2845256    92.843595  0.040936329  0.043708814            2 
  190000    1.1876223   -6.2896817    93.437945  0.040981555  0.043696549            5 
  191000    1.2208058   -6.2908683    93.855115  0.040949003  0.043682471            2 
  192000    1.2522149   -6.2642544    94.795799   0.04114401  0.043673986            5 
  193000    1.2361197   -6.3197011    95.411682  0.041196754  0.043669002            3 
  194000    1.2218098   -6.3193096    95.691232  0.041104481   0.04366252            2 
  195000    1.2408522   -6.2974851    96.266357  0.041139469   0.04365814            1 
  196000    1.2253101   -6.3050522    96.778136  0.041147167  0.043656895            5 
  197000    1.2333991    -6.295279    97.177135  0.041107079  0.043650952            5 
  198000     1.224433   -6.2504666    97.889986  0.041199489  0.043641505            2 
  199000    1.2074531   -6.2969019    98.085026  0.041074132  0.043633489            3 
  200000    1.2352522   -6.2997838    98.650937  0.041104557  0.043627764            3 
  201000    1.2091346   -6.2899196    99.217804  0.041135076  0.043618074            2 
  202000    1.2126271   -6.3082296    99.410966  0.041011124  0.043608718            1 
  203000      1.23043   -6.2875215    100.01931  0.041058828  0.043600641            2 
  204000    1.1983902   -6.3271319    100.24426  0.040949453  0.043589417            4 
  205000    1.2157034   -6.3190918    100.64807  0.040913848  0.043578237            3 
  206000    1.2118517   -6.2725393    101.55287   0.04108126  0.043566091            2 
  207000    1.2197085   -6.3027877    101.82158  0.040990974  0.043553048            3 
  208000    1.2459454   -6.3382748    101.99702  0.040864191  0.043540434            3 
  209000    1.2287176    -6.315944    102.06412  0.040695424  0.043522927            3 
  210000    1.2008327    -6.221207      103.154  0.040934128  0.043505435            2 
  211000    1.2248016    -6.324411     102.9093  0.040643482  0.043484605            1 
  212000    1.2463713   -6.3216093    103.08491  0.040520796   0.04346187            3 
  213000    1.2337903   -6.2751298    103.86947  0.040637509  0.043438701            2 
  214000    1.2087994   -6.2910196    104.49134  0.040689775  0.043416041            1 
  215000    1.2289196   -6.3098942    104.91546  0.040664907  0.043397232            2 
  216000    1.2308598   -6.2932306    105.47342  0.040691907  0.043377869            2 
  217000    1.1942562   -6.2962718    106.23834  0.040798134  0.043356599            4 
  218000    1.2226211   -6.2950505     107.2209  0.040986584  0.043340892            3 
  219000    1.2375407   -6.3167046    107.48753  0.040900886  0.043328942            1 
  220000    1.2156765   -6.3059281    108.64001  0.041151517  0.043319067            1 
  221000     1.244046   -6.3018584    108.79642  0.041024292  0.043311217            4 
  222000    1.2253588   -6.3291515    108.84696  0.040858468  0.043301214            2 
  223000     1.223297   -6.2955963    109.84715  0.041049011  0.043291868            2 
  224000    1.2200176   -6.3052554    110.31195  0.041038673  0.043282585            2 
  225000    1.2218434    -6.331711    110.63695  0.040976649  0.043271646            1 
  226000    1.2242056   -6.2911203    111.42622  0.041086364  0.043262332            4 
  227000     1.185313   -6.2968968    111.46311  0.040918909  0.043252119            3 
  228000    1.2168355    -6.297743    111.32766  0.040689934  0.043238774            3 
  229000    1.2159525   -6.3221021    112.45124  0.040921122   0.04322429            2 
  230000    1.2185877   -6.2885242    112.60793  0.040799974   0.04320932            2 
  231000    1.2042441   -6.2946033    113.22109  0.040844548  0.043193243            1 
  232000    1.1864885   -6.3138794    113.97061  0.040937719  0.043177779            3 
  233000    1.2018294   -6.3196272    114.07192  0.040798256  0.043163392            4 
  234000    1.2096205   -6.3145543    114.40986  0.040744251  0.043148687            1 
  235000    1.2553985   -6.3245442    115.04567  0.040796338  0.043133824            3 
  236000    1.1828191   -6.3194425    115.49135  0.040780845  0.043119575            3 
  237000    1.2123459   -6.3209012    116.31607  0.040898758  0.043105897            2 
  238000    1.2249071   -6.3224296    116.83755  0.040909505  0.043092677            2 
  239000    1.1706066   -6.2950679    117.32405  0.040907966   0.04307851            3 
  240000    1.2017243   -6.3372113    117.68039  0.040861245  0.043063876            4 
  241000    1.2209236   -6.3158153    118.00575  0.040804203  0.043051798            4 
  242000     1.245049    -6.306936    119.25863  0.041067021  0.043039471            7 
  243000    1.2116506   -6.2899319    119.25575  0.040897034  0.043027077            3 
  244000    1.2050395   -6.3138125    119.27117   0.04073469  0.043014618           10 
  245000    1.2180695   -6.3347921    119.78852  0.040744393  0.042999715            2 
  246000    1.2015237   -6.2818585    120.65219  0.040871338  0.042986319            2 
  247000    1.2047544    -6.323741    121.36051  0.040944841  0.042973617            2 
  248000     1.212368   -6.3142507    121.73545  0.040905728  0.042963024            1 
  249000    1.1926931   -6.3317344    122.36164  0.040951018   0.04295402            3 
  250000    1.1950673   -6.2933667     123.0723  0.041024098  0.042944634            3 
  251000    1.2025956   -6.3214667    122.63658  0.040715995  0.042934627            2 
  252000    1.2065893   -6.2961639     124.1056  0.041040212  0.042924845            3 
  253000    1.2044887   -6.3059657    124.37749  0.040967552  0.042917059            2 
  254000    1.2191133   -6.3257679    124.96702  0.040999678  0.042908263            2 
  255000    1.2044754   -6.2930696    125.48235  0.041007302  0.042899786            1 
  256000    1.2100778   -6.3183781    126.39519  0.041144267  0.042893274            2 
  257000    1.2116611   -6.2984113    126.87141  0.041138589   0.04288863            2 
  258000    1.2186281   -6.2680566    127.44227  0.041163525  0.042883984            1 
  259000    1.1913064     -6.32901    127.79596  0.041118391  0.042878486            2 
  260000    1.2313899   -6.3135588    127.81083  0.040965011   0.04287084            3 
  261000    1.1972431   -6.2635778     128.9086  0.041158557  0.042862299            2 
  262000    1.2228881   -6.3184667    128.82248  0.040974072  0.042853627            2 
  263000    1.2049231   -6.3820993    129.27549  0.040961814  0.042845139            5 
  264000    1.2101743   -6.3053317     129.9252  0.041011741  0.042836619            2 
  265000     1.180382   -6.3091279     130.6523  0.041085628  0.042829004            2 
  266000    1.1830726   -6.3170003    131.15026  0.041087176  0.042821127            3 
  267000    1.2532439   -6.2851386    131.37252  0.041002659  0.042813235            3 
  268000      1.19426   -6.2812154    132.63054  0.041240839  0.042806053            1 
  269000    1.2079648   -6.3697775    132.46729  0.041036953  0.042801167            4 
  270000    1.1983814   -6.3489804    133.36794  0.041162943  0.042796676            2 
  271000     1.182261    -6.334996    133.66168  0.041101379  0.042791133            2 
  272000    1.1971432   -6.2973582    134.40538   0.04117812  0.042786585            2 
  273000    1.2164453   -6.3207805    134.52389  0.041063458  0.042781236            1 
  274000    1.2071579   -6.2963932    134.84691  0.041011834    0.0427756            2 
  275000    1.2561202   -6.3115526    135.61104  0.041094254  0.042768572            2 
  276000     1.200752   -6.3123703    136.40991  0.041186566  0.042762561            2 
  277000    1.2244178   -6.2613124    136.96488  0.041204837  0.042757307            6 
  278000    1.2051239   -6.2906223    137.45829  0.041204522  0.042753861            3 
  279000    1.2210336    -6.312524     137.6669  0.041119145  0.042749481            3 
  280000    1.1823225   -6.3283763    138.13757  0.041112372  0.042745116            3 
  281000    1.1824258   -6.3108713    138.81324   0.04116644  0.042741637            3 
  282000    1.2124961   -6.3285493    139.51135  0.041226757   0.04273716            1 
  283000    1.2124842   -6.3472608    140.31457    0.0413176   0.04273526            2 
  284000    1.2102625   -6.3608293    140.43173  0.041206494  0.042732084            2 
  285000     1.203101   -6.3102997    140.77579  0.041162512  0.042727535            3 
  286000    1.2158405    -6.298805    141.29952  0.041171188  0.042723094            3 
  287000    1.1969273   -6.3295449    141.58629  0.041111001  0.042717721            1 
  288000    1.2134574   -6.3615729    142.22872  0.041154142  0.042711638            3 
  289000    1.2246467   -6.3503772    142.22997  0.041012101  0.042704475            3 
  290000    1.1958788   -6.3763405    142.60081  0.040977244  0.042696488            3 
  291000    1.2058285   -6.3574387      142.755  0.040880583  0.042688467            2 
  292000    1.2039102   -6.3360543    144.12985  0.041132947  0.042679509            2 
  293000     1.185815   -6.3368283    144.05475  0.040971204  0.042670997            3 
  294000    1.2145702   -6.3143659      144.413   0.04093339   0.04266127            3 
  295000    1.2038717   -6.3558238    144.52212  0.040825457  0.042651383            3 
  296000    1.2008463   -6.2910076    146.18643  0.041156088  0.042642045            2 
  297000    1.1956514   -6.3438953    146.25378  0.041036414  0.042633847            3 
  298000    1.1892336   -6.3180963    146.45693  0.040955516  0.042624112            2 
  299000    1.2332715    -6.286961    147.18011  0.041020096  0.042615556            2 
  300000    1.1923924   -6.2977713    147.78665  0.041051848   0.04260755            2 
  301000    1.2012173   -6.3243647    148.25085  0.041043977  0.042598868            2 
  302000    1.2113292   -6.3308199    147.84348  0.040795663    0.0425898            5 
  303000      1.20529   -6.2777802    149.27784  0.041055513  0.042581348            2 
  304000    1.1753872   -6.3484782    149.59616  0.041007719     0.042574            3 
  305000     1.190905   -6.3468947    150.15489  0.041025927  0.042566613            4 
  306000    1.2009385   -6.2836035    151.14429    0.0411613  0.042560501            1 
  307000     1.194844   -6.3438321     152.0222  0.041265526  0.042555017            4 
  308000    1.1832959    -6.338121    151.72388  0.041050833  0.042548555            5 
  309000    1.1882965   -6.3436284    152.14105  0.041030487  0.042542178            2 
  310000    1.2025873   -6.3383742    153.01285  0.041132485  0.042535405            4 
  311000    1.1963189   -6.3518235    152.97329  0.040989627  0.042528074            3 
  312000    1.2200789   -6.3677154    152.87737  0.040832631  0.042520188            3 
  313000    1.2168874   -6.3632687    153.53979  0.040878538  0.042511778            4 
  314000    1.2129758   -6.3277371     154.7606  0.041072347  0.042502174            3 
  315000    1.2087616   -6.3110783    154.82847  0.040959912  0.042494162            1 
  316000    1.1870137     -6.34278    154.82233  0.040828675  0.042486358            3 
  317000    1.2070661   -6.3283155      156.034  0.041018402  0.042478273            2 
  318000    1.1972456   -6.3313046    156.25976  0.040948575  0.042469861            2 
  319000    1.2020709   -6.3389733    156.75786  0.040950329  0.042461707            2 
  320000    1.2024561   -6.3245139    157.48134  0.041010766  0.042453184            3 
  321000     1.180972   -6.3270841    157.94717  0.041003939  0.042445145            2 
  322000    1.1938197   -6.3419498    158.73078  0.041079393  0.042439299            3 
  323000    1.1953348   -6.3509542    159.45322  0.041138603  0.042432967            2 
  324000    1.2244367   -6.3013695    159.48971  0.041021016  0.042427685            3 
  325000    1.1936152   -6.3400694    160.59517  0.041178248  0.042422309            3 
  326000    1.2167308   -6.3614717    160.67305  0.041071842  0.042417094            3 
  327000    1.2251915   -6.3408219    161.27112  0.041098655  0.042413115            1 
  328000    1.2118282   -6.3565757    162.45408  0.041273903  0.042409962            2 
  329000    1.2013538   -6.3620209    162.55081  0.041172951  0.042407176            2 
  330000    1.2097244   -6.3394385    163.56541  0.041304395  0.042404715            2 
  331000    1.1919084   -6.3304889    163.61448  0.041191962  0.042402134            4 
  332000     1.177458    -6.365049     163.8075   0.04111634  0.042398251            3 
  333000    1.2016982   -6.3379341    164.38843  0.041138246  0.042393875            4 
  334000     1.179826   -6.3767938    164.92229  0.041148275  0.042389332            3 
  335000    1.1752039    -6.383001     165.2629  0.041110173  0.042384452            4 
  336000    1.2091326   -6.3379977    166.11721  0.041199705  0.042380225            3 
  337000    1.1921154   -6.3351896    166.87212  0.041264125  0.042377595            5 
  338000     1.186152   -6.3448048    167.46827   0.04128902  0.042374124            5 
  339000    1.2002661   -6.3564315    167.18082  0.041096564   0.04236987            2 
  340000     1.208254   -6.3414782    167.85497  0.041140924  0.042364465            2 
  341000    1.1889342   -6.3428283    167.85864  0.041021174  0.042359455            1 
  342000    1.1692818   -6.3577133    168.71603  0.041110144  0.042354881            4 
  343000    1.1868082   -6.3366027    169.54339    0.0411913  0.042351058            1 
  344000    1.2137741     -6.32676    169.75315  0.041122372  0.042347211            3 
  345000     1.204367   -6.3665604    169.77293  0.041007953  0.042342621            4 
  346000    1.1890488   -6.3271736    170.93453  0.041169204  0.042339185            2 
  347000    1.1666452   -6.3755286    170.62357  0.040975882  0.042334383            2 
  348000    1.2211118   -6.3687635    171.69692  0.041115163  0.042330295            2 
  349000    1.1897099   -6.3538095    173.12278  0.041337817  0.042327384            2 
  350000    1.1943146   -6.3445888    173.68014  0.041352414  0.042325236            3 
  351000     1.199232      -6.3699    173.81598  0.041266852  0.042323735            2 
  352000    1.1954465   -6.3398437    174.09089  0.041214699  0.042321386            1 
  353000    1.1911038    -6.371586    174.19102  0.041121582   0.04231717            6 
  354000    1.1993898   -6.3354581     174.9793  0.041190984  0.042312513            3 
  355000    1.1996604   -6.3194369    175.53053  0.041204351  0.042308904            2 
  356000    1.1949642   -6.3241654     176.4532  0.041304589  0.042306563            2 
  357000    1.1900989    -6.334162    177.59722  0.041455933  0.042304752            2 
  358000    1.1688296   -6.3285161    177.34461  0.041281334  0.042303544            2 
  359000     1.205503   -6.3475555    177.91585  0.041298943  0.042302747            3 
  360000    1.1825437   -6.3927072    177.98947  0.041201267  0.042301644            1 
  361000    1.2019983    -6.385899    178.19805  0.041135284  0.042298208            3 
  362000    1.1849944   -6.3362465    179.09203  0.041227448  0.042294218            3 
  363000    1.1786658   -6.3259193    179.24817  0.041149717  0.042292547            5 
  364000    1.2312004   -6.3143933    180.35642  0.041290389  0.042290147            3 
  365000    1.1903179   -6.3477558    180.42543   0.04119302  0.042287693            4 
  366000    1.1648197   -6.3199289    181.13338  0.041241661  0.042284927            1 
  367000    1.1868429    -6.366889     181.6127  0.041238125  0.042280812            2 
  368000     1.200584   -6.3459611    181.61189  0.041125882  0.042277299            3 
  369000    1.1790351   -6.3603905    181.65583  0.041024352  0.042273101            5 
  370000    1.2087126     -6.35138    182.76676  0.041163684  0.042268083            3 
  371000    1.1981055   -6.3160277    182.72394  0.041043114  0.042262589            1 
  372000    1.2011692   -6.3339202    182.96694  0.040987217  0.042256724            2 
  373000    1.2007862   -6.3389981    183.27374  0.040945875  0.042250324            2 
  374000    1.1727854   -6.3053753    184.28107  0.041060845  0.042244503            5 
  375000    1.1705556   -6.3642825    183.95492  0.040878872  0.042238032            2 
  376000    1.1907548   -6.3349393    184.69665  0.040934541  0.042230463            2 
  377000    1.1570273   -6.3426829    185.02629  0.040898827  0.042222552            2 
  378000    1.2155508   -6.3606854    185.83995  0.040970007  0.042214953            2 
  379000    1.1871071   -6.3796562    186.02013  0.040901525  0.042208473            2 
  380000    1.1878548   -6.3980961     186.7779  0.040960066  0.042201228            4 
  381000    1.1685913   -6.3258906    187.70857  0.041056118  0.042195953            3 
  382000    1.1818113   -6.3512921    187.96075  0.041003653  0.042189751            2 
  383000    1.2041383   -6.3584027    188.44538  0.041002041  0.042184136            4 
  384000    1.1803562   -6.3659299    188.46668  0.040899886  0.042177568            2 
  385000    1.1996005   -6.3526404    188.86146  0.040879104  0.042170229            4 
  386000    1.1717724   -6.3163069    189.05862  0.040815765  0.042161614            3 
  387000    1.2109425   -6.3695756    189.84086  0.040878739  0.042153646            4 
  388000    1.2098555   -6.3628725    190.38991  0.040891304  0.042146111            1 
  389000    1.1762055   -6.3809956    191.02027  0.040921224  0.042139991            3 
  390000    1.1954293   -6.3424002    191.35489  0.040887798  0.042133565            1 
  391000    1.2360715    -6.366838    192.00315  0.040921387   0.04212697            7 
  392000    1.2085884   -6.3618217    192.58858   0.04094145  0.042120223            3 
  393000    1.1833044   -6.3559338    193.38591  0.041006343  0.042113532            3 
  394000    1.2027914   -6.3736727    193.78983  0.040987696   0.04210637            2 
  395000    1.1850353   -6.3718586    194.07885  0.040944905  0.042099327            2 
  396000     1.207998   -6.3663662    194.49203  0.040928458  0.042093737            3 
  397000    1.1875179   -6.4034131    194.67017  0.040862757  0.042087517            4 
  398000    1.2038197   -6.3534523    195.59593  0.040953922  0.042081438            3 
  399000    1.1737763   -6.3143065    195.64732  0.040862014  0.042075638            3 
  400000    1.1702971   -6.3588171    196.71939  0.040983207  0.042069132            2 
  401000    1.1986344    -6.368259    196.87971   0.04091432  0.042062854            1 
  402000    1.1749476   -6.3367109    197.03183  0.040844077  0.042055733            3 
  403000     1.161769   -6.3904333    196.83603  0.040702239  0.042048306            4 
  404000    1.2061739   -6.3720623    197.74398  0.040788775  0.042039683            2 
  405000    1.2085023   -6.3851306    198.07676  0.040756535   0.04203121            1 
  406000    1.2036805   -6.3866835     198.7447  0.040793246   0.04202211            2 
  407000    1.1772855   -6.3396454    198.70872  0.040685652  0.042012716            2 
  408000     1.183206   -6.3437279    199.26319  0.040699181  0.042003263            2 
  409000    1.1584391   -6.3757203    199.48002  0.040643852  0.041993266            3 
  410000    1.2072594   -6.3393717    200.57985  0.040768263  0.041983013            2 
  411000    1.1759238   -6.3634608    200.34873  0.040622208  0.041973498            2 
  412000    1.1635507   -6.3756025    200.04421  0.040462017  0.041963176            2 
  413000    1.2047969   -6.3800645    201.36751  0.040631054  0.041951603            4 
  414000    1.1747029   -6.3794061    200.90619  0.040440054  0.041939145            3 
  415000    1.1923713   -6.3655926    202.68837  0.040700476  0.041928394            2 
  416000    1.2052302   -6.3294898    202.21356  0.040507524  0.041917785            1 
  417000    1.1726896   -6.3678386    201.90108  0.040347938   0.04190583            2 
  418000    1.1870444   -6.3761535    203.24314  0.040518968  0.041894199            3 
  419000    1.1819016   -6.3397953    204.11856  0.040596371   0.04188338            2 
  420000    1.1692834   -6.3547992    203.97015  0.040470268  0.041872058            2 
  421000    1.1899649   -6.3911298     204.4433  0.040467795  0.041860375            4 
  422000    1.1728117   -6.3660508    204.90259  0.040462597  0.041849568            2 
  423000    1.1975695   -6.3719452    206.09852  0.040602545  0.041838653            5 
  424000    1.1626229   -6.3855812    205.12034  0.040314532  0.041827462            2 
  425000    1.1694614   -6.3752873    206.02757  0.040397563  0.041815915            2 
  426000    1.1541094   -6.3457134    206.81254  0.040456287  0.041805112            3 
  427000    1.2042637   -6.3528257    207.70555  0.040535821  0.041794354            3 
  428000    1.1759292    -6.405591    207.93452  0.040485694  0.041784027            3 
  429000    1.1715017   -6.3364409    208.41324  0.040484312  0.041773314            2 
  430000     1.202913   -6.3526325    209.68253   0.04063615  0.041764082            2 
  431000    1.1349472   -6.3837369    210.65142    0.0407292    0.0417558            4 
  432000    1.1552882   -6.4037291    210.47028  0.040599978  0.041746787            2 
  433000    1.1791843   -6.3682007    210.23745  0.040461403  0.041738146            3 
  434000    1.1715697   -6.3694484     211.1925  0.040551556  0.041729416            2 
  435000    1.1517085   -6.3373077     211.3666  0.040491686  0.041720316            3 
  436000    1.1711245   -6.3871422    212.04064  0.040527646  0.041711388            2 
  437000     1.180118   -6.3928708    212.60153  0.040541862  0.041702908            2 
  438000    1.2090216   -6.3739964     213.4393  0.040608695  0.041694369            3 
  439000    1.1927284   -6.3442286    213.80377  0.040585379  0.041685836            3 
  440000    1.1790692   -6.3766021    213.93278  0.040517571   0.04167794            2 
  441000    1.1550813   -6.3533287    213.39351  0.040323792  0.041667947            5 
  442000    1.1649289   -6.3752871    215.32545  0.040596804  0.041657501            2 
  443000    1.1853938   -6.3728067      215.198  0.040481189  0.041647017            4 
  444000    1.1923602   -6.3736953    215.57783  0.040461304  0.041636766            2 
  445000    1.1775176   -6.3470663    216.24747  0.040495781  0.041626452            3 
  446000    1.1955274   -6.3909237      216.033  0.040364911  0.041615784            2 
  447000    1.1848582   -6.3603293     216.0906  0.040285346  0.041605214            2 
  448000    1.1820185   -6.3582014     217.5098  0.040459411  0.041594301            1 
  449000    1.1522132   -6.3747578    216.54419  0.040190088  0.041583034            4 
  450000    1.1945134   -6.3703197    216.93684  0.040173488  0.041569694            2 
  451000    1.1701116   -6.4059858    217.03503  0.040102555  0.041556889            3 
  452000    1.1728019   -6.3459354    218.39562  0.040264679  0.041544287            5 
  453000    1.1886285   -6.4022451    217.41957  0.039996242   0.04153227            1 
  454000    1.1654666   -6.3978771     218.9249  0.040184453  0.041520154            4 
  455000     1.174185   -6.3981933    219.10922  0.040129894  0.041508613            3 
  456000    1.1830885   -6.3767685    219.75404   0.04015973  0.041497588            3 
  457000    1.1773109   -6.3706492    221.01328  0.040301472  0.041486857            1 
  458000    1.1775443   -6.3840893    221.31473  0.040268328  0.041476236            3 
  459000    1.1610686   -6.3923608    221.58566  0.040229786  0.041465547            2 
  460000    1.1967139   -6.3791873    222.55523  0.040317976  0.041454729            4 
  461000     1.192923    -6.359753    222.47733  0.040216437  0.041444841            2 
  462000    1.1744033    -6.398806    222.71985  0.040173134  0.041434272            3 
  463000    1.1775797   -6.3715368    223.59794   0.04024441   0.04142367            7 
  464000    1.1777485   -6.3446754    223.82946  0.040199256  0.041414152            2 
  465000     1.168568   -6.3653339    224.79739  0.040286271  0.041404617            2 
  466000    1.1619032   -6.3589741    224.80543  0.040201256  0.041394012            2 
  467000    1.1986932   -6.3477691    225.98646   0.04032592  0.041384195            3 
  468000    1.1957842   -6.3962024    225.26703   0.04011165  0.041374059            2 
  469000    1.1885352   -6.3909322    225.70409  0.040103783  0.041363899            2 
  470000    1.1979084   -6.3303186    228.01584   0.04042834  0.041352805            2 
  471000    1.1836218   -6.3748101    226.80224  0.040127785  0.041342027            3 
  472000    1.1853959   -6.3782312    226.81813  0.040045574  0.041331354            2 
  473000    1.2053992    -6.415122    228.07925  0.040183095  0.041321506            3 
  474000    1.1682932   -6.3559557    228.97651  0.040256068  0.041311993            2 
  475000     1.180317   -6.3912979     228.5656  0.040099228   0.04130256            6 
  476000    1.1512089   -6.3749572    228.35767  0.039978584  0.041291548            1 
  477000    1.1501456   -6.3923305    229.50167  0.040094631   0.04128044            2 
  478000    1.1644548   -6.3910211    230.00397  0.040098321  0.041270195            2 
  479000    1.1896563   -6.4285464    230.74409  0.040143369   0.04125985            2 
  480000    1.1630461   -6.3777996    230.90631  0.040087901  0.041249732            2 
  481000    1.1718446   -6.3900174     231.5052  0.040108316  0.041239288            3 
  482000      1.19517   -6.3859207     232.1224  0.040131812  0.041228549            2 
  483000    1.1657445   -6.3645725    232.16843  0.040056665  0.041218281            3 
  484000    1.1886022   -6.3470705    233.27745  0.040164851  0.041207941            3 
  485000    1.1619807   -6.3943956    233.46476   0.04011422  0.041197864            3 
  486000     1.164073   -6.4024828    233.18081  0.039982992  0.041187371            1 
  487000    1.1879695   -6.3955921    233.14442  0.039894664  0.041176573            2 
  488000    1.1747756   -6.4243782    233.91515  0.039944527   0.04116488            5 
  489000    1.1839329   -6.3469359    234.68678  0.039994339  0.041152942            3 
  490000    1.1699581   -6.4072531    234.66674  0.039909309  0.041140487            4 
  491000    1.1555645   -6.4190032    234.46901  0.039794469  0.041127236            7 
  492000    1.1657448   -6.3769219     235.5711  0.039900255   0.04111472            4 
  493000    1.1724729   -6.3788682    235.15392  0.039748803  0.041101924            2 
  494000    1.1694585   -6.3949771    236.62506  0.039916507  0.041089338            1 
  495000    1.1725863   -6.3789092    236.13173  0.039752816  0.041075589            1 
  496000    1.1722081   -6.3958716    235.73165  0.039605452  0.041061994            2 
  497000    1.1655703   -6.3816404    236.89481  0.039720793  0.041048501            1 
  498000    1.1455351   -6.4059955    237.20645  0.039693181  0.041035001            2 
  499000    1.1524449   -6.3794866    237.24942  0.039620812  0.041021727            2 
  500000    1.1471002   -6.4082953    237.61502  0.039602504  0.041007765            5 
  501000    1.1721968   -6.3595048    238.77355  0.039716159  0.040994474            4 
  502000     1.178814   -6.3596698     239.4424  0.039748075  0.040981729            5 
  503000    1.1810003   -6.3854916    239.23256  0.039634288   0.04096832            1 
  504000    1.1881982   -6.4020588    239.99422  0.039681584  0.040955738            5 
  505000    1.1732107   -6.3923936    241.20548  0.039802885  0.040943731            3 
  506000    1.1691736   -6.4267064    239.68456  0.039473742  0.040931007            2 
  507000    1.1740863   -6.3721091    241.46016  0.039687732  0.040918639            3 
  508000    1.1731923   -6.3568189    241.93676  0.039687789   0.04090623            2 
  509000    1.1812428   -6.3659209    242.55798  0.039711522   0.04089416            2 
  510000    1.1560007   -6.3720729    242.90252  0.039689954    0.0408825            4 
  511000    1.1488816   -6.4140594    243.06237  0.039638351  0.040870951            3 
  512000      1.17019   -6.4217272    243.22902  0.039588057  0.040859284            3 
  513000    1.1733737    -6.373113    243.73144  0.039592501  0.040847632            1 
  514000    1.1544104   -6.3544662     244.6063  0.039657312  0.040835502            6 
  515000      1.17091    -6.372112      245.086  0.039657929   0.04082354            3 
  516000     1.161341   -6.4442496    244.33253  0.039459387  0.040810831            3 
  517000    1.1659701   -6.3841166    246.21554   0.03968658  0.040798643            1 
  518000    1.1755914   -6.3905586    246.89954  0.039720003  0.040786725            6 
  519000    1.1473917   -6.4036882    247.19141  0.039690336  0.040776056            2 
  520000     1.168535   -6.4024101    246.92261   0.03957093  0.040764747            6 
  521000    1.1900915   -6.4131418    247.93346  0.039656664  0.040753069            2 
  522000     1.155811    -6.381343     247.6676   0.03953825  0.040742113            4 
  523000    1.1739826   -6.4136325    248.48076  0.039592218  0.040730742            5 
  524000    1.1894247   -6.4005841    248.52291  0.039523364  0.040719553            2 
  525000    1.1604466    -6.414954    249.40505  0.039588103  0.040708453            4 
  526000    1.1691133   -6.3817424    249.89253  0.039590071  0.040697525            2 
  527000    1.1746322   -6.4143559     250.7393  0.039648846  0.040687136            2 
  528000    1.1814228   -6.4119148    250.89678  0.039598608  0.040676351            2 
  529000    1.1607814   -6.3940756    252.20649  0.039730071  0.040665796            3 
  530000    1.1639776   -6.4283244    251.75367  0.039583911  0.040656268            3 
  531000    1.1504502   -6.3913142    252.79593  0.039672932   0.04064595            2 
  532000    1.1831815   -6.4141628    253.07388  0.039641899  0.040635915            3 
  533000    1.1802992   -6.3889366    254.66219  0.039815852  0.040626818            2 
  534000    1.1558122   -6.3807029    254.49481   0.03971517  0.040618187            3 
  535000    1.1681604   -6.4333773    254.31252  0.039612542   0.04060936            3 
  536000    1.1759074    -6.408414    255.61895  0.039741752  0.040600151            4 
  537000    1.1510517   -6.3955946    255.56345  0.039659132  0.040591127            6 
  538000    1.1688602   -6.4044969    256.37158  0.039710592   0.04058199            7 
  539000    1.1565693   -6.3784725    257.17164  0.039760613  0.040572944            3 
  540000    1.1563598     -6.37164    257.06861  0.039671081     0.040564            3 
  541000    1.1400973   -6.3924583    257.69625  0.039694431  0.040554825            2 
  542000    1.1556335    -6.409999    257.86635  0.039647348   0.04054594            3 
  543000    1.1564775   -6.4083916    258.37279  0.039652055  0.040537128            7 
  544000    1.1543242   -6.4054366    258.36274  0.039577626  0.040528107            2 
  545000    1.1682146   -6.3965688    259.11804  0.039620495  0.040518745            2 
  546000    1.1626616   -6.4258871     260.5066  0.039759859  0.040510271            3 
  547000     1.184731   -6.4295862    260.33605   0.03966119  0.040501444            1 
  548000    1.1724604   -6.4017807     260.7305  0.039648799  0.040492448            2 
  549000    1.1671193   -6.3949986    260.63798  0.039562535  0.040483138            2 
  550000    1.1552143   -6.3943755    261.32211  0.039594259  0.040473639            4 
  551000    1.1822619   -6.3892476    260.87262   0.03945442  0.040464004            3 
  552000    1.1594935    -6.393936    261.78129  0.039520122  0.040453891            3 
  553000     1.162875   -6.4012082    261.75981   0.03944542  0.040443373            5 
  554000    1.1808595     -6.42677    262.47388  0.039481631  0.040432662            2 
  555000    1.1593075   -6.4376118    262.12612  0.039358276  0.040421809            3 
  556000    1.1763963   -6.3677111     263.5315  0.039498126  0.040410985            2 
  557000    1.1533282   -6.3635758    263.96561  0.039492163   0.04040137            3 
  558000    1.1476431   -6.3865175    264.97526  0.039572172   0.04039177            5 
  559000    1.1469345   -6.4468745    264.01592  0.039358365  0.040381613            4 
  560000    1.1820856   -6.4267807     265.8242  0.039557172  0.040372245            3 
  561000    1.1686915   -6.4208378    265.20543  0.039394746  0.040362274            9 
  562000    1.1459335   -6.4100174    266.13678   0.03946275   0.04035226            2 
  563000    1.1807823   -6.4302355    266.45438  0.039439665  0.040342158            8 
  564000    1.1936421   -6.4266823    265.93766  0.039293389  0.040331835            1 
  565000    1.1675829   -6.4125608    267.52278  0.039457637  0.040322027            4 
  566000    1.1594256   -6.3868412    266.91678  0.039298701  0.040311634            4 
  567000    1.1530024   -6.4030275    267.92435  0.039377477  0.040301272            2 
  568000    1.1656481    -6.410166    268.51875  0.039395357  0.040291073            2 
  569000    1.1468773   -6.4222212    268.12865  0.039268989  0.040280716            2 
  570000    1.1642768   -6.4179816    268.69063  0.039282256  0.040270564            1 
  571000    1.1481613   -6.3950919    269.84483  0.039381907  0.040260147            4 
  572000    1.1617213   -6.4148763    269.45504   0.03925627   0.04025023            9 
  573000    1.1657665   -6.3950217    270.71286  0.039370689   0.04024048            1 
  574000    1.1479273   -6.3971261    271.29556  0.039386696  0.040230803            2 
  575000      1.16018   -6.4054459    272.46545  0.039487747  0.040221442            5 
  576000    1.1401477   -6.4593477    271.42389  0.039268503  0.040211744            4 
  577000     1.170122   -6.3991352    273.15591  0.039450593    0.0402021            4 
  578000    1.1625168   -6.4267112    272.82568  0.039334729  0.040192161            2 
  579000    1.1608307    -6.396952    273.57192  0.039374198  0.040182179            2 
  580000    1.1385596   -6.3866823    273.84249  0.039345186  0.040172851            6 
  581000     1.171051   -6.4138205    273.64377  0.039248963  0.040163438            4 
  582000    1.1701398   -6.4454189    273.54849  0.039167883  0.040153534            1 
  583000    1.1690499   -6.4367268    274.71913  0.039268028  0.040143616            5 
  584000    1.1386093   -6.3881937    275.28596  0.039281672   0.04013371            2 
  585000    1.1577978   -6.4216023    275.58365   0.03925693  0.040123517            2 
  586000    1.1771514   -6.3877907    277.25107  0.039427057  0.040114314            3 
  587000    1.1576481   -6.3742404    277.16695  0.039347948  0.040104557            3 
  588000    1.1458767   -6.4061742    278.84284  0.039518542   0.04009574            5 
  589000    1.1402531   -6.4476034    277.33011  0.039237423  0.040086393            6 
  590000    1.1590475    -6.455552    278.80453  0.039379172  0.040077087            2 
  591000     1.159339   -6.4214671    278.40083  0.039255616  0.040068945            2 
  592000    1.1495644   -6.4093813    279.76675  0.039381581  0.040060496            3 
  593000    1.1648667   -6.4209646    279.37864   0.03926063  0.040051916            2 
  594000     1.161767   -6.4458632    280.55809  0.039360002  0.040043223            2 
  595000    1.1719478   -6.4031091    280.72183  0.039316782  0.040034365            3 
  596000    1.1390952   -6.3995128    281.15493  0.039311372   0.04002585            1 
  597000     1.163408   -6.4239476    281.56431  0.039302668  0.040017285            4 
  598000    1.1581346   -6.3919114    281.71567  0.039258036  0.040008692            1 
  599000    1.1354323   -6.4066554    282.29594  0.039273225  0.039999775            2 
  600000    1.1712293   -6.4042169    282.44618  0.039228636  0.039990807            4 
  601000    1.1707453    -6.408798    282.28716  0.039141314   0.03998176            3 
  602000    1.1430008   -6.3942964     283.8069  0.039286669  0.039973438            3 
  603000    1.1805669   -6.4608108    283.30404  0.039152023  0.039964571            3 
  604000    1.1431079   -6.3902027    284.41151  0.039239998  0.039955583            3 
  605000    1.1730758   -6.4262466     284.2518   0.03915314  0.039946507            2 
  606000    1.1470333   -6.4390384     284.0129  0.039055679  0.039937164            2 
  607000    1.1562145   -6.4004602     285.0384  0.039132125   0.03992781            3 
  608000    1.1845395   -6.4140561    285.76537  0.039167403  0.039918351            4 
  609000    1.1614265   -6.3716172    286.65006  0.039224146  0.039909057            3 
  610000    1.1504058   -6.4383197    285.82687  0.039047387  0.039899452            3 
  611000     1.162703   -6.4585807    287.66742  0.039234509  0.039889936            4 
  612000    1.1542134   -6.4277222    286.87433  0.039062409  0.039880702            5 
  613000    1.1626791    -6.392708     288.2033   0.03917935  0.039871279            3 
  614000    1.1502062   -6.3783821    287.94951  0.039081095   0.03986172            2 
  615000    1.1589755   -6.4287824    289.12759   0.03917718  0.039852142            3 
  616000     1.144965   -6.4417176    288.50152  0.039028886  0.039842416            2 
  617000    1.1334342   -6.4489028    288.90607  0.039020269  0.039831985            3 
  618000    1.1527316    -6.419947    289.42975  0.039027744  0.039821715            4 
  619000    1.1548586   -6.4297645    289.59783  0.038987323  0.039811564            2 
  620000    1.1246703    -6.414283    290.63675   0.03906408  0.039801133            2 
  621000    1.1827733   -6.3863743    291.07995  0.039060648   0.03979074            3 
  622000    1.1350858   -6.4411759    290.11923  0.038869136   0.03978054            4 
  623000    1.1495792   -6.4233215    290.55627  0.038865205  0.039769809            3 
  624000     1.152441   -6.4258773    291.65031  0.038949026  0.039759657            4 
  625000    1.1358756   -6.3955806    293.39908  0.039119878  0.039749478            3 
  626000    1.1460454   -6.3897858    291.79735  0.038844163  0.039738978            4 
  627000    1.1669959   -6.3867947    293.66894  0.039030959  0.039729084            1 
  628000    1.1589155   -6.4032355    293.03529  0.038884725   0.03971963            4 
  629000    1.1297323   -6.4021277    293.56421   0.03889298  0.039710147            2 
  630000    1.1631609   -6.4144223    294.82045  0.038997414  0.039700627            2 
  631000     1.157563   -6.4126277    295.62711  0.039042144  0.039691137            3 
  632000    1.1533708   -6.4468639    295.06539  0.038906301  0.039681902            2 
  633000    1.1387674   -6.4339292    296.09716  0.038980669  0.039672121            3 
  634000    1.1504344   -6.4131406    296.55151  0.038978905  0.039663415            1 
  635000    1.1720686   -6.4182408    295.83262  0.038823178  0.039654471            1 
  636000    1.1469694   -6.4506442    297.26684  0.038950057  0.039645205            1 
  637000    1.1589336   -6.3545963    298.28443  0.039022035  0.039636523            5 
  638000    1.1469913   -6.4436306    297.67935  0.038881837  0.039627394            3 
  639000    1.1611943     -6.43164    298.55211  0.038934808  0.039617985            2 
  640000    1.1682451   -6.4316874    298.53651  0.038871942  0.039607993            1 
  641000    1.1336573   -6.4750647    297.87371  0.038725131  0.039598223            4 
  642000    1.1634941   -6.4473193    299.36521  0.038858413  0.039588153            2 
  643000    1.1690958   -6.4250883    300.60742   0.03895897  0.039578892            4 
  644000    1.1574203   -6.4443452    300.74441  0.038916202  0.039569306            3 
  645000    1.1872585   -6.3997207    300.09777  0.038772321  0.039559418            1 
  646000    1.1496812   -6.4415953    300.16911  0.038721505  0.039549718            4 
  647000    1.1382959   -6.3722636    301.57268  0.038842437  0.039539561            2 
  648000    1.1544289     -6.48031    300.37249   0.03862815  0.039529131            2 
  649000    1.1258497   -6.4306022    301.38726  0.038698929    0.0395186            1 
  650000    1.1606237   -6.4541699    300.95134  0.038583505   0.03950853            3 
  651000    1.1446245   -6.4506284    301.46404  0.038589867  0.039497885            3 
  652000    1.1350419    -6.421974    302.79591  0.038700909  0.039487641            4 
  653000    1.1553202   -6.4411713    302.51214  0.038605428  0.039477049            2 
  654000    1.1316279   -6.4131148    303.01675  0.038610696   0.03946634            2 
  655000    1.1634015   -6.4928373    302.43244  0.038477409  0.039455648            3 
  656000    1.1576479   -6.4464964    302.96795  0.038486783  0.039444894            2 
  657000    1.1561823   -6.4058665    303.54194  0.038501008  0.039434019            5 
  658000     1.161954   -6.4691077     304.4609  0.038558878  0.039423234            4 
  659000    1.1298181   -6.4429851    304.52778  0.038508824  0.039412286            4 
  660000    1.1500859   -6.4560567     305.2733  0.038544608  0.039401535            3 
  661000    1.1501885   -6.4711636     305.5534  0.038521609  0.039390724            3 
  662000    1.1485812    -6.437182    305.76475  0.038490024  0.039380179            2 
  663000    1.1505681    -6.438847    306.92094  0.038577292  0.039369967            5 
  664000    1.1421403   -6.4498366     307.9444   0.03864764  0.039359934            3 
  665000    1.1606925   -6.4433263    308.43889   0.03865149  0.039350849            3 
  666000    1.1651857   -6.4581198    308.25545  0.038570502  0.039341393            3 
  667000    1.1567696   -6.4459389    309.97135  0.038727055  0.039332377            3 
  668000    1.1558421   -6.4324672    310.02854  0.038676215  0.039323254            5 
  669000    1.1522288   -6.4676544     310.4068   0.03866552   0.03931448            3 
  670000    1.1336172   -6.4304479    310.85136  0.038663104  0.039305374            2 
  671000    1.1605681   -6.4485332    310.96625  0.038619753  0.039296483            2 
  672000    1.1344191   -6.4665077    311.32854  0.038607209  0.039287658            4 
  673000     1.144478   -6.4341973    313.01176  0.038758267  0.039279349            1 
  674000    1.1440847   -6.4304967    313.68691  0.038784237  0.039271209            1 
  675000    1.1501426   -6.4336886    312.81354  0.038618955  0.039262924            2 
  676000    1.1601281   -6.4081196    312.19888  0.038486055  0.039253929            3 
  677000    1.1395156   -6.4492546    313.02505  0.038530903  0.039245167            6 
  678000    1.1535545   -6.4316257     314.4039  0.038643547  0.039236165            1 
  679000    1.1528609   -6.4646489    314.85485  0.038641979  0.039227088            2 
  680000    1.1373278   -6.4513836    315.45223  0.038658361  0.039218344            3 
  681000    1.1395091   -6.4703371    315.71429  0.038633662  0.039209724            3 
  682000    1.1490643   -6.4042193    316.46134  0.038668297  0.039201497            3 
  683000    1.1558107   -6.4355813     316.1043  0.038568118  0.039193477            2 
  684000    1.1678127   -6.4639903    316.71588  0.038586242  0.039185285            6 
  685000    1.1331586   -6.4605557    315.89721  0.038430317  0.039176592            3 
  686000    1.1324294   -6.4469148    317.36957  0.038553154  0.039168045            2 
  687000    1.1267523   -6.4192596    318.76523  0.038666331  0.039160377            2 
  688000    1.1522538   -6.4419355    318.27573  0.038550839  0.039152351            4 
  689000    1.1585712   -6.4542588    319.89581  0.038690833  0.039144277            2 
  690000     1.128592   -6.4476629    319.82917  0.038626711  0.039136106            3 
  691000    1.1434376   -6.4696047    319.84912  0.038573217  0.039128035            2 
  692000    1.1539363   -6.4360314    320.65495  0.038614518  0.039120449            5 
  693000    1.1304437   -6.4573621    321.48426  0.038658521  0.039112772            5 
  694000     1.156084   -6.4782368    321.69536  0.038628166  0.039105054            3 
  695000    1.1516569   -6.4094724    322.01387  0.038610776  0.039097215            3 
  696000     1.130942    -6.411796     323.0955  0.038684807   0.03908956            2 
  697000    1.1312196   -6.4365133    321.40737  0.038427471  0.039081148            3 
  698000    1.1222599   -6.4605282    322.86157  0.038546033  0.039072976            2 
  699000     1.158735   -6.4755876    321.80414  0.038364824  0.039064609            2 
  700000    1.1420291   -6.4422765    322.85821  0.038435501  0.039056301            4 
  701000    1.1422068    -6.449664    323.37608  0.038442235  0.039047977            3 
  702000    1.1379432   -6.4371404    324.00923  0.038462634  0.039039652            3 
  703000    1.1288281   -6.4196497    324.39645  0.038453823  0.039031114            7 
  704000    1.1166922    -6.442638    325.12924  0.038485942  0.039022686            4 
  705000    1.1509058   -6.4156234    326.45519  0.038588084  0.039014951            4 
  706000    1.1340186   -6.4557966    325.63351  0.038436439  0.039007326            3 
  707000    1.1637373   -6.4705827    328.24576  0.038689976  0.038999961            3 
  708000    1.1298802   -6.4850453    327.55766  0.038554338  0.038992819            7 
  709000     1.114376   -6.4339861    327.94602  0.038545607  0.038985286            3 
  710000    1.1540807   -6.4389976    327.98873   0.03849633  0.038977591            3 
  711000    1.1374307   -6.4348002     328.8905  0.038547879  0.038969508            2 
  712000    1.1783895   -6.4189827    329.19357  0.038529209  0.038961888            2 
  713000    1.1478702   -6.4457166    328.79214  0.038428253    0.0389541            2 
  714000    1.1778323   -6.4406585    329.87528  0.038500849  0.038946217            3 
  715000      1.14579   -6.4636042    329.63199  0.038418647  0.038938661            3 
  716000    1.1113929   -6.4272778    330.50857  0.038467013  0.038930474            3 
  717000    1.1465807   -6.4809885    330.43808   0.03840517  0.038922054            3 
  718000    1.1540407   -6.4376504    331.34839  0.038457334  0.038913673            2 
  719000    1.1370867   -6.4211883    331.07689  0.038372379  0.038904835            5 
  720000    1.1619924     -6.44938     331.2574  0.038339977  0.038896198            2 
  721000    1.1352152    -6.425268    332.23592  0.038399899  0.038887579            2 
  722000    1.1514085   -6.4964183    331.97585  0.038316695  0.038879418            3 
  723000    1.1323348    -6.482231    332.86926  0.038366674  0.038871277            1 
  724000    1.1360129   -6.4622404    332.96987  0.038325261  0.038863086            3 
  725000    1.1242246   -6.4734357    333.71581  0.038358139  0.038854858            4 
  726000     1.147875   -6.4684883      333.819  0.038317149  0.038846605            2 
  727000    1.1245517    -6.476714    333.86552  0.038269776  0.038838195            2 
  728000    1.1076325   -6.4156191      334.336  0.038271062  0.038829136            8 
  729000    1.1339035    -6.481539     334.2978  0.038214198  0.038820435            3 
  730000    1.1308867   -6.4365114    335.13202   0.03825708  0.038811616            3 
  731000    1.1378759    -6.488154    336.16513  0.038322518  0.038802795            2 
  732000    1.1347058   -6.4095463    338.18005  0.038499551  0.038794593            3 
  733000    1.1231361    -6.421038    338.30511  0.038461244  0.038787043            2 
  734000    1.1302888   -6.4628329    336.86035  0.038244817  0.038778632            6 
  735000    1.1518824   -6.4514997    337.09577  0.038219475  0.038770298            4 
  736000    1.1269191   -6.4428334    338.22117   0.03829497  0.038761672            4 
  737000    1.1100844   -6.4691629     337.3338  0.038142673  0.038752928            3 
  738000    1.1558041   -6.4337914    338.07984   0.03817523  0.038744045            2 
  739000    1.1303379   -6.4438061    338.97621  0.038224652  0.038735485            5 
  740000    1.1215844   -6.4849656    339.09157  0.038185987  0.038726832            8 
  741000    1.1286894   -6.4675099    338.20598   0.03803486  0.038718456            2 
  742000    1.1539676   -6.4554038    339.93753  0.038178069  0.038709582            4 
  743000    1.1609013   -6.4568353    341.50159  0.038302108  0.038700712            7 
  744000    1.1096456   -6.4651987    340.61351  0.038151155  0.038692004            3 
  745000    1.1490203    -6.472628     342.2613  0.038284262  0.038683335            2 
  746000    1.1235202   -6.4934609    341.33484   0.03812945  0.038675377            4 
  747000    1.1607393   -6.4740613    342.44455  0.038202203  0.038666765            2 
  748000    1.1348527   -6.4537983    342.40097  0.038146276  0.038658557            3 
  749000    1.1169018   -6.4450245    342.76356  0.038135688  0.038650409            4 
  750000     1.140219   -6.4466638    343.43185  0.038159095  0.038642202            4 
  751000     1.130644   -6.4761946    343.93519  0.038164136  0.038634429            4 
  752000    1.1195955    -6.443164    344.20583  0.038143377  0.038626517            3 
  753000    1.1206175   -6.4696876    344.37062  0.038110958  0.038618402            2 
  754000    1.1337296   -6.4718462    346.40679  0.038285454  0.038610071            3 
  755000    1.1226276    -6.465505    345.73479  0.038160573  0.038602237            3 
  756000    1.1193677   -6.4516949    346.67692  0.038213947  0.038594326            1 
  757000    1.1361034   -6.4508739     345.9469  0.038083102   0.03858608            3 
  758000    1.1082626   -6.4415724    346.95996  0.038144235  0.038577996            5 
  759000    1.1234447   -6.4613841     347.1424  0.038114009   0.03856986            1 
  760000     1.115672   -6.4983506    346.29357  0.037970786  0.038561748            3 
  761000    1.1174903   -6.4719989    347.79414  0.038085211  0.038553669            1 
  762000     1.147311   -6.4497645    349.62327  0.038235266   0.03854601            3 
  763000    1.1436606    -6.477138    348.63099  0.038076779  0.038538366            5 
  764000    1.1207192   -6.4250257    350.08292  0.038185309  0.038530788            8 
  765000    1.1314513   -6.4513501    350.61291  0.038193127  0.038523414            2 
  766000    1.1469752   -6.4780772     351.4617  0.038235608  0.038516091            3 
  767000    1.1299617   -6.4502477    350.85203  0.038119516  0.038508915            7 
  768000     1.134025   -6.4971008    351.17583  0.038105016  0.038502001            3 
  769000    1.1259035   -6.4682284    351.88833  0.038132675  0.038494787            2 
  770000    1.1249076   -6.4419362    353.14117  0.038218741  0.038487745            4 
  771000    1.1178568   -6.4636795    353.06886  0.038161356  0.038480828            3 
  772000    1.1242676   -6.4993944    353.15811  0.038121557  0.038473753            3 
  773000    1.1347956   -6.4520507    353.64824   0.03812508  0.038467243            4 
  774000    1.1279237   -6.4479952    354.05634  0.038119761  0.038460638           10 
  775000    1.1138133   -6.4619255    355.05126  0.038177555  0.038454062            3 
  776000    1.0986736   -6.4445856     356.0232  0.038232732  0.038447619            5 
  777000    1.1249271   -6.4818254    354.92147  0.038065366  0.038441077            3 
  778000     1.174803   -6.5182378    354.99407  0.038024214  0.038433845            3 
  779000     1.108575   -6.4238417    356.27185  0.038112094   0.03842663            3 
  780000    1.1241937   -6.4901518    356.81039  0.038120769  0.038419712            5 
  781000    1.1269632   -6.4476816    357.03431   0.03809585  0.038412569            1 
  782000    1.1439711   -6.5008162    357.09668   0.03805378  0.038405083            4 
  783000    1.1386842   -6.4965331    356.38487  0.037929425  0.038397252            1 
  784000    1.1094322   -6.4824683    356.95855  0.037942023  0.038389338            5 
  785000    1.1254038   -6.4589942    356.78328  0.037875083  0.038381264            2 
  786000    1.1225048   -6.4693813    358.23087  0.037980372  0.038373641            3 
  787000    1.1503963   -6.4388059    360.17551  0.038138025  0.038366114            3 
  788000    1.1305749   -6.4919302    358.24461  0.037885428   0.03835832            2 
  789000    1.1156232   -6.4396248     359.3218  0.037951183  0.038350107            3 
  790000     1.112029   -6.4900798    359.58332   0.03793073  0.038342015            6 
  791000    1.1288827   -6.4398645     360.7641  0.038007175  0.038333833            2 
  792000    1.1004195   -6.5020256    360.03826  0.037882814   0.03832565            3 
  793000    1.1199932   -6.4542069     360.1806      0.03785   0.03831782            2 
  794000    1.1188304   -6.4623415    362.28563  0.038023261  0.038310397            4 
  795000    1.1324981   -6.4911393    361.92543  0.037937676  0.038302899            3 
  796000    1.1362298    -6.491001    361.38378   0.03783331  0.038295439            2 
  797000    1.1345748   -6.4494556    363.56315  0.038013712  0.038287847            3 
  798000    1.1339296   -6.4731204     363.8806  0.037999227  0.038280712            5 
  799000    1.1161391      -6.4445    363.75174  0.037938229  0.038273317            3 
  800000    1.1207602   -6.4934092    363.60303  0.037875316  0.038266023            2 
  801000    1.1228112   -6.4466488    364.58257  0.037929938  0.038258774            3 
  802000    1.1222621     -6.48875    365.88934  0.038018427  0.038251463            2 
  803000    1.0987011    -6.509418     363.7449  0.037748537  0.038243801            3 
  804000    1.1269826   -6.4925095    365.33145  0.037866029  0.038236553            3 
  805000    1.1195081   -6.4890513     365.0192  0.037786667  0.038229323            2 
  806000    1.0973013   -6.4657961    365.62198  0.037802107  0.038221943            2 
  807000    1.1234126   -6.4637816     366.2609  0.037821241  0.038214518            2 
  808000    1.1128178   -6.5031633     366.3911  0.037787861  0.038207182            2 
  809000    1.1344205   -6.4897769    367.37441   0.03784244  0.038199791            5 
  810000    1.1237323   -6.4761517    366.78301  0.037734878  0.038192017            3 
  811000    1.1576547   -6.4888644    367.52631  0.037764725  0.038184387            2 
  812000    1.0960128   -6.4703999    367.93477  0.037760137  0.038176747            3 
  813000    1.1332279   -6.4983143    368.85221  0.037807729  0.038169371            2 
  814000    1.1286374   -6.4664594    369.68292  0.037846327  0.038162104            3 
  815000    1.1451058   -6.5242345    368.53167  0.037682174  0.038154814            2 
  816000    1.1130028   -6.5131111    369.91176  0.037776936  0.038147264            4 
  817000    1.1362134   -6.5371273    369.20038  0.037658137  0.038139637            4 
  818000    1.1107688   -6.4650318    371.17992  0.037813765   0.03813192            3 
  819000    1.1210708   -6.4824962    372.52566  0.037904523  0.038124858            2 
  820000    1.1162902   -6.4469092    372.34404  0.037839841  0.038118004            2 
  821000    1.1036412   -6.4637891    372.07324  0.037766264   0.03811101            3 
  822000    1.1204435   -6.4804973    374.06392  0.037922133  0.038103966            2 
  823000    1.1219097   -6.4762281    372.97027  0.037765317   0.03809679            3 
  824000    1.1119812   -6.4892613    373.09696  0.037732298  0.038089503            3 
  825000     1.128951   -6.4934565    374.37853  0.037816013  0.038082407            2 
  826000    1.1025761   -6.4566516    374.33611  0.037765951  0.038074928            2 
  827000    1.1496264   -6.5106002    374.99768  0.037786949  0.038067588            3 
  828000    1.1229639   -6.4898699    374.47856  0.037689066  0.038060111            2 
  829000    1.1127309   -6.4665678    374.82728  0.037678657   0.03805288            3 
  830000    1.1180031    -6.529317    376.14602  0.037765664  0.038045924            3 
  831000    1.1173731   -6.5205425     375.6271  0.037668181  0.038038927            3 
  832000    1.0895659   -6.5229141    376.12469  0.037672745  0.038031618            8 
  833000     1.097529   -6.5073013    377.19285  0.037734379  0.038024447            4 
  834000    1.1226425   -6.4785546    377.59786  0.037729603  0.038017215            2 
  835000    1.1140818   -6.4905003    377.71527  0.037696135  0.038010292            4 
  836000    1.1354322   -6.5166665    378.96782  0.037775899  0.038003451            5 
  837000    1.1233319   -6.4918312    378.52626  0.037686804  0.037996836            5 
  838000    1.1269049   -6.4675438    379.03472  0.037692395  0.037990129            2 
  839000    1.0995734   -6.4868382    380.16911  0.037760142  0.037983353            1 
  840000    1.1292088   -6.4605445    380.13906  0.037712208  0.037976667            3 
  841000    1.1219482   -6.5170296    379.55153  0.037609149  0.037970178            9 
  842000    1.1173075   -6.4476835    380.86296  0.037694275  0.037963674            4 
  843000    1.0989243   -6.5162422     381.5994  0.037722361   0.03795734            2 
  844000    1.1171899   -6.5238192    382.28019  0.037744885  0.037951108            5 
  845000    1.1236207   -6.5327927    381.95815  0.037668456  0.037945025            4 
  846000    1.1375667   -6.5078292    384.12249  0.037837125  0.037938878            5 
  847000     1.146756   -6.4856806    383.09732   0.03769159  0.037932672            3 
  848000      1.12414    -6.484426    383.87763  0.037723823  0.037926242            4 
  849000    1.1125702    -6.441164    385.85412  0.037873393  0.037920046            3 
  850000    1.1070638   -6.4849115    384.22222  0.037668845   0.03791368            4 
  851000    1.0945508   -6.4743284    384.88005  0.037688999  0.037906862            3 
  852000    1.1102121     -6.53477    383.36913   0.03749698  0.037900249            4 
  853000    1.1197673    -6.485913    386.24889  0.037734358  0.037893468            2 
  854000    1.1091593   -6.5205108    386.68644  0.037732868  0.037887344            2 
  855000    1.1138407   -6.5215457    386.55259  0.037675691  0.037880947            1 
  856000    1.1095208   -6.4735897    387.10962  0.037685905   0.03787452            2 
  857000    1.1240475   -6.5088062    387.91914  0.037720647  0.037868058            5 
  858000    1.1135022   -6.5301541     388.4582  0.037729041  0.037861302            2 
  859000    1.1026773   -6.4758599    387.53855  0.037595901  0.037854394            5 
  860000     1.140944   -6.5003877    387.75866  0.037573514  0.037847487            5 
  861000     1.103578   -6.4684127    388.06422  0.037559448  0.037840432            1 
  862000    1.0997873   -6.4755303    389.62132  0.037666408  0.037833547            2 
  863000    1.1117282   -6.5195679    388.95732  0.037558644  0.037826464            1 
  864000    1.0913173   -6.4593464    388.60736  0.037481419  0.037819328            2 
  865000     1.103235   -6.4795207    389.00956  0.037476836  0.037812201            3 
  866000    1.1063717   -6.5144477    389.77027  0.037506762  0.037804818            3 
  867000    1.1273065   -6.4640348    390.03936  0.037489365  0.037797298            3 
  868000    1.1148495   -6.5387218    389.94568  0.037437181  0.037790169            5 
  869000    1.1036836   -6.4941715    391.10634  0.037505403  0.037783119            4 
  870000    1.0908089   -6.5102401     390.4612  0.037400498  0.037775898            2 
  871000    1.1412797    -6.536069    390.18713  0.037331337  0.037768599            4 
  872000    1.1336747   -6.4693892     392.1003  0.037471359  0.037761374            3 
  873000    1.1086679   -6.4977098    391.45626  0.037366959  0.037754136            2 
  874000    1.1187314   -6.5197892    391.57961  0.037335965  0.037746674            3 
  875000    1.0802736   -6.4978678    393.24023   0.03745145  0.037739364            2 
  876000    1.0982453   -6.5138621    392.49452  0.037337759  0.037731568            4 
  877000    1.0788439    -6.482886    393.09872  0.037352596   0.03772416            2 
  878000    1.1171697   -6.5167236    394.00349  0.037395927  0.037716488            2 
  879000    1.1107432    -6.493458    393.81986  0.037335975  0.037708667            6 
  880000     1.098781   -6.5033942    392.83372  0.037200163  0.037700508            3 
  881000    1.1526858   -6.5102315    394.36289  0.037302581  0.037692495            2 
  882000    1.1106666   -6.4648777    394.64956  0.037287373  0.037684979            1 
  883000    1.0890887   -6.4650201    395.20624  0.037297682   0.03767715            5 
  884000    1.1050818   -6.5093749    394.93019  0.037229468  0.037668975            6 
  885000    1.1064055   -6.4985463    394.94988  0.037189254  0.037660726            2 
  886000    1.0994116   -6.4999701     395.4248  0.037191949  0.037652521            4 
  887000    1.1140578   -6.4798652    395.08696  0.037118279  0.037644548            2 
  888000    1.1282106   -6.5179781    396.01329  0.037163409  0.037636126            5 
  889000    1.1304438   -6.5239464      396.457  0.037163198  0.037627916            3 
  890000    1.0934086   -6.5265008    396.91215  0.037164059  0.037619374            3 
  891000    1.1244859   -6.4558429    397.45698  0.037173305  0.037611265            4 
  892000    1.0962305   -6.5041051    397.42268  0.037128426  0.037603334            3 
  893000    1.0961964   -6.5334359    398.30761   0.03716943  0.037595254            5 
  894000    1.0945173   -6.4852845    399.89492  0.037275813   0.03758687            4 
  895000    1.1124992   -6.5182447    399.33184  0.037181736  0.037578753            4 
  896000    1.0917523   -6.5118343    398.34235   0.03704821  0.037570703            3 
  897000    1.1008698   -6.4716428    399.61287  0.037124942  0.037562689            4 
  898000    1.1083521   -6.4851843    400.47144  0.037163274  0.037554609            3 
  899000    1.1067163   -6.4875269    400.84885   0.03715692  0.037546603            2 
  900000    1.1091765   -6.4994826    400.99154  0.037128846  0.037538769            3 
  901000    1.1078387    -6.489006    403.22715  0.037294409  0.037531246            3 
  902000    1.1242325   -6.4758788    402.75276  0.037209235  0.037523589            3 
  903000    1.0973877   -6.5323738    401.39225  0.037042474  0.037515616            3 
  904000    1.1020249   -6.5155041    401.96691  0.037054471  0.037507497            2 
  905000    1.1145623   -6.5347479    401.33584  0.036955418  0.037499486            3 
  906000    1.1333463   -6.4961509     402.2997  0.037003284  0.037491274            3 
  907000    1.1524971   -6.5242941    402.13544  0.036947395  0.037483288            3 
  908000     1.093492    -6.572005    403.06188  0.036991729  0.037475295            3 
  909000    1.1002296   -6.4984409    404.76099  0.037106801  0.037467227            3 
  910000    1.1094945   -6.5120982    403.95487  0.036992204  0.037459001            3 
  911000    1.1071724   -6.4927219     405.9751  0.037136398  0.037451217            2 
  912000    1.0964587   -6.5169415    406.01885  0.037099676  0.037443626            7 
  913000     1.073506   -6.5152157    407.29801  0.037175795  0.037435909            1 
  914000    1.1030954    -6.532824    406.11344  0.037027119  0.037428167            3 
  915000    1.1063635   -6.5084471    406.49907  0.037021773  0.037420323            8 
  916000    1.1108636   -6.5115933    406.21796  0.036955783  0.037412402            5 
  917000    1.1229308   -6.5392634    408.72049  0.037142902  0.037404942            3 
  918000    1.1275766   -6.5328026    407.76841  0.037016014  0.037396962            3 
  919000    1.1130196   -6.5111954    408.23865  0.037018376  0.037389244            5 
  920000     1.088408   -6.5433884    408.49177  0.037001066  0.037381575            7 
  921000    1.0937941    -6.526137    409.32468  0.037036254  0.037374035            4 
  922000    1.0531775   -6.5353316    408.09504  0.036884946  0.037366306            2 
  923000    1.0997233   -6.5034736     409.2745  0.036951471   0.03735831            2 
  924000    1.1116643   -6.4907392    409.44561  0.036926913  0.037350534            2 
  925000    1.1001012   -6.4728547    410.38047  0.036971214  0.037342712            3 
  926000    1.0872816   -6.5100299     411.0005  0.036987086  0.037334879            4 
  927000    1.0959468   -6.5223716    412.36541  0.037069886  0.037326889            3 
  928000    1.0664489   -6.5305823    409.75182  0.036795242  0.037318855            2 
  929000    1.0932535   -6.4824959    411.96649  0.036954296  0.037311042            3 
  930000    1.0868385   -6.5597464    410.71382  0.036802314  0.037303221            4 
  931000    1.1194062   -6.5279084    412.99649  0.036967105   0.03729536            4 
  932000     1.083418   -6.5163583    412.83067  0.036912614  0.037287376            2 
  933000    1.1081395   -6.5161181    412.83302   0.03687326  0.037279779            2 
  934000       1.0955   -6.5141241    413.25162  0.036871129  0.037271806            3 
  935000    1.0919597    -6.495234    414.55826  0.036948151  0.037263673            4 
  936000    1.0888394   -6.5424503    414.75334  0.036926045  0.037255553            2 
  937000    1.1086707   -6.5060789    414.43201  0.036858059  0.037247752           10 
  938000     1.084464   -6.5240657    415.02872  0.036871777  0.037240074            3 
  939000    1.1012345   -6.4967705    417.72364  0.037071676  0.037232639            3 
  940000      1.11792   -6.4846199    416.67693  0.036939444  0.037225713            4 
  941000    1.0883167   -6.5362161    417.00155  0.036928936  0.037218566            4 
  942000    1.1065658   -6.5414878    417.41776  0.036926553  0.037211384            3 
  943000    1.1316077   -6.4913276     419.8079  0.037098613  0.037204498            2 
  944000    1.0942397   -6.5378134    417.86188  0.036887525   0.03719769           12 
  945000    1.0940878   -6.4980133    418.83604  0.036934395  0.037190673            2 
  946000     1.097462   -6.5512395    419.72106  0.036973314  0.037183628            3 
  947000    1.1000501   -6.5196295    420.59443  0.037011126  0.037176855            2 
  948000    1.1059768   -6.5264318    420.26912  0.036943488  0.037169694            3 
  949000    1.1135756   -6.5144671    420.04402  0.036884793  0.037162798            5 
  950000    1.0908231   -6.5431592    420.35483  0.036873231  0.037155635            3 
  951000    1.1190488   -6.5143889    421.88575  0.036968608  0.037148415            1 
  952000     1.091464   -6.5331096    421.32806  0.036880958  0.037141123            3 
  953000    1.0749156   -6.4819851    421.75737  0.036879798  0.037134141            2 
  954000    1.1200815   -6.5231178    422.99598  0.036949334  0.037127068            2 
  955000    1.0978361   -6.4976786    422.93724  0.036905518  0.037120202            3 
  956000    1.1228762    -6.487702    423.88852  0.036949836  0.037113163            3 
  957000    1.1118019   -6.5267601    422.49411  0.036789804  0.037105756            2 
  958000    1.0939462   -6.5108025    424.07527  0.036888941  0.037098491            3 
  959000    1.1007888   -6.5439431    422.61633    0.0367237  0.037091148            3 
  960000    1.0806391   -6.5513737    424.40862  0.036841026  0.037083876            3 
  961000    1.0976087   -6.4987126    424.64399    0.0368231  0.037077062            2 
  962000    1.1017678   -6.5594208     424.0138  0.036730232  0.037070017            5 
  963000    1.1035723   -6.5307032    425.10784  0.036786764  0.037062857            3 
  964000    1.1098769   -6.5069028     425.8926  0.036816442  0.037055596            3 
  965000    1.0799046   -6.5096023    427.26349  0.036896674  0.037048537            3 
  966000    1.1094286   -6.5375534    425.81699  0.036733695  0.037041641            1 
  967000    1.1010487   -6.5287075    426.89527  0.036788631  0.037034385            5 
  968000    1.1111531   -6.5123033    426.38808  0.036706962  0.037027405            2 
  969000    1.0804553   -6.5391262    427.66912   0.03677925  0.037020423            3 
  970000    1.0813302   -6.4972062    428.05918  0.036774844  0.037013328            4 
  971000    1.0904035   -6.5116921    429.19149  0.036834148  0.037006367            4 
  972000    1.1169552   -6.4998209    429.40844  0.036814853  0.036999684            5 
  973000    1.0738277   -6.4903077    427.94075  0.036651314  0.036992721            2 
  974000      1.09329   -6.4890886    430.14311  0.036802114  0.036985787            4 
  975000    1.0671668   -6.5482103    429.06251   0.03667201  0.036978958            3 
  976000    1.0753852    -6.504097    430.70029  0.036774274  0.036971774            2 
  977000    1.0596779   -6.5394563    431.65078  0.036817706  0.036965032            2 
  978000    1.0969368    -6.571121    431.50042  0.036767248  0.036958137            7 
  979000    1.0790517   -6.5132879    431.68285  0.036745221  0.036951108            2 
  980000     1.074958   -6.5161916    431.47369   0.03668994  0.036944239            2 
  981000    1.1081424   -6.4952003    432.46988  0.036737162   0.03693758            5 
  982000    1.1209609   -6.5141437    432.47806  0.036700447   0.03693125            2 
  983000    1.1066217   -6.5417388    434.03215  0.036794858  0.036924783            2 
  984000      1.09255   -6.5332392     434.2787  0.036778346  0.036918211            5 
  985000    1.0825115   -6.4963545    436.75713  0.036950688  0.036911688            4 
  986000    1.0957784   -6.5254347    434.16233  0.036693909   0.03690535            2 
  987000    1.0928709   -6.5524547    433.53351   0.03660364  0.036898524            4 
  988000    1.0954001   -6.5442576     436.2492  0.036795648  0.036891644            3 
  989000    1.0960376    -6.524986    434.96815  0.036650501  0.036885083            3 
  990000    1.1200629   -6.5192336    436.31998  0.036727271  0.036878432            4 
  991000    1.0852393   -6.5326582    436.71473  0.036723405  0.036871863            1 
  992000    1.1001329   -6.5237768     437.2149  0.036728402  0.036865203            2 
  993000    1.0818281   -6.5560553    435.68353  0.036562901  0.036858413            5 
  994000    1.0977789   -6.5284429    435.93442  0.036547151  0.036851638            4 
  995000    1.1113596   -6.5376497    437.72497  0.036660383  0.036844869            5 
  996000    1.1060594   -6.5748297     437.1517   0.03657561  0.036837904            5 
  997000    1.0876067    -6.558675    436.82149  0.036511325  0.036830533            2 
  998000    1.0981386   -6.5009317    438.61532  0.036624526    0.0368233            2 
  999000     1.073437   -6.5637415    438.99945  0.036619907  0.036815965            3 
 1000000    1.1149206   -6.5301128    438.42788  0.036535657  0.036808429            2 
 1001000    1.0842435   -6.5472475     439.0295  0.036549242  0.036801182            3 
 1002000    1.0984097   -6.5523032    439.18155  0.036525412  0.036793743            2 
 1003000    1.0828727   -6.5378945    439.96624  0.036554191  0.036786192            3 
 1004000    1.0874319   -6.5533123    438.21451  0.036372386  0.036778534            2 
 1005000    1.0698822   -6.5098114    439.54606  0.036446605  0.036771001            4 
 1006000     1.087278    -6.507285    439.97201   0.03644566  0.036763337            2 
 1007000    1.0685594   -6.5107681    441.67811  0.036550654  0.036755808            5 
 1008000    1.0817809   -6.5109532    440.16138  0.036389003  0.036748349            5 
 1009000    1.0953178   -6.5415183    441.15008  0.036434596  0.036740677            2 
 1010000     1.090552   -6.5311465    440.08327  0.036310501  0.036732936            3 
 1011000    1.0931155   -6.5263883    441.38321  0.036381735  0.036724905            3 
 1012000     1.090249   -6.4802444    442.93056  0.036473201  0.036717053            3 
 1013000    1.0994644   -6.4946178    441.97951  0.036358959   0.03670931            6 
 1014000    1.0731252   -6.5539533    441.85985  0.036313268  0.036701403            3 
 1015000    1.1054807   -6.5508195    442.80663  0.036355224  0.036693538            2 
 1016000    1.0897726   -6.5251111    442.85196   0.03632316  0.036685727            3 
 1017000     1.092241   -6.5444242    444.17901  0.036396183  0.036677799            4 
 1018000    1.0753717   -6.5026386    444.25373  0.036366547  0.036670163            5 
 1019000    1.0842764   -6.5590392    443.31103  0.036253764  0.036662373           15 
 1020000    1.0768471   -6.5527547    443.50283  0.036233892  0.036654548            3 
 1021000     1.087546   -6.5624566    443.52074  0.036199864  0.036646803            3 
 1022000    1.0998376   -6.5594311    444.63263  0.036255107   0.03663878            6 
 1023000    1.1178291   -6.5037591    446.06138  0.036336053  0.036630791            4 
 1024000    1.0857098   -6.5343249    446.41366  0.036329237  0.036622731            3 
 1025000    1.0860034   -6.5481803    446.20367  0.036276721  0.036614886            4 
 1026000    1.0904594   -6.5175311    447.75283  0.036367189   0.03660718            5 
 1027000    1.0704436   -6.5295946    447.78516  0.036334401  0.036599559            3 
 1028000    1.1033445   -6.5793911    447.08051  0.036241935  0.036592127            4 
 1029000    1.0956935   -6.5572199    446.96484  0.036197347  0.036584554            3 
 1030000    1.0919318   -6.5420079    448.49139  0.036285711  0.036576586            7 
 1031000    1.0694045   -6.5650122    447.96636  0.036208079  0.036568765            2 
 1032000    1.0786705   -6.5927087    449.47387  0.036294725  0.036560914            3 
 1033000    1.1152863   -6.5804283    449.82831  0.036288183  0.036553069            6 
 1034000    1.1135957   -6.5532634    448.67824    0.0361604    0.0365451            4 
 1035000    1.0807947   -6.5551403    449.54667  0.036195384  0.036537098            1 
 1036000     1.081481   -6.5781823    448.21386  0.036053238  0.036529005            3 
 1037000    1.0648566   -6.5280694    449.79553  0.036145574  0.036520954            5 
 1038000    1.1015447   -6.5603822    449.42422  0.036080942  0.036512751            3 
 1039000     1.076827   -6.5544356    450.67746  0.036146733  0.036504374            5 
 1040000    1.0906709   -6.5504117    448.42724   0.03593167   0.03649571            3 
 1041000    1.0927801   -6.4979133    450.13369  0.036033757  0.036487179            4 
 1042000    1.0694947   -6.5641797    448.91604  0.035901795  0.036478588            3 
 1043000    1.0803682   -6.5587499    450.97638  0.036031989  0.036469692            3 
 1044000    1.0855094   -6.5495937    450.64775  0.035971244  0.036460831            2 
 1045000    1.0745372   -6.5533513    451.73102  0.036023208  0.036452129            2 
 1046000    1.0856442   -6.5279391    451.95964  0.036006982  0.036443809            2 
 1047000    1.0776919   -6.6055922    451.75438  0.035956254   0.03643517            6 
 1048000    1.1051736   -6.5346686    451.36499  0.035890982  0.036426459            8 
 1049000     1.090392   -6.5136942    452.91565  0.035979953  0.036418225            3 
 1050000    1.0735521   -6.5727411    453.90091  0.036023882  0.036410088            2 
 1051000    1.0978881   -6.5530945    453.55609  0.035962265  0.036401824            3 
 1052000    1.0972545   -6.5627328    456.23242  0.036140084  0.036393808            4 
 1053000    1.0777229   -6.5528753    454.81718  0.035993762  0.036385878            8 
 1054000    1.0652494   -6.5651115    455.51413  0.036014716  0.036377903            4 
 1055000    1.0762675   -6.5678383    457.57055  0.036143013  0.036370191            4 
 1056000    1.0935812   -6.5611571    455.21036  0.035922535   0.03636254            7 
 1057000    1.0851983   -6.5716967    456.89957  0.036021725  0.036354891            6 
 1058000    1.0653362    -6.539396    459.02985  0.036155471  0.036347347            4 
 1059000    1.0866289   -6.5566132    458.69684  0.036095124  0.036339817            3 
 1060000    1.0658937   -6.5934079    458.14116  0.036017387  0.036332235            3 
 1061000    1.0805476   -6.5459745    459.28862  0.036073564    0.0363248            4 
 1062000     1.083059   -6.5281327    460.28811  0.036118025  0.036317205            2 
 1063000    1.0646332   -6.5334142    458.98204  0.035981659  0.036309622            4 
 1064000    1.0837589   -6.5789308    458.37503    0.0359003  0.036301657            3 
 1065000    1.0966578   -6.5752958    459.83365  0.035980723   0.03629382            3 
 1066000    1.0890088   -6.4941763     460.5323  0.036001587   0.03628608            2 
 1067000    1.0963907   -6.5404884    461.52157  0.036045108  0.036278374            4 
 1068000    1.0945389   -6.6020455    459.54348  0.035857013  0.036270543            3 
 1069000    1.0972466   -6.5882947    460.79104  0.035920723  0.036262592            2 
 1070000     1.076284   -6.5457158    459.75905   0.03580678  0.036254491            3 
 1071000    1.0671239   -6.5402096    460.87819  0.035860426  0.036246383            4 
 1072000    1.0817587   -6.5747311    460.56997  0.035803014  0.036238167            2 
 1073000    1.0806281    -6.556807    462.71239  0.035936035  0.036230156            3 
 1074000    1.0725112   -6.5429313    463.49259  0.035963112  0.036222213            4 
 1075000    1.0878789   -6.5716223    461.72625  0.035792732  0.036214276            4 
 1076000    1.0908513   -6.5498181    462.24969  0.035800007  0.036206093            3 
 1077000    1.0871787   -6.5564131    462.42901  0.035780641  0.036198011            4 
 1078000    1.0475891   -6.5585807    463.20301  0.035807283  0.036190055            5 
 1079000     1.074411   -6.5722469    463.12574  0.035768129  0.036182031            3 
 1080000    1.0784321   -6.5579941     463.7644   0.03578429  0.036173743            2 
 1081000     1.077924   -6.5505903    463.29325  0.035714866  0.036165504            3 
 1082000     1.078035   -6.6049533    464.03328  0.035738854  0.036157417            3 
 1083000    1.0811716   -6.5984959    463.27903  0.035647817  0.036149076            2 
 1084000    1.0958181   -6.5792933    466.42036  0.035856423   0.03614089            2 
 1085000    1.0912929   -6.5394038     466.2168  0.035807742  0.036132825            5 
 1086000    1.0992086   -6.5636086    466.66642  0.035809271  0.036124822            4 
 1087000    1.0974699   -6.5996167    464.84174  0.035636442  0.036116401            2 
 1088000    1.0631745   -6.5609163    464.83459   0.03560314  0.036107882            6 
 1089000    1.0860988   -6.5553397    464.48511  0.035543703   0.03609939            3 
 1090000    1.0756155   -6.5992374      466.029  0.035629128  0.036090659            5 
 1091000    1.0621484   -6.5392331    467.54929  0.035712595  0.036081862            3 
 1092000    1.0767771   -6.5518752    468.02992  0.035716569  0.036073115            3 
 1093000    1.0829007   -6.5799994    466.72504  0.035584404  0.036064579            3 
 1094000    1.0656707   -6.5466744    467.66489  0.035623468  0.036055985            3 
 1095000    1.0716007   -6.5452871    467.77357  0.035599207  0.036047561            2 
 1096000    1.0899491   -6.5742186    469.61651  0.035706852  0.036039163            4 
 1097000    1.0594515   -6.5923778     467.6963  0.035528433  0.036030695            1 
 1098000    1.0603137   -6.5736583    469.78227  0.035654392  0.036021912            3 
 1099000    1.1009208   -6.5758765    469.37194  0.035590836  0.036013347            3 
 1100000    1.1061317   -6.5748162    468.90896  0.035523406  0.036004951            2 
 1101000    1.0652827   -6.5731597    468.77701  0.035481154  0.035996072            3 
 1102000    1.0665809    -6.573679    468.90248  0.035458445  0.035987289            3 
 1103000     1.045847   -6.5632843    470.57345  0.035552542  0.035978572            5 
 1104000    1.0985252   -6.5569717    469.77416  0.035460006  0.035970035            4 
 1105000    1.0945813   -6.5657824    470.47936  0.035481098  0.035961259            5 
 1106000    1.0616547   -6.5839187    469.74219  0.035393474  0.035952249            5 
 1107000    1.0845354   -6.5514975    471.11388   0.03546476  0.035943567            3 
 1108000    1.0753571   -6.5733363    471.67226  0.035474749  0.035934761            3 
 1109000    1.0879527   -6.5517722    471.86861  0.035457515  0.035925916            2 
 1110000    1.0604108   -6.5671487     471.5946     0.035405  0.035917078            3 
 1111000    1.0938965   -6.5941522    471.47658   0.03536428  0.035908247            4 
 1112000    1.0934008   -6.5619469    472.20434  0.035387016  0.035899206            3 
 1113000    1.0829081   -6.6221415    470.14558  0.035201077  0.035890143            6 
 1114000    1.0607554   -6.5766577    472.44629  0.035341584  0.035881044            1 
 1115000    1.0688209   -6.5560518    473.75733  0.035407872   0.03587196            3 
 1116000    1.0618108   -6.5930472    472.98458  0.035318442  0.035863007            3 
 1117000    1.0956969   -6.5664975    474.95487  0.035433816  0.035854121            2 
 1118000    1.0535484   -6.5668126    474.94803  0.035401612  0.035845368            2 
 1119000    1.0856993   -6.6147454    473.45187  0.035258555  0.035836531            8 
 1120000    1.0696789   -6.5592723    476.08877  0.035423271  0.035827892            4 
 1121000    1.0698553   -6.5336055    476.25577  0.035404087  0.035819181            3 
 1122000    1.0713847   -6.5603995    476.08097  0.035359549  0.035810593            3 
 1123000    1.0755458    -6.564138     476.9587  0.035393195  0.035802199            6 
 1124000    1.0774078   -6.6208956    478.10078  0.035446381  0.035793746            5 
 1125000     1.089528    -6.569277    477.83441  0.035395142  0.035785257            5 
 1126000    1.0689042   -6.6140217    476.28601  0.035249113  0.035776776            5 
 1127000    1.0564716   -6.5457698    479.78455  0.035476527  0.035768353            2 
 1128000    1.0510782   -6.6117987    479.52699  0.035426049  0.035760069            4 
 1129000    1.0867021   -6.5970585    477.10674  0.035216028  0.035751738            5 
 1130000    1.0527932   -6.5892539    479.15253  0.035335732  0.035743328            4 
 1131000    1.0755323    -6.548004    479.59972  0.035337439  0.035734788            2 
 1132000     1.114109   -6.5788831    479.12867  0.035271545  0.035726393            4 
 1133000    1.0552766   -6.5536772    481.87299  0.035442262  0.035718209            2 
 1134000    1.0516866   -6.5715206    481.57139  0.035388844  0.035709827            4 
 1135000    1.0387767   -6.5753193    480.77745  0.035299372  0.035701463            2 
 1136000    1.0771738   -6.5547397    482.92774  0.035426037  0.035693149            3 
 1137000    1.0727528    -6.591633    480.40834  0.035210227   0.03568464            4 
 1138000    1.0509204    -6.613238    481.85948  0.035285551  0.035676141            6 
 1139000    1.0655915   -6.5765065    480.92602  0.035186276  0.035667704            6 
 1140000    1.0508451    -6.598254    481.68489  0.035210883  0.035659234            6 
 1141000    1.0623297   -6.5684954    483.24618  0.035294053    0.0356508            2 
 1142000    1.0742666   -6.6070553    482.18278   0.03518555  0.035642472            9 
 1143000    1.0795468    -6.584597    483.72001  0.035266842  0.035634034            3 
 1144000    1.0773707   -6.5909455    483.90084  0.035249187  0.035625678            5 
 1145000    1.0802561   -6.6019938    484.72597  0.035278455  0.035617285            4 
 1146000    1.0381789    -6.571416    484.68654  0.035244804  0.035609123            2 
 1147000    1.0709713   -6.5483213     484.8989  0.035229504  0.035600914            5 
 1148000    1.0572837   -6.5912685    484.14717  0.035144249  0.035592592            4 
 1149000    1.0590236   -6.5679348    485.09835  0.035182648  0.035584126            2 
 1150000     1.089037   -6.5694559    486.20431  0.035232196  0.035575646            5 
 1151000    1.0764686   -6.5590694    486.71175  0.035238325   0.03556724            5 
 1152000     1.068239    -6.607304    485.60448  0.035127639  0.035558523            2 
 1153000     1.058805    -6.567883    485.49466  0.035089235  0.035549636            4 
 1154000    1.0816787   -6.6083246    485.50807  0.035059797  0.035540801            9 
 1155000    1.0783946   -6.5432127    486.07916  0.035070646  0.035532049            5 
 1156000     1.062395   -6.6032861    486.39494  0.035063073  0.035523289            3 
 1157000    1.0575957   -6.5327506    488.70103  0.035198864  0.035514657            6 
 1158000    1.0612037   -6.6362982    486.98053  0.035044655  0.035506077            2 
 1159000    1.0724103   -6.5396313     489.9934  0.035231047   0.03549776            5 
 1160000    1.0775664   -6.5766025    489.10014  0.035136504   0.03548961            2 
 1161000     1.067148   -6.5782614    488.65349  0.035074181  0.035481246            3 
 1162000    1.0767531   -6.5806018    490.26928  0.035159874   0.03547281            2 
 1163000    1.0912108   -6.5791984    489.30079  0.035060246  0.035464412            6 
 1164000    1.0787695   -6.5865895    489.60122  0.035051634    0.0354559            2 
 1165000    1.0532001   -6.6019588     488.5376  0.034945465  0.035447278            2 
 1166000    1.0426525    -6.565269     490.0751  0.035025379  0.035438653            8 
 1167000    1.0856024   -6.6062656     490.1298  0.034999271   0.03543009            3 
 1168000    1.0946304   -6.5862623    491.28916  0.035052023  0.035421579            3 
 1169000    1.0746471   -6.6352071    491.06155  0.035005813  0.035413043            4 
 1170000    1.0596846   -6.6138699    491.27353  0.034990992  0.035404633            3 
 1171000    1.0580946   -6.5600283    491.82841  0.035000598  0.035396249            3 
 1172000    1.0443658    -6.589027    493.44518  0.035085693   0.03538821            5 
 1173000    1.0570066   -6.5652803    492.67805  0.035001283  0.035379804            1 
 1174000    1.0543413   -6.5904374    492.76697   0.03497778  0.035371473            5 
 1175000    1.0604971   -6.5877016    493.28498   0.03498475  0.035363012            5 
 1176000    1.0675517   -6.5764075    494.81298  0.035063278  0.035354657            2 
 1177000    1.0569581   -6.5941036    493.86889  0.034966644  0.035346201            3 
 1178000    1.0724023   -6.5870778     495.0847   0.03502297  0.035337757            2 
 1179000    1.0543468   -6.5987692    494.46295  0.034949318  0.035329307            2 
 1180000    1.0841598   -6.5740375    494.56633  0.034927001  0.035320658            6 
 1181000    1.0644186   -6.5727235    495.18984  0.034941423  0.035312102            6 
 1182000    1.0717881   -6.6552724    492.65311  0.034733016  0.035303423            6 
 1183000    1.0699399   -6.5929147    495.24904   0.03488652  0.035295002            5 
 1184000     1.061855   -6.6502985    495.73308  0.034891123   0.03528658           11 
 1185000    1.0617817   -6.6116398    496.89896  0.034943668  0.035278151            2 
 1186000    1.0636568   -6.6012768    497.25518  0.034939234  0.035269862            5 
 1187000    1.0957938   -6.5728477    496.82826  0.034879827  0.035261688            7 
 1188000    1.0371525    -6.587651    497.66445  0.034909122  0.035253488            3 
 1189000    1.0451146   -6.5840273    498.24559  0.034920493  0.035245235            4 
 1190000    1.0551048   -6.5887393    497.95704  0.034870941  0.035236944            4 
 1191000    1.0476579   -6.5856517    499.14153  0.034924541  0.035228772            3 
 1192000    1.0660812   -6.5980514    500.22086  0.034970698  0.035220486            4 
 1193000    1.0834895   -6.5645067    500.57329  0.034966003  0.035212385            4 
 1194000    1.0764938   -6.5951435    500.69084  0.034944922  0.035204559            2 
 1195000    1.0564622   -6.5983252    501.10995  0.034944906  0.035196681            5 
 1196000    1.0706005   -6.5728889     501.4054  0.034936274  0.035188683            3 
 1197000    1.0468021   -6.6156335    500.00114  0.034809325  0.035180506            4 
 1198000    1.0598453   -6.6045169    502.60026  0.034961064  0.035172507            5 
 1199000    1.0599916   -6.6146606     503.2414  0.034976466  0.035164442            3 
 1200000    1.0555497   -6.5827677    501.63134   0.03483551  0.035156354            3 
 1201000    1.0721423   -6.5764418    501.63231  0.034806571  0.035148249            2 
 1202000    1.0668137   -6.6082713    501.99889  0.034803029  0.035140211            4 
 1203000    1.0706257   -6.5599878    502.84472   0.03483269  0.035132105            2 
 1204000    1.0543766   -6.6206723    503.12268  0.034822998  0.035124011            2 
 1205000    1.0611611   -6.5952878    503.75451  0.034837795  0.035115918            2 
 1206000    1.0592944   -6.5471525    503.32585  0.034779287  0.035107889            5 
 1207000    1.0457273   -6.6067396    505.21642  0.034881001  0.035099916            4 
 1208000    1.0507233   -6.6286136    503.62993  0.034742683   0.03509179            2 
 1209000     1.054553   -6.5973819    505.21531  0.034823222  0.035083929            2 
 1210000    1.0629203   -6.6110763    503.55179  0.034679875  0.035075821            5 
 1211000    1.0657355   -6.5914248    506.51189  0.034854933  0.035067783            7 
 1212000    1.0685739   -6.6125319    505.20655  0.034736424  0.035059801            8 
 1213000    1.0473051   -6.5765094    504.75186   0.03467655  0.035051596            2 
 1214000    1.0734199   -6.5822056    506.33222  0.034756468  0.035043257            2 
 1215000    1.0569924   -6.6239251     506.0375  0.034707647   0.03503519            4 
 1216000    1.0690931   -6.6123644    506.87518  0.034736512  0.035027195            6 
 1217000    1.0656619   -6.6221622       506.88  0.034708299  0.035019175            4 
 1218000    1.0699668   -6.5723177    506.97374  0.034686216  0.035011079            7 
 1219000    1.0485947   -6.5913883     508.7666  0.034780325  0.035002978            3 
 1220000    1.0636961   -6.5987508    507.85303  0.034689415  0.034995028            2 
 1221000    1.0543955   -6.5958964    508.15723  0.034681765  0.034987061            5 
 1222000    1.0912829   -6.5848572    509.31782   0.03473253   0.03497907            8 
 1223000    1.0683528   -6.6115256    508.91615  0.034676761  0.034971042            7 
 1224000    1.0686026   -6.6171446    508.38932  0.034612563  0.034962931            4 
 1225000    1.0437279   -6.5658992    510.72814  0.034743411  0.034954814            3 
 1226000    1.0317469   -6.5778681     510.1026  0.034672553  0.034946864            5 
 1227000    1.0368479   -6.5794167    510.22716  0.034652755  0.034938834            3 
 1228000    1.0723924   -6.6111531    510.27042  0.034627471  0.034930721            2 
 1229000    1.0619632   -6.6430779    511.15017  0.034658948  0.034922844            3 
 1230000    1.0496322   -6.5862928    512.82413  0.034744182  0.034914836            3 
 1231000    1.0533427   -6.6071594    511.55601  0.034630112  0.034906841            3 
 1232000    1.0430182     -6.58093     513.7018  0.034747145  0.034899001            3 
 1233000    1.0554514   -6.6332873    512.85796  0.034661933  0.034891094            4 
 1234000    1.0379284   -6.5862256      513.111  0.034650932  0.034883129            6 
 1235000    1.0606419   -6.5744083     514.1074  0.034690108  0.034875422            3 
 1236000     1.073255   -6.5864283    513.06454   0.03459173  0.034867745            7 
 1237000    1.0416634   -6.6063813    512.86025  0.034550003  0.034859785            2 
 1238000    1.0658512   -6.6057327    513.65173  0.034575372  0.034851807            5 
 1239000    1.0565756   -6.5863793    513.52815  0.034539155  0.034843888            4 
 1240000     1.056897   -6.5893654    513.09514    0.0344822  0.034835819            3 
 1241000    1.0602841    -6.601491    514.24751  0.034531797  0.034827794            2 
 1242000    1.0466862   -6.6346312    513.47846  0.034452393  0.034819789            2 
 1243000    1.0735322   -6.6098405    515.43874  0.034556097  0.034811619            5 
 1244000    1.0378498   -6.6477699    514.64232  0.034474968  0.034803562            3 
 1245000    1.0513746   -6.6248071    514.69893  0.034451066  0.034795557            2 
 1246000    1.0703954   -6.6240071    516.72342  0.034558816  0.034787676            2 
 1247000    1.0663274   -6.6333221    517.26667  0.034567406  0.034779916            3 
 1248000    1.0443594   -6.6047228    517.96704  0.034586474  0.034772127            6 
 1249000     1.039128   -6.6285617    516.45439  0.034457859   0.03476433            7 
 1250000    1.0305143   -6.6146073    518.00704  0.034533803  0.034756235            4 
 1251000    1.0412883   -6.6114504    517.34526  0.034462114  0.034748314            3 
 1252000    1.0372045   -6.6201445    517.94021  0.034474189  0.034740486            2 
 1253000     1.047933   -6.5930497    517.57715  0.034422529  0.034732605            8 
 1254000     1.067243   -6.5983832    517.97798  0.034421716  0.034724562            8 
 1255000    1.0556708   -6.6005833    519.52307  0.034496884  0.034716594            9 
 1256000    1.0818674   -6.6257146    518.93463  0.034430376  0.034708578            3 
 1257000       1.0435   -6.5973988    518.61683  0.034381916   0.03470042            3 
 1258000    1.0656003   -6.6350071    518.50171   0.03434696  0.034692277            6 
 1259000    1.0294797   -6.6044327    519.56331  0.034389946  0.034684143            4 
 1260000    1.0560631   -6.6152239    518.83048  0.034314185  0.034675754            2 
 1261000    1.0318178   -6.6040713    519.94758  0.034360797  0.034667445            5 
 1262000    1.0601402    -6.612361    520.87403  0.034394746  0.034659114            3 
 1263000     1.056333    -6.616122    520.19369  0.034322624  0.034650672            2 
 1264000    1.0268632   -6.6640903    520.52889  0.034317569  0.034642225            2 
 1265000    1.0449467   -6.5994381    521.74172  0.034370337  0.034633738            3 
 1266000    1.0550764    -6.584044    520.54333  0.034264305  0.034625275            3 
 1267000    1.0413461   -6.6029445    521.67872  0.034311939  0.034616808            2 
 1268000     1.077945   -6.6612905    521.77867  0.034291448  0.034608284            2 
 1269000    1.0659293   -6.6066292    524.11682  0.034417968  0.034600117            3 
 1270000    1.0532082   -6.6525275    522.58729  0.034290504  0.034591935            6 
 1271000    1.0322216   -6.6011925    523.24372  0.034306564  0.034583737            6 
 1272000    1.0355286   -6.6090989    522.25759  0.034214989  0.034575479            5 
 1273000    1.0525001   -6.6153675    523.36202   0.03426041  0.034567181            2 
 1274000    1.0686433   -6.6022972    523.29899  0.034229395  0.034558926            7 
 1275000     1.036801   -6.6130758    524.57182   0.03428574   0.03455076            3 
 1276000    1.0270812   -6.6115568    522.87837  0.034148274  0.034542248            3 
 1277000    1.0696076   -6.6410751    521.86696  0.034055531  0.034533454            3 
 1278000    1.0386897   -6.5892242     524.2916  0.034186985  0.034524745            2 
 1279000     1.036052   -6.6003632    522.24111  0.034026655  0.034516072            6 
 1280000    1.0416878   -6.6085476    523.74394  0.034097913  0.034507267            2 
 1281000    1.0206743   -6.5914621    524.23229  0.034103064  0.034498694            2 
 1282000    1.0514078   -6.6223863    523.55152   0.03403221  0.034489967            3 
 1283000    1.0365754   -6.5655734    526.85292  0.034220117  0.034481364            2 
 1284000     1.059266   -6.6173466    524.03946  0.034010868   0.03447253            6 
 1285000    1.0633155    -6.585723    525.14057  0.034055809  0.034463556            2 
 1286000    1.0628401   -6.6500615    524.73311  0.034002923  0.034454384            3 
 1287000    1.0513796   -6.6333003    523.51619  0.033897707  0.034445493            5 
 1288000    1.0757259   -6.6485191    525.80819  0.034019681  0.034436635           11 
 1289000    1.0517599   -6.6338968     524.8672  0.033932454  0.034427712            3 
 1290000     1.029207   -6.6126811    526.74822  0.034027663  0.034418814            3 
 1291000    1.0458854   -6.6017504    527.08445  0.034023009  0.034409862            2 
 1292000    1.0363021   -6.6676847    525.01322  0.033863082  0.034400873            5 
 1293000    1.0595999   -6.6713068    525.64923  0.033877883  0.034391713            3 
 1294000    1.0557075   -6.6201136     525.4001  0.033835658  0.034382777            3 
 1295000     1.032155   -6.6159422    527.72936  0.033959418  0.034373706            5 
 1296000    1.0547711     -6.64036    525.62611  0.033797975   0.03436474            2 
 1297000    1.0329805    -6.633087      528.279  0.033942367  0.034355728            2 
 1298000    1.0542294   -6.6042013    527.88453  0.033890892   0.03434666            6 
 1299000    1.0237903   -6.6381601    526.97095  0.033806194  0.034337398            6 
 1300000     1.036468   -6.6375625     527.3068  0.033801718  0.034328261            7 
 1301000    1.0362025   -6.6595275    526.79172  0.033742744  0.034319068            3 
 1302000    1.0365152   -6.6036378    529.72469   0.03390455  0.034310014            4 
 1303000    1.0347996   -6.6243177     528.5474  0.033803236  0.034300728            3 
 1304000    1.0540318   -6.6256414    527.65801  0.033720476   0.03429147            3 
 1305000    1.0494189   -6.6314183     529.1381  0.033789151  0.034282356            1 
 1306000    1.0341719   -6.6298421    528.77383  0.033740035  0.034273109            3 
 1307000    1.0202698    -6.611662    529.90965  0.033786639  0.034263882            2 
 1308000    1.0320476   -6.6225072    529.99654  0.033766344  0.034254796            7 
 1309000    1.0360302   -6.6488062    529.58078  0.033714081  0.034245758            1 
 1310000    1.0407753   -6.6211904    529.90937  0.033709248  0.034236636            2 
 1311000    1.0630971   -6.6597575    531.30521  0.033772261  0.034227378            3 
 1312000    1.0578606   -6.6644789    530.13356  0.033672101  0.034217915            2 
 1313000    1.0257903   -6.6047717    531.87504  0.033756984  0.034208596            3 
 1314000    1.0293757   -6.6760125    530.97086  0.033673951  0.034199393            5 
 1315000    1.0350959   -6.5831324    530.79179  0.033636996  0.034190198            6 
 1316000    1.0274879    -6.604972    531.31345  0.033644469  0.034180864            1 
 1317000    1.0357747   -6.6371313    531.58769  0.033636275  0.034171294            3 
 1318000    1.0568419   -6.6135474    532.23281  0.033651544  0.034162045            6 
 1319000    1.0334092   -6.6311195    532.01185  0.033612071  0.034152741            3 
 1320000    1.0249877   -6.6264593    531.33574  0.033543923  0.034143319            6 
 1321000    1.0454315   -6.6373598    532.99024  0.033622902  0.034133888            7 
 1322000     1.043876    -6.614064    533.07857  0.033603036  0.034124396            8 
 1323000    1.0372648   -6.6339363    532.77614  0.033558588  0.034115151            4 
 1324000    1.0356133    -6.612138    533.92134  0.033605321  0.034105718            3 
 1325000    1.0264393   -6.6620059     534.2846  0.033602805  0.034096533            3 
 1326000    1.0380303   -6.6397068    534.79572  0.033609585  0.034087303            4 
 1327000    1.0289561   -6.6201148    534.69831  0.033578141  0.034078051            7 
 1328000    1.0186393   -6.6630185    535.20161  0.033584438  0.034068784            3 
 1329000    1.0383152   -6.6577911    535.05645  0.033550066  0.034059505            6 
 1330000    1.0365216   -6.5917153    537.10899  0.033653445  0.034050304            4 
 1331000    1.0312258   -6.6655035    534.86388  0.033487596  0.034040995            6 
 1332000    1.0276263   -6.6644852    536.58753  0.033570291  0.034031833            3 
 1333000    1.0344407   -6.6374786    536.83654  0.033560674   0.03402305            4 
 1334000    1.0401727   -6.6731946    536.44288  0.033510925  0.034013993            4 
 1335000    1.0399667   -6.6569437    539.24217   0.03366056   0.03400509            6 
 1336000    1.0574001   -6.6344165    537.35677  0.033517763  0.033996178            4 
 1337000    1.0440409   -6.6293076    538.03048  0.033534684  0.033987162            3 
 1338000    1.0344875   -6.6594887    538.57296  0.033543408  0.033978151            4 
 1339000    1.0173078   -6.6403543    539.76524  0.033592559  0.033969346            4 
 1340000    1.0417749   -6.6713431    537.63152  0.033434796  0.033960426            2 
 1341000    1.0370435   -6.6023679    538.86175  0.033486313  0.033951431            4 
 1342000    1.0546286   -6.6365949    538.80961  0.033458123  0.033942407            3 
 1343000     1.048266   -6.6364128    539.16693  0.033455382  0.033933342            3 
 1344000      1.01577   -6.6593457    538.41565  0.033383907  0.033924246            3 
 1345000    1.0130043   -6.6538318    540.93463  0.033515157  0.033915288            2 
 1346000    1.0318605   -6.6521744    542.33762  0.033577118  0.033906421            4 
 1347000    1.0595959   -6.6275516    540.76098  0.033454651  0.033897551            6 
 1348000    1.0409949   -6.6392407    542.27701  0.033523554   0.03388868            5 
 1349000    1.0447467   -6.6325307    542.16513  0.033491792  0.033879792            3 
 1350000    1.0264782   -6.6350938    542.82442   0.03350768  0.033870982            3 
 1351000    1.0155773   -6.6057276     544.0338  0.033557476  0.033862245            4 
 1352000    1.0324565   -6.6454174    541.94313  0.033403792  0.033853397            3 
 1353000    1.0369031   -6.6371989    543.61199  0.033481892  0.033844673            3 
 1354000    1.0277431   -6.6493583    542.92555  0.033414916  0.033835868            3 
 1355000    1.0423929   -6.6827251    542.32617  0.033353393  0.033826905            4 
 1356000    1.0388184   -6.6364758    543.60997  0.033407692  0.033817865            4 
 1357000      1.04872   -6.6357436    543.05251   0.03334884  0.033808948            3 
 1358000    1.0335262   -6.6556381    543.77659  0.033368715   0.03380015            5 
 1359000     1.033148   -6.6269933    544.52986  0.033390352   0.03379108            4 
 1360000    1.0513285   -6.6698054    544.08977  0.033338834  0.033782051            3 
 1361000    1.0295506   -6.6257721    544.91294   0.03336474  0.033773003            3 
 1362000     1.056167   -6.6407433    544.59173   0.03332059  0.033763927            3 
 1363000    1.0376626   -6.6719991    544.84203  0.033311447   0.03375469            8 
 1364000    1.0609139   -6.6158497     545.3305  0.033316868  0.033745523            7 
 1365000    1.0236171   -6.6637683    545.07621  0.033276936  0.033736463            2 
 1366000      1.02208   -6.6219689    546.65912  0.033349141   0.03372751            3 
 1367000    1.0140284   -6.6509913      546.912  0.033340161  0.033718621            4 
 1368000    1.0224568   -6.6413096    546.70154  0.033302969  0.033709789            7 
 1369000    1.0337972   -6.6675963    546.75168  0.033281695  0.033700969            3 
 1370000    1.0149319   -6.6267435    548.76327  0.033379761  0.033692138            2 
 1371000    1.0361516   -6.6535754    546.62002  0.033225141  0.033683246            4 
 1372000    1.0220419    -6.627727    548.34492  0.033305693  0.033674566            5 
 1373000    1.0439719   -6.6469635    548.67643  0.033301556  0.033665857            4 
 1374000    1.0359346   -6.6443472    548.68286  0.033277709  0.033657219            3 
 1375000    1.0090807    -6.658385    549.46539  0.033300932  0.033648689            5 
 1376000    1.0442352   -6.5973782    552.59808  0.033466453  0.033640306            4 
 1377000    1.0391774   -6.6583483     550.8962  0.033339155  0.033631898            2 
 1378000    1.0239216   -6.7086377    549.64288  0.033239168  0.033623419            2 
 1379000    1.0192897   -6.6322197    552.04225  0.033360058  0.033614769            4 
 1380000    1.0496316   -6.6332536    549.88826  0.033205813  0.033606191            5 
 1381000    1.0232627   -6.6363026    553.32169  0.033388951  0.033597676            2 
 1382000    1.0214738   -6.6653237    549.03116  0.033106076  0.033589033            3 
 1383000    1.0470033   -6.6584226    549.55395  0.033113639  0.033580419            1 
 1384000    1.0311598   -6.6804476    550.24204  0.033131144  0.033571847            5 
 1385000    1.0184264    -6.645881    552.46922  0.033241229  0.033563343            2 
 1386000    1.0257379   -6.6117425    553.72079  0.033292496  0.033554911            5 
 1387000    1.0292145   -6.6613862    553.38453   0.03324829   0.03354655            3 
 1388000    1.0350018   -6.6144765    554.24835  0.033276198  0.033538211            3 
 1389000    1.0195251   -6.6725432    554.04716  0.033240171  0.033529881            3 
 1390000    1.0012189   -6.6418649    553.42471   0.03317894  0.033521553            4 
 1391000    1.0398691   -6.5961149    556.11623  0.033316333  0.033513354            5 
 1392000    1.0245614   -6.6247111    556.22274  0.033298775  0.033505193            2 
 1393000    1.0397417   -6.6851614    554.62552  0.033179321   0.03349685            3 
 1394000     1.038237   -6.6605968     555.0964  0.033183668  0.033488446            3 
 1395000    1.0291091    -6.668955    556.85671  0.033265036  0.033480024            5 
 1396000    1.0220641   -6.6560014    557.26873  0.033265803  0.033471877            4 
 1397000    1.0439774   -6.6391674    557.77915  0.033272438  0.033463884            3 
 1398000    1.0284025   -6.6345861    558.46814  0.033289708  0.033455725            6 
 1399000    1.0530315   -6.6443786    556.94567  0.033175224  0.033447475            3 
 1400000    1.0348743   -6.6250926    557.01354  0.033155568  0.033439247            2 
 1401000    1.0255666   -6.6373047    557.74978  0.033175695  0.033430795            4 
 1402000    1.0113434   -6.6574482    558.53952  0.033198973  0.033422407            6 
 1403000    1.0398301   -6.6679851    555.76079  0.033010263  0.033413885            7 
 1404000    1.0358309   -6.6600731     556.6451  0.033039239   0.03340529            6 
 1405000    1.0309724   -6.6437163    559.50787   0.03318552  0.033396966            3 
 1406000    1.0393249   -6.6647877    558.45884  0.033099741  0.033388709            1 
 1407000    1.0444513    -6.655382    558.81216  0.033097143  0.033380355            2 
 1408000    1.0288422   -6.6365719    561.70458  0.033244826  0.033372048            4 
 1409000    1.0347434   -6.6813569    559.61981  0.033097931   0.03336368            4 
 1410000    1.0223539   -6.6520289    560.06861  0.033100982  0.033355257            2 
 1411000    1.0228682   -6.6825121    559.13125  0.033022162  0.033346839            3 
 1412000    1.0326727   -6.6871211     558.4075  0.032956061  0.033338216            4 
 1413000    1.0214303   -6.6308396    559.01281  0.032968436  0.033329484            3 
 1414000     1.050623   -6.6582909    559.94526  0.033000074  0.033320891            6 
 1415000    1.0384373   -6.6730195     560.1357  0.032987968  0.033312271            2 
 1416000     1.030475   -6.6622088    560.33819  0.032976588  0.033303596            3 
 1417000    1.0117841   -6.6551325    560.60894  0.032969239  0.033295008            2 
 1418000    1.0395553   -6.6980751    560.52646  0.032941142   0.03328643            4 
 1419000    1.0335161    -6.649756    562.29826  0.033021979  0.033277859            4 
 1420000    1.0249741   -6.6707574    560.59728  0.032898902  0.033269453            3 
 1421000    1.0352828   -6.6666359    559.81559  0.032829908  0.033260873            2 
 1422000    1.0442501   -6.6510135    561.11081  0.032882724  0.033252507            4 
 1423000    1.0310546    -6.651092    562.89183  0.032963916  0.033244081            2 
 1424000    1.0218733   -6.6768159    562.77639  0.032934012  0.033235616            5 
 1425000    1.0128253   -6.6608124    563.16705  0.032933746  0.033227236            3 
 1426000    1.0245458   -6.6639478    565.89413  0.033070017  0.033218854            5 
 1427000    1.0359795   -6.6566129    563.43466  0.032903215  0.033210416            3 
 1428000     1.020353   -6.6721546    563.32353  0.032873688  0.033202104            2 
 1429000    1.0205582   -6.6547033    564.71278  0.032931699  0.033193628            3 
 1430000    1.0200774   -6.6701287    564.60892  0.032902618  0.033185227            5 
 1431000    1.0133763   -6.6773597    564.50387  0.032873507  0.033176819            3 
 1432000    1.0074355   -6.6398407    566.85354  0.032987287   0.03316843            6 
 1433000    1.0185687   -6.6664305    566.37536  0.032936459  0.033160102            4 
 1434000    1.0258858   -6.6342065    566.82258   0.03293948   0.03315184            3 
 1435000    1.0096453   -6.6233676    567.32749  0.032945848  0.033143611            2 
 1436000    1.0264042   -6.6553075    566.57526  0.032879251  0.033135231            3 
 1437000    1.0238907    -6.674434    566.20674     0.032835  0.033126696            2 
 1438000   0.99224758   -6.6417301    568.49679  0.032944876  0.033118335            5 
 1439000    1.0236496   -6.6476931    566.97017  0.032833575  0.033110067            6 
 1440000    1.0062512   -6.6762827     568.1754  0.032880521  0.033101683            3 
 1441000    1.0053163   -6.6949387    568.65334  0.032885343  0.033093232            3 
 1442000    1.0185735   -6.6979332    569.62576  0.032918733  0.033084937            7 
 1443000     1.019676   -6.6546395    568.48656  0.032830131  0.033076824            7 
 1444000    1.0070023   -6.7154317    567.63129  0.032758038   0.03306856            2 
 1445000    1.0138972   -6.6541061    568.09485  0.032762102  0.033060181            2 
 1446000    1.0275646   -6.6697162    569.53145  0.032822237  0.033051861            3 
 1447000    1.0018285   -6.6476321    573.02516  0.033000758  0.033043646            7 
 1448000    1.0290342    -6.684068    569.93378  0.032800056   0.03303542            2 
 1449000    1.0179096   -6.6463674     571.6852  0.032878146  0.033027542            4 
 1450000    1.0256823   -6.6781106    570.69131  0.032798351  0.033019512            4 
 1451000     1.020044   -6.6788131    570.04273  0.032738498  0.033011431            3 
 1452000    1.0280275   -6.6650974    572.30743  0.032845927  0.033003375            3 
 1453000    1.0165258   -6.6519721    573.24964  0.032877359  0.032995381            5 
 1454000    1.0185829   -6.6580573     573.5968  0.032874645  0.032987388            5 
 1455000   0.99768824   -6.6983141    572.32315  0.032779103  0.032979533            4 
 1456000    1.0264013   -6.6891288    572.27878  0.032754051  0.032971367            4 
 1457000    1.0150014   -6.6818153    572.89308  0.032766706  0.032963286            4 
 1458000     1.003912   -6.6559883    573.96833  0.032805689  0.032955239            7 
 1459000    1.0325449   -6.6838282    574.97739  0.032840838  0.032947244            6 
 1460000    1.0312893   -6.6913931    574.20812  0.032774436  0.032939177            2 
 1461000    1.0255471   -6.6571063    573.41096  0.032706534  0.032931051            7 
 1462000   0.99945488   -6.6910588    574.31966  0.032735959  0.032922864            4 
 1463000    1.0272617   -6.6809275    572.94649  0.032635366  0.032914817            2 
 1464000    1.0250395   -6.7013654    573.84227  0.032664064  0.032906614            3 
 1465000    1.0285742   -6.7073327    573.97726  0.032649446  0.032898496            4 
 1466000    1.0066107     -6.67931    575.95662  0.032739689  0.032890296            3 
 1467000    1.0007543   -6.7110707    574.04802  0.032608954  0.032882197            6 
 1468000    1.0047378   -6.6781358     574.3101  0.032601618  0.032874067            4 
 1469000    1.0186471   -6.6859575    575.79226  0.032663505  0.032866066            4 
 1470000     1.029082   -6.6810022    576.74447  0.032695265  0.032858062            6 
 1471000    1.0057365   -6.6809897    577.15075  0.032696054  0.032849921            5 
 1472000    1.0228778   -6.6786394    576.47231  0.032635434  0.032841775            1 
 1473000    1.0073524   -6.6837988    577.48175  0.032670386  0.032833649            3 
 1474000   0.99858757   -6.7034242    578.50356  0.032705991  0.032825469            2 
 1475000    1.0094168   -6.7019482    576.13228  0.032549847  0.032817313            3 
 1476000    1.0153723   -6.6608262     577.1713  0.032586455  0.032809148            4 
 1477000    1.0318338   -6.6749445    578.47371  0.032637876  0.032801007            3 
 1478000    1.0125645   -6.7069061    577.92885  0.032585072   0.03279287            5 
 1479000    1.0121631   -6.6918034    578.84837  0.032614851   0.03278477            4 
 1480000   0.99561204   -6.6256911    580.70564   0.03269739  0.032776764            3 
 1481000    1.0080493   -6.7175686    578.55228  0.032554146  0.032768632            4 
 1482000    1.0251658   -6.6710323    579.96961  0.032611876  0.032760347            8 
 1483000    1.0055459     -6.66011    579.61669  0.032570054  0.032752165            7 
 1484000    1.0022357   -6.6653947    580.12535   0.03257667   0.03274398            4 
 1485000    1.0082393   -6.6832686    578.46939  0.032461807  0.032735634            4 
 1486000    1.0162092   -6.7023092    580.35225   0.03254555  0.032727322            3 
 1487000    1.0129073    -6.718325    578.08428  0.032396564  0.032719021            6 
 1488000    1.0247816   -6.7022652    580.17433  0.032491842  0.032710702            8 
 1489000    1.0023099     -6.71514    578.78798  0.032392432  0.032702471            6 
 1490000   0.99909166   -6.6758127    581.24747  0.032508248  0.032694212            3 
 1491000    1.0338666    -6.675675    580.42126  0.032440267  0.032685997            3 
 1492000    1.0360023   -6.6850104    580.73552  0.032436077  0.032677839            1 
 1493000    1.0030362   -6.6697007    582.36416  0.032505256  0.032669664            3 
 1494000    1.0498399   -6.6948055    580.54817  0.032382205  0.032661545            7 
 1495000    1.0038832    -6.685385    580.52464  0.032359233  0.032653388            5 
 1496000    1.0225321   -6.6877686    581.79583  0.032408413  0.032645201            3 
 1497000    1.0329707   -6.6881947    581.61143  0.032376499  0.032636874            2 
 1498000     1.012616   -6.6741793    584.88577  0.032537037  0.032628728            6 
 1499000    1.0275857   -6.6394246     584.3712  0.032486725  0.032620539            1 
 1500000    1.0195418    -6.690674    582.74843  0.032374913  0.032612364            3 
 1501000    1.0165189   -6.6460683    584.03079  0.032424538  0.032604194            3 
 1502000   0.99836149   -6.6674282    584.07682  0.032405505  0.032596009            2 
 1503000    1.0233651   -6.6753995    583.98305  0.032378745  0.032587939            4 
 1504000    1.0094659   -6.7051291     583.0131  0.032303474  0.032579724            3 
 1505000   0.99294712   -6.6813844    585.95369  0.032444833  0.032571606            3 
 1506000     1.003311    -6.712301    583.56061   0.03229087  0.032563413            4 
 1507000    1.0173173   -6.7314676    583.75885  0.032280406  0.032555159            4 
 1508000    1.0178693   -6.7142952    586.06156  0.032386249   0.03254709            2 
 1509000    1.0243555   -6.6661663    587.41068  0.032439291    0.0325392            4 
 1510000    1.0087667   -6.6570774    586.11947  0.032346549  0.032531215           11 
 1511000   0.99362523   -6.6842092    587.01999  0.032374807  0.032523331            3 
 1512000    1.0036321   -6.6837418    586.30591  0.032314038  0.032515275            6 
 1513000    1.0050568   -6.7136318    587.96822  0.032384238  0.032507501            2 
 1514000   0.99447087   -6.6893006    588.54172  0.032394414  0.032499564            6 
 1515000   0.99872816   -6.6864163    587.56354  0.032319226  0.032491742            4 
 1516000    1.0195946   -6.6900608    588.77074  0.032364267  0.032483897            8 
 1517000    1.0073471   -6.7016758    588.02178   0.03230179  0.032476016            2 
 1518000    1.0081794   -6.7259574    589.66521   0.03237073  0.032468201            3 
 1519000     1.011191   -6.6918823    589.60035  0.032345861  0.032460349            3 
 1520000     1.009117    -6.681788     591.0739  0.032405367  0.032452609            4 
 1521000    1.0294877   -6.6962285    589.96474  0.032323293  0.032444873            4 
 1522000     1.000183   -6.7024936     591.2527  0.032372575   0.03243714            3 
 1523000    1.0071469   -6.7025743    591.62543  0.032371713  0.032429538            5 
 1524000    1.0304316   -6.6889575    590.36541  0.032281573  0.032421959            3 
 1525000    1.0048605   -6.6794846    591.95294  0.032347155  0.032414422            5 
 1526000   0.99796823   -6.6976502     591.1566   0.03228247    0.0324068            8 
 1527000   0.99916324   -6.7269678    590.86213  0.032245259  0.032399085            8 
 1528000    1.0066593   -6.7058814    591.95437  0.032283724  0.032391416            5 
 1529000    1.0156569   -6.6605419     591.8429  0.032256535  0.032383763            6 
 1530000    1.0041537   -6.7228102    593.30409  0.032315037  0.032375997            4 
 1531000    1.0417755   -6.7250836    594.04595  0.032334311  0.032368294            3 
 1532000   0.99907899    -6.701528    595.30941   0.03238193  0.032360913            3 
 1533000    1.0151385   -6.6429492    596.49093  0.032425034  0.032353475            3 
 1534000    0.9907563   -6.6846914     595.4757  0.032348745  0.032346073            5 
 1535000   0.99176915    -6.711114    595.30697  0.032318511  0.032338648            3 
 1536000    1.0022754   -6.6620243     596.4536  0.032359679  0.032331218            4 
 1537000   0.97348814   -6.7021488    595.03349  0.032261629  0.032323719            6 
 1538000   0.99639524   -6.7052537    595.70188  0.032276868  0.032316212            2 
 1539000     1.018505   -6.7177673    596.42675  0.032295146   0.03230863            7 
 1540000   0.99502331   -6.7047039    596.03697  0.032253083  0.032301224            3 
 1541000    1.0225982   -6.7211559    597.53815  0.032313333  0.032293849            3 
 1542000    1.0080505   -6.7121414    598.10153  0.032322823  0.032286466            6 
 1543000    1.0082118    -6.698486    599.28262  0.032365663  0.032279216            4 
 1544000    1.0027736   -6.7145211    597.45608  0.032246118   0.03227187            3 
 1545000    1.0118078   -6.7130906    599.15392  0.032316824  0.032264502            2 
 1546000    1.0168756   -6.7238693     599.6269  0.032321415  0.032257219            2 
 1547000   0.98552585   -6.6803718    600.71102  0.032358921  0.032249795            4 
 1548000    1.0254442   -6.7035461    599.42946  0.032269028  0.032242409            3 
 1549000   0.99927449   -6.7056148    598.60327  0.032203748   0.03223504            3 
 1550000   0.96815838   -6.7295677      598.992  0.032203871  0.032227689            4 
 1551000    1.0002724    -6.697995    600.46257   0.03226212  0.032220422            6 
 1552000    1.0181831   -6.6959737    601.20511  0.032281202  0.032213108            4 
 1553000    1.0136756   -6.7070628    602.04539  0.032305505  0.032205893            3 
 1554000    1.0037502   -6.7121597    600.56247  0.032205195  0.032198549            5 
 1555000     1.024484   -6.6973557    602.06514  0.032265013  0.032191244            2 
 1556000    1.0237673   -6.6782863    601.18168  0.032196962  0.032183992            3 
 1557000    1.0288987   -6.7026876    600.36619  0.032132637  0.032176918            2 
 1558000    1.0235355   -6.7148189    602.29132  0.032214983  0.032169755            7 
 1559000   0.98091831   -6.6979377     602.7555  0.032219131  0.032162546            5 
 1560000   0.98561556   -6.7066592    602.83253  0.032202592  0.032155301            2 
 1561000   0.99035403   -6.7130198     603.5798  0.032221855   0.03214802            4 
 1562000   0.99680439   -6.7155407    601.16215  0.032072244  0.032140808            3 
 1563000    1.0072935    -6.741438    602.36939   0.03211609  0.032133527            6 
 1564000    1.0034778   -6.7063859    603.89824  0.032177016  0.032126204            9 
 1565000   0.98875289   -6.7048155    602.84488  0.032100367  0.032118826            4 
 1566000    1.0154452    -6.697979    604.30058  0.032157332  0.032111569            4 
 1567000    1.0034416   -6.6875329    605.01333  0.032174715  0.032104351            8 
 1568000    1.0041551    -6.710264    603.34278  0.032065411  0.032097142            3 
 1569000     1.009662   -6.7091206    605.10993  0.032138832  0.032089816            4 
 1570000    1.0067894   -6.6973937     606.6837  0.032201895  0.032082582            6 
 1571000    1.0011163   -6.7000871    606.36201  0.032164333  0.032075259            4 
 1572000   0.98664464   -6.7194679    604.71219  0.032056414  0.032067971            8 
 1573000   0.98127064   -6.7176574    604.49548  0.032024554  0.032060646            9 
 1574000     0.991666   -6.6998322    605.21847  0.032042485  0.032053226            4 
 1575000    1.0107887   -6.7203134    606.17549  0.032072777   0.03204577            4 
 1576000   0.98233294   -6.7142973    605.41924  0.032012439  0.032038253            2 
 1577000    1.0137505   -6.7174407    606.16414  0.032031502  0.032030736            4 
 1578000    1.0046988   -6.7403964    605.14201  0.031957225   0.03202327            2 
 1579000     1.008259   -6.7471746    607.02967  0.032036609  0.032015777            2 
 1580000    1.0246117   -6.7097592    607.16376  0.032023405  0.032008386            4 
 1581000    1.0025632   -6.7134994    607.89205  0.032041538  0.032001032            6 
 1582000   0.97001031   -6.6957625     607.6418  0.032008101  0.031993707            3 
 1583000   0.99934576   -6.7208152    608.12502   0.03201332  0.031986442            2 
 1584000    1.0098627   -6.7553469    606.30569  0.031897395  0.031979071            4 
 1585000    1.0051115   -6.7686531    608.69082  0.032002672  0.031971686            8 
 1586000   0.96780401   -6.7381696    608.98953  0.031998189  0.031964336            3 
 1587000    1.0007716    -6.736065     609.1935  0.031988737  0.031956998            7 
 1588000    1.0160259   -6.7065604    609.74396  0.031997479  0.031949726            5 
 1589000   0.99058983   -6.7176271    606.98601  0.031832705  0.031942234            2 
 1590000   0.98621032     -6.75078    609.18633  0.031928005  0.031934811            5 
 1591000    1.0181294   -6.7079575    610.18496  0.031960243  0.031927439            5 
 1592000    1.0194564   -6.6954068    612.73299  0.032073544  0.031920252            5 
 1593000    1.0012281   -6.7407663    609.88506  0.031904429  0.031913073            5 
 1594000    1.0002626   -6.7094703    609.07445  0.031842035  0.031905634            2 
 1595000    1.0110388   -6.6828973    611.26223  0.031936376  0.031898268            4 
 1596000   0.99968176   -6.6831569    611.54777  0.031931275  0.031890887            2 
 1597000   0.98968206   -6.6936499    610.31974    0.0318472  0.031883552            4 
 1598000    1.0032597   -6.7406578     609.8943  0.031805085   0.03187618            3 
 1599000    1.0259386   -6.7380952    610.46772  0.031815078  0.031868603            2 
 1600000   0.97952027   -6.6838111    613.56062  0.031956283  0.031861105            3 
 1601000   0.98841203   -6.6849796    612.30038  0.031870725  0.031853787            3 
 1602000    1.0276958   -6.7058424    612.82629  0.031878188  0.031846358            5 
 1603000    1.0033952   -6.7033718    613.32909   0.03188444  0.031838909           10 
 1604000   0.98394143   -6.7161385    612.02903  0.031797019  0.031831412            5 
 1605000    1.0075803   -6.7120645     611.8045   0.03176555  0.031823978            2 
 1606000   0.98678474   -6.6912208    613.65854  0.031841975  0.031816601            7 
 1607000    1.0194215   -6.7715312    613.48843  0.031813339  0.031809158            3 
 1608000   0.97684223   -6.7315181    612.21463  0.031727541  0.031801652            8 
 1609000   0.98306846    -6.723618    612.27124  0.031710754  0.031794113            4 
 1610000    1.0267206   -6.7587257    612.02077  0.031678094  0.031786551            4 
 1611000   0.96734356   -6.6951466    615.16631  0.031821142   0.03177897            5 
 1612000   0.98893972   -6.7617289    613.03277  0.031691107  0.031771567            3 
 1613000   0.97888957   -6.7561413    612.83694  0.031661342  0.031764112            6 
 1614000    1.0084996   -6.7188885    615.31857  0.031769856   0.03175663            5 
 1615000   0.98587631   -6.7081499    616.45239  0.031808689  0.031749392            2 
 1616000   0.97197527   -6.7181267    615.52131  0.031740992  0.031741983            9 
 1617000   0.98337232    -6.708706    617.80034  0.031838814  0.031734661            6 
 1618000     1.010813   -6.6981071    616.72142  0.031763567  0.031727419            6 
 1619000   0.99885103   -6.7287637    615.57411  0.031684894  0.031720086            3 
 1620000   0.98887253   -6.7152616    618.10776  0.031795667  0.031712816            6 
 1621000   0.98992158   -6.7391685    618.48214  0.031795298  0.031705584            4 
 1622000    1.0221836    -6.749322    617.42547  0.031721407  0.031698452            3 
 1623000   0.99512859   -6.7194476    618.92827  0.031779024  0.031691248            7 
 1624000   0.98580712   -6.7061296    620.39199  0.031834564  0.031683999            8 
 1625000    1.0004352   -6.7124254    619.28763   0.03175834  0.031676867            4 
 1626000   0.97950999   -6.6899634     620.2913  0.031790247  0.031669805            4 
 1627000   0.99639255   -6.7163042    617.67634  0.031636772  0.031662712            3 
 1628000    1.0132736   -6.7368963    619.35762    0.0317034  0.031655538            4 
 1629000   0.99561795   -6.7218582    618.27284  0.031628445  0.031648473            5 
 1630000    1.0026737   -6.7274177    620.98025  0.031747457  0.031641497            7 
 1631000   0.97444424   -6.7228283    622.10467  0.031785442  0.031634496            8 
 1632000   0.97408577    -6.754367    621.98066  0.031759634  0.031627521            5 
 1633000    0.9953288   -6.7292932    622.79577   0.03178178  0.031620524           12 
 1634000   0.98421126    -6.730751    620.57521  0.031649083  0.031613507            5 
 1635000   0.98419048   -6.7532559    620.95672   0.03164917  0.031606399            8 
 1636000   0.98291475   -6.7584068    622.65538   0.03171635  0.031599375           11 
 1637000   0.99795384   -6.7562758    624.06201  0.031768581  0.031592438            3 
 1638000    1.0005592   -6.7132262    624.36846  0.031764777  0.031585533            3 
 1639000    1.0168411   -6.7471116    623.34612  0.031693417  0.031578686            3 
 1640000   0.98537536   -6.7320678    623.95028  0.031704791  0.031571698            4 
 1641000   0.99524903   -6.7302364    624.82823  0.031730054  0.031564842            5 
 1642000    1.0029729   -6.7058916    626.26848  0.031783824  0.031558003            3 
 1643000   0.98550885   -6.7488734    624.87848  0.031693979  0.031551049            3 
 1644000   0.96952623    -6.736572    626.10462  0.031736852  0.031544123            3 
 1645000   0.99507662   -6.6940505    626.23731  0.031724281  0.031537148            6 
 1646000     1.006534   -6.7181978     626.7767  0.031732316  0.031530379            7 
 1647000    0.9643002    -6.733852    625.64986  0.031656034  0.031523542            5 
 1648000    1.0019314   -6.7086698    626.11344  0.031660267  0.031516673            3 
 1649000   0.97308473   -6.7377393    625.80058  0.031625257  0.031509858            4 
 1650000   0.98028189   -6.7527472    625.97668  0.031614984  0.031502985            3 
 1651000   0.96719192   -6.7939491    624.91027  0.031542009  0.031496073            4 
 1652000   0.98502513   -6.7598489    625.84897  0.031570267  0.031489112            3 
 1653000   0.97628614   -6.7723787    625.78056  0.031547719  0.031482052            2 
 1654000    0.9841183   -6.7811636     625.6155  0.031520329  0.031475008           14 
 1655000    1.0209779   -6.7704258    625.47086  0.031494001  0.031467863            5 
 1656000    0.9811489   -6.7618981    627.92731  0.031598597  0.031460878            3 
 1657000    0.9888741   -6.7500243    626.33539  0.031499467  0.031453883            2 
 1658000    0.9740809   -6.6966506    628.02287  0.031565283  0.031446918            5 
 1659000   0.98866207    -6.762181     625.5987  0.031424488  0.031439919            5 
 1660000    0.9709643   -6.7345555    628.04444  0.031528335  0.031432913            3 
 1661000   0.98185415   -6.7519121    629.56353  0.031585567  0.031425903            3 
 1662000   0.97120643   -6.7614793     628.5835  0.031517424  0.031418876            5 
 1663000   0.96075384   -6.7491678    628.63042  0.031500823  0.031411826            5 
 1664000   0.97899296   -6.7785245    627.87516  0.031444068  0.031404673            8 
 1665000   0.99597093   -6.7532138    627.95964  0.031429411  0.031397661            2 
 1666000   0.98611307    -6.742865      628.794  0.031452281  0.031390621            3 
 1667000   0.97199439   -6.7137353    629.42636  0.031465025  0.031383629            5 
 1668000   0.97640964   -6.7396709    630.89038  0.031519304  0.031376673            3 
 1669000   0.97369827   -6.7275246    632.72857    0.0315922  0.031369749            2 
 1670000   0.98383769   -6.7561385     630.1026  0.031442245  0.031362789            5 
 1671000   0.97902226   -6.7424595     630.7073  0.031453586  0.031355896            3 
 1672000   0.97866123   -6.7549834    630.55769  0.031427317  0.031348964            6 
 1673000   0.99826729   -6.7568761     630.5667  0.031408981  0.031342084            3 
 1674000    0.9767801   -6.7750292    632.93404  0.031508067  0.031335178            5 
 1675000   0.98151288   -6.7512116    631.44843  0.031415345  0.031328182            3 
 1676000   0.99186173   -6.7101124    632.44798    0.0314463  0.031321289            5 
 1677000     0.960656   -6.7767461    632.96774  0.031453376  0.031314424            4 
 1678000   0.95029795    -6.745781    631.77245  0.031375271  0.031307516            7 
 1679000   0.97959432   -6.7378018    633.82029  0.031458224  0.031300708            6 
 1680000   0.98771435   -6.7252813    634.83935  0.031490047  0.031294033            6 
 1681000   0.97447919   -6.7256844    633.68486  0.031414082  0.031287335            4 
 1682000   0.97278095   -6.7691924    632.15428  0.031319574  0.031280448            4 
 1683000   0.96706885   -6.7374407     636.0039  0.031491577  0.031273476            2 
 1684000    1.0034902   -6.7695696    634.58185  0.031402506  0.031266597            2 
 1685000   0.97470209   -6.7859832    633.28655  0.031319809  0.031259699            6 
 1686000   0.99460314   -6.7495865    636.60646  0.031465325  0.031252954            5 
 1687000    0.9927587    -6.732339    637.10157  0.031471131  0.031246196            2 
 1688000    0.9748233    -6.755538    636.42084   0.03141888  0.031239436            5 
 1689000   0.97310496   -6.7510184    636.94336  0.031426059   0.03123257            8 
 1690000   0.97567091   -6.7268895    635.55678  0.031339092  0.031225774            5 
 1691000   0.98229871   -6.7090994    638.07136  0.031444478  0.031219079            3 
 1692000   0.98758693   -6.7186621    637.90653  0.031417776  0.031212511            5 
 1693000    1.0002573   -6.7836956    636.21243  0.031315831  0.031205881            7 
 1694000   0.99541427   -6.7242746     636.8871  0.031330534  0.031199201            3 
 1695000   0.96844218   -6.7361335    638.93044  0.031412509  0.031192456            4 
 1696000   0.97957026   -6.7021823    639.80563  0.031436991  0.031185752            3 
 1697000   0.98542272   -6.7236331    640.14243  0.031435004  0.031179204            9 
 1698000   0.97497975   -6.7236043    639.43059  0.031381556  0.031172564            6 
 1699000    0.9661835    -6.759963    639.81044  0.031381716  0.031165849            4 
 1700000   0.98360915   -6.7594399    637.17556  0.031234096  0.031159039            3 
 1701000   0.98049691   -6.7360667    639.79387  0.031344007  0.031152345            3 
 1702000   0.99515728   -6.7522627    638.10539  0.031242919  0.031145512            5 
 1703000   0.97757718    -6.762509    637.36885  0.031188533  0.031138506            6 
 1704000   0.98852152   -6.7396983    640.01497  0.031299637  0.031131647            5 
 1705000   0.96178766   -6.7850775    637.63881  0.031165142  0.031124807            7 
 1706000   0.97903682   -6.7678217     639.8045  0.031252662   0.03111779            2 
 1707000   0.94948529   -6.7604677    640.08881  0.031248233  0.031110816            4 
 1708000    1.0032781   -6.7581612    638.59703  0.031157154  0.031103822            4 
 1709000   0.98957473   -6.7576476    641.41271  0.031276219  0.031096892            3 
 1710000   0.96347835    -6.796678     641.2264   0.03124885  0.031090024            3 
 1711000   0.98993713   -6.7754987    640.25744  0.031183394  0.031083029            6 
 1712000   0.96749106   -6.7561611    639.98748  0.031152038   0.03107607            5 
 1713000   0.98123378   -6.7569513    641.06109  0.031186082  0.031069074            5 
 1714000   0.98049288   -6.7459591    641.02675  0.031166217  0.031062133            4 
 1715000   0.99341146   -6.7444023    641.86208  0.031188633  0.031055168            4 
 1716000   0.98952369   -6.7371803    641.70963  0.031163055   0.03104824            6 
 1717000   0.98561524   -6.7379074    644.24927  0.031268165  0.031041403            5 
 1718000   0.98672488   -6.7180049    641.97857  0.031139822  0.031034549            2 
 1719000   0.96056179   -6.7795343    640.50014  0.031050036  0.031027592            4 
 1720000   0.97194363   -6.7631823    642.01045  0.031105157  0.031020609            5 
 1721000   0.97284828   -6.7422584    644.33018  0.031199408   0.03101376            5 
 1722000   0.98607341   -6.7819225    643.53235   0.03114268  0.031006792            6 
 1723000   0.99831862   -6.7238589      644.526  0.031172664  0.030999908            3 
 1724000   0.99525673   -6.7426005    644.59497  0.031157916  0.030993059            4 
 1725000   0.95514784   -6.7606119    643.16263  0.031070659    0.0309861            6 
 1726000   0.96656523   -6.7311541     643.3979  0.031064016  0.030979189            4 
 1727000   0.99050555   -6.7494965    643.23871  0.031038347  0.030972248            3 
 1728000    0.9824148    -6.760206    645.19068  0.031114519  0.030965359            7 
 1729000   0.97379992   -6.7361929    644.77257  0.031076372  0.030958478            6 
 1730000   0.97079658   -6.7495682    645.61619  0.031099046  0.030951567            3 
 1731000   0.97432745   -6.7629838    645.25794  0.031063833  0.030944662            4 
 1732000     0.988346   -6.7428553    645.81372  0.031072639  0.030937797            6 
 1733000   0.98771719   -6.7832878    646.00435  0.031063875  0.030930887            5 
 1734000   0.98553916   -6.7516415    645.50575  0.031021999   0.03092398            7 
 1735000   0.97995747   -6.7685351    646.28875  0.031041727  0.030917071            4 
 1736000   0.96962091   -6.7473866    645.91789  0.031006043  0.030910171            3 
 1737000    1.0013123   -6.7718418    645.90998  0.030987813  0.030903257            6 
 1738000   0.97787363   -6.7584149    648.60142  0.031099033  0.030896385            8 
 1739000   0.95046308   -6.7677076    646.41318  0.030976288  0.030889476            9 
 1740000   0.97265839   -6.7854127    647.44443  0.031007875  0.030882546            6 
 1741000   0.97565715   -6.7335199    649.25422  0.031076691  0.030875569            6 
 1742000    0.9618237   -6.7668153    647.12107  0.030956806  0.030868696            7 
 1743000   0.97422784   -6.7509414    647.41315  0.030953009  0.030861666            3 
 1744000    1.0030428   -6.7479459    649.45043  0.031032609  0.030854795            4 
 1745000   0.98766534   -6.7814434     649.9783  0.031040034  0.030847913            7 
 1746000    0.9793328   -6.7299051    652.30174  0.031133149  0.030841131            5 
 1747000   0.97837166   -6.7596545    648.29425  0.030924168  0.030834361            4 
 1748000   0.96965901   -6.7710837    647.13521  0.030851221  0.030827506            4 
 1749000   0.97645927   -6.7721904    649.18421  0.030931209  0.030820509            4 
 1750000   0.96295318   -6.7376828    651.50537  0.031024065  0.030813549            4 
 1751000   0.96897898   -6.7471582    650.10728   0.03093981  0.030806632            5 
 1752000   0.95882828   -6.7339599    650.60858  0.030945994   0.03079969            4 
 1753000   0.98718071   -6.7663576    650.45506  0.030921043  0.030792783            9 
 1754000   0.96710415   -6.8007259    649.00947  0.030834733   0.03078574            8 
 1755000   0.97958358   -6.7508068    651.39043   0.03093022  0.030778846            3 
 1756000   0.97900144   -6.7595947    650.71345  0.030880479   0.03077192           11 
 1757000   0.96274288   -6.7727491    652.82884  0.030963235  0.030765086            3 
 1758000    0.9766669   -6.7676169    651.17593   0.03086727  0.030758193            4 
 1759000   0.95569781   -6.8046337    649.96942  0.030792563  0.030751178            2 
 1760000   0.96125319   -6.7569779    652.41338  0.030890785  0.030744159            3 
 1761000   0.96430649   -6.7615276    651.52831   0.03083136  0.030737239            2 
 1762000    0.9577442   -6.7880207    651.79551    0.0308265  0.030730234            2 
 1763000   0.97269073   -6.7830991    652.18757  0.030827546  0.030723165            1 
 1764000   0.96985074   -6.7763357    652.50323  0.030824982  0.030716228            3 
 1765000   0.97289471   -6.7969883    652.75757  0.030819526  0.030709242            4 
 1766000   0.94077049   -6.7858629    650.26135  0.030684284  0.030702206            6 
 1767000   0.97517639   -6.7626199    653.87781  0.030837475  0.030695121            3 
 1768000   0.96085379   -6.7517765    655.29033   0.03088661  0.030688133            2 
 1769000   0.96425369   -6.7694526     653.9639  0.030806666  0.030681215           16 
 1770000   0.97368313   -6.7790219    653.52163  0.030768438  0.030674297            4 
 1771000   0.96356682   -6.8021937    654.34099  0.030789619  0.030667344            4 
 1772000   0.96428413   -6.7660205    653.93725  0.030753257  0.030660363            6 
 1773000   0.96320357   -6.7762157     653.6865  0.030724126  0.030653483            5 
 1774000   0.97451881   -6.7720435    653.68476  0.030706725  0.030646481            5 
 1775000    0.9743545   -6.7404066    656.35105  0.030814603  0.030639456            4 
 1776000   0.97012789   -6.7873548    654.33043  0.030702441   0.03063251            3 
 1777000   0.98336485   -6.7695732    655.00578  0.030716834  0.030625403            4 
 1778000   0.96688078   -6.7554676     654.2699  0.030665069  0.030618318            6 
 1779000   0.95011501   -6.7799365    657.05767  0.030778418  0.030611273            8 
 1780000   0.96534237   -6.8083182    655.61198  0.030693445  0.030604216            7 
 1781000   0.96228174   -6.7609723    654.00505  0.030601022   0.03059717            5 
 1782000   0.94891752   -6.7648935    656.82973  0.030715943  0.030590106            3 
 1783000   0.95888394   -6.7654301    655.78615  0.030649941  0.030582944            3 
 1784000   0.95886275   -6.7873237    657.90495  0.030731733   0.03057585            3 
 1785000   0.96321053   -6.7928046    656.60163  0.030653671  0.030568754            3 
 1786000   0.96070179   -6.7609333    655.62963  0.030591155  0.030561683            3 
 1787000   0.96211247   -6.8056197    654.53164  0.030522833  0.030554499           11 
 1788000   0.95684102   -6.8178818    653.32545  0.030449546  0.030547221            7 
 1789000   0.96530131   -6.7993524      656.251    0.0305688  0.030539995            4 
 1790000   0.95113629    -6.774871    656.69125  0.030572218  0.030532797            4 
 1791000    0.9788755   -6.7930102    658.77911  0.030652294  0.030525702            4 
 1792000   0.94322957    -6.776444    658.93271  0.030642332  0.030518627            3 
 1793000   0.93325743   -6.7810552    659.49001  0.030651144  0.030511579            6 
 1794000   0.96041454   -6.8185999    658.18978  0.030573661  0.030504475            2 
 1795000   0.95025001   -6.7794995    657.94862  0.030545433  0.030497429            6 
 1796000   0.96766315   -6.8104055    659.38053  0.030594865  0.030490389           17 
 1797000   0.97830533   -6.8075552    657.33135  0.030482812  0.030483378            6 
 1798000   0.96380258   -6.7895219    660.20557  0.030599071  0.030476356            3 
 1799000   0.92139952   -6.7808459    658.79288  0.030516624  0.030469246            5 
 1800000   0.97787204   -6.7873707    660.17707  0.030563753  0.030462132            3 
 1801000   0.99130251   -6.7884559    660.04262  0.030540562  0.030455192            2 
 1802000   0.95158691   -6.7672485    662.25517  0.030625933  0.030448225            3 
 1803000   0.96452789   -6.7907835    663.06861  0.030646543  0.030441386            4 
 1804000     0.964515     -6.76739    662.21272  0.030590018   0.03043445            7 
 1805000   0.94408773   -6.7886017    660.87038  0.030511098  0.030427512            3 
 1806000   0.97032891   -6.7911506    661.17975  0.030508479  0.030420498            4 
 1807000    0.9419061   -6.7544754    664.57233  0.030648051  0.030413553            4 
 1808000   0.96865684   -6.7653392    662.98605  0.030557985  0.030406599            4 
 1809000   0.97977519   -6.7610071    665.04547  0.030635962  0.030399686            5 
 1810000   0.95269518   -6.7781268    663.38556  0.030542613  0.030392799            3 
 1811000   0.95620127   -6.8192416    663.40819   0.03052679  0.030385843            6 
 1812000   0.96335176   -6.7522572    663.88561  0.030531899  0.030379013            3 
 1813000   0.96007618   -6.7940185    663.43438  0.030494318  0.030372187            8 
 1814000   0.96610917   -6.7678232    664.20558  0.030512935  0.030365317            4 
 1815000   0.96361869   -6.7892311    663.38306  0.030458359  0.030358367            6 
 1816000   0.96269559    -6.830968    663.32279  0.030438821   0.03035135            3 
 1817000   0.95035311   -6.8192566    663.13795  0.030413591  0.030344317            8 
 1818000   0.96657213   -6.7932997     662.8245  0.030382494  0.030337279            3 
 1819000   0.97532846   -6.8464953    664.09692  0.030424085  0.030330266            5 
 1820000   0.94393599   -6.7559476     665.1757  0.030456763  0.030323233            3 
 1821000   0.97547152   -6.7586013    664.67633  0.030417185  0.030316404            4 
 1822000   0.94389734   -6.8034073     665.6936  0.030447018   0.03030955           13 
 1823000   0.96994125   -6.7649483    665.08173  0.030402347  0.030302724            2 
 1824000   0.95416702   -6.7963624    665.92243  0.030424088  0.030295902            3 
 1825000   0.96826183   -6.7807758    667.29059   0.03046989  0.030289056            4 
 1826000   0.96679161   -6.7840578    667.36752  0.030456714  0.030282151            6 
 1827000   0.96931581   -6.7961485    665.88669    0.0303725   0.03027534            4 
 1828000   0.97465022   -6.7738401    666.09591  0.030365423  0.030268492            1 
 1829000   0.94777145   -6.7791965    666.88581   0.03038481  0.030261675            6 
 1830000   0.98472049    -6.776088    668.56284  0.030444574  0.030254835            5 
 1831000   0.96786854   -6.7671891    667.96893  0.030400916  0.030247997            3 
 1832000   0.96890628   -6.8008097    665.95993  0.030292937  0.030241036            4 
 1833000   0.94992223   -6.8076738    666.49079  0.030300545  0.030233958            4 
 1834000   0.94210921   -6.7985915    666.75566  0.030296059   0.03022691            2 
 1835000   0.97584749   -6.8063511    665.92885     0.030242  0.030219824            7 
 1836000   0.94458556   -6.7926806      667.389  0.030291803  0.030212718            3 
 1837000   0.97848403   -6.7633039    666.59108  0.030239116  0.030205616            5 
 1838000   0.94371564   -6.8398732    667.56207  0.030266688  0.030198515            6 
 1839000   0.93927881   -6.8158688    668.11174  0.030275138  0.030191474            3 
 1840000   0.96799314   -6.8073471    667.69371  0.030239751  0.030184459            8 
 1841000   0.94261957   -6.7908567    670.62916  0.030356199  0.030177519            7 
 1842000   0.96331272     -6.75053    671.27694  0.030369026  0.030170709            2 
 1843000   0.98607972   -6.8072895    668.99804  0.030249505  0.030163824            3 
 1844000   0.95524661   -6.7878564    670.38211  0.030295648  0.030156939            2 
 1845000   0.98369684   -6.8013769     670.5011  0.030284602  0.030150023            4 
 1846000   0.94468918   -6.7955092    670.38548  0.030262978  0.030143095            6 
 1847000   0.93777095   -6.7793896    671.83652  0.030312061  0.030136186            4 
 1848000   0.97204094   -6.7756619    671.42686  0.030277185  0.030129367            2 
 1849000    0.9524934   -6.8192268    670.29335  0.030209724  0.030122556            5 
 1850000   0.94695753   -6.7562585    670.76784  0.030214768  0.030115616            5 
 1851000   0.95596074   -6.8245526     670.8816  0.030203566  0.030108746            4 
 1852000   0.93676131    -6.802358    672.20316  0.030246723   0.03010189            6 
 1853000    0.9757776    -6.780324    672.86838  0.030260316  0.030095038            5 
 1854000   0.95169092   -6.7747794    671.46446  0.030180891  0.030088145            4 
 1855000   0.94715283   -6.7979034    671.79384  0.030179418  0.030081223            6 
 1856000   0.96285092    -6.787021    671.92102  0.030168868  0.030074385            4 
 1857000    0.9437561   -6.8022315    674.09304  0.030250091  0.030067578            9 
 1858000   0.97248862   -6.8116178    673.95849  0.030227776  0.030060744            5 
 1859000   0.94714322   -6.7919234    675.70464   0.03028979  0.030053989            4 
 1860000   0.95719762   -6.8023867    673.00687  0.030152638   0.03004725            9 
 1861000   0.94988929   -6.7832583    673.64524   0.03016502  0.030040431            5 
 1862000   0.95255642   -6.8126756    674.89316  0.030204671  0.030033626            6 
 1863000   0.95699111   -6.8066146    675.45302  0.030213501  0.030026774            5 
 1864000   0.95873015   -6.7908481    675.23826  0.030187691  0.030020012            3 
 1865000   0.95020913   -6.7773966    674.65684  0.030145525  0.030013226            5 
 1866000   0.96877935   -6.8058623     674.7988  0.030135709  0.030006496            4 
 1867000   0.92490514   -6.7980109    675.80515  0.030164486   0.02999974            6 
 1868000   0.95668352   -6.7813175    675.12471  0.030117983  0.029992925            7 
 1869000   0.93332942   -6.8277834    675.60068  0.030123091  0.029986155            4 
 1870000    0.9699506   -6.8227212    676.62077  0.030152441  0.029979377            5 
 1871000   0.94311882   -6.7836059    676.76703  0.030142839  0.029972595            5 
 1872000    0.9395631   -6.7970453    676.45714  0.030112942  0.029965984            4 
 1873000   0.94443936   -6.8072593    678.86944  0.030204193  0.029959371            6 
 1874000   0.94349924   -6.8180925    677.84598  0.030142564  0.029952683            3 
 1875000   0.96272692   -6.8112568     677.8282  0.030125698  0.029946008            7 
 1876000   0.93442758   -6.7811542    679.41067  0.030179934  0.029939325            4 
 1877000   0.95770166    -6.818735    677.71295  0.030088481  0.029932653            4 
 1878000   0.95373051   -6.8191383    680.69646  0.030204848  0.029925936            4 
 1879000   0.93827924   -6.8070293    679.24216  0.030124276  0.029919282            3 
 1880000   0.95699808    -6.843644    678.16429  0.030060474  0.029912571            5 
 1881000   0.93867015   -6.7993184    678.41855  0.030055757  0.029905913            9 
 1882000   0.94979929   -6.8030023    677.64732  0.030005638  0.029899307            4 
 1883000   0.96519885   -6.8101995    680.57314  0.030119186  0.029892705            9 
 1884000   0.94640891   -6.7633303    681.29537  0.030135146  0.029886089            5 
 1885000   0.93768253   -6.8205727    678.37033  0.029989847  0.029879368            4 
 1886000   0.93944474   -6.7980209    682.14194  0.030140595  0.029872798            5 
 1887000   0.96864789   -6.8439281    680.91815  0.030070577  0.029866149            3 
 1888000   0.93638052   -6.7875156    683.00002   0.03014654  0.029859584            4 
 1889000   0.95046679   -6.8270638    681.94376  0.030083985  0.029853014            5 
 1890000   0.95688365   -6.7788665    681.81362  0.030062329  0.029846381            7 
 1891000   0.96291757   -6.8135301    683.00174   0.03009879  0.029839731            4 
 1892000   0.94658426   -6.8164364    682.52289  0.030061791  0.029833098            4 
 1893000   0.95549011   -6.7838039    684.83817  0.030147833  0.029826484            4 
 1894000    0.9498287   -6.7982288    681.35726   0.02997876  0.029819776            3 
 1895000   0.95598431   -6.8331699    682.36949  0.030007453  0.029813021            8 
 1896000    0.9490031   -6.8178305    680.43507  0.029906605  0.029806243            5 
 1897000   0.92440533   -6.8119683    681.68729  0.029945848  0.029799554            6 
 1898000   0.95366359   -6.8186557    681.25403  0.029911048  0.029792775            4 
 1899000   0.93477599   -6.8054589    682.99275  0.029971597  0.029786087            5 
 1900000    0.9291741   -6.8176897    682.65921  0.029941193  0.029779401            3 
 1901000   0.92497312   -6.8056072    683.80373  0.029975615  0.029772737            4 
 1902000   0.93865524   -6.8329346    683.35291  0.029940103  0.029765992            7 
 1903000   0.92400072   -6.7918287    686.34263  0.030055291   0.02975933            4 
 1904000    0.9373359   -6.8098064    684.39744   0.02995437  0.029752702            8 
 1905000   0.94625264    -6.833043    686.88451  0.030047441  0.029746001            8 
 1906000   0.95713701   -6.7547764    685.33604  0.029963975  0.029739368            3 
 1907000   0.95186786   -6.8237761     686.3061  0.029990653  0.029732771            6 
 1908000   0.95322038   -6.8246327    684.14453  0.029880526  0.029726061            2 
 1909000   0.93704091   -6.8050992    684.38752  0.029875481  0.029719352            3 
 1910000   0.95761147   -6.8199033    685.76897  0.029920112  0.029712647            6 
 1911000   0.94359759   -6.7973905    685.80519  0.029906035  0.029705931            3 
 1912000    0.9533293   -6.8052316    686.09507  0.029903028   0.02969918            5 
 1913000   0.95101859   -6.8081794    684.09183  0.029800132  0.029692374            6 
 1914000   0.93798003   -6.8581785    684.65541    0.0298091  0.029685468            2 
 1915000   0.95745177   -6.8450752    686.66733  0.029881085  0.029678564            6 
 1916000   0.95827525    -6.824747    685.12752  0.029798518  0.029671749            3 
 1917000   0.94505582   -6.8409453    686.72912  0.029852596  0.029664988            4 
 1918000   0.96973726   -6.8185788    687.23808  0.029859145  0.029658157            6 
 1919000   0.92679172    -6.819775    687.98019  0.029875812  0.029651399            3 
 1920000    0.9363125   -6.8010518    687.59344  0.029843465  0.029644711            9 
 1921000     0.962069   -6.8168893    688.07641  0.029848881  0.029638088            9 
 1922000   0.94741484   -6.8054936    689.34098   0.02988818  0.029631467            5 
 1923000   0.91447709    -6.849239    687.93615  0.029811759  0.029624862            2 
 1924000   0.93213484   -6.8178783    689.58571  0.029867711  0.029618269            3 
 1925000    0.9315751   -6.8302344    688.53465  0.029806695   0.02961159            4 
 1926000   0.94103949    -6.830742    689.29583  0.029824153  0.029604982            4 
 1927000   0.92438498   -6.8306592     688.6424  0.029780418  0.029598288            8 
 1928000   0.94289696   -6.8156466     689.9171  0.029820068  0.029591674            7 
 1929000   0.94569564   -6.8656743    689.37571  0.029781221  0.029585141            7 
 1930000   0.94751632   -6.8080881    689.50865  0.029771531  0.029578441            3 
 1931000   0.93120542   -6.8003142    691.94268  0.029861155  0.029571847            5 
 1932000   0.95683919   -6.8444978    690.85484  0.029798777    0.0295653            5 
 1933000   0.95181043   -6.8237605    689.82116  0.029738798  0.029558735            5 
 1934000   0.93764058   -6.8536709    690.70562  0.029761531  0.029552196            5 
 1935000   0.93348108   -6.8436952    690.58856  0.029741109  0.029545611           10 
 1936000   0.93610508    -6.834225    689.69299  0.029687198   0.02953902            4 
 1937000   0.94307797   -6.8185444     692.5707  0.029795676  0.029532425            6 
 1938000   0.93992125   -6.8673453     691.1026  0.029717174  0.029525789            7 
 1939000   0.93726856   -6.8032581    690.84671  0.029690851  0.029519252            4 
 1940000   0.93141814   -6.8009506    694.93417  0.029851124  0.029512771            7 
 1941000   0.93068646   -6.8103729     693.5905  0.029778057   0.02950637            5 
 1942000   0.93974326   -6.8459991    691.98598  0.029693871  0.029499871            4 
 1943000   0.92632967   -6.8096115    693.33538  0.029736463  0.029493278            2 
 1944000   0.93424175   -6.8186893    695.31111  0.029805861   0.02948671            4 
 1945000   0.95347104   -6.8293005    693.52238  0.029713898  0.029480175            7 
 1946000   0.92279108   -6.8238572    693.10792   0.02968088  0.029473628           11 
 1947000   0.92233539   -6.8637124    695.65078  0.029774473  0.029467109            6 
 1948000   0.93670081   -6.8277299    693.67533   0.02967468  0.029460571            3 
 1949000   0.93738588   -6.8601419    694.08388  0.029676923  0.029454086           12 
 1950000   0.94572621    -6.828539     696.0681    0.0297465  0.029447574            3 
 1951000   0.92492194   -6.8361057    695.59543  0.029711064  0.029441092            3 
 1952000   0.95528131     -6.83728    692.96515  0.029583553  0.029434568            5 
 1953000   0.94780311   -6.8382675    693.34208  0.029584489  0.029428004            8 
 1954000   0.93857083   -6.8316265    693.32305  0.029568537  0.029421344            8 
 1955000   0.93816615   -6.8574711    693.89823   0.02957793  0.029414706            3 
 1956000   0.93643941   -6.8351968    693.89303  0.029562587  0.029408177            8 
 1957000   0.94020807   -6.8362575    696.36886  0.029652907  0.029401606            8 
 1958000   0.94147575   -6.8085581    696.01565  0.029622729  0.029395088            4 
 1959000   0.92569268   -6.8400643    697.27671  0.029661252  0.029388587            4 
 1960000   0.94827144   -6.8473864    695.89376   0.02958732  0.029382067            5 
 1961000   0.93456868   -6.8635818    696.98379  0.029618553   0.02937556            2 
 1962000   0.93629302   -6.8550944    695.74847  0.029550988  0.029369016            3 
 1963000   0.94863076   -6.8476478     694.8952  0.029499711  0.029362414            8 
 1964000   0.93373137   -6.8464419    697.48095  0.029594406  0.029355814            7 
 1965000   0.93300799   -6.8672848    697.17961  0.029566565  0.029349218            3 
 1966000   0.93801097   -6.8690705    695.63919  0.029486232  0.029342637            7 
 1967000   0.93137769   -6.8415335    697.66294  0.029556979  0.029336015            8 
 1968000   0.96773518   -6.8586247    696.33404   0.02948569   0.02932937            6 
 1969000   0.93890854   -6.8417916    697.95764  0.029539429  0.029322751            4 
 1970000   0.92756233   -6.8390145    698.02957  0.029527478   0.02931623            4 
 1971000   0.94442526   -6.8278946    697.96009  0.029509559  0.029309719           11 
 1972000   0.93400713   -6.8297058    697.05868  0.029456503  0.029303134            4 
 1973000   0.92104915    -6.831782    698.76426  0.029513611  0.029296543            6 
 1974000   0.93911143   -6.8295006    700.88196   0.02958806  0.029289978            3 
 1975000   0.94271407   -6.8511906    698.56305  0.029475234  0.029283445            8 
 1976000   0.93773411    -6.830761    700.02824  0.029522109  0.029276947            7 
 1977000   0.89810177   -6.8513707    699.80585  0.029497802  0.029270466           11 
 1978000   0.94016329   -6.8371304    699.33226  0.029462937  0.029263888            7 
 1979000   0.93977107   -6.8546255     699.3163  0.029447377  0.029257206            2 
 1980000   0.92249822   -6.8572927    698.77021   0.02940952  0.029250566            3 
 1981000   0.91253793   -6.8329379    699.66638  0.029432373  0.029243952            4 
 1982000   0.93370447   -6.8273232    700.38713  0.029447828  0.029237226            2 
 1983000   0.93067682   -6.8546958    700.71176   0.02944662  0.029230583            9 
 1984000    0.9318242   -6.8322478    701.36065  0.029459033  0.029223992            3 
 1985000   0.90858565   -6.8508083    700.45541  0.029406189  0.029217318            7 
 1986000   0.92483548   -6.8440152    702.27465  0.029467718  0.029210713            4 
 1987000   0.93189345   -6.8601135    700.50591  0.029378708  0.029204093            4 
 1988000   0.93819851   -6.8514371    702.46569   0.02944608  0.029197443            3 
 1989000    0.9151635   -6.8711603    699.97131  0.029326768  0.029190664            9 
 1990000   0.93560977   -6.8424579    699.91086    0.0293095  0.029183946            3 
 1991000   0.93682351   -6.8175575    702.44741  0.029400946  0.029177317            7 
 1992000   0.92198565   -6.8751403    700.90443  0.029321638  0.029170621            3 
 1993000   0.91803528   -6.8384238    702.59443  0.029377589  0.029163836            5 
 1994000   0.95107834    -6.818981    703.02759  0.029380959  0.029157122            5 
 1995000    0.9202383   -6.8336436    703.51018   0.02938639  0.029150473            5 
 1996000   0.93534235   -6.8574875    702.18529  0.029316353   0.02914374            5 
 1997000   0.91163573   -6.8718498    701.48409  0.029272413   0.02913698            9 
 1998000   0.92911595   -6.8622982    701.00016  0.029237577  0.029130135            5 
 1999000   0.95090415   -6.8172876    703.83031  0.029340933   0.02912338            4 
 2000000   0.93488167   -6.8550414    699.58677  0.029149449  0.029116584            6 
 2001000   0.93012307   -6.9020433    702.55333  0.029258426  0.029109795            7 
 2002000   0.93144296   -6.8485258    703.81047   0.02929614  0.029103119            7 
 2003000   0.96099118   -6.8544866    702.41035  0.029223263  0.029096329            5 
 2004000    0.9141133   -6.8631859    702.29466   0.02920387  0.029089565            3 
 2005000   0.94242698   -6.8503846    704.43083  0.029278089  0.029082767            2 
 2006000   0.93255083   -6.8606535    705.00776  0.029287461   0.02907602            6 
 2007000     0.943941   -6.8355156    704.54711  0.029253741  0.029069275            3 
 2008000   0.95627364   -6.8570967    702.79325  0.029166386  0.029062495            4 
 2009000   0.91714462   -6.8514367    704.19447  0.029209991  0.029055711            3 
 2010000   0.94786887    -6.830205    703.58223  0.029170076  0.029048933            5 
 2011000   0.92623967   -6.8478675    706.53732  0.029278026  0.029042145            3 
 2012000    0.9285595   -6.8558686    703.66976  0.029144705  0.029035312            9 
 2013000   0.94495741   -6.8481456    705.50268  0.029206105    0.0290285           13 
 2014000   0.92679683   -6.8821072    703.02798  0.029089208  0.029021648            6 
 2015000   0.91996257   -6.8764447    704.83661   0.02914957  0.029014811            5 
 2016000   0.93450567   -6.8623056    705.41236  0.029158911  0.029008078            3 
 2017000    0.9360073   -6.8821324    704.80317  0.029119285  0.029001358            5 
 2018000   0.93336677   -6.8372465    704.14869  0.029077828  0.028994555            4 
 2019000   0.92254559     -6.86321    705.78272   0.02913087  0.028987776            8 
 2020000   0.92395486   -6.8359925    704.38427  0.029058757  0.028981003            5 
 2021000    0.9068828   -6.8974745    705.55199  0.029092528  0.028974176            6 
 2022000   0.92544446   -6.8535225    707.73076  0.029167934  0.028967474            4 
 2023000   0.94598605    -6.838441    707.68967  0.029151824  0.028960782            3 
 2024000   0.95047692   -6.8375509    710.09592  0.029236492  0.028954116            2 
 2025000   0.92907827   -6.8504099     707.4537  0.029113321  0.028947408            2 
 2026000    0.9421283   -6.8597755    707.98496  0.029120803  0.028940707           15 
 2027000   0.89991594   -6.8591413    708.23532  0.029116729   0.02893397           11 
 2028000   0.92976487   -6.8411404     709.9481  0.029172752  0.028927281            4 
 2029000   0.92860082   -6.8350112     708.4589  0.029097211  0.028920612            6 
 2030000   0.93935113   -6.8437803       708.72  0.029093596  0.028913911            4 
 2031000   0.92251846   -6.8529979    708.94388  0.029088457  0.028907158            8 
 2032000   0.91458896   -6.8426682    708.99337  0.029076172  0.028900512            3 
 2033000   0.91913965   -6.8625003    709.23526  0.029071785  0.028893803            7 
 2034000    0.9062225   -6.8724749    709.82883   0.02908181  0.028887137            4 
 2035000   0.93512989   -6.8705628    710.22468   0.02908373  0.028880534            6 
 2036000   0.92006803   -6.8471148    712.58911  0.029166221  0.028873941            3 
 2037000   0.93541722   -6.8374879    712.30862  0.029140428   0.02886734            3 
 2038000   0.91407498   -6.8911352    711.54657  0.029094969   0.02886066            4 
 2039000   0.91754183   -6.8859908     707.7753  0.028926569  0.028853892            5 
 2040000   0.92880201   -6.8757925    709.74358  0.028992793  0.028847114            6 
 2041000   0.91930195   -6.8475017    710.19941  0.028997199  0.028840372            3 
 2042000   0.95381229   -6.8703276    709.21209  0.028942707  0.028833577            4 
 2043000   0.92393237   -6.8808122    709.66076  0.028946841  0.028826836           11 
 2044000   0.91146689   -6.8858735     709.2524  0.028916031  0.028819999            4 
 2045000   0.94081923   -6.8931872    711.54125  0.028995161  0.028813175            6 
 2046000   0.93514526   -6.8372553    711.54665  0.028981209  0.028806283            4 
 2047000   0.90153463   -6.8822739    711.44776  0.028963026   0.02879938            4 
 2048000   0.91780588   -6.8703428    710.53542   0.02891176  0.028792535            5 
 2049000   0.91794634   -6.8618418    709.19838  0.028843272  0.028785655            4 
 2050000   0.94294148   -6.8574185      709.931  0.028858984  0.028778778            2 
 2051000   0.93509119   -6.8697355     711.0014  0.028888404  0.028771926            6 
 2052000   0.91605554   -6.8661894    711.91515  0.028911434  0.028765161            5 
 2053000   0.94363549   -6.8621611    709.39183  0.028794927  0.028758339            3 
 2054000   0.92110396   -6.8799926    713.42775  0.028944651  0.028751516           13 
 2055000   0.92239642   -6.8909189    711.04907  0.028834107  0.028744601            7 
 2056000   0.92831802     -6.88645    711.64864  0.028844384  0.028737709            4 
 2057000   0.92973227   -6.8657771    711.73946  0.028834041  0.028730864            9 
 2058000   0.90596339   -6.8787834    711.62208  0.028815277  0.028724013            5 
 2059000   0.92144907   -6.8662672    712.01826  0.028817317  0.028717219            2 
 2060000   0.92220122   -6.8602588    714.14769   0.02888947  0.028710303            8 
 2061000   0.91014087   -6.8485738    711.76198   0.02877899  0.028703401            3 
 2062000   0.92436334   -6.8555867    713.44895   0.02883321  0.028696626            8 
 2063000   0.90609816   -6.8230394    713.54346  0.028823052  0.028689792            4 
 2064000   0.89731022   -6.8485945    713.32558   0.02880029  0.028682953            7 
 2065000   0.92196475   -6.8573498    715.24834  0.028863936  0.028676092            4 
 2066000   0.92790594   -6.8311316    714.07962  0.028802824  0.028669341            5 
 2067000    0.9005804   -6.8569686    715.28911  0.028837651  0.028662584            4 
 2068000   0.93255373   -6.8752467    713.64657  0.028757518   0.02865581            5 
 2069000   0.90961807   -6.8840812     715.6187   0.02882305  0.028649051            6 
 2070000    0.9186956   -6.8807171    716.95752  0.028863024  0.028642405            4 
 2071000   0.91095014   -6.8952188    715.46173  0.028788899  0.028635645            8 
 2072000   0.91428068   -6.8885497    715.56259  0.028779062  0.028628966            4 
 2073000   0.91913735   -6.8964657    715.47121  0.028761505  0.028622331            5 
 2074000    0.9235457   -6.8288943    716.74207  0.028798701  0.028615718            5 
 2075000   0.90794619   -6.8576342    718.32922  0.028848563    0.0286092            7 
 2076000   0.92660586   -6.8668147    716.79931  0.028773254  0.028602569            7 
 2077000   0.93522394   -6.8752687    717.75008  0.028797548   0.02859597            3 
 2078000    0.9222999   -6.8833321    717.73716  0.028783171  0.028589386            4 
 2079000   0.92243031   -6.8994099    718.34853  0.028793832  0.028582836            4 
 2080000   0.91110249   -6.8230592    720.00993  0.028846552  0.028576166            5 
 2081000   0.90939031   -6.9033712    716.39494  0.028687928  0.028569643           12 
 2082000   0.93592399   -6.8266265     716.8946  0.028694148  0.028563045            6 
 2083000   0.93592836   -6.9047655     719.8672  0.028799296  0.028556407            2 
 2084000   0.92893801   -6.8756833    719.84335  0.028784523  0.028549736            6 
 2085000   0.91881303   -6.8335665     719.3188  0.028749752  0.028543218            3 
 2086000   0.92232223   -6.8676844    720.53914  0.028784721  0.028536619           10 
 2087000   0.90644503   -6.8465232    720.07479  0.028752387  0.028529978            3 
 2088000   0.92441041   -6.8836246    721.87606  0.028810507  0.028523268           11 
 2089000   0.92786452   -6.8892843    719.81592  0.028714533  0.028516587            4 
 2090000   0.94609077   -6.8901765    718.87176  0.028663148  0.028509953            4 
 2091000   0.91334689   -6.8642478    720.21308  0.028702897  0.028503336            4 
 2092000   0.91692256   -6.8293268     721.0125  0.028721021  0.028496802            7 
 2093000   0.91786285   -6.8772701    721.01769  0.028707505  0.028490203            4 
 2094000   0.91543344   -6.8554468    719.64409  0.028639131   0.02848358            4 
 2095000   0.90964514   -6.8641036    721.67822  0.028706373  0.028476929            5 
 2096000   0.91943737   -6.8769302    719.70694  0.028614302  0.028470304           15 
 2097000   0.91582495   -6.8689237    720.71101  0.028640559  0.028463598            7 
 2098000   0.92900161   -6.8910098    721.13548  0.028643767  0.028456854            4 
 2099000   0.92774943   -6.8830488    721.45859  0.028642949  0.028450174           10 
 2100000   0.92033718   -6.8850817    722.26036  0.028661125  0.028443515            4 
 2101000   0.90946195   -6.8717325    723.50399  0.028696811  0.028436926            3 
 2102000   0.93650802   -6.8486733    720.96197  0.028582381  0.028430303            4 
 2103000   0.91619521   -6.8934912    720.82047  0.028563182  0.028423579            4 
 2104000   0.90892626   -6.8514326    724.05494  0.028677715  0.028416968            5 
 2105000   0.91835555   -6.8645353    722.91514  0.028618968   0.02841036            3 
 2106000   0.92265435   -6.8421049    723.83731  0.028641869  0.028403831            6 
 2107000    0.9010176   -6.8672328    723.43847  0.028612501  0.028397357            7 
 2108000   0.90209448    -6.864402    722.51183  0.028562296   0.02839078            4 
 2109000   0.89315566   -6.8563863    723.30046  0.028579914  0.028384211            5 
 2110000   0.91362187   -6.8863549    723.62272  0.028579096  0.028377607            6 
 2111000   0.90128401   -6.8918951    722.63592  0.028526604  0.028370978            3 
 2112000   0.93134501   -6.8672831    724.80262  0.028598588  0.028364325            3 
 2113000   0.91797323   -6.8887821    724.52146  0.028573965  0.028357692            3 
 2114000   0.93261654   -6.8757816     727.4287  0.028675051  0.028351068            3 
 2115000   0.91881209   -6.8641268    725.05482   0.02856796  0.028344462            6 
 2116000   0.90153327   -6.9205873     725.9524  0.028589808  0.028337869            3 
 2117000   0.92937421   -6.8850382    724.88439  0.028534262   0.02833127            5 
 2118000   0.92597332   -6.8830194    726.68716   0.02859172  0.028324688            3 
 2119000   0.91950356   -6.8687789    726.70778  0.028579038  0.028318098            6 
 2120000   0.91793205    -6.889583    724.80948  0.028490939  0.028311479            5 
 2121000   0.93140997   -6.8665013     725.7814  0.028515692  0.028304839            4 
 2122000   0.92037627   -6.8784673    726.28028  0.028521846  0.028298243            2 
 2123000   0.92595025   -6.8815211    724.79506  0.028450112  0.028291584            7 
 2124000   0.90968972   -6.8769957    727.47017  0.028541673  0.028285025            4 
 2125000   0.89794153    -6.871497    726.09027  0.028474128   0.02827843            3 
 2126000   0.93258312   -6.9097163    725.97522  0.028456225  0.028271734            4 
 2127000   0.90961266   -6.8583678    725.35919  0.028418711  0.028265126            2 
 2128000   0.89894618   -6.8772835    725.69808  0.028418628  0.028258495            6 
 2129000   0.92042279    -6.895692    725.78548  0.028408701   0.02825181            3 
 2130000   0.91420487   -6.8993386     726.5543  0.028425442  0.028245101            7 
 2131000   0.90469213    -6.899378    728.06953  0.028471357  0.028238392            3 
 2132000   0.90706899   -6.8835784    728.63106  0.028479951  0.028231801            2 
 2133000   0.90825559   -6.8773379    727.91038  0.028438443  0.028225223           18 
 2134000   0.91377498   -6.8919294    727.09378  0.028393228  0.028218539            4 
 2135000   0.89358184   -6.9109796    727.48292  0.028395118   0.02821178            3 
 2136000   0.89121407   -6.9046369    727.14854  0.028368779  0.028205092            4 
 2137000   0.90925739   -6.8835937    727.07918  0.028352799  0.028198454            9 
 2138000   0.91301572   -6.9081368    727.40745  0.028352333  0.028191855            6 
 2139000   0.92085716   -6.8974085    731.11285  0.028483436  0.028185238           11 
 2140000   0.90309397   -6.8933224    729.38518   0.02840285  0.028178628            4 
 2141000   0.90396225   -6.8906627    728.56943  0.028357832  0.028172127            3 
 2142000   0.92285565   -6.8415687     730.5981  0.028423518  0.028165666            4 
 2143000    0.9121833   -6.8982778     729.6585  0.028373717  0.028159171            5 
 2144000    0.9262638   -6.8625503    732.89908  0.028486438  0.028152673            3 
 2145000   0.90227631   -6.8659745    730.79156   0.02839128  0.028146224            3 
 2146000   0.91606996   -6.8662589    731.92075  0.028421899  0.028139692            2 
 2147000   0.92179248    -6.892147    728.95525  0.028293559  0.028133092            4 
 2148000   0.90080706   -6.9046431    728.09268  0.028246923  0.028126511            7 
 2149000   0.92387333   -6.8644153    732.46933  0.028403495  0.028120069            7 
 2150000   0.90383734   -6.9247384    732.27241  0.028382651  0.028113631            6 
 2151000   0.92194095   -6.9148828    731.49311  0.028339265  0.028107032            4 
 2152000   0.92037626   -6.9368076    731.78699  0.028337476  0.028100509            6 
 2153000   0.88506708   -6.8913211    731.00161  0.028293916  0.028093932            7 
 2154000   0.90030974   -6.9214378    733.16615  0.028364521  0.028087404            7 
 2155000      0.89937   -6.8999513    732.11851  0.028310847  0.028080942            3 
 2156000   0.91638811   -6.8834438    733.28334  0.028342739  0.028074521            5 
 2157000   0.92682688   -6.8790425    733.99181   0.02835697  0.028067989            6 
 2158000   0.92781401   -6.8999476    734.16252  0.028350422  0.028061542            6 
 2159000    0.9044977   -6.9175761    733.22605  0.028301145  0.028055104            2 
 2160000   0.91093909   -6.9082365    733.80936  0.028310546  0.028048679            5 
 2161000   0.92825476   -6.8802887    732.75797  0.028256902  0.028042265            7 
 2162000   0.89187031   -6.9057013     731.2196  0.028184536  0.028035758            5 
 2163000   0.91987055   -6.8548376    734.35317  0.028292232  0.028029297            4 
 2164000   0.90759477   -6.8839464    733.68639  0.028253481  0.028022774            2 
 2165000   0.88605821    -6.888523    734.55246  0.028273767  0.028016273            5 
 2166000   0.91025933   -6.8999577    735.90236  0.028312649  0.028009864            8 
 2167000   0.90228538   -6.8911622    734.41721  0.028242471  0.028003399            3 
 2168000   0.92083882   -6.9377658    734.15297  0.028219287  0.027996957            6 
 2169000   0.90316198    -6.922272     734.2606  0.028210412  0.027990434            8 
 2170000   0.91089586   -6.9122907    733.38885  0.028163934  0.027983945            8 
 2171000   0.91215445   -6.9109175    735.68565  0.028239124  0.027977459            3 
 2172000   0.89348389   -6.9407899    734.39383  0.028176559  0.027970887            6 
 2173000    0.9204208   -6.9071052    734.57664  0.028170603  0.027964314            7 
 2174000   0.89493938   -6.9122408    734.63917  0.028160042  0.027957742           12 
 2175000   0.89233942    -6.922435    734.75033  0.028151354  0.027951281            4 
 2176000   0.88890067   -6.8836607     737.0063  0.028224813  0.027944837            4 
 2177000   0.90765107   -6.9186774    737.57268  0.028233528   0.02793837            3 
 2178000   0.91900424   -6.8981445    735.54778  0.028143089  0.027931888            2 
 2179000   0.89781563   -6.9155934    734.76102  0.028100085  0.027925412            9 
 2180000   0.92123786   -6.8842181     736.8837  0.028168337  0.027918978            8 
 2181000   0.89423918   -6.9136903    736.99068   0.02815951  0.027912448            3 
 2182000   0.91365779   -6.9112372    735.78145  0.028100422  0.027905854            8 
 2183000   0.88669364   -6.8912529    737.94098  0.028169987  0.027899305           11 
 2184000   0.88313604   -6.8760918    737.18672  0.028128309  0.027892842            7 
 2185000    0.8864478   -6.9549734    737.56576  0.028129892   0.02788635            5 
 2186000   0.91190635   -6.9220866    738.10947   0.02813775  0.027879819            7 
 2187000   0.91277086   -6.9160598    737.68782  0.028108818  0.027873359            4 
 2188000   0.91332243     -6.93789    739.91483   0.02818079  0.027866851           10 
 2189000   0.89854161   -6.8967737    738.15533  0.028100934  0.027860416            5 
 2190000   0.90328927   -6.8841713    740.53338  0.028178591  0.027854002            5 
 2191000   0.89677696   -6.9154101    738.34947  0.028082667  0.027847606            4 
 2192000    0.8898585    -6.901863    739.26244  0.028104563  0.027841157            2 
 2193000    0.9099334   -6.9146101    738.95925  0.028080227  0.027834738            6 
 2194000   0.90997195   -6.9484583    740.46882  0.028124765  0.027828271            5 
 2195000   0.90387019   -6.9350685    738.19784  0.028025734  0.027821675            6 
 2196000   0.90695908   -6.8906929    739.62664  0.028067192  0.027815127            8 
 2197000   0.89669668   -6.9298954    740.21725  0.028076819  0.027808682            7 
 2198000   0.89552743    -6.932153    740.92634  0.028090929  0.027802222            5 
 2199000   0.90734899   -6.9125776      738.654  0.027992042  0.027795719            9 
 2200000   0.91406552   -6.8981592    741.12906   0.02807307  0.027789268            9 
 2201000    0.9230482   -6.9120276    741.07807  0.028058385  0.027782784            5 
 2202000   0.89885742   -6.9265743    740.22198  0.028013245  0.027776251            3 
 2203000   0.89715823    -6.919305    741.35732  0.028043476  0.027769773            4 
 2204000   0.91701371   -6.9156144    741.13701  0.028022422  0.027763309            5 
 2205000   0.89373062   -6.9187681    742.10949  0.028046466  0.027756842            4 
 2206000     0.883476   -6.9136152    741.63931  0.028015991  0.027750344            4 
 2207000   0.89929724   -6.9222795    739.24219  0.027912785  0.027743843            6 
 2208000   0.88309545    -6.920568    742.41298  0.028019814  0.027737329            2 
 2209000    0.9065862   -6.9015004     741.9131  0.027988272  0.027730899            2 
 2210000   0.88794963   -6.8900782    743.67514  0.028042049  0.027724514            8 
 2211000   0.87716313   -6.9421829    740.72855  0.027918308  0.027718084           12 
 2212000   0.90777826    -6.897947    741.87238  0.027948779  0.027711603            8 
 2213000   0.87223482   -6.9026986    742.78269  0.027970428  0.027705172            5 
 2214000   0.87748804   -6.9221077    741.95554  0.027926661  0.027698675            6 
 2215000   0.89582474   -6.9118115      743.161  0.027959406  0.027692246            4 
 2216000   0.90259038   -6.9038754    742.87422  0.027936004  0.027685776            8 
 2217000   0.87597589   -6.9114638     743.8035  0.027958333  0.027679298            4 
 2218000   0.92148556   -6.9162096    743.12021  0.027920056  0.027672844            5 
 2219000   0.89843736   -6.9224189    743.68497  0.027928683  0.027666335            3 
 2220000   0.90890345   -6.8985042    743.79229  0.027920131  0.027659805            3 
 2221000   0.88691452   -6.8609013    744.34113  0.027928153  0.027653358            5 
 2222000   0.87585405   -6.9397555    743.83879  0.027896744  0.027646847           15 
 2223000   0.90042968   -6.9240017    744.14093  0.027895522   0.02764025            4 
 2224000   0.90415271   -6.9199715    742.58786  0.027824785  0.027633639            2 
 2225000   0.89527079   -6.9537214    742.82592  0.027821195  0.027627047            3 
 2226000   0.91831615   -6.9255027    742.91802  0.027812145  0.027620479            3 
 2227000   0.90298772   -6.9450093    743.66477  0.027827599  0.027613958            7 
 2228000   0.88813137    -6.914329    741.99777  0.027752759  0.027607377            4 
 2229000    0.9024005   -6.9269495     742.3973  0.027755245  0.027600815            4 
 2230000   0.90817476   -6.9301354    743.16441  0.027771465  0.027594257            4 
 2231000   0.88288238   -6.9172823     744.4877  0.027808445  0.027587694           20 
 2232000   0.90402647   -6.9292217    744.79589  0.027807493  0.027581117            4 
 2233000   0.87851183   -6.9170518     745.1584  0.027808568  0.027574592            8 
 2234000   0.91346955   -6.9149419    743.91703  0.027749815  0.027568023            7 
 2235000   0.88982172   -6.9046132    747.57361  0.027873736  0.027561433            3 
 2236000   0.90939986   -6.9301441    744.73701  0.027755553  0.027554889           10 
 2237000   0.89990824    -6.924604    744.67008  0.027740653  0.027548308            6 
 2238000   0.89177193   -6.9283907    747.28687  0.027825695  0.027541781           10 
 2239000   0.88011643   -6.9531638     745.4474  0.027744804  0.027535271            4 
 2240000   0.88138477   -6.9215511    745.69763  0.027741727  0.027528763            5 
 2241000   0.89738767   -6.9472894    745.41383  0.027718795  0.027522283           18 
 2242000   0.89793968   -6.9133433    747.92385  0.027799727  0.027515864            7 
 2243000   0.88796553   -6.9094727    747.69061  0.027778667  0.027509494           11 
 2244000   0.90292415   -6.9070809    747.43746  0.027756887  0.027503093            5 
 2245000   0.88664921   -6.9004196    746.69673  0.027717028  0.027496765            5 
 2246000   0.89056264   -6.9280495    748.48326  0.027770973  0.027490387           14 
 2247000   0.90868197   -6.9666523    749.65082  0.027801914  0.027483977            9 
 2248000   0.89661995   -6.9223871    749.60344  0.027787791  0.027477598            3 
 2249000   0.89552733   -6.9003293      749.126  0.027757744  0.027471346            2 
 2250000   0.88773257   -6.9358178    748.80074  0.027733361  0.027465083            7 
 2251000    0.8839277   -6.9527705    748.12377  0.027695978  0.027458752            7 
 2252000   0.89382276   -6.9480206    750.53472  0.027772895  0.027452409            6 
 2253000   0.89677079    -6.917513    751.83006   0.02780848  0.027446169            4 
 2254000   0.90297141   -6.9393631    749.74857  0.027719187  0.027439895            4 
 2255000    0.8935759   -6.9096018    750.13442  0.027721154  0.027433646            3 
 2256000   0.89292306   -6.9424681    749.93898  0.027701647  0.027427389            9 
 2257000   0.89018792   -6.9343995    750.08744  0.027694855  0.027421125            6 
 2258000   0.89106322   -6.9734353    750.00158   0.02767942  0.027414807            3 
 2259000   0.93411767   -6.9206128    752.61594   0.02776361  0.027408536            3 
 2260000   0.90220422   -6.9181075    751.33334  0.027704032  0.027402287            3 
 2261000   0.88900929   -6.9250128    751.35521  0.027692585  0.027395981            4 
 2262000   0.86333777   -6.9278209    749.81366  0.027623551  0.027389731            4 
 2263000   0.90916204   -6.9643833    752.44898  0.027708388  0.027383406           10 
 2264000   0.88496902   -6.9167422    752.74363  0.027706995  0.027377127            5 
 2265000   0.87842062   -6.9614592    749.95728  0.027592247  0.027370888            4 
 2266000   0.89816229   -6.9248651    753.03098  0.027693107  0.027364649            4 
 2267000   0.87764442   -6.9367215    754.23754  0.027725244  0.027358366            4 
 2268000   0.88352566   -6.9369752    753.93009  0.027701723  0.027352095            4 
 2269000   0.88501743   -6.9221179    753.03702  0.027656714  0.027345865            4 
 2270000   0.89648232   -6.9362157    753.54945  0.027663342  0.027339592            3 
 2271000   0.90792041   -6.9354468    752.13841  0.027599384  0.027333306            3 
 2272000   0.87780669   -6.9177468    753.02498  0.027619754  0.027327046           11 
 2273000   0.88404865   -6.9252776    754.99354  0.027679775  0.027320782            7 
 2274000   0.87409683   -6.9392083    752.46053  0.027574778  0.027314498            3 
 2275000   0.89275921   -6.9014418    755.57206  0.027676632    0.0273082            4 
 2276000   0.88736308   -6.9713913    753.74512   0.02759758  0.027301957            5 
 2277000    0.8848798   -6.9324788    753.32518  0.027570092  0.027295738            4 
 2278000   0.89456084   -6.9135043    754.49238  0.027600687  0.027289516            6 
 2279000   0.89462012    -6.925156     755.7598   0.02763492  0.027283333           17 
 2280000   0.88577477   -6.9433756     753.9495  0.027556634  0.027277092           13 
 2281000   0.86536623   -6.9263129    753.73191  0.027536603  0.027270819            8 
 2282000    0.8783535   -6.9330022    754.34533  0.027546937  0.027264613            7 
 2283000   0.86154364   -6.9286472    756.07341  0.027597949  0.027258394           14 
 2284000   0.88214774   -6.9523077    754.27403  0.027520214  0.027252134            6 
 2285000   0.87492427   -6.9630199    756.21634  0.027579006  0.027245858           17 
 2286000   0.88700851   -6.9514589    758.29797  0.027642825  0.027239719           10 
 2287000   0.87193273    -6.927499    755.89306  0.027543108  0.027233587           12 
 2288000   0.88459379   -6.9393458    756.04732  0.027536688  0.027227373           10 
 2289000   0.87721978   -6.9309414    756.86343   0.02755437  0.027221111            6 
 2290000    0.8557307   -6.9554399    755.56171  0.027494968  0.027214883            3 
 2291000    0.8825427   -6.9505555    757.54956  0.027555273  0.027208678            3 
 2292000   0.87965633   -6.9668769    756.08651  0.027490056  0.027202405            3 
 2293000   0.86634199   -6.9520323    757.56777    0.0275319  0.027196166            4 
 2294000   0.87630306   -6.9363966    757.59436  0.027520864  0.027189954            4 
 2295000   0.87536349   -6.9377055    756.32653  0.027462837  0.027183693            4 
 2296000   0.88220878   -6.9266178    758.41989  0.027526854   0.02717745            7 
 2297000   0.86589794    -6.954305    756.94284  0.027461284  0.027171204            6 
 2298000   0.89581703   -6.9517586    758.28598  0.027498041  0.027164911            3 
 2299000   0.89628407   -6.9646876    758.24016  0.027484419  0.027158656            8 
 2300000   0.89089729   -6.9539671    757.31545  0.027438966  0.027152429            5 
 2301000   0.87682109   -6.9165258    759.90483  0.027520818  0.027146224            6 
 2302000   0.88543187   -6.9204267     759.0856  0.027479207  0.027139984            3 
 2303000   0.87125311    -6.916308    758.71531  0.027453876  0.027133777            4 
 2304000   0.88125887   -6.9220985    761.09006  0.027527852  0.027127551            5 
 2305000   0.86847279   -6.9528589     758.9134  0.027437216  0.027121368            5 
 2306000   0.90080923   -6.9410737    759.14694  0.027433758  0.027115164           10 
 2307000   0.87827798   -6.9231799    759.67607  0.027440979  0.027109008            5 
 2308000   0.86602335   -6.9352049    762.53672  0.027532377  0.027102778           11 
 2309000    0.8743433   -6.8955223    761.88947  0.027497094  0.027096589            9 
 2310000   0.88071965   -6.9383788    759.80448  0.027409974  0.027090475            8 
 2311000   0.88726283   -6.9489915    760.68223  0.027429764  0.027084262            7 
 2312000   0.89156539   -6.9791318    760.37269  0.027406743  0.027078025            9 
 2313000   0.89947065   -6.9384319    761.90397  0.027450064  0.027071752            5 
 2314000   0.87687689   -6.9471791    761.74732   0.02743256  0.027065501            6 
 2315000   0.86826334   -6.9515342    760.51497  0.027376349  0.027059352            5 
 2316000   0.87470533   -6.9516616    761.47704  0.027399145  0.027053169            3 
 2317000   0.88056129   -6.9703768     761.1376  0.027375112   0.02704701            5 
 2318000   0.88180933   -6.9759707    759.76489  0.027313952  0.027040742            7 
 2319000   0.87835871   -6.9321706    762.56143  0.027402668  0.027034497            4 
 2320000   0.88697271   -6.9486828    762.68819  0.027395409  0.027028324            3 
 2321000   0.88436375   -6.9689772    761.50553  0.027341143  0.027022071            5 
 2322000   0.85767242   -6.9826101    760.68505  0.027299923  0.027015734            7 
 2323000   0.87534031   -6.9713261    760.53519  0.027282795  0.027009415            9 
 2324000   0.90133834   -6.9736749    760.86624  0.027282926   0.02700309           11 
 2325000   0.87522231   -6.9357846    764.01058  0.027383892  0.026996923            6 
 2326000   0.87905944   -6.9372835    761.93301  0.027297686  0.026990746            8 
 2327000   0.86982826   -6.9590811    763.42304  0.027339315  0.026984574            4 
 2328000   0.86891079   -6.9774987    761.88958   0.02727268  0.026978334            6 
 2329000   0.89161221   -6.9463857    763.25339  0.027309768  0.026972081            5 
 2330000    0.8675947   -6.9535169    763.59313  0.027310198  0.026965808            9 
 2331000   0.87702773   -6.9522672    765.06172  0.027350984  0.026959563            4 
 2332000   0.89516915   -7.0006742    762.09349  0.027233187  0.026953342            6 
 2333000   0.85788193   -6.9872751    765.11826  0.027329556  0.026947112            8 
 2334000   0.87333657   -6.9622054    763.90639  0.027274578  0.026940889            5 
 2335000   0.88612861   -6.9261184    765.48275  0.027319156  0.026934675            7 
 2336000    0.8777407    -6.961089    763.95144  0.027252834   0.02692847            9 
 2337000   0.87359112   -6.9647075     764.3519  0.027255452  0.026922226           11 
 2338000   0.88282945   -6.9679976    764.42646  0.027246452  0.026915915            6 
 2339000   0.88444677   -6.9622685    764.85109  0.027249932  0.026909648            5 
 2340000   0.87429869   -6.9663002    765.21641  0.027251297  0.026903412            7 
 2341000   0.87393732   -6.9720944    767.01001  0.027303503   0.02689723            5 
 2342000   0.86757984   -6.9612977    764.02084  0.027185484   0.02689102            6 
 2343000   0.85804228   -6.9582849    765.69677  0.027233489  0.026884805            4 
 2344000   0.88323565    -6.963173    764.23979  0.027170072  0.026878572            3 
 2345000   0.86710613   -6.9176194    766.60285  0.027242461  0.026872301            8 
 2346000    0.8806538   -6.9316553     764.7766  0.027165977  0.026866084            6 
 2347000   0.87800307   -6.9960089    762.44243  0.027071525  0.026859771           10 
 2348000   0.87504398   -6.9676419    763.90122   0.02711177  0.026853511            9 
 2349000   0.86614026    -6.978555    766.39569  0.027188722  0.026847226            6 
 2350000   0.84632677   -6.9681313     765.0381  0.027129011  0.026840977            8 
 2351000    0.8915815   -6.9789699    763.48281  0.027062343   0.02683472            5 
 2352000    0.8620089    -6.973934    765.05901  0.027106683  0.026828395            7 
 2353000   0.87734919   -6.9725472    765.72215  0.027118648  0.026822136            3 
 2354000   0.87535319   -6.9907192     765.8953  0.027113258  0.026815825            6 
 2355000   0.87639374   -6.9225642     764.8643  0.027065262  0.026809468            4 
 2356000   0.90695963   -6.9345034    767.64515  0.027152135  0.026803234           11 
 2357000   0.85955613    -6.942344    768.83134  0.027182553  0.026797066            7 
 2358000   0.87304258   -6.9661752    765.44181  0.027051237    0.0267908           15 
 2359000   0.87494364   -6.9353782          768   0.02713014   0.02678457            8 
 2360000   0.88884861   -6.9763139    766.70957  0.027073078  0.026778288            6 
 2361000   0.87798519    -6.927178    767.99199  0.027106875  0.026772032            4 
 2362000    0.8678697   -6.9809097    766.75685  0.027051822  0.026765721            8 
 2363000   0.86956482   -6.9878479    766.19632  0.027020607  0.026759427            6 
 2364000   0.88097134   -6.9829171    765.05439  0.026968922  0.026753141            9 
 2365000   0.86770739   -6.9857389     766.7252  0.027016392   0.02674682           11 
 2366000   0.89391033   -6.9786153    769.54589  0.027104321  0.026740509           15 
 2367000    0.8702257   -6.9722859    767.90842  0.027035221  0.026734227            3 
 2368000   0.87682901    -6.977258     767.6502  0.027014717  0.026727888            6 
 2369000   0.87671702   -6.9711818    766.32188  0.026956588  0.026721536            4 
 2370000   0.86824636   -6.9631929    765.83179  0.026927981  0.026715156            6 
 2371000   0.85602718   -6.9612094    766.10536  0.026926239  0.026708785            6 
 2372000   0.86727078   -6.9157944    769.98904   0.02705133  0.026702396            7 
 2373000   0.86794208    -6.966566     766.3158  0.026910935  0.026696019            4 
 2374000   0.84301588   -6.9302723    767.35528  0.026936088  0.026689643            3 
 2375000   0.87724021   -6.9634753    768.67397  0.026971017  0.026683269            4 
 2376000   0.87018492   -6.9558259    766.78483  0.026893407  0.026676873            3 
 2377000   0.87442697   -6.9938632    767.65227  0.026912504  0.026670423            5 
 2378000   0.88088329   -6.9760417    768.96586   0.02694722   0.02666401            8 
 2379000   0.86841546   -6.9676928     768.2704  0.026911531  0.026657552            3 
 2380000   0.87155047   -6.9699325    768.61768  0.026912384  0.026651177            8 
 2381000   0.87420517   -6.9545632     769.0468    0.0269161  0.026644751           18 
 2382000   0.86672845   -6.9943547    767.48791  0.026850263  0.026638315            9 
 2383000    0.8886772   -6.9697987    767.43281  0.026837068  0.026631817            4 
 2384000   0.88197148   -6.9801377    769.53992  0.026899466  0.026625381            7 
 2385000   0.86139535   -6.9728016    767.53604  0.026818171  0.026619001            5 
 2386000   0.85052942   -6.9875465    769.07898  0.026860819  0.026612562           10 
 2387000   0.86421426   -6.9902911    769.83281  0.026875884  0.026606132            6 
 2388000   0.86429152   -6.9609811    769.23018  0.026843599  0.026599724           10 
 2389000    0.8770106   -6.9710174    768.83247   0.02681849  0.026593309            3 
 2390000   0.88376925   -6.9812898      770.278  0.026857671    0.0265869            5 
 2391000    0.8822256    -6.964252    771.81538   0.02690002  0.026580525            3 
 2392000   0.87657957   -6.9568171    771.83723  0.026889535  0.026574227            5 
 2393000   0.86589218   -6.9566661    771.61011   0.02687039  0.026567891            4 
 2394000   0.85767969   -6.9744358    771.80849  0.026866071  0.026561614            5 
 2395000    0.8870847   -6.9574947    770.32772  0.026803331  0.026555318            4 
 2396000   0.85003085   -6.9762212      771.091  0.026818691  0.026549008            5 
 2397000    0.8548276   -6.9825487    771.08329  0.026807234  0.026542716            3 
 2398000   0.87347217   -7.0211612    771.72095  0.026818215  0.026536424            8 
 2399000   0.86109153    -6.974067    772.24512  0.026825244  0.026530087            7 
 2400000   0.87368154   -7.0056602    771.02222  0.026771605  0.026523751            4 
 2401000   0.87135624   -6.9713807    772.17657   0.02680052  0.026517383           15 
 2402000   0.85845037    -6.958056    772.47632  0.026799761  0.026511056            4 
 2403000   0.85872627    -6.989336    772.99734  0.026806677   0.02650476            9 
 2404000   0.86446225   -6.9473226    774.23656  0.026838483  0.026498467            8 
 2405000   0.86154102   -6.9883914    773.88953  0.026815299  0.026492179            9 
 2406000   0.88126579   -6.9416175    773.84714  0.026802685  0.026485954           11 
 2407000   0.86599179   -6.9642412    774.61637  0.026818182  0.026479723            4 
 2408000   0.86440367    -6.999138    774.08153  0.026788536  0.026473494            4 
 2409000    0.8442137   -6.9624117    774.33874  0.026786313  0.026467226            4 
 2410000   0.87592431    -6.987308    774.11115  0.026767329  0.026461026           13 
 2411000   0.85166119    -7.009234    774.09858  0.026755792  0.026454774            5 
 2412000    0.8513553   -7.0267388    774.11701  0.026745336  0.026448452            4 
 2413000   0.85575187   -7.0005563    773.34903   0.02670773  0.026442107            5 
 2414000    0.8690437   -6.9791962    774.91841  0.026750843  0.026435838            5 
 2415000    0.8619254   -6.9753209      774.241  0.026716391  0.026429498           13 
 2416000   0.85445778   -6.9725887    774.56811  0.026716615  0.026423172            6 
 2417000   0.88445156   -7.0058708    773.17147  0.026657408   0.02641679            6 
 2418000   0.88959351   -6.9704654    775.80577  0.026737172  0.026410463           10 
 2419000   0.86072042   -6.9727198      776.393  0.026746348  0.026404185            5 
 2420000   0.87725895   -6.9665506    772.72924  0.026609134  0.026397858            7 
 2421000   0.84967846   -6.9855291    771.97234  0.026572089   0.02639146            9 
 2422000    0.8658667   -6.9931464    776.93843  0.026731986  0.026385136           11 
 2423000   0.85056509   -7.0148765    775.12094  0.026658445  0.026378788            5 
 2424000   0.85795879    -6.956673    776.14645  0.026682703  0.026372486            5 
 2425000   0.86780618   -6.9709465    774.84146  0.026626854  0.026366195            5 
 2426000   0.88642892   -6.9779374    777.39526  0.026703602  0.026359884            6 
 2427000   0.86672207   -6.9699847     775.0922  0.026613522  0.026353641            7 
 2428000   0.88066967   -6.9884544    777.00669  0.026668269  0.026347359            5 
 2429000   0.85790345   -7.0146474     778.5173  0.026709116  0.026341093            6 
 2430000   0.86505542   -7.0157948    777.61459  0.026667167  0.026334827           13 
 2431000   0.84919146   -6.9794129    776.32094  0.026611852   0.02632855           19 
 2432000   0.87334701   -6.9803265    776.67724  0.026613118  0.026322258            4 
 2433000   0.86000407   -6.9738838    777.80938  0.026640957   0.02631599            3 
 2434000   0.86657758   -6.9542494    777.98228  0.026635931  0.026309748            6 
 2435000   0.86008223    -7.030179    775.53713  0.026541312  0.026303484            2 
 2436000   0.85656784   -6.9910952    778.62517  0.026636055  0.026297192            6 
 2437000    0.8495093   -7.0193212    777.30221  0.026579887  0.026290846            5 
 2438000   0.85301374   -6.9993757    779.00822  0.026627298    0.0262845           12 
 2439000   0.88461903   -6.9518745    776.53182  0.026531769  0.026278238            5 
 2440000   0.87531555   -6.9956299    777.71482  0.026561298  0.026271917            5 
 2441000   0.87005325   -7.0171421    777.15315  0.026531242  0.026265592            4 
 2442000   0.87616809   -6.9683133    777.10835  0.026518849  0.026259282            5 
 2443000   0.85608885   -7.0074421    779.16715  0.026578222  0.026252987            4 
 2444000   0.84176986   -6.9629901    778.42534  0.026542053  0.026246707           10 
 2445000   0.86063621   -6.9747415    777.37204  0.026495298  0.026240431            8 
 2446000   0.85822295   -6.9845421    778.44949  0.026521174  0.026234136            3 
 2447000   0.87277435   -6.9774328    777.87842  0.026490888  0.026227803            5 
 2448000   0.85433472   -6.9733086    779.17935  0.026524352  0.026221474            3 
 2449000     0.863341   -6.9993943    775.74197  0.026396556  0.026215161            3 
 2450000   0.85251301   -6.9859725    778.38101  0.026475545  0.026208833            4 
 2451000   0.88083551   -7.0135059     776.6608  0.026406256  0.026202523           10 
 2452000   0.86076457   -6.9726491    780.68724  0.026532329  0.026196242            5 
 2453000   0.86639741    -6.994108    778.79989  0.026457395   0.02618996            9 
 2454000    0.8702411     -6.98841    778.16247  0.026424968  0.026183645           20 
 2455000   0.87157994   -7.0256566    779.31876  0.026453454   0.02617733            9 
 2456000   0.86214055   -7.0096698    778.65553   0.02642018   0.02617095            4 
 2457000   0.84890286   -6.9858498    778.59725   0.02640745   0.02616457            7 
 2458000   0.83581554   -6.9898701    780.09636  0.026447531  0.026158206            5 
 2459000   0.87196353   -6.9972041    779.19448  0.026406211  0.026151873           14 
 2460000   0.86841087   -6.9919047    777.90721   0.02635187   0.02614552            5 
 2461000   0.87807544   -6.9982831     779.0013   0.02637821  0.026139218            7 
 2462000   0.85555522   -7.0224952    779.55817  0.026386345  0.026132939            4 
 2463000   0.85823301   -7.0046463    780.20505  0.026397518  0.026126631            7 
 2464000   0.85263056   -7.0018914     781.5765  0.026433188  0.026120271            5 
 2465000   0.84814132   -6.9846991    779.34627  0.026347068  0.026113956            8 
 2466000   0.87800028   -6.9687371    781.90801  0.026422952  0.026107653            6 
 2467000   0.86297678   -7.0016662    780.85586  0.026376701  0.026101312            2 
 2468000   0.84930056   -7.0002843    780.77588  0.026363313  0.026094985            4 
 2469000   0.85763348   -7.0189045    781.52816  0.026378026   0.02608866            9 
 2470000   0.85516002   -6.9945551    782.22615  0.026390896  0.026082326           11 
 2471000   0.82425666   -7.0129466    781.72523  0.026363322  0.026076038            4 
 2472000   0.85364888   -6.9846607    783.12421  0.026399818  0.026069746           10 
 2473000   0.85366403    -6.990414    782.17565  0.026357179   0.02606345            8 
 2474000   0.85230402   -7.0351975    781.41139  0.026320782  0.026057162            8 
 2475000   0.86463426   -6.9897945    780.49111  0.026279162  0.026050842            8 
 2476000   0.87057955    -7.022842    781.58098  0.026305229  0.026044495            9 
 2477000   0.83119832   -7.0046875    782.87568  0.026338167  0.026038213            3 
 2478000    0.8575458   -7.0117431    783.53632  0.026349755  0.026031908           10 
 2479000   0.85275341    -6.983046    783.74849  0.026346258  0.026025667            4 
 2480000   0.86142336   -6.9684298    784.64738   0.02636584  0.026019448            6 
 2481000   0.85433863   -6.9828457    783.57516  0.026319198  0.026013261            3 
 2482000   0.85060869   -7.0323577     781.6708  0.026244655  0.026006966            6 
 2483000   0.83702122   -7.0181676     782.3134  0.026255652  0.026000612            4 
 2484000   0.85948941    -7.005404    784.33521   0.02631291  0.025994256            5 
 2485000   0.88730231   -6.9774927    784.12962  0.026295426  0.025987949            9 
 2486000   0.85525412   -7.0228184    784.08677  0.026283413  0.025981684            3 
 2487000   0.85621676   -7.0034324     783.1226  0.026240537  0.025975378            6 
 2488000    0.8549989   -7.0165605    783.18662  0.026232135  0.025969034            5 
 2489000   0.83310456   -6.9922599    782.60119  0.026201995  0.025962626            7 
 2490000   0.85081902   -7.0069903    782.81756  0.026198713  0.025956272            5 
 2491000   0.85542605    -7.047893    782.89477  0.026190779  0.025949888           13 
 2492000   0.86108334   -7.0146884    784.58478  0.026236784  0.025943546            5 
 2493000    0.8421676   -6.9926033    783.77525    0.0261992  0.025937211            5 
 2494000   0.83412248   -6.9903689     785.4425  0.026244403  0.025930944            6 
 2495000    0.8694683    -7.004492    784.58324  0.026205185   0.02592471            9 
 2496000   0.86442488   -6.9870747     785.6009  0.026228663  0.025918434            3 
 2497000    0.8573744   -7.0226759    784.45081  0.026179776  0.025912179            5 
 2498000   0.85558985   -7.0055561    787.25158   0.02626273  0.025905893            7 
 2499000   0.86526834    -7.003886    785.88908  0.026206786  0.025899589            6 
 2500000   0.84571688   -6.9841051    784.79287  0.026159762  0.025893298           10 
 2501000   0.85003047   -7.0087429     784.6698  0.026145202  0.025886993            7 
 2502000   0.86670625    -7.022115    785.37173  0.026158131  0.025880725            5 
 2503000   0.84972244   -6.9965169    785.58511  0.026154785    0.0258744            4 
 2504000   0.83504047   -7.0141179    786.67742  0.026180692  0.025868042            9 
 2505000   0.84566364   -7.0223351     785.7965  0.026140935  0.025861712            7 
 2506000   0.84525589   -7.0010537    786.86831  0.026166145  0.025855459            9 
 2507000   0.83693919   -6.9973486    786.83578  0.026154626  0.025849153            6 
 2508000   0.85983896   -7.0324124    783.60746   0.02603693  0.025842814            5 
 2509000   0.86518601   -6.9786575    785.21868  0.026080068  0.025836513            5 
 2510000   0.84992781   -7.0380512    786.22071  0.026102945  0.025830247            9 
 2511000    0.8434053   -7.0079865    786.74081  0.026109811  0.025823924            5 
 2512000   0.85325649   -7.0150372      787.776  0.026133758  0.025817574            7 
 2513000    0.8404826   -7.0394109    786.46168  0.026079774  0.025811248            9 
 2514000   0.84821675   -7.0427135    786.97142  0.026086297   0.02580492            5 
 2515000   0.85158904    -7.014137    784.30233  0.025987486  0.025798583           12 
 2516000    0.8253809   -7.0229717    787.29903  0.026076412  0.025792284            5 
 2517000   0.85357764   -7.0141342    787.37517  0.026068573  0.025785965            7 
 2518000   0.85072299   -7.0370686    785.63221  0.026000537  0.025779645            4 
 2519000   0.85608748   -7.0203077    788.13321  0.026072953  0.025773327            5 
 2520000    0.8716874   -7.0152238     788.8728  0.026087063   0.02576701            7 
 2521000   0.83346928    -7.022973    786.33697  0.025992892  0.025760691            6 
 2522000   0.84136059   -7.0109922    788.94197  0.026068662  0.025754361           10 
 2523000   0.85288773   -6.9863994    789.02456  0.026061057   0.02574811            5 
 2524000   0.85218962   -6.9992196    788.97927  0.026049236  0.025741838            3 
 2525000   0.85924226   -7.0229093    786.17233  0.025946281  0.025735516            5 
 2526000   0.83208783   -7.0135665    786.58212  0.025949529  0.025729224            7 
 2527000   0.85042826     -7.00394    789.01065  0.026019346  0.025722911            5 
 2528000   0.83371165   -7.0141882    789.68629  0.026031326  0.025716652            4 
 2529000   0.83331338   -7.0306116    788.62984  0.025986221  0.025710353            6 
 2530000    0.8441565   -7.0714378     788.5233  0.025972441  0.025704032            9 
 2531000   0.84989148   -7.0346058    789.08474  0.025980664  0.025697765            5 
 2532000   0.86165492    -7.045061    790.78724  0.026026436  0.025691491            4 
 2533000   0.84731747   -7.0141057    789.70607  0.025980592  0.025685211            7 
 2534000   0.84157057   -7.0327863    788.81642  0.025941082   0.02567893            5 
 2535000   0.83955135   -7.0110014    791.83904  0.026030212  0.025672691            7 
 2536000   0.85446149   -6.9987167    790.30162  0.025969427  0.025666486            4 
 2537000   0.85207318   -7.0079056    790.57708  0.025968239  0.025660228            4 
 2538000   0.84278142   -7.0110087    791.24495  0.025979937  0.025653951            5 
 2539000   0.82912434   -7.0026235    790.96711  0.025960585  0.025647674           11 
 2540000   0.83635273   -6.9713208    791.13565  0.025955894  0.025641475            4 
 2541000   0.84741879   -7.0039068    787.19708  0.025816512  0.025635228            2 
 2542000   0.82865859   -7.0216934    790.53191   0.02591568  0.025628944            5 
 2543000   0.84901296    -7.016232    790.40598  0.025901363  0.025622676            4 
 2544000   0.83180532   -7.0453585    789.22661  0.025852549  0.025616406            4 
 2545000   0.84105089   -7.0026044     790.8987  0.025897141  0.025610101            7 
 2546000   0.84986011   -6.9990739    790.31096  0.025867732  0.025603808            3 
 2547000   0.84769303   -7.0268785    788.87161  0.025810483  0.025597504            3 
 2548000   0.82612569   -7.0167091     791.7037  0.025892978  0.025591206            4 
 2549000   0.83630987   -6.9819242    791.87136  0.025888301   0.02558496            4 
 2550000   0.85776949   -7.0204481    790.10275  0.025820351  0.025578697            4 
 2551000   0.85300918   -7.0071234    792.01955  0.025872846  0.025572369            4 
 2552000   0.82346347   -7.0338062    790.37149  0.025808891   0.02556604            6 
 2553000   0.83665009   -7.0621859    791.11952  0.025823199  0.025559728            8 
 2554000   0.85117409   -7.0192131    791.21702  0.025816269  0.025553378           12 
 2555000   0.84385437   -7.0577772    790.84436   0.02579401  0.025547067           15 
 2556000   0.83569285   -7.0407339    792.68511  0.025843933   0.02554072           16 
 2557000   0.83075428   -7.0427926    792.10557  0.025814938  0.025534401           11 
 2558000    0.8408175    -7.030172    792.19217  0.025807668  0.025527998            8 
 2559000   0.83536645   -7.0396112    791.12309  0.025762768  0.025521666            5 
 2560000   0.83795782   -7.0426132    792.04697  0.025782779  0.025515297           11 
 2561000   0.83958516   -7.0077795    793.20214    0.0258103  0.025508971            8 
 2562000   0.84644015   -7.0311825     791.9984  0.025761072  0.025502664            3 
 2563000   0.84474062   -7.0225991    791.90018  0.025747827   0.02549635            4 
 2564000   0.82548205   -7.0369204    790.30526  0.025685948  0.025490007            4 
 2565000   0.85597501    -7.026944    791.42522   0.02571232  0.025483677            7 
 2566000    0.8383239   -7.0105364    793.45796  0.025768315  0.025477366            7 
 2567000   0.82766825   -7.0221947    793.57455  0.025762062  0.025471008            6 
 2568000   0.85581104   -7.0445666    789.63695  0.025624252  0.025464644            4 
 2569000   0.83562487   -7.0569181    792.37327  0.025703038  0.025458318           10 
 2570000   0.83630593   -7.0127138    794.29877  0.025755473  0.025451997            6 
 2571000   0.84773527   -7.0328399    795.10872  0.025771708  0.025445701            5 
 2572000   0.83538045   -7.0335139    793.87762    0.0257218  0.025439357            7 
 2573000   0.82941047   -7.0201935    792.96798  0.025682341  0.025433016           11 
 2574000   0.83041698   -7.0423748    793.88004  0.025701892  0.025426682            8 
 2575000    0.8507278   -7.0228271    793.66377  0.025684912  0.025420351            5 
 2576000   0.82731343   -7.0158873    794.03639  0.025686995  0.025414017            7 
 2577000   0.84644028   -7.0336067    794.36775  0.025687742  0.025407689            4 
 2578000   0.85877551   -7.0417628     791.7605    0.0255935  0.025401332            5 
 2579000   0.85450534      -7.0635    792.64358   0.02561211  0.025394931           15 
 2580000   0.81117996    -7.032246    794.92787  0.025675965   0.02538852           10 
 2581000   0.83352742   -7.0583173    794.15877  0.025641185  0.025382106            6 
 2582000   0.82140291   -7.0426569    791.42822  0.025543126  0.025375699           11 
 2583000   0.84597866    -7.039677    793.40498  0.025597012  0.025369286           12 
 2584000    0.8517563    -7.030089    792.53816  0.025559151  0.025362915           10 
 2585000   0.83281543    -7.041876    792.61015  0.025551584   0.02535653            7 
 2586000    0.8363669   -7.0575885    794.24363  0.025594342  0.025350131            8 
 2587000   0.82329042   -7.0557437    794.21458  0.025583513  0.025343713            9 
 2588000   0.83191778   -7.0700189     793.5044   0.02555076   0.02533732            4 
 2589000   0.82818597   -7.0256708    796.27196  0.025629972   0.02533093            6 
 2590000   0.84865143    -7.045702    793.76751  0.025539495  0.025324503            7 
 2591000   0.82583842   -7.0776067    794.21817  0.025544133  0.025318031            9 
 2592000   0.84292111   -7.0580248    793.79985  0.025520829  0.025311535            6 
 2593000   0.83913428   -7.0582722    791.95787  0.025451789  0.025305038            8 
 2594000   0.83004411   -7.0111379    794.15805  0.025512659  0.025298556            5 
 2595000   0.81151462   -7.0291465     794.3423  0.025508744  0.025292138            5 
 2596000    0.8450375   -7.0549216    793.03709   0.02545702  0.025285677            5 
 2597000   0.83414622   -7.0375967    795.61082  0.025529804  0.025279276            9 
 2598000   0.84342744   -7.0103979    796.18277  0.025538324  0.025272879            5 
 2599000   0.81883428   -7.0485448    795.13901   0.02549503  0.025266473            4 
 2600000    0.8408469   -7.0504197    795.28455  0.025489889  0.025260051            8 
 2601000   0.83004812   -7.0476235    794.17248   0.02544446  0.025253629            6 
 2602000   0.85597903   -7.0374583    796.78405  0.025518321  0.025247255           16 
 2603000     0.837683     -7.02861    795.44102  0.025465521  0.025240921           10 
 2604000   0.83654363   -7.0228051    794.13961  0.025414094  0.025234514            4 
 2605000   0.83407215   -7.0331636    795.99075  0.025463556  0.025228158            8 
 2606000   0.83103222   -7.0597045    794.88801  0.025418522  0.025221695            3 
 2607000   0.83292562   -7.0598851    795.25095  0.025420373  0.025215251            3 
 2608000   0.82253891   -7.0522148    797.41448  0.025479757  0.025208825            6 
 2609000    0.8221376   -7.0219673    796.28654  0.025433964  0.025202465           10 
 2610000   0.82306023   -7.0555296    796.12443  0.025419043  0.025196018           13 
 2611000   0.82515779   -7.0545017    795.03041  0.025374391  0.025189519            9 
 2612000   0.82972345   -7.0633786    794.17959  0.025337532  0.025183023            6 
 2613000   0.84752379   -7.0563763    796.12601   0.02538991  0.025176586            5 
 2614000   0.83478184   -7.0322263    797.63767  0.025428388  0.025170195            4 
 2615000   0.83485589   -7.0448142    797.52179  0.025414971  0.025163746            6 
 2616000   0.81842539   -7.0442351    796.47291  0.025371843    0.0251573            5 
 2617000   0.84010172   -7.0694281     796.8212  0.025373239   0.02515083            4 
 2618000    0.8220061   -7.0266376    797.57394  0.025387508  0.025144371            4 
 2619000   0.82424712   -7.0515209    798.14326  0.025395929  0.025137937            8 
 2620000   0.82613187   -7.0792159    797.17363  0.025355395   0.02513154           15 
 2621000   0.82313384   -7.0526326    796.90339  0.025337129  0.025125095            4 
 2622000     0.821287   -7.0621048    795.56595  0.025284959  0.025118646            4 
 2623000   0.84016016   -7.0363224    798.82283  0.025378791  0.025112231            4 
 2624000   0.83757234   -7.0630207    798.23747  0.025350529   0.02510585           12 
 2625000   0.83492986   -7.0716999    796.09217  0.025272767  0.025099423           21 
 2626000   0.82869625   -7.0699691      796.715  0.025282908  0.025092976            6 
 2627000   0.83120253   -7.0481279    798.54285  0.025331267  0.025086536            6 
 2628000   0.84632089   -7.0845586    797.12163  0.025276561  0.025080083           10 
 2629000   0.83735427   -7.0117459    799.69333  0.025348464  0.025073724            9 
 2630000   0.84720493   -7.0612718    798.32343  0.025295419   0.02506734            5 
 2631000   0.82590524   -7.0573455    796.32935  0.025222645  0.025060915            6 
 2632000   0.83203406   -7.0182994    798.71115  0.025288474   0.02505449           10 
 2633000   0.82108114   -7.0329402    798.74767  0.025280025  0.025048048            7 
 2634000   0.81321141   -7.0248058    799.44474  0.025292481  0.025041614            5 
 2635000   0.81832307   -7.0691758    797.64651  0.025226012  0.025035196           16 
 2636000   0.83287824   -7.0669529    799.85309    0.0252862  0.025028768            6 
 2637000   0.85060823   -7.0414667    799.28813  0.025258758  0.025022359            7 
 2638000    0.8291561   -7.0796473    798.07183   0.02521076  0.025015924            8 
 2639000   0.82259847   -7.0686397    799.18677  0.025236414  0.025009461           17 
 2640000   0.81516915   -7.0524018    798.13882  0.025193776  0.025003024            9 
 2641000   0.82687482   -7.0566789    799.06699  0.025213524  0.024996605            6 
 2642000   0.81262346   -7.0367399    799.56717  0.025219757  0.024990221            5 
 2643000    0.8242639   -7.0374921    801.27081   0.02526393  0.024983838            6 
 2644000   0.82111409   -7.0858737     799.4626  0.025197384   0.02497743            8 
 2645000   0.84656241   -7.0749322    799.46157  0.025187825   0.02497098           14 
 2646000    0.8290208   -7.1024056    800.46465  0.025209897   0.02496449           11 
 2647000   0.81735556   -7.0584654     799.2177  0.025161116  0.024958053            5 
 2648000   0.82065196   -7.0512829    798.94707  0.025143098  0.024951593            2 
 2649000   0.83033582   -7.1000434    798.42745   0.02511726  0.024945071           15 
 2650000   0.83796724   -7.1012538    799.10093   0.02512896  0.024938521            7 
 2651000   0.81885545    -7.074156    799.17597   0.02512184  0.024932011            7 
 2652000    0.8161265   -7.0755299    800.65316  0.025158785  0.024925531           14 
 2653000   0.84172203   -7.0940911    797.43734  0.025048289  0.024918994            8 
 2654000   0.81620539   -7.0858082    799.50867  0.025103889  0.024912446            6 
 2655000   0.82095265   -7.0874093    798.84719  0.025073672   0.02490593            7 
 2656000   0.83155023   -7.0393143    801.84142  0.025158177  0.024899473            6 
 2657000   0.81736041   -7.0388353    799.80943  0.025084978  0.024893031            3 
 2658000   0.83450981    -7.041441     799.4902  0.025065532  0.024886576            5 
 2659000   0.83094035   -7.0616563    798.80667  0.025034683  0.024880121            4 
 2660000   0.83085717   -7.0709676     800.7164    0.0250851  0.024873594            7 
 2661000   0.83158182   -7.0465741    799.97024  0.025052306  0.024867024            6 
 2662000   0.82662974     -7.07943    798.07636  0.024983608  0.024860492            3 
 2663000   0.83927987   -7.0637616    798.45843  0.024986182  0.024853944            6 
 2664000    0.8286463   -7.0526115    800.97154  0.025055416  0.024847442            5 
 2665000   0.82812768   -7.0495318    799.16107  0.024989402  0.024840954           12 
 2666000    0.8340632   -7.0417472    800.30806  0.025015881  0.024834469            7 
 2667000   0.81964955   -7.0636117    801.00775  0.025028364     0.024828            8 
 2668000   0.80845322   -7.0768058    800.67387  0.025008554  0.024821516            8 
 2669000   0.83859423   -7.0661819    801.57005  0.025027165  0.024815013            5 
 2670000   0.83644772   -7.0572526    801.34468  0.025010758  0.024808548            7 
 2671000    0.8181239   -7.0798248    802.76556  0.025045725  0.024802109            6 
 2672000   0.83997133   -7.0701919    802.14999  0.025017153  0.024795658           10 
 2673000   0.85463941   -7.0655606     800.3457  0.024951543   0.02478919            7 
 2674000   0.84496528   -7.0452186    802.64701  0.025013931  0.024782662            8 
 2675000    0.8226604   -7.0685152    799.85317  0.024917544  0.024776154           16 
 2676000   0.83411058   -7.0361955    802.40251  0.024987622  0.024769612            9 
 2677000   0.82770316   -7.0774319    802.79297  0.024990442  0.024763135            8 
 2678000   0.82734639   -7.0561631    802.63415  0.024976169  0.024756669            5 
 2679000   0.81473658    -7.067418    801.63225   0.02493568  0.024750175            4 
 2680000   0.80883459    -7.094455    801.93064  0.024935654  0.024743652            8 
 2681000    0.8145298   -7.0870744    799.77054  0.024859211  0.024737111            8 
 2682000   0.80709021   -7.0566817    800.35894  0.024868225  0.024730568            3 
 2683000   0.82041514   -7.0920953    801.89201  0.024906573  0.024723982            8 
 2684000   0.80221525   -7.0911783    798.81578  0.024801781  0.024717417            5 
 2685000   0.83302012   -7.0821767    801.64081  0.024880224  0.024710853            4 
 2686000   0.81086266   -7.0690252    803.17441  0.024918541  0.024704332            7 
 2687000   0.82763202   -7.0348937    804.88702  0.024962381  0.024697876            8 
 2688000    0.8095928   -7.1036337    801.59636  0.024851078  0.024691414            4 
 2689000   0.82482373   -7.0958479    801.79664  0.024848043  0.024684951            6 
 2690000    0.8173322   -7.0778338    801.40458   0.02482666  0.024678484           10 
 2691000   0.81091269   -7.0752721    804.33969  0.024908327  0.024672006            6 
 2692000   0.82931768   -7.0714813    802.37544  0.024838269  0.024665551            4 
 2693000   0.81399008   -7.0752162    803.29656  0.024857549  0.024659074            5 
 2694000   0.83763817   -7.0937423    803.40015  0.024851527  0.024652606            5 
 2695000   0.82024579   -7.0933529    801.77896  0.024792176  0.024646113            8 
 2696000      0.82995   -7.0641784    804.91179  0.024879815  0.024639666            3 
 2697000   0.80866325   -7.0492637    802.02353  0.024781347  0.024633231            8 
 2698000   0.81711495   -7.0599542    807.19857  0.024932004  0.024626792            3 
 2699000   0.83855101    -7.079331    804.91379  0.024852223  0.024620359            5 
 2700000   0.81252043    -7.072953    803.45346  0.024797946  0.024613903            4 
 2701000   0.83317912   -7.0545434    804.24778  0.024813272  0.024607425           15 
 2702000   0.80884655   -7.0617695    803.71891  0.024787778  0.024600952            7 
 2703000   0.82082959   -7.0858814    802.87893  0.024752711  0.024594508            7 
 2704000   0.80522154   -7.0944559    803.02317  0.024748002  0.024588054            3 
 2705000   0.83774483   -7.0916705    805.60996  0.024818545  0.024581531           11 
 2706000   0.82397348   -7.0722555    804.48614  0.024774764  0.024575102            6 
 2707000   0.82787855   -7.0896173    804.75602   0.02477392  0.024568636            3 
 2708000   0.82915044   -7.0791354    803.18233  0.024716344  0.024562123            5 
 2709000   0.81683477   -7.0990225    803.79784  0.024726155   0.02455562            6 
 2710000   0.83864781   -7.0634899    803.19261   0.02469842  0.024549177            7 
 2711000   0.83071568   -7.0795918    804.00818  0.024714379  0.024542723            6 
 2712000   0.82207871   -7.0929127    805.41767  0.024748576  0.024536339            9 
 2713000    0.8206108    -7.092182    806.64301  0.024777092  0.024529933            9 
 2714000   0.81814757   -7.0849234     804.8184  0.024711938  0.024523531           14 
 2715000   0.81631229    -7.081849    803.78427  0.024671095  0.024517073            6 
 2716000   0.80719408   -7.0771511    804.82644  0.024693988  0.024510617            4 
 2717000    0.8227432   -7.0896866    806.12983  0.024724875  0.024504165            5 
 2718000   0.81381768    -7.104284    803.23013  0.024626874  0.024497693            4 
 2719000   0.80940425   -7.0598361    806.18984  0.024708528  0.024491224            5 
 2720000   0.81296832   -7.0736353    807.44775  0.024737983  0.024484789            7 
 2721000   0.82149281   -7.1298535    804.58821  0.024641315  0.024478312            9 
 2722000   0.81177784    -7.077834    805.05903  0.024646676  0.024471844            9 
 2723000   0.80878079   -7.0890671    805.84403  0.024661649  0.024465412            4 
 2724000   0.82516281   -7.1172586    806.35174  0.024668127  0.024458937           10 
 2725000   0.80926327   -7.0814256    805.87745   0.02464457   0.02445247            8 
 2726000   0.80547523   -7.0865302    807.19692  0.024675866  0.024445982           12 
 2727000   0.81203439   -7.0953457    806.60925  0.024648859   0.02443954           12 
 2728000   0.80389111   -7.0848756    804.68465  0.024581032  0.024433063            4 
 2729000   0.81056848   -7.0736385    806.10518  0.024615402  0.024426598           10 
 2730000   0.81636166   -7.0992436    807.12334  0.024637465  0.024420128           10 
 2731000   0.82008816   -7.0433579    808.21474  0.024661746  0.024413695            6 
 2732000   0.82310656   -7.1080854    806.78974  0.024609253  0.024407264           14 
 2733000   0.81636573   -7.0682372    806.96614  0.024605627  0.024400851            5 
 2734000   0.82103542   -7.0716175    808.41814  0.024640884  0.024394431            8 
 2735000   0.81236441   -7.0809456     807.7086  0.024610256  0.024388046            6 
 2736000   0.82605717    -7.061448    806.63247  0.024568484  0.024381622            5 
 2737000   0.80991376   -7.0596403    807.06587  0.024572703   0.02437521            6 
 2738000   0.83242373    -7.065957    808.58175  0.024609866  0.024368792            7 
 2739000   0.80808431   -7.0666887    808.58344  0.024600932   0.02436241            7 
 2740000   0.79951019   -7.0974341    807.31269  0.024553306  0.024355993            6 
 2741000   0.79426813    -7.105897    807.80525  0.024559323  0.024349543            4 
 2742000   0.81663858   -7.0861745    807.00078  0.024525917  0.024343054            7 
 2743000   0.81403535    -7.065769    806.60304  0.024504892  0.024336546            5 
 2744000   0.80030071   -7.0886813    806.83887  0.024503124  0.024330083           10 
 2745000   0.81064674   -7.0871247    808.07199  0.024531633  0.024323611            8 
 2746000   0.81133404   -7.1085108    808.56788  0.024537748  0.024317132            6 
 2747000   0.80767222   -7.0742104    807.37448  0.024492612  0.024310725            7 
 2748000   0.81530295   -7.0874801    808.09416  0.024505524  0.024304277           12 
 2749000   0.81662374   -7.0529591    811.95089  0.024613523  0.024297891            5 
 2750000   0.81577873   -7.0570239     809.3706  0.024526382  0.024291515            2 
 2751000     0.799427   -7.0787815    808.94403  0.024504545  0.024285159            5 
 2752000   0.80008111   -7.1111162     808.6384  0.024486386  0.024278738            7 
 2753000   0.80411108   -7.0820307    808.93363  0.024486428  0.024272311           20 
 2754000   0.82007036   -7.1156785    807.86072  0.024445071  0.024265879            6 
 2755000   0.81839926   -7.1010937     808.3523  0.024451068  0.024259449            6 
 2756000   0.80274981   -7.1120568    809.41683  0.024474384  0.024253037           17 
 2757000     0.810866    -7.102185     806.8294  0.024387299  0.024246605           27 
 2758000   0.80222352   -7.0899469    806.40349  0.024365588   0.02424016            9 
 2759000   0.80822239   -7.1060549    809.34199  0.024445511  0.024233709            9 
 2760000   0.82714404   -7.0946221    810.43534  0.024469666   0.02422729            3 
 2761000   0.81088882   -7.0917807    811.75353  0.024500589  0.024220856            5 
 2762000   0.81739229    -7.094682    809.02906  0.024409518  0.024214421            4 
 2763000   0.80717226   -7.0928091     808.6735   0.02438996  0.024207978            5 
 2764000   0.80229718   -7.0895269    808.73874  0.024383102  0.024201571            7 
 2765000   0.81588796   -7.0940892    808.43536   0.02436514  0.024195187            5 
 2766000    0.8229789   -7.1524317    808.09362  0.024346036  0.024188712           17 
 2767000   0.81099838   -7.1261062    808.41608  0.024346948  0.024182226            7 
 2768000   0.80723085   -7.1151961    809.33553  0.024365834  0.024175762            8 
 2769000   0.81432205   -7.1269092    810.58841   0.02439474  0.024169304            3 
 2770000   0.80317373   -7.0833973    811.33281  0.024408328   0.02416289           10 
 2771000   0.82118603    -7.114007     810.3934  0.024371268  0.024156503            7 
 2772000   0.81190574   -7.0879129    811.44011  0.024393943  0.024150139            6 
 2773000   0.78974181   -7.0957446    812.40655  0.024414189  0.024143791            2 
 2774000     0.827632   -7.0834024    810.36907   0.02434418  0.024137421            6 
 2775000   0.80632371   -7.0915743    811.97046  0.024383497  0.024131072            6 
 2776000   0.82800184   -7.1012752    811.39319  0.024357384  0.024124745            4 
 2777000   0.81569814   -7.1276714    809.99443  0.024306639   0.02411838           11 
 2778000   0.81263937   -7.0871004    812.31807  0.024367593   0.02411202            7 
 2779000   0.82113065   -7.1218557    811.60626  0.024337479   0.02410567           14 
 2780000   0.80647661   -7.1133385    813.36731  0.024381514  0.024099277           16 
 2781000   0.79608061   -7.1128944    811.14754  0.024306231  0.024092907            6 
 2782000    0.8086123   -7.0840558    812.28425  0.024331543  0.024086542            5 
 2783000   0.80963493   -7.1138923     812.0542  0.024315912  0.024080214            7 
 2784000   0.80411833    -7.085463    812.65147  0.024325056  0.024073832           11 
 2785000   0.80442712    -7.085519    812.05999  0.024298623  0.024067467           15 
 2786000   0.81589754    -7.110895    811.47636  0.024272444  0.024061069            6 
 2787000   0.80579287   -7.1447505     812.1777  0.024284706   0.02405464            4 
 2788000    0.7963381   -7.1183774    812.16787  0.024275702  0.024048238            4 
 2789000   0.81914849   -7.0780115    810.17341  0.024207404  0.024041859            4 
 2790000   0.81097544     -7.11083     812.7652  0.024276141  0.024035487            4 
 2791000   0.81234971   -7.1018848     813.6763  0.024294647  0.024029112            6 
 2792000   0.80123159    -7.100241    813.88648  0.024292218  0.024022723            4 
 2793000   0.80350822   -7.1072718    811.96652  0.024226236  0.024016361            8 
 2794000   0.80149305   -7.1154305    812.81389  0.024242838  0.024009994            5 
 2795000   0.79318979   -7.1257302    811.79604  0.024203817  0.024003614            4 
 2796000   0.79771236   -7.0791293    811.86788  0.024197302  0.023997246            7 
 2797000      0.79832   -7.1033836    814.62559  0.024270814  0.023990952            8 
 2798000    0.8221906   -7.0946023    816.52885  0.024318824  0.023984677            8 
 2799000   0.79130606   -7.1225318    814.65214  0.024254262  0.023978396            4 
 2800000    0.8130736   -7.0917586    816.90214  0.024312564  0.023972077            6 
 2801000   0.81137287   -7.0870727    814.81445  0.024241772  0.023965809            5 
 2802000   0.80058857   -7.1047932    812.78341  0.024172716  0.023959494            8 
 2803000   0.81953806   -7.1115108    814.48636  0.024214721  0.023953178            9 
 2804000   0.80130854   -7.1167648    814.03721  0.024192737  0.023946821            8 
 2805000   0.81428881   -7.1048087    814.33422  0.024192936  0.023940464            9 
 2806000   0.79735006   -7.1307201    813.78826    0.0241681  0.023934109            5 
 2807000   0.80334642   -7.1061273    812.53605  0.024122315  0.023927765           10 
 2808000   0.79157332   -7.1318749    814.73135  0.024178874  0.023921369            7 
 2809000   0.80374755   -7.1074382    816.22699  0.024214637  0.023915005            8 
 2810000   0.79278577   -7.1050271    815.33614  0.024179601  0.023908652            5 
 2811000    0.8088489   -7.1370776    813.28279  0.024110127  0.023902252           13 
 2812000   0.79093873   -7.1307759    813.30713  0.024102274  0.023895849            7 
 2813000   0.80527144   -7.1391594    812.38747  0.024066461   0.02388942           11 
 2814000   0.79136946   -7.0799518    814.66572  0.024125377   0.02388301            7 
 2815000   0.79278929   -7.0932417    815.25396   0.02413422  0.023876637            6 
 2816000   0.78771073   -7.1293886    815.01951  0.024118712  0.023870217            9 
 2817000   0.79496539   -7.1159129    815.47019  0.024123482  0.023863833            9 
 2818000   0.79680396   -7.1194312     815.7234   0.02412241  0.023857437            8 
 2819000   0.78960627   -7.1506149    814.28504  0.024071333  0.023851023            6 
 2820000   0.80475405   -7.1139474    815.02462  0.024084652  0.023844652            7 
 2821000   0.81917483   -7.1306303    813.44844  0.024029553  0.023838261           16 
 2822000   0.81214089   -7.1152874    815.18465  0.024072308  0.023831908           11 
 2823000   0.78291869    -7.114133    816.26723  0.024095738  0.023825537            8 
 2824000   0.78093796   -7.1470253    815.35615  0.024060321  0.023819202            9 
 2825000   0.79705461   -7.1293341    816.73802  0.024092567  0.023812855           14 
 2826000   0.77833605   -7.1406704    815.30321  0.024041732  0.023806499           12 
 2827000   0.79937738   -7.1271955    814.62297  0.024013175  0.023800124            6 
 2828000   0.81082947   -7.1188457    816.54814  0.024061414  0.023793772           18 
 2829000   0.79619367    -7.121803    815.51687  0.024022531   0.02378739           12 
 2830000   0.79664616    -7.120944    815.46815  0.024012608  0.023781039           14 
 2831000   0.81804488   -7.1406638     815.5307  0.024005967  0.023774676            7 
 2832000   0.79367656   -7.1218797    815.80814  0.024005654  0.023768335            7 
 2833000   0.80405977   -7.0995243    817.41113  0.024044332  0.023762006            8 
 2834000   0.81230308    -7.122814    815.94521  0.023992743   0.02375567            7 
 2835000   0.79669816   -7.1497976    815.77011  0.023979133  0.023749304            8 
 2836000    0.7919777   -7.1465665    813.86107  0.023914583  0.023742893            5 
 2837000   0.78860502   -7.1323978    816.24578  0.023976201  0.023736518            6 
 2838000   0.80632162   -7.1512531    814.95434  0.023929831  0.023730154            8 
 2839000   0.79958126   -7.1173891    814.10638  0.023896512  0.023723814            9 
 2840000   0.79421896    -7.103041    817.77933  0.023995872  0.023717482           11 
 2841000   0.80633188   -7.1288557    817.91442  0.023991388  0.023711123            7 
 2842000   0.80203152   -7.1253875    816.92931  0.023954062  0.023704796           10 
 2843000    0.8031064   -7.1492002    817.69759  0.023968156  0.023698478           14 
 2844000   0.79911972   -7.1337031    817.39807  0.023950951  0.023692173            8 
 2845000    0.7962536   -7.1063451    815.54553   0.02388827  0.023685817            7 
 2846000   0.78061014   -7.1387891    815.95329  0.023891816  0.023679451            3 
 2847000   0.79020274   -7.1062579    817.60128  0.023931661  0.023673084            4 
 2848000    0.7910148   -7.1302993    817.63519  0.023924251   0.02366673            5 
 2849000   0.79749865   -7.1483046    816.13394  0.023871942  0.023660352            4 
 2850000   0.78435941   -7.1308372    817.36116  0.023899449  0.023653989            9 
 2851000   0.78721229   -7.1627376    816.64211  0.023870049  0.023647619            6 
 2852000   0.79316041   -7.1318342    816.30417  0.023851805   0.02364127            6 
 2853000   0.78938481   -7.1461087    816.50229  0.023849232  0.023634893            7 
 2854000   0.79956553    -7.119797    817.03951  0.023856561  0.023628501           11 
 2855000   0.80573251   -7.1278122    817.67971  0.023866892  0.023622123            7 
 2856000   0.79169205   -7.1412573    817.26631  0.023846473  0.023615759            7 
 2857000   0.80031631   -7.0916394    817.43707  0.023843107  0.023609434            8 
 2858000   0.78113985   -7.1348534    816.85451  0.023817778  0.023603097            5 
 2859000   0.80149535   -7.1234276    819.72632  0.023893154  0.023596745            9 
 2860000   0.81330878   -7.1359757    819.30564  0.023872542  0.023590389            9 
 2861000   0.78810273   -7.1110844    817.84604  0.023821683  0.023584036           14 
 2862000   0.81345962    -7.128994    817.10325  0.023791732  0.023577686            9 
 2863000   0.78536188   -7.1190483    816.47356  0.023765094  0.023571324            6 
 2864000   0.78155415   -7.1172963      817.747  0.023793849  0.023564927            6 
 2865000   0.79949271   -7.1449559    819.21451  0.023828229  0.023558562           11 
 2866000   0.80309698    -7.126942    817.12119  0.023759048  0.023552227            8 
 2867000   0.78415585   -7.1355976    816.46827  0.023731783  0.023545875           11 
 2868000   0.80334248   -7.1509105    817.00044  0.023738971  0.023539533           10 
 2869000    0.7845261    -7.145835    816.33512  0.023711372  0.023533151           15 
 2870000   0.79580724   -7.1576853    819.53389   0.02379599  0.023526768           17 
 2871000   0.78613018   -7.1612369    817.59433  0.023731404  0.023520432           15 
 2872000    0.7927062   -7.1191592    818.61497  0.023752756  0.023514086            9 
 2873000   0.77819568   -7.1661567    816.77129  0.023691011  0.023507719            9 
 2874000   0.79790435     -7.15149    818.59774  0.023735727  0.023501337           10 
 2875000   0.79179946   -7.1294727    820.13337  0.023771982  0.023495021            7 
 2876000   0.79451936   -7.1149389    821.29207   0.02379729  0.023488711            3 
 2877000   0.79323101   -7.1163263    819.74555  0.023744223  0.023482399            6 
 2878000   0.79580669   -7.1021415     820.4446  0.023756214  0.023476118            3 
 2879000   0.79204131   -7.1168603    819.67973  0.023725823  0.023469821            8 
 2880000   0.79701518   -7.1315979    818.82287  0.023692791  0.023463513            9 
 2881000   0.80462683   -7.1071597    820.85944  0.023743476  0.023457213            8 
 2882000   0.81035894   -7.1156158    819.77372  0.023703843  0.023450949           15 
 2883000   0.79835377   -7.1269928    818.76602  0.023666494   0.02344466            7 
 2884000   0.79115406   -7.1291932    820.67711  0.023713509  0.023438352            5 
 2885000   0.81890029   -7.1555431    821.76055  0.023736584  0.023432048           12 
 2886000   0.78169691   -7.1506368    819.67349  0.023668096  0.023425706            6 
 2887000   0.79827062   -7.1706133    820.54523   0.02368506  0.023419368            5 
 2888000   0.78920153   -7.1556413    820.19564  0.023666772  0.023413069            3 
 2889000   0.79716805   -7.1460494     821.3749  0.023692595  0.023406767            7 
 2890000   0.78841524   -7.1555046    821.11982  0.023677042  0.023400485            7 
 2891000   0.76730964   -7.1740145    819.42125  0.023619891  0.023394154            5 
 2892000   0.77532248   -7.1697077    820.18785  0.023633813  0.023387817            6 
 2893000   0.77655365   -7.1428241    821.98631  0.023677449  0.023381503            7 
 2894000   0.76956726   -7.1189903    821.84917  0.023665318  0.023375218            7 
 2895000   0.79864209   -7.1619458    819.83181  0.023599073  0.023368934           13 
 2896000   0.77843595    -7.174492    821.06565  0.023626429  0.023362637           13 
 2897000   0.79120179   -7.1487114    821.37333  0.023627124  0.023356337            4 
 2898000   0.77927279    -7.100755    823.51594  0.023680583  0.023350067            4 
 2899000    0.7779799   -7.1213465    820.11156  0.023574553  0.023343828            3 
 2900000   0.78284703   -7.1457891    823.12756  0.023653091  0.023337589            8 
 2901000   0.80519943   -7.1415288    822.80244  0.023635598  0.023331358            6 
 2902000   0.78722532   -7.1402839    821.35333  0.023585841  0.023325133            7 
 2903000   0.78529102   -7.1771429    821.07691  0.023569781  0.023318872           11 
 2904000   0.77538469   -7.1452052    822.84732  0.023612469  0.023312593            6 
 2905000   0.79568162   -7.1173364    822.78289  0.023602492  0.023306365            7 
 2906000   0.78105079    -7.142543    820.56965  0.023530903  0.023300125           11 
 2907000   0.79009987   -7.1394009    824.18078  0.023626327  0.023293909           17 
 2908000   0.80221538   -7.1601431    820.82072  0.023521914  0.023287694            3 
 2909000   0.76630728   -7.1239814    822.50008  0.023561936  0.023281436            6 
 2910000   0.78618765   -7.1584529    823.78842  0.023590734  0.023275186            5 
 2911000   0.78501059   -7.1451121    823.51095  0.023574687  0.023268943            5 
 2912000    0.7931598   -7.1300293    822.02259  0.023523998  0.023262682            9 
 2913000   0.77643189   -7.1798829    821.98497  0.023514846   0.02325642           15 
 2914000   0.79278323   -7.1302083    823.63961  0.023554095  0.023250161            8 
 2915000   0.80605788   -7.1535174    823.43583   0.02354019  0.023243906            9 
 2916000   0.76408545   -7.1768351    821.52166  0.023477414  0.023237624            6 
 2917000   0.78706317   -7.1551086    821.07744  0.023456675  0.023231305           11 
 2918000   0.79540459   -7.1544858      824.529  0.023547207  0.023225006            8 
 2919000   0.77836385   -7.1770607    821.37581  0.023449121  0.023218722            4 
 2920000   0.80105018   -7.1626717    823.45364  0.023500389  0.023212424            5 
 2921000   0.78584061   -7.1448756    822.90283   0.02347663  0.023206151            8 
 2922000   0.78105462    -7.151105    823.87191  0.023496233  0.023199876            8 
 2923000   0.78199385   -7.1536955    823.82488  0.023486854  0.023193596            8 
 2924000   0.76821348   -7.1525897    825.11976  0.023515725   0.02318733           13 
 2925000   0.77129447   -7.1606802     823.0809  0.023449598  0.023181064            9 
 2926000   0.77194553    -7.178888    822.56873  0.023426997  0.023174747            9 
 2927000   0.76359139   -7.1423382    825.43593  0.023500624  0.023168453            5 
 2928000   0.78221394   -7.1372106    824.46847  0.023465064  0.023162165            5 
 2929000   0.78948059   -7.1417454    822.73298  0.023407676  0.023155905           10 
 2930000   0.79823717   -7.1425986    823.04183  0.023408471   0.02314962            4 
 2931000   0.77700862   -7.1591693    822.90455  0.023396581  0.023143335            8 
 2932000   0.76916067     -7.17653    822.69318  0.023382594  0.023137058           11 
 2933000   0.78402744    -7.196962    824.85293  0.023435985   0.02313077            6 
 2934000   0.76778446   -7.1702447    823.40495  0.023386871  0.023124475           12 
 2935000   0.76807461   -7.1570194     821.9912  0.023338762  0.023118178            6 
 2936000   0.77437158   -7.1442446    822.98331  0.023358972  0.023111863            7 
 2937000   0.78737026   -7.1648223    822.91523  0.023349087  0.023105558            7 
 2938000    0.7816365   -7.1458645    823.70673   0.02336359  0.023099255            2 
 2939000   0.78616305    -7.187625    823.91604  0.023361575  0.023092994            8 
 2940000   0.80548273   -7.1538184    823.87139  0.023352364  0.023086728           11 
 2941000   0.80598437     -7.14047    822.91088  0.023317207   0.02308048            7 
 2942000   0.78043444   -7.1471589    826.35657  0.023406882  0.023074242           10 
 2943000   0.78580194   -7.1497519    825.65529  0.023379072  0.023067994           12 
 2944000   0.77101531   -7.1657039    823.84209  0.023319805  0.023061733           10 
 2945000   0.77156045     -7.16133    824.79858  0.023338952  0.023055475            5 
 2946000   0.78912647   -7.1577044    824.06664  0.023310326  0.023049203            4 
 2947000   0.76192092   -7.1652111    824.46043  0.023313551  0.023042907            9 
 2948000   0.77720188   -7.1540352    825.60974  0.023338132  0.023036604            7 
 2949000   0.77491643   -7.1566227    824.31673  0.023293679  0.023030331           12 
 2950000   0.77646442    -7.190734    824.89835  0.023302213  0.023024069           17 
 2951000   0.79244835   -7.1707295    826.03108  0.023326304  0.023017787            6 
 2952000    0.7837723   -7.1679821    824.30985  0.023269813  0.023011536            6 
 2953000   0.78523561   -7.1212803    825.23931  0.023288162  0.023005288            6 
 2954000   0.76706514   -7.1736247    825.36296  0.023283767   0.02299905           15 
 2955000   0.78279143   -7.1290584    826.38166  0.023304615  0.022992813           11 
 2956000    0.7665299   -7.1675659    825.96648  0.023285027  0.022986589            6 
 2957000   0.77700984   -7.1670407    825.15005  0.023254144  0.022980351            7 
 2958000    0.7884086   -7.1592625    823.64383  0.023203849  0.022974129           12 
 2959000    0.7794174   -7.1447069    829.59041  0.023363479  0.022967931           10 
 2960000   0.77093994   -7.1462632     827.0419  0.023283837  0.022961709            5 
 2961000   0.78007464   -7.1608709    827.81988  0.023297869   0.02295546           10 
 2962000   0.78464846   -7.1522429    826.34918  0.023248627  0.022949227           24 
 2963000   0.77600407   -7.1702444    824.46482  0.023187783  0.022942979            6 
 2964000   0.76855071   -7.1680332    825.97189  0.023222332   0.02293674            9 
 2965000   0.78203626   -7.1416373    827.89437  0.023268532  0.022930509            8 
 2966000   0.77663112   -7.1797563     827.5184  0.023250124  0.022924346           25 
 2967000   0.80032289   -7.1580994    826.84739  0.023223441  0.022918176            3 
 2968000    0.7794624   -7.1806032    827.03816  0.023220973  0.022911999            9 
 2969000    0.7923397   -7.1687632    828.61372  0.023257374  0.022905777            9 
 2970000   0.78942938   -7.1853176    827.13882   0.02320816  0.022899558           10 
 2971000    0.7617521   -7.1948336    826.49981  0.023182425  0.022893354            5 
 2972000   0.78215165   -7.1675506    828.63454  0.023234481  0.022887153           10 
 2973000   0.76609817   -7.1824841    827.28475  0.023188831   0.02288096            7 
 2974000   0.78539508   -7.1819378    827.47583  0.023186388  0.022874775            5 
 2975000   0.76977989   -7.1630826    828.78201  0.023215182  0.022868604            6 
 2976000   0.76378966   -7.1651951    828.50967  0.023199755  0.022862419           12 
 2977000   0.78042039   -7.1625957    830.32524  0.023242785   0.02285628            7 
 2978000   0.77696093   -7.1525818    829.36918  0.023208226   0.02285015           14 
 2979000   0.79270111   -7.1705335    828.21559  0.023168166  0.022844014            8 
 2980000   0.77549208   -7.1609472     829.5569    0.0231979  0.022837837           24 
 2981000   0.78568464   -7.1469437    828.51029   0.02316086  0.022831701           25 
 2982000   0.76838618   -7.2085986    828.19782  0.023144361   0.02282554           14 
 2983000   0.78362513   -7.1864408    829.57163  0.023174981  0.022819375           13 
 2984000   0.77185417   -7.1636519    830.54999  0.023194537  0.022813215           10 
 2985000    0.7815782   -7.1494026    828.20662  0.023121346  0.022807079            8 
 2986000   0.77917558   -7.1815749    829.36718  0.023145992  0.022800944            8 
 2987000   0.76752991   -7.1623804    827.61674  0.023089408  0.022794786            7 
 2988000   0.76721999   -7.1681746    829.31734  0.023129109  0.022788641            3 
 2989000   0.75548551       -7.182    828.91908  0.023110268  0.022782487            8 
 2990000    0.7731118   -7.1896549    829.85676  0.023128672  0.022776314            6 
 2991000    0.7882734   -7.1298211    829.30761  0.023105639  0.022770192            6 
 2992000   0.77179665   -7.1722279    830.53347   0.02313206   0.02276406           12 
 2993000   0.76576382   -7.1712264    830.40445  0.023120739  0.022757928           10 
 2994000   0.78538544   -7.1695461    830.01015  0.023102041  0.022751798           11 
 2995000   0.76761785   -7.1752159    829.33374  0.023075507  0.022745661           13 
 2996000   0.76640249   -7.1928204    828.87267  0.023054981  0.022739485           18 
 2997000   0.76409535   -7.1871872    828.11013  0.023026085  0.022733316            9 
 2998000   0.77982847   -7.1776238    829.06046   0.02304482  0.022727191            8 
 2999000    0.7524772   -7.2004858    829.58516  0.023051716  0.022721072           17 
 3000000   0.76882944   -7.1826195    831.29743  0.023091595  0.022714936           15 
 3001000     0.781739   -7.1863634    830.24563  0.023054694  0.022708867            9 
 3002000   0.75481207   -7.1717972    830.08788  0.023042635  0.022702802            4 
 3003000    0.7730261   -7.1614759    831.68045  0.023079156  0.022696718           10 
 3004000   0.77354655   -7.1953607     831.8886  0.023077247  0.022690652           11 
 3005000    0.7744904   -7.1728451     832.4412  0.023084892  0.022684609            7 
 3006000   0.77402002   -7.1712614    832.84931  0.023088526  0.022678553           17 
 3007000   0.77674912   -7.1739303    830.42073  0.023013544  0.022672488            7 
 3008000   0.77409552   -7.1565415    831.60951  0.023038827  0.022666406            5 
 3009000   0.76517657   -7.1710857    830.95288  0.023012986  0.022660343           14 
 3010000   0.76870347   -7.1670103    831.98448    0.0230339  0.022654306            4 
 3011000   0.77126779    -7.151103    832.95426   0.02305309  0.022648265           12 
 3012000   0.76633348   -7.1859392    833.90008  0.023071605  0.022642197            9 
 3013000   0.76076335   -7.2113757    832.29948  0.023019678  0.022636104           18 
 3014000   0.76490199   -7.1897484     830.8908  0.022973092  0.022630059            9 
 3015000     0.747396   -7.1795803    831.35324  0.022978254     0.022624            7 
 3016000   0.77033411   -7.1725798     833.0411  0.023017272   0.02261794            6 
 3017000   0.76325698   -7.1638257    834.47727  0.023049312  0.022611923            9 
 3018000   0.76668046   -7.1897394    833.52854  0.023015478  0.022605913            8 
 3019000    0.7814682    -7.181674    834.00741  0.023021072  0.022599885           22 
 3020000   0.77543646   -7.1953808     833.0407  0.022986774  0.022593831           18 
 3021000   0.77412153   -7.1862112    833.71894  0.022997874  0.022587775            6 
 3022000   0.77726022   -7.1668002    832.67726  0.022961539  0.022581723            6 
 3023000   0.78286552   -7.1424501    833.80017  0.022984898  0.022575693           13 
 3024000   0.76389169   -7.1898344    832.96955  0.022954408  0.022569606            8 
 3025000   0.77180404   -7.1817358    832.05312  0.022921574   0.02256351            9 
 3026000   0.75935323   -7.1833955    833.66891  0.022958496  0.022557444           15 
 3027000   0.77981513   -7.2024638    832.46439  0.022917751  0.022551358           23 
 3028000   0.78105407   -7.1820056    831.05571  0.022871414  0.022545252            6 
 3029000   0.76550178   -7.1713158    830.89006  0.022859306  0.022539145            6 
 3030000   0.76227343   -7.1994214    832.72939  0.022902348  0.022533027            6 
 3031000   0.76647825   -7.1877577    832.03446  0.022875686  0.022526884           17 
 3032000   0.77194317   -7.2074898    834.28266  0.022929932  0.022520742            7 
 3033000   0.76291778   -7.1996383    832.33584  0.022868882   0.02251465            8 
 3034000   0.76493337   -7.2014023    834.20176  0.022912595  0.022508571            7 
 3035000   0.75115775   -7.1953204    833.50549  0.022885928  0.022502484            7 
 3036000   0.77041552   -7.2147466    833.91546  0.022889643  0.022496398            6 
 3037000   0.75299717   -7.1704441    832.97079  0.022856185  0.022490334            8 
 3038000   0.76810502   -7.1930771    832.53039  0.022836581  0.022484235            7 
 3039000   0.78036344   -7.1911408    833.05181  0.022843364   0.02247819           11 
 3040000   0.76567994   -7.1957568    833.07688  0.022836537  0.022472138            9 
 3041000   0.75573149   -7.1966181    831.81021  0.022794317   0.02246607            7 
 3042000   0.75392904   -7.1832274    834.44999  0.022859138  0.022460027           11 
 3043000   0.75357237   -7.1791816    836.13853  0.022897867  0.022453998           10 
 3044000   0.77524994   -7.1892043    832.21152  0.022782838  0.022447966            9 
 3045000   0.77143551   -7.1967371    833.54521  0.022811856  0.022441885           16 
 3046000   0.76270404   -7.2268797    831.26385  0.022741952  0.022435781           15 
 3047000   0.75673717   -7.2177477    831.39611  0.022738106  0.022429715           10 
 3048000   0.77139507   -7.1919216    834.98453  0.022828755  0.022423659           12 
 3049000   0.76626987   -7.2401847    833.66735  0.022785267   0.02241762            9 
 3050000   0.75865128   -7.1980713    834.13796  0.022790655  0.022411575            9 
 3051000   0.76361307   -7.1795187    834.58963  0.022795521  0.022405562           13 
 3052000   0.75933891   -7.2022816     834.8328  0.022794692  0.022399541           13 
 3053000   0.75757332    -7.180693    834.93805  0.022790099  0.022393522            8 
 3054000    0.7377073   -7.2011668    833.98457  0.022756619  0.022387482            6 
 3055000   0.76724377   -7.2089145    832.62279  0.022712024  0.022381445            9 
 3056000   0.75300575    -7.205765    832.09123  0.022690097  0.022375386            9 
 3057000   0.77951965   -7.2123894    834.41629  0.022746055  0.022369332            4 
 3058000   0.75028273   -7.1697718    835.23944  0.022761049  0.022363294           12 
 3059000   0.75412487   -7.1941215    836.28977  0.022782221  0.022357261            8 
 3060000   0.77705892   -7.2021374    834.34497  0.022721813  0.022351278           13 
 3061000   0.75730477   -7.2044688    834.47858  0.022718027  0.022345261           25 
 3062000   0.76654683   -7.1909682    835.51779   0.02273889  0.022339245           11 
 3063000   0.76194915   -7.2077153    835.69066   0.02273617  0.022333257           10 
 3064000   0.74773995   -7.2050729    836.11935  0.022740409   0.02232723            9 
 3065000    0.7768286   -7.2338564    835.27682  0.022710082  0.022321195            9 
 3066000   0.76555627   -7.2037702    835.44575  0.022707266  0.022315137            7 
 3067000   0.74387635   -7.2041262    835.75841  0.022708358  0.022309077           11 
 3068000   0.75539054   -7.1870495    835.01486   0.02268076  0.022303049            7 
 3069000   0.77008981   -7.2022254    835.73387  0.022692893  0.022297059           14 
 3070000   0.74793139   -7.1895021    836.27894  0.022700297   0.02229105            8 
 3071000   0.78163205   -7.1798098    837.09557  0.022715065  0.022285034           10 
 3072000    0.7512655   -7.2153222    835.16629  0.022655336  0.022279016            8 
 3073000   0.75930962   -7.2309666    834.97955  0.022642899  0.022272978           12 
 3074000   0.76191702   -7.1878555     835.7037  0.022655164  0.022266949           10 
 3075000   0.76052431   -7.2269523    835.29508  0.022636723  0.022260939            7 
 3076000   0.77000032   -7.1967513    836.20444     0.022654  0.022254948            6 
 3077000   0.76500073   -7.2184829    837.24033  0.022674692  0.022248985           12 
 3078000   0.76568225   -7.2367442    836.22526  0.022639844  0.022242999            6 
 3079000   0.75700969   -7.2509403    835.81169  0.022621297  0.022237009            6 
 3080000   0.77467454   -7.2184794    836.42218   0.02263047   0.02223101            6 
 3081000    0.7475596   -7.2086336    837.63385  0.022655898  0.022225061            4 
 3082000   0.75010275     -7.20706    838.18072  0.022663333  0.022219076            7 
 3083000   0.76531174   -7.2085883     836.5643  0.022612291  0.022213102            5 
 3084000   0.76696937   -7.1845572    838.53454  0.022658197  0.022207155            4 
 3085000   0.76269779   -7.2169474    839.64338  0.022680805  0.022201209            7 
 3086000   0.75461291   -7.2140517    837.87243  0.022625633  0.022195276            3 
 3087000    0.7540778   -7.2087649     838.3509   0.02263122  0.022189324           10 
 3088000   0.76155462   -7.1789861    836.58312  0.022576185  0.022183354           14 
 3089000   0.76528522   -7.2035621    839.91337  0.022658718  0.022177452           13 
 3090000   0.75868462   -7.1804175    839.04264  0.022627903  0.022171537            7 
 3091000     0.755367   -7.2238797    837.87427  0.022589083  0.022165625            9 
 3092000   0.74193078   -7.2154922    838.71682  0.022604485  0.022159669           11 
 3093000   0.75669614   -7.1917774    839.24784  0.022611484  0.022153709           12 
 3094000   0.76017629   -7.2031899     839.0074    0.0225977  0.022147765            7 
 3095000   0.73794295   -7.2008641    838.71539  0.022582536  0.022141816            8 
 3096000   0.75049002   -7.2196247    837.88573   0.02255291  0.022135858            7 
 3097000   0.73028832   -7.2136046    838.43416  0.022560385  0.022129872            9 
 3098000   0.76578091    -7.231211    837.37752   0.02252468  0.022123928           15 
 3099000   0.76422866    -7.213979    836.56849  0.022495657  0.022117997           13 
 3100000   0.73646804   -7.1879659    837.80539   0.02252165  0.022112108           11 
 3101000   0.75275746   -7.1986643    839.31955  0.022555078  0.022106199           14 
 3102000     0.775354   -7.1769435    838.11237  0.022515376  0.022100281            7 
 3103000   0.75667614   -7.2036017    836.98995  0.022477977  0.022094352            7 
 3104000   0.76414237   -7.2129794    839.20394  0.022530175  0.022088434            4 
 3105000   0.73807547   -7.2264465    837.62476  0.022480536   0.02208247            6 
 3106000   0.75915215   -7.1984915    839.40064  0.022520944  0.022076518           10 
 3107000   0.75341138   -7.2056565    838.18818  0.022481176  0.022070567            5 
 3108000   0.75939089   -7.1974674    841.10793  0.022552229  0.022064606           11 
 3109000   0.72951705   -7.2228976    838.17373  0.022466327  0.022058668           11 
 3110000   0.75329404   -7.2151353    838.20022  0.022459813  0.022052714           14 
 3111000   0.74684054   -7.2233425    838.61697  0.022463757  0.022046752            7 
 3112000   0.75777743   -7.2117956    838.52175  0.022453989  0.022040787           17 
 3113000   0.74446854   -7.2227116    838.06521  0.022434554  0.022034797           10 
 3114000    0.7555975   -7.2261481    839.69313  0.022470914  0.022028842           12 
 3115000   0.75275024   -7.2184504    838.43802  0.022430124   0.02202287            8 
 3116000   0.76605922   -7.2243758    839.60097  0.022454027  0.022016916           11 
 3117000   0.76337643   -7.2139243    839.76749  0.022451275  0.022010959            9 
 3118000   0.74990714   -7.2334118    840.51546  0.022464065  0.022005007            8 
 3119000   0.77594843   -7.2090147    842.10492   0.02249933  0.021999068           12 
 3120000   0.75966381   -7.2024681    840.26305  0.022442923  0.021993132           11 
 3121000   0.76163015   -7.2067591    841.22714  0.022461474    0.0219872           11 
 3122000   0.74321233   -7.2545517    840.01303  0.022421872  0.021981239            9 
 3123000   0.76477375   -7.2140664    839.17156  0.022392239  0.021975276           17 
 3124000   0.75552487   -7.2229604     838.1552   0.02235796  0.021969301           12 
 3125000    0.7481188   -7.2322513    838.65925  0.022364247  0.021963338            9 
 3126000   0.73035478   -7.2102459    840.27256    0.0224001  0.021957365           18 
 3127000   0.75533154   -7.1951214    840.58449  0.022401249  0.021951427           11 
 3128000   0.76857021    -7.211548    839.61449  0.022368246  0.021945473            8 
 3129000   0.74767697   -7.2242563    839.90817  0.022368919  0.021939534            8 
 3130000   0.75818962   -7.2020172    840.73271  0.022383725  0.021933598            6 
 3131000   0.74235109   -7.2409666    838.53954  0.022318203  0.021927642           12 
 3132000   0.74495059   -7.2036059     840.0415   0.02235104  0.021921687            4 
 3133000   0.75350049   -7.2066311    839.72819  0.022335573  0.021915745           18 
 3134000   0.73912037   -7.2461224    838.92518  0.022307094  0.021909824           14 
 3135000   0.73779395   -7.2192568    839.80714  0.022323422   0.02190388            6 
 3136000   0.73570589    -7.224358    837.71916   0.02226082  0.021897927            9 
 3137000   0.74710414   -7.2203947    838.21724  0.022266955  0.021891987           39 
 3138000   0.74663827   -7.2297016    840.99662  0.022333668  0.021886015            9 
 3139000   0.74022665   -7.2157675    839.35801  0.022283052  0.021880055           10 
 3140000   0.73864191   -7.1933911    839.37225  0.022276334  0.021874116            7 
 3141000   0.75486727   -7.2218121    839.46545  0.022271714  0.021868163            9 
 3142000   0.73842556   -7.2282747    838.71837  0.022244811  0.021862211            9 
 3143000   0.75264339   -7.2567905    839.45307  0.022257214  0.021856217            5 
 3144000   0.75029224   -7.2388616    841.15804  0.022295326  0.021850267           12 
 3145000   0.73278062   -7.2427092    839.59328  0.022246775   0.02184433            7 
 3146000   0.74851268   -7.2313002    841.90149  0.022300845  0.021838387            5 
 3147000   0.75170667   -7.2092773    840.90742  0.022267435  0.021832464            4 
 3148000   0.74835228    -7.229574    840.57519  0.022251567   0.02182656            5 
 3149000   0.74944396    -7.239692    840.28683   0.02223687  0.021820644            9 
 3150000    0.7602984   -7.2080007    841.68437  0.022266782  0.021814721            6 
 3151000   0.75300365    -7.239471    841.53153  0.022255674  0.021808805            6 
 3152000   0.75537693   -7.2385099    839.59457  0.022197403  0.021802868            7 
 3153000   0.75189468     -7.23108    838.88358  0.022171571  0.021796938           14 
 3154000   0.75697137   -7.2094103    840.38804  0.022204292  0.021791015            5 
 3155000    0.7359424   -7.2153355    839.52916  0.022174568  0.021785089            7 
 3156000   0.73033053   -7.2334634    841.83366  0.022228392  0.021779167            8 
 3157000   0.75468894   -7.2013518    842.64708  0.022242822  0.021773242            8 
 3158000   0.73415538   -7.2154328    841.59805  0.022208097  0.021767316            9 
 3159000   0.75232196   -7.2394253    840.52532  0.022172769   0.02176139           12 
 3160000   0.76281045    -7.238639    839.93995  0.022150315  0.021755425            6 
 3161000   0.75376293    -7.240857    841.35407  0.022180588  0.021749474            8 
 3162000   0.74586071   -7.2324773    839.99362  0.022137719  0.021743543            7 
 3163000   0.74676355   -7.2485794    841.65601  0.022174518  0.021737605           11 
 3164000   0.74534394   -7.2319219      841.024  0.022150864  0.021731667            7 
 3165000   0.73492655    -7.227178    838.55588   0.02207888  0.021725718            5 
 3166000   0.73674563   -7.2384108     841.7812  0.022156802  0.021719769           13 
 3167000   0.73590538   -7.2412491    841.41352  0.022140131  0.021713837           13 
 3168000   0.76337299   -7.2439394    841.81119  0.022143602  0.021707899            7 
 3169000   0.74260133   -7.2291103    840.43866  0.022100522   0.02170196           26 
 3170000   0.76194957   -7.2638078    840.67137  0.022099668  0.021695992           21 
 3171000   0.74373701   -7.2601234    840.51337  0.022088546  0.021690051           17 
 3172000   0.74884185   -7.2373125    842.41184  0.022131459  0.021684117           16 
 3173000   0.74970867    -7.248667     842.5541   0.02212822  0.021678165            9 
 3174000    0.7503372   -7.2243279    841.56745  0.022095344  0.021672218            8 
 3175000   0.72294883   -7.2181274    840.97582  0.022072856  0.021666259           13 
 3176000   0.75863321   -7.2418394    841.01799  0.022067013  0.021660328           13 
 3177000   0.74810618   -7.2463495    841.30167  0.022067508  0.021654406           13 
 3178000   0.75647023   -7.2343075    841.45738  0.022064647  0.021648499           10 
 3179000   0.73031889   -7.2445448    841.17014  0.022050177  0.021642585           14 
 3180000   0.74526615   -7.2510046    842.82527  0.022086616  0.021636639           12 
 3181000   0.73479356   -7.2110767    840.97057  0.022031085  0.021630698           14 
 3182000   0.76105773   -7.2464588    842.93063  0.022075493  0.021624794            8 
 3183000   0.73017684    -7.209791    841.71304   0.02203668  0.021618901           16 
 3184000   0.73376555   -7.2508481    840.58796  0.022000313  0.021613004           25 
 3185000   0.75280674    -7.220658     843.3962  0.022066881  0.021607092           11 
 3186000    0.7399208   -7.2338311    843.61259  0.022065615  0.021601201           12 
 3187000   0.74420287   -7.2446417    841.98379  0.022016102  0.021595307            9 
 3188000   0.73801076   -7.2561378    841.22347  0.021989321  0.021589396           19 
 3189000   0.72845292   -7.2421148     842.7876  0.022023299  0.021583481            5 
 3190000   0.75573712   -7.2565787    843.61431  0.022037991  0.021577572            7 
 3191000   0.74870229   -7.2578141    843.50102  0.022028126   0.02157166            8 
 3192000   0.75414572   -7.2448646    841.88264  0.021978974  0.021565747            7 
 3193000   0.75905429   -7.2565991    843.10549  0.022004006  0.021559847           10 
 3194000       0.7229   -7.2335312     843.2582  0.022001101  0.021553957           15 
 3195000   0.73852743   -7.2859406    841.12462  0.021938566  0.021548067            5 
 3196000   0.73204834   -7.2738088    843.34564  0.021989613  0.021542146           12 
 3197000   0.74649993   -7.2524389    842.29966   0.02195547  0.021536253           13 
 3198000   0.73204055   -7.2484648    843.15783  0.021970967   0.02153035            7 
 3199000   0.73957148   -7.2509611    842.66017  0.021951135  0.021524438           18 
 3200000   0.73297661    -7.229772    842.79019  0.021947661   0.02151853           26 
 3201000   0.73993886   -7.2383102    844.33064  0.021980908  0.021512657            7 
 3202000    0.7465717   -7.2544558    843.63615  0.021955969  0.021506795            9 
 3203000   0.73773773   -7.2526321      843.987  0.021958242  0.021500921            7 
 3204000   0.74994539   -7.2690755    843.27544  0.021932882  0.021495025           15 
 3205000   0.74293477   -7.2758975    842.43535  0.021904195  0.021489137            9 
 3206000     0.728362   -7.2655231    842.76111  0.021905831  0.021483234           12 
 3207000   0.74225194   -7.2408453    844.40057  0.021941601  0.021477334            8 
 3208000   0.74187001   -7.2424322    842.15358  0.021876392  0.021471471           17 
 3209000   0.74170728    -7.262598    842.88565  0.021888586  0.021465572            9 
 3210000   0.73178702    -7.231708    844.10263   0.02191336  0.021459656           10 
 3211000   0.75736282   -7.2761653    843.69866  0.021896052   0.02145377           13 
 3212000   0.72776221   -7.2575315    844.86316  0.021919447  0.021447878            6 
 3213000    0.7432201   -7.2495866    843.86577  0.021886756  0.021441998            6 
 3214000   0.72498248   -7.2602564    843.52168  0.021871025  0.021436123            6 
 3215000   0.73030932   -7.2576352    845.08608  0.021904771   0.02143027           27 
 3216000   0.74566639   -7.2822394    843.53704  0.021857821  0.021424403            9 
 3217000   0.72470668   -7.2650159    844.69381  0.021880992  0.021418532           16 
 3218000   0.75172733   -7.2619472     844.8624  0.021878558  0.021412648            9 
 3219000   0.74295489   -7.2766036    846.92702   0.02192521  0.021406773            5 
 3220000   0.72974994   -7.2662415    843.97491  0.021842001  0.021400899           10 
 3221000   0.74386676   -7.2423365    844.07122  0.021837711  0.021395008           20 
 3222000   0.74183056   -7.2278343    846.79992  0.021901508  0.021389142           25 
 3223000   0.73854431   -7.2597938    844.91759  0.021846044  0.021383311           11 
 3224000   0.74372373   -7.2641778    846.02211  0.021867817  0.021377468           35 
 3225000   0.73465411   -7.2160553    847.04781   0.02188754  0.021371625           15 
 3226000   0.72613504   -7.2583122     845.5948  0.021843222  0.021365794            6 
 3227000   0.73140606   -7.2643346    847.50889  0.021885882  0.021359981            9 
 3228000   0.72801752   -7.2650569    845.21951      0.02182  0.021354146            7 
 3229000   0.73850909    -7.264942    844.20656    0.0217871  0.021348324            9 
 3230000   0.73536578   -7.2522865    845.21072  0.021806262  0.021342487           12 
 3231000   0.73109838   -7.2504652    845.32278  0.021802403  0.021336672            9 
 3232000   0.73109664   -7.2777228    845.99356  0.021812953  0.021330866           12 
 3233000   0.72873883   -7.2650877    847.47135  0.021844297  0.021325063           13 
 3234000   0.71520914    -7.250296    846.98176  0.021824927  0.021319257           11 
 3235000   0.73163129   -7.2403806     845.6574  0.021784065  0.021313482           10 
 3236000   0.72155832   -7.2436509    845.38373  0.021770286  0.021307725           11 
 3237000    0.7474014   -7.2642497    847.67498  0.021822546  0.021301945            5 
 3238000   0.74693991   -7.2565997    846.16595   0.02177697  0.021296164            7 
 3239000   0.74057295   -7.2413243    848.25559  0.021824009  0.021290403            7 
 3240000   0.72166715   -7.2374478    848.21629  0.021816263  0.021284665            7 
 3241000   0.74245527   -7.2539405    847.31703  0.021786409  0.021278923            7 
 3242000   0.72831876   -7.2524477    849.50982  0.021836053  0.021273156           22 
 3243000   0.72085785    -7.266243     848.0171  0.021790963  0.021267403            9 
 3244000   0.72102965   -7.2529937    849.00023    0.0218095  0.021261628           10 
 3245000   0.74070065   -7.2354005    847.65092  0.021768128   0.02125588           10 
 3246000   0.71676699   -7.2618044    848.19824  0.021775474  0.021250147            7 
 3247000   0.72098892   -7.2646406    849.95816  0.021813935  0.021244431            4 
 3248000   0.71392717   -7.2640594    848.87187  0.021779348  0.021238717            7 
 3249000   0.74140759   -7.2594287    849.52421  0.021789376  0.021233002           14 
 3250000   0.73386992   -7.2534606    848.98935  0.021768958  0.021227294           12 
 3251000   0.73317204   -7.2343602    849.70255  0.021780543   0.02122158            9 
 3252000   0.73421543   -7.2561629    850.25194  0.021787924  0.021215894            9 
 3253000   0.73283534   -7.2551722    850.29479  0.021782324  0.021210195           10 
 3254000   0.72479538   -7.2569392    848.35786  0.021726026  0.021204486            5 
 3255000   0.73901302    -7.268437    848.98174  0.021735324  0.021198764           11 
 3256000     0.727993   -7.2947714    848.84946  0.021725263  0.021193052           20 
 3257000   0.72583626   -7.2917212    848.73618  0.021715694  0.021187309           11 
 3258000   0.72680191   -7.3035449    848.67544  0.021707475  0.021181568           18 
 3259000   0.74235664   -7.2740244    849.19431  0.021714082  0.021175822           18 
 3260000   0.71761835   -7.2663163    850.64322  0.021744459  0.021170097           12 
 3261000   0.72762909   -7.2675079    849.19906  0.021700886  0.021164373           12 
 3262000    0.7083077   -7.2621181    850.77047  0.021734377  0.021158652            6 
 3263000   0.74837667   -7.2691172    849.06615   0.02168419  0.021152927           14 
 3264000   0.72314321   -7.2548015    850.41828  0.021712068  0.021147213            9 
 3265000   0.72715038   -7.2638351    848.46058  0.021655451  0.021141501            7 
 3266000   0.73395907   -7.2871955    847.67757  0.021628842  0.021135762            9 
 3267000   0.71802861   -7.2713474    848.52178  0.021643755  0.021130025           15 
 3268000   0.72246557   -7.2617309    847.66559    0.0216153  0.021124281           20 
 3269000   0.72427196   -7.3079861    846.71637   0.02158449  0.021118509           12 
 3270000   0.74475015   -7.2853008    849.31246  0.021644049  0.021112734           11 
 3271000   0.71685756   -7.2763527    849.68343  0.021646882  0.021106953            4 
 3272000   0.73170311   -7.2796944    848.55416  0.021611506  0.021101197           12 
 3273000   0.72273643    -7.279252    846.97618  0.021564726  0.021095433           13 
 3274000    0.7198002   -7.2906397    848.41547  0.021594774  0.021089662            8 
 3275000   0.72603512   -7.3000862    847.70555  0.021570116  0.021083899            9 
 3276000   0.72977182   -7.2746217     847.0694   0.02154735  0.021078135           10 
 3277000   0.73858743    -7.279878    848.79946  0.021584769  0.021072363            9 
 3278000   0.75259495   -7.2896233    846.25667  0.021513542  0.021066593            8 
 3279000   0.73985268   -7.2975591    848.42887  0.021562185  0.021060811           17 
 3280000     0.723217   -7.2706423    850.34949  0.021604408  0.021055039            9 
 3281000   0.72882219   -7.2907926    849.10609  0.021566242  0.021049265           11 
 3282000   0.72786677   -7.2815433    848.66617  0.021548501  0.021043516            7 
 3283000   0.71276367   -7.3061742    847.96871  0.021524234  0.021037742           13 
 3284000   0.73030287   -7.2624576    848.37198  0.021527913  0.021031973           11 
 3285000   0.72237435   -7.2931788    848.06964  0.021513689  0.021026201           11 
 3286000   0.71641948   -7.3065458    847.49567  0.021492587  0.021020421           19 
 3287000   0.74813939   -7.2905015    848.27828  0.021505889  0.021014672            9 
 3288000   0.72630318   -7.2729511    847.27183   0.02147384  0.021008922           14 
 3289000   0.72846597   -7.2603691    849.38565  0.021520869  0.021003193           15 
 3290000   0.73413249   -7.2863087    849.20069  0.021509642  0.020997447           28 
 3291000   0.73987855   -7.2500449    851.66483  0.021565503  0.020991736            6 
 3292000   0.72845747   -7.3009079    849.31074   0.02149936  0.020986031           24 
 3293000    0.7171817   -7.3067626    847.36535  0.021443601  0.020980273           22 
 3294000   0.73923661   -7.2983874    849.68568  0.021495792   0.02097452           11 
 3295000   0.73632492   -7.2536079    851.06659  0.021524193  0.020968797            8 
 3296000   0.72980089   -7.2693936    850.26561  0.021497411  0.020963075            8 
 3297000   0.73962781   -7.2707037    848.05258  0.021434956  0.020957342           18 
 3298000   0.71666893   -7.2778603    849.54348  0.021466128  0.020951589            7 
 3299000   0.74408382   -7.2734413    847.85433  0.021416953  0.020945844            5 
 3300000   0.71625184   -7.2652165    849.07814  0.021441367  0.020940091            8 
 3301000   0.73147798   -7.2873916     849.1809  0.021437466  0.020934344            6 
 3302000   0.72753173   -7.2964462    849.78675  0.021446264  0.020928589           11 
 3303000   0.72105296   -7.3000999    847.98507  0.021394315  0.020922821            8 
 3304000   0.70724219   -7.2720245    847.50329  0.021375688  0.020917043           11 
 3305000    0.7108632   -7.2839664    848.90267  0.021404505  0.020911272           13 
 3306000   0.71601518    -7.292821    849.45814  0.021412032  0.020905497           10 
 3307000   0.72123773   -7.3130689      848.043  0.021369897  0.020899735           21 
 3308000   0.72042816   -7.2795908    848.54155  0.021375996  0.020893973           11 
 3309000   0.72015597   -7.2784076     848.7082  0.021373733  0.020888219           14 
 3310000   0.70644252   -7.2876327    849.63522  0.021390615  0.020882447           13 
 3311000   0.71883218   -7.2795888     849.2249  0.021373827  0.020876695           14 
 3312000   0.70593784   -7.2822486    849.78302  0.021381417  0.020870919           10 
 3313000   0.73032998   -7.2736907    851.25354  0.021411951  0.020865176            6 
 3314000   0.72893062   -7.2996744    849.49098  0.021361169  0.020859445           11 
 3315000    0.7131173   -7.2748677    849.97761  0.021366959  0.020853746           12 
 3316000   0.72580647   -7.2823816    849.73613  0.021354446  0.020848012            8 
 3317000   0.71491962   -7.2906212    849.50143  0.021342112   0.02084226           11 
 3318000   0.72632657   -7.2964132    849.62248   0.02133872  0.020836513           14 
 3319000   0.72622547   -7.2767746    849.92138  0.021339796  0.020830754           15 
 3320000   0.72817505   -7.3159569    849.92157  0.021333373  0.020824995           29 
 3321000   0.72275042    -7.302615    849.20243  0.021308904  0.020819228            8 
 3322000   0.72323339   -7.2949437    849.67368  0.021314311   0.02081349           31 
 3323000   0.70933898   -7.2675791    848.81107  0.021286264  0.020807781           40 
 3324000   0.71861392   -7.3055586    849.48369  0.021296723  0.020802047           20 
 3325000   0.71870427   -7.3238536    849.51039  0.021290987    0.0207963           17 
 3326000   0.71439571   -7.2899463    851.71336  0.021339782  0.020790573            7 
 3327000    0.7086625   -7.2824444    851.44215  0.021326574  0.020784865            7 
 3328000   0.70710472   -7.3053459    850.62512  0.021299708   0.02077914            9 
 3329000   0.72075391   -7.2908728    850.36864  0.021286889  0.020773415           12 
 3330000   0.71682392   -7.2932185    849.39986  0.021256253  0.020767685           14 
 3331000   0.73188512   -7.2973015    850.02371  0.021265479  0.020761947           10 
 3332000   0.71403247    -7.282733    851.07748  0.021285451  0.020756228            5 
 3333000   0.71365023   -7.2823778     851.6523  0.021293437  0.020750527            7 
 3334000   0.72054308   -7.2987278    849.18469  0.021225372    0.0207448           14 
 3335000   0.71742865   -7.3056453    849.42035  0.021224896  0.020739072           13 
 3336000   0.72959832    -7.294062    852.50767  0.021295655  0.020733361           16 
 3337000    0.7243501   -7.2807969    852.38567  0.021286227  0.020727659            9 
 3338000   0.70125005   -7.2867808    851.12065  0.021248269  0.020721964           10 
 3339000   0.74250731   -7.2849957     850.1521  0.021217732  0.020716271           11 
 3340000   0.71479886   -7.2950252    850.63293  0.021223376  0.020710575           21 
 3341000   0.71271214   -7.2845502    852.36888  0.021260323  0.020704895           20 
 3342000   0.72445069    -7.306817    851.64157  0.021235826  0.020699227           14 
 3343000    0.7117152    -7.283693    850.61353  0.021203847  0.020693545           13 
 3344000   0.72325587   -7.2772314    853.16176  0.021261009  0.020687874           14 
 3345000   0.71216683   -7.2910496     850.4175  0.021186285  0.020682175           14 
 3346000   0.72257445   -7.2981905    852.48235  0.021231379  0.020676503           30 
 3347000   0.71718784   -7.2891106    851.12358  0.021191205  0.020670789           12 
 3348000    0.7222249   -7.2817283     850.6101  0.021172095  0.020665076           19 
 3349000   0.70976522     -7.28296     850.8629  0.021172064  0.020659368            9 
 3350000   0.72331347   -7.3180075    852.58798  0.021208656   0.02065366           13 
 3351000   0.72566478   -7.2680379    852.90328  0.021210168  0.020647984           21 
 3352000   0.73105251   -7.2943589    850.08541  0.021133786  0.020642315           27 
 3353000   0.72187567   -7.2945377    852.55352  0.021188824  0.020636637            8 
 3354000    0.7183008   -7.3061711    851.25426  0.021150225  0.020630925           16 
 3355000   0.71847799   -7.3401181    852.29294   0.02116972  0.020625201           12 
 3356000   0.73405996   -7.2757442    850.15047  0.021110212  0.020619501           12 
 3357000    0.7154343   -7.3253603    850.33569  0.021108522    0.0206138            8 
 3358000   0.73632224   -7.2881073      851.394  0.021128499  0.020608096           13 
 3359000   0.70903404   -7.2957474    852.50745  0.021149833  0.020602398           16 
 3360000   0.71374454   -7.3145801    852.77535  0.021150182  0.020596706           12 
 3361000   0.70394586   -7.3041881    850.61594  0.021090349  0.020591004           21 
 3362000   0.71776551   -7.3010824    850.38528  0.021078358  0.020585288           11 
 3363000     0.725111   -7.3404397    850.07567  0.021064418  0.020579575           10 
 3364000   0.70990745   -7.3269276    851.25105  0.021087273  0.020573855           13 
 3365000   0.71213058   -7.3015547    850.46101  0.021061441   0.02056816           14 
 3366000   0.70814693   -7.3087774    851.52701  0.021081576   0.02056245           16 
 3367000   0.70799032   -7.2833327     851.3592  0.021071161  0.020556747           21 
 3368000   0.70408276   -7.3079225    851.16313  0.021060054  0.020551055           11 
 3369000   0.71294473    -7.305678    850.21393  0.021030324  0.020545349           11 
 3370000   0.71123059   -7.3160472    852.38097   0.02107767  0.020539656            4 
 3371000   0.73390306   -7.3195799    850.81364  0.021032672  0.020533948           16 
 3372000   0.72246134   -7.3227609    852.68665  0.021072723  0.020528224            4 
 3373000   0.71930097   -7.3160735    851.34086  0.021033226  0.020522496            9 
 3374000   0.71723901   -7.3237138    849.79451  0.020988799   0.02051676            6 
 3375000   0.71556105    -7.318354    851.14091  0.021015825  0.020511023           24 
 3376000    0.7255039   -7.3167191    850.98946  0.021005861  0.020505259           26 
 3377000   0.69373093   -7.3160669    850.65925  0.020991493  0.020499511            9 
 3378000   0.71264863    -7.312796     849.6784  0.020961082  0.020493774           16 
 3379000   0.73093881   -7.2952778    851.66244  0.021003809  0.020488049           14 
 3380000    0.7129394   -7.2739825    851.48264  0.020993162  0.020482337            6 
 3381000   0.69644325   -7.2996009    851.86826  0.020996457  0.020476636           11 
 3382000   0.71781903   -7.3066233    851.12647  0.020971971  0.020470906           12 
 3383000   0.70154871   -7.3062136    852.52664  0.021000262   0.02046519            9 
 3384000   0.69843036   -7.3083921    852.01482  0.020981452  0.020459472            6 
 3385000   0.70057224   -7.3356894    849.04568  0.020902159  0.020453742           11 
 3386000   0.69327378   -7.3036718    851.00226  0.020944139  0.020447972           16 
 3387000   0.69540582   -7.3302367    850.06217  0.020914826   0.02044222           18 
 3388000   0.71952302   -7.3167883    850.29268  0.020914322  0.020436458           15 
 3389000   0.71911445   -7.3168454    852.32251  0.020958063  0.020430688            5 
 3390000   0.69018084   -7.3035588    850.32633   0.02090281  0.020424944           12 
 3391000   0.71101288   -7.2950125    853.32898  0.020970436  0.020419203           10 
 3392000   0.71755876   -7.3160667    852.34982  0.020940198  0.020413484            8 
 3393000   0.70145217   -7.3225038    851.38247  0.020910268  0.020407762           13 
 3394000   0.70786328    -7.305271     851.2215  0.020900155  0.020402026           17 
 3395000   0.71160324   -7.3094086    849.71229  0.020856954  0.020396309            9 
 3396000   0.71007005   -7.3038347    851.63033  0.020897878  0.020390599            8 
 3397000   0.71012124   -7.3149718    853.01364  0.020925661  0.020384876           11 
 3398000    0.7249541   -7.3126313    852.81771  0.020914698  0.020379147           15 
 3399000   0.69793746   -7.3393164    850.83293  0.020859883  0.020373425           29 
 3400000   0.71364676   -7.3181959    851.27154  0.020864498  0.020367693           15 
 3401000   0.70581039   -7.3326483    850.72973  0.020845088  0.020361935           14 
 3402000   0.71159152   -7.3342897    851.04712  0.020846735  0.020356195           17 
 3403000   0.71591335    -7.326923    850.58259  0.020829234  0.020350427           10 
 3404000   0.69251763   -7.3209751      852.041  0.020858818   0.02034467           11 
 3405000   0.70474351   -7.3232478    853.04067  0.020877158  0.020338931           25 
 3406000    0.7010667   -7.3176233    852.05318  0.020846868  0.020333187           22 
 3407000   0.69536262   -7.3157623    851.83579  0.020835432  0.020327455           10 
 3408000   0.70508516   -7.2883497    852.01382  0.020833671  0.020321722            6 
 3409000   0.69820441   -7.3132572     851.6093  0.020817671  0.020315984           10 
 3410000   0.71208927   -7.3209331    853.49238  0.020857585   0.02031022           13 
 3411000   0.70816665    -7.334089    850.13817  0.020769524   0.02030447           18 
 3412000   0.72120919   -7.3507135    849.91813  0.020758063  0.020298719           18 
 3413000   0.70781127   -7.3413586    851.94767  0.020801535  0.020292977           14 
 3414000   0.70293475   -7.3228499    851.86308  0.020793377  0.020287226           11 
 3415000   0.71678839   -7.3185826    850.64832  0.020757646  0.020281467           10 
 3416000   0.70001933   -7.3217963     851.6374  0.020775698  0.020275711            6 
 3417000   0.70918422   -7.3051562    852.42524  0.020788831  0.020269955            7 
 3418000   0.71318699   -7.3170424    850.59507  0.020738128  0.020264221           22 
 3419000   0.71029751   -7.3272546    849.32886  0.020701201  0.020258468            7 
 3420000   0.69345698    -7.304784    850.49382  0.020723534  0.020252726           12 
 3421000   0.68760477   -7.3168842    851.75803  0.020748271  0.020246973           13 
 3422000   0.69201231   -7.2863984    854.40194  0.020806593  0.020241246            6 
 3423000   0.70966844   -7.3046284     850.8954  0.020715148  0.020235551           24 
 3424000   0.70427873   -7.3250113    850.72026  0.020704835  0.020229839           37 
 3425000   0.71019833   -7.3186113    851.50611   0.02071791  0.020224114           19 
 3426000    0.7052465   -7.3336965    851.32372  0.020707427  0.020218394            7 
 3427000   0.69882889   -7.3280732    851.21657  0.020698779  0.020212696           10 
 3428000   0.70909816   -7.3316408    850.10052   0.02066561  0.020206971           12 
 3429000   0.69844304   -7.3417225    852.89052  0.020727387   0.02020123           35 
 3430000    0.6988009   -7.3370114    854.30703  0.020755759  0.020195498           10 
 3431000   0.68294861   -7.3364022    851.13283  0.020672613  0.020189761           20 
 3432000   0.71743293   -7.3220238    850.99267  0.020663186  0.020184017           14 
 3433000   0.69023682   -7.3228221     851.4564  0.020668424  0.020178282           10 
 3434000   0.70689332   -7.3223411    853.23971  0.020705681   0.02017257           14 
 3435000   0.71101738   -7.3558369    852.02069   0.02067008  0.020166825            5 
 3436000   0.68991152   -7.3237433    852.77842  0.020682441  0.020161101           12 
 3437000   0.71007001   -7.3208113    851.79871   0.02065267  0.020155389           16 
 3438000   0.69319739   -7.3478399    853.68263  0.020692327  0.020149649           11 
 3439000   0.69745814   -7.3587287    850.85251  0.020617731   0.02014391           24 
 3440000   0.68974108   -7.3143604    852.10203  0.020642007  0.020138175           19 
 3441000   0.72392435    -7.327047    850.20409  0.020590044  0.020132476            9 
 3442000   0.68941237   -7.3321481    852.00168  0.020627583   0.02012676           22 
 3443000   0.70786658   -7.3429772    852.37086  0.020630527  0.020121043           15 
 3444000   0.71047268   -7.3347973    851.95594  0.020614497  0.020115322           13 
 3445000    0.6957983   -7.3374871     852.8069  0.020629098  0.020109586           16 
 3446000   0.70185383   -7.3215839    852.84663  0.020624072  0.020103867           15 
 3447000   0.71621438   -7.3231781    850.95819  0.020572435  0.020098127           17 
 3448000   0.69044541    -7.319658    851.24017  0.020573283  0.020092404           10 
 3449000   0.70967404   -7.3410471    851.86028  0.020582301  0.020086698            8 
 3450000   0.70491121   -7.3206311    851.78439  0.020574502  0.020080974           18 
 3451000   0.69033693   -7.3585247    851.95718  0.020572713  0.020075241           10 
 3452000   0.69635464   -7.3179455    850.83935  0.020539768   0.02006952           10 
 3453000   0.70476514   -7.3078178    854.25829  0.020616331  0.020063822            7 
 3454000    0.7025076   -7.3143818    851.41693   0.02054181  0.020058104           17 
 3455000   0.70634786   -7.3154857    853.02017  0.020574534    0.0200524           20 
 3456000   0.71177693   -7.3122604     853.0179  0.020568526  0.020046686            5 
 3457000   0.69488946   -7.3332439    850.88607  0.020511187  0.020040954            8 
 3458000   0.69869418    -7.325059    850.73679  0.020501658  0.020035213           17 
 3459000   0.69654791   -7.3269658     851.2825  0.020508878  0.020029482            7 
 3460000   0.68376842   -7.3601479     851.4454  0.020506874  0.020023754            7 
 3461000   0.70700665   -7.3228633    851.27595  0.020496869   0.02001803            6 
 3462000    0.6944766   -7.3288764    851.26082  0.020490584  0.020012302           10 
 3463000   0.70717505   -7.3342175    851.85602   0.02049899  0.020006592            9 
 3464000   0.69950713    -7.324714    852.14309  0.020499978    0.0200009            9 
 3465000   0.70373664   -7.3233968    852.65697  0.020506421   0.01999521           21 
 3466000    0.6997411    -7.344934    852.50354  0.020496815  0.019989532            8 
 3467000   0.70410184   -7.3237307     853.6393  0.020518203  0.019983841           17 
 3468000    0.7034804   -7.3390293    852.67272   0.02048906  0.019978157           17 
 3469000   0.69040593   -7.3139939    853.43824  0.020501543  0.019972467            6 
 3470000   0.69310128   -7.3204162    852.99426  0.020484973  0.019966798           15 
 3471000   0.69243007   -7.3173206    851.64816  0.020446753  0.019961122           10 
 3472000   0.68665393   -7.3300505    852.16082  0.020453169  0.019955412            8 
 3473000   0.69878128   -7.3344202    851.10482  0.020421941  0.019949693           12 
 3474000   0.69131187   -7.3363105     851.3384  0.020421666  0.019943983            7 
 3475000   0.70288428   -7.3684748    851.93984  0.020430212  0.019938254           22 
 3476000   0.69133239   -7.3196447    852.17124  0.020429882  0.019932533           13 
 3477000   0.71402463   -7.3530129    852.07162  0.020421619  0.019926826           14 
 3478000   0.68014551   -7.3375155    853.78657  0.020456838  0.019921106           13 
 3479000   0.68168143   -7.3672479    853.62974  0.020447201  0.019915386            8 
 3480000   0.70299672   -7.3526707    853.14248  0.020429657  0.019909672           10 
 3481000   0.70879488   -7.3592275    852.07114  0.020398141  0.019903955           20 
 3482000   0.70115573   -7.3707201    852.88043  0.020411651  0.019898256           19 
 3483000   0.69860674    -7.372119    852.66246  0.020400576  0.019892568            9 
 3484000   0.68601495   -7.3427197    854.18498  0.020431137  0.019886884            9 
 3485000   0.69247085    -7.331755    854.34423  0.020429082  0.019881208            5 
 3486000    0.7037005   -7.3599386    852.21105  0.020372228  0.019875532           16 
 3487000   0.68950962   -7.3448568    854.24431  0.020414977   0.01986986           10 
 3488000   0.69224844   -7.3610444    853.76076  0.020397572  0.019864187           10 
 3489000   0.68731883   -7.3434637    854.43712   0.02040788  0.019858491           12 
 3490000   0.70503952    -7.367967    852.34172  0.020351999  0.019852801           16 
 3491000   0.69085555   -7.3507886    851.45109  0.020324909  0.019847108           13 
 3492000   0.69733329   -7.3591483    852.59326  0.020346346   0.01984141            6 
 3493000   0.68793878   -7.3631443    852.16432  0.020330287  0.019835728           12 
 3494000   0.69648848   -7.3583269    852.06348  0.020322064  0.019830028           11 
 3495000   0.68901163   -7.3410315    852.77968  0.020333326  0.019824336            7 
 3496000   0.69340697   -7.3715163    852.46736  0.020320065   0.01981864            9 
 3497000   0.69813397   -7.3602374    854.06095  0.020352229  0.019812943           13 
 3498000   0.68501015   -7.3763217    852.65856  0.020313002  0.019807226           15 
 3499000   0.67862467   -7.3625376    852.30299  0.020298728  0.019801515           11 
 3500000   0.70403029   -7.3577835    852.12841  0.020288772  0.019795826           12 
 3501000   0.68530386   -7.3673576    852.05387  0.020281202  0.019790137            8 
 3502000   0.68989182   -7.3468028    852.39646  0.020283563  0.019784453           13 
 3503000   0.69016176    -7.346016    852.06282  0.020269836  0.019778781           13 
 3504000   0.70849427   -7.3550138    852.85139  0.020282805  0.019773091            7 
 3505000    0.6977575   -7.3480618    853.45823  0.020291446  0.019767412           11 
 3506000   0.68764056   -7.3639256    851.68178  0.020243435  0.019761722           10 
 3507000   0.68447995   -7.3649276    853.16901  0.020273002   0.01975602           12 
 3508000   0.69258486   -7.3571697    852.82791   0.02025912  0.019750314           10 
 3509000   0.69409179   -7.3546926    855.18874  0.020309412  0.019744612           10 
 3510000   0.69891635   -7.3370563    854.60062  0.020289663   0.01973893            8 
 3511000    0.6840265   -7.3451489    852.73309  0.020239559  0.019733255           11 
 3512000    0.6947508   -7.3272254    854.15738  0.020267592  0.019727577           12 
 3513000   0.70985256   -7.3459179    851.51284   0.02019909  0.019721896           12 
 3514000   0.69825087   -7.3510719    851.80667   0.02020031  0.019716219           10 
 3515000   0.68063919   -7.3600829    852.10979  0.020201749  0.019710526           21 
 3516000   0.69247222   -7.3435274    853.02318  0.020217652  0.019704849            8 
 3517000   0.70150986    -7.363381    854.07794  0.020236896   0.01969917           16 
 3518000   0.68418663      -7.3383    853.95155  0.020228149  0.019693522           16 
 3519000   0.69728895   -7.3273377     854.0939  0.020225772  0.019687895           10 
 3520000   0.68549553   -7.3227208    855.13431  0.020244657  0.019682265           18 
 3521000   0.69544558   -7.3397185    854.93759  0.020234251  0.019676653           15 
 3522000   0.68326588   -7.3405993    854.96156  0.020229073  0.019671022            8 
 3523000   0.68282535   -7.3537364    854.90982  0.020222108  0.019665404            9 
 3524000   0.66895644   -7.3488692    853.40741  0.020180841  0.019659772           10 
 3525000   0.69523836   -7.3588877     855.7796  0.020231196  0.019654147           16 
 3526000    0.6953756   -7.3550883     855.6769  0.020223031  0.019648533            8 
 3527000   0.67996368   -7.3473411    854.01449  0.020178019  0.019642906            7 
 3528000   0.69183234   -7.3666452    853.78038   0.02016677  0.019637264            8 
 3529000   0.69245507   -7.3476606    853.78227    0.0201611  0.019631622           11 
 3530000   0.68854887   -7.3507108     854.9507  0.020182972  0.019625976            6 
 3531000   0.67220688   -7.3597305    854.49358  0.020166468  0.019620321            7 
 3532000   0.68433437    -7.355025    852.37595  0.020110795  0.019614648            7 
 3533000   0.69159311    -7.356906    852.24534  0.020102022  0.019608977            7 
 3534000   0.68481399   -7.3541258    852.32777  0.020098278  0.019603304            6 
 3535000   0.68281297   -7.3697465    853.20655  0.020113309  0.019597652            8 
 3536000   0.69595473   -7.3459403    852.55253  0.020092207  0.019591989            9 
 3537000   0.68921098   -7.3705495    854.63533  0.020135598  0.019586334            5 
 3538000   0.67788585   -7.3637947    856.00017  0.020162054  0.019580679           11 
 3539000   0.68012225   -7.3701933    853.26834   0.02009203  0.019575017            9 
 3540000   0.66518735   -7.3691461    852.46425  0.020067426  0.019569343            8 
 3541000   0.68710848   -7.3599006    851.51802   0.02003949  0.019563672           14 
 3542000   0.67977116   -7.3643559    853.40299  0.020078181  0.019558027            9 
 3543000   0.69730053   -7.3629257    855.24041  0.020115731  0.019552377            6 
 3544000   0.68795035   -7.3786177    854.17302  0.020084956   0.01954673           11 
 3545000   0.67189942   -7.3764811    853.08547  0.020053725  0.019541073           16 
 3546000   0.68406797   -7.3711562    853.93017  0.020067921  0.019535417            8 
 3547000    0.6935973   -7.3716199    853.67934   0.02005637  0.019529766           24 
 3548000   0.68174216   -7.3564819    851.71586    0.0200046   0.01952411           21 
 3549000   0.68572565     -7.31602    855.18842  0.020080502  0.019518479           20 
 3550000   0.69559606   -7.3561868    854.43583  0.020057179  0.019512847           18 
 3551000   0.68079094   -7.3615035    854.16292  0.020045126  0.019507211           15 
 3552000   0.69167754   -7.3534523    853.05316  0.020013447   0.01950158           42 
 3553000   0.68573765   -7.3417862      853.686  0.020022657  0.019495941           35 
 3554000   0.69344804   -7.3803903    853.65228  0.020016232  0.019490315           13 
 3555000   0.68192705   -7.3636058    857.07599  0.020090858  0.019484677           16 
 3556000   0.67768171   -7.3530078    854.40131  0.020022528   0.01947905           12 
 3557000      0.67952   -7.3646716     855.1026  0.020033329  0.019473419            9 
 3558000   0.67921584    -7.372402    852.06136  0.019956468  0.019467785            7 
 3559000   0.69005083   -7.3809773    853.05959  0.019974234   0.01946215           11 
 3560000   0.67910569   -7.3659893    854.31318  0.019997968  0.019456531           14 
 3561000   0.67581454   -7.3892022    855.21946   0.02001356  0.019450919           12 
 3562000   0.66650671   -7.3673566    855.76381  0.020020677  0.019445299            8 
 3563000    0.6846917   -7.3776644    854.67964  0.019989701  0.019439672            5 
 3564000    0.6830771   -7.3909878    852.24574  0.019927182  0.019434034           12 
 3565000   0.67537568   -7.3725141    856.11573  0.020012055  0.019428422           13 
 3566000   0.67189128   -7.3900252    853.55545  0.019946613  0.019422788           15 
 3567000   0.67003251   -7.4091854    853.75726  0.019945735  0.019417171           33 
 3568000   0.67893265   -7.3748232    853.61879  0.019936911  0.019411548           25 
 3569000   0.69038214   -7.3867064    854.57824  0.019953728  0.019405934           19 
 3570000   0.67041646   -7.3998895    854.44913  0.019945124   0.01940032           36 
 3571000    0.6751266   -7.3898976    855.78788   0.01997078  0.019394715           31 
 3572000   0.67314929   -7.3673643    853.73305  0.019917251  0.019389113           15 
 3573000   0.67687913   -7.3849566    855.63259   0.01995598  0.019383495           14 
 3574000   0.68404473   -7.3899853    854.23697  0.019917855  0.019377891           12 
 3575000   0.67097744     -7.37368     855.5031  0.019941797  0.019372291           11 
 3576000   0.67719342   -7.3674859      855.567   0.01993771  0.019366693           17 
 3577000   0.68392559    -7.389915    854.71956  0.019912393  0.019361085           17 
 3578000   0.66680519   -7.3724609    854.62622  0.019904654  0.019355489            8 
 3579000   0.67014015   -7.3911127    854.93707   0.01990633  0.019349873           17 
 3580000   0.66971454   -7.4101441    854.87773  0.019899388  0.019344262           15 
 3581000   0.68685396   -7.3670456    855.33279  0.019904421  0.019338665           16 
 3582000   0.69120792   -7.4022836    857.00797  0.019937837  0.019333058            9 
 3583000   0.66966801   -7.3907053    855.01824  0.019885995  0.019327454           13 
 3584000   0.67680343     -7.40498     855.5778  0.019893457  0.019321847           14 
 3585000   0.68263527   -7.3927084    855.49649  0.019886018  0.019316232           20 
 3586000    0.6756443   -7.4019361    854.46472  0.019856496  0.019310616           18 
 3587000   0.68878806   -7.3936414    853.90325  0.019837916  0.019305015           20 
 3588000   0.68736274   -7.4053815    854.57785  0.019848055  0.019299436           16 
 3589000   0.68899152   -7.3845468    854.47004  0.019840021  0.019293835           13 
 3590000   0.67106883   -7.3977853     855.3476  0.019854865  0.019288235           21 
 3591000   0.66950793   -7.3758909    855.11419   0.01984392  0.019282637           13 
 3592000   0.67735496   -7.4079591    854.53105  0.019824867  0.019277037            8 
 3593000   0.66662747   -7.3975976    854.87019  0.019827215  0.019271449           27 
 3594000   0.67100079   -7.3880798    855.06429  0.019826198  0.019265873           35 
 3595000   0.68224614   -7.3765858    855.92144  0.019840553  0.019260292           12 
 3596000   0.66904627   -7.3855819    855.54065  0.019826211  0.019254725           21 
 3597000   0.68675401   -7.4003393    855.53803  0.019820638  0.019249158            6 
 3598000   0.67414659   -7.3832278    855.22462   0.01980787  0.019243593           13 
 3599000   0.66785436   -7.4056375    855.37129  0.019805763  0.019238012           19 
 3600000   0.69044986   -7.3813591    855.86153   0.01981161  0.019232448           21 
 3601000   0.67105308    -7.382632    855.38329  0.019795041  0.019226886           43 
 3602000   0.66589921   -7.3747638    856.02206  0.019804323  0.019221339           48 
 3603000   0.66119777    -7.375071    855.25745  0.019781142  0.019215789           17 
 3604000   0.68132505   -7.3867989    855.40171  0.019778989  0.019210232           31 
 3605000    0.6992199   -7.3950107     855.6775  0.019779877  0.019204686           15 
 3606000   0.68092126   -7.3993496    854.73438  0.019752597  0.019199122           23 
 3607000   0.68288178   -7.3741981    855.02345  0.019753799  0.019193574           20 
 3608000   0.66829685   -7.4102077    853.39544  0.019710722  0.019188018           17 
 3609000   0.67121848   -7.3889588    854.12364  0.019722075  0.019182454           16 
 3610000   0.67704819   -7.4023977    855.00745  0.019737014  0.019176889           14 
 3611000   0.65953954   -7.3956074     855.5663  0.019744445  0.019171312           14 
 3612000   0.66896285   -7.3819587    855.37273  0.019734513  0.019165737           18 
 3613000   0.65321274   -7.4023741     855.5332  0.019732752  0.019160169           32 
 3614000   0.66247239   -7.3988315    853.49911  0.019680389  0.019154599           12 
 3615000    0.6697016   -7.3816679    856.15485  0.019736165  0.019149032           40 
 3616000   0.68255666   -7.4070778    856.19395  0.019731608  0.019143466           48 
 3617000   0.66825613   -7.3991798    856.34274  0.019729581  0.019137901           38 
 3618000   0.68171372   -7.3904422    854.39348  0.019679231  0.019132357           17 
 3619000   0.67309476   -7.3761065    854.36291  0.019673089  0.019126808           32 
 3620000   0.67006306   -7.3986204    854.33813  0.019667084  0.019121229           18 
 3621000   0.68498982    -7.410929    852.10321  0.019610218  0.019115657           25 
 3622000    0.6788368   -7.3967569    855.33301  0.019679114  0.019110086           57 
 3623000    0.6790627   -7.4140427    854.12264  0.019645842  0.019104515           48 
 3624000   0.67010559   -7.4095348    853.67713  0.019630177  0.019098935           34 
 3625000   0.66507425   -7.4048763    853.82073  0.019628063  0.019093354           31 
 3626000   0.66844051   -7.4114405    855.14157  0.019653005  0.019087777           66 
 3627000    0.6699848   -7.4050357    855.55942  0.019657187  0.019082208           45 
 3628000   0.67592217   -7.4181861    853.78711   0.01961106  0.019076643           42 
 3629000   0.66304256   -7.3984646    855.05153  0.019634691   0.01907108           44 
 3630000   0.67659981    -7.398552    854.51809  0.019617036   0.01906551           41 
 3631000   0.67657732   -7.4131804    857.41124  0.019678033  0.019059935           33 
 3632000   0.66008114   -7.3999538    855.05992  0.019618665  0.019054364           47 
 3633000   0.65821628   -7.4046684     855.1143  0.019614513  0.019048786           37 
 3634000   0.66422732   -7.4143297    855.32537  0.019613956  0.019043235           19 
 3635000   0.67345314   -7.3948013     855.8008  0.019619459  0.019037668           42 
 3636000   0.67368276    -7.419091    855.81893  0.019614479  0.019032112           32 
 3637000   0.66847383    -7.390652    854.83487  0.019586538  0.019026541           14 
 3638000   0.67077715    -7.409473     854.3373  0.019569757  0.019020978           13 
 3639000   0.66694335   -7.4236631    854.07674  0.019558412  0.019015413           11 
 3640000   0.67342364   -7.4337724    853.10871  0.019530877  0.019009825           27 
 3641000   0.67700047   -7.4246719    854.89228  0.019566334  0.019004256           20 
 3642000   0.65830408   -7.4148223    854.69582  0.019556467  0.018998697           41 
 3643000   0.66315708   -7.4146672    854.10646  0.019537617   0.01899312           31 
 3644000   0.66317928   -7.4123924    855.71097  0.019568948  0.018987547           15 
 3645000   0.67686769    -7.423401    855.69642  0.019563247  0.018981979           27 
 3646000   0.66131251    -7.426901    856.78394  0.019582738  0.018976419           53 
 3647000    0.6769472   -7.3988569    854.79952  0.019532025  0.018970873           34 
 3648000   0.68698945   -7.3899731    854.84707  0.019527757  0.018965336           45 
 3649000   0.68155687   -7.3898443    855.96541  0.019547945   0.01895979           35 
 3650000   0.66945865   -7.4106608    854.55498  0.019510388  0.018954249           45 
 3651000   0.66739578    -7.416907    857.17489  0.019564843  0.018948702           47 
 3652000   0.67114287   -7.4134794     855.3042  0.019516799   0.01894316           22 
 3653000   0.68715811   -7.4202462    855.87286  0.019524429  0.018937597           26 
 3654000   0.65294174   -7.4251723    854.64749   0.01949114  0.018932042           23 
 3655000   0.67093056   -7.4331972    852.92303  0.019446489  0.018926481           23 
 3656000   0.65898341   -7.4104997    853.19925  0.019447467  0.018920923           18 
 3657000   0.66663557   -7.4174939    854.95395  0.019482134  0.018915359           13 
 3658000   0.66793181   -7.4242615     856.4443   0.01951076  0.018909818           11 
 3659000   0.65682488     -7.41698    855.59208  0.019486018  0.018904272           13 
 3660000   0.66814308   -7.4147731    854.85248  0.019463854  0.018898729            8 
 3661000   0.66610494   -7.4356127    856.63789  0.019499178   0.01889318           11 
 3662000   0.66765215   -7.4192669    855.20973  0.019461354  0.018887626           15 
 3663000   0.66587187   -7.4344103     853.9972  0.019428456  0.018882067           15 
 3664000   0.67070944   -7.4184564    853.78544  0.019418337  0.018876502           18 
 3665000   0.66308771   -7.3977698    853.86684  0.019414889  0.018870938           36 
 3666000   0.67108381   -7.4093704    855.08296  0.019437238  0.018865382           34 
 3667000   0.66350044   -7.4419892    856.71916   0.01946912  0.018859834           27 
 3668000   0.66389448   -7.4170092    855.80861  0.019443125  0.018854294           25 
 3669000   0.66234155   -7.4308422     856.5114  0.019453789  0.018848764           14 
 3670000   0.67114479   -7.4159219    854.50275  0.019402878   0.01884321           22 
 3671000   0.66876592   -7.4235553    853.78644  0.019381332  0.018837672           28 
 3672000   0.65232625   -7.4221707    856.91764  0.019447114  0.018832127           23 
 3673000   0.66427425   -7.4233911    853.49994  0.019364279  0.018826586           26 
 3674000   0.66233382   -7.4163736    854.02288  0.019370869  0.018821035           23 
 3675000   0.66426519   -7.4260986    854.03564  0.019365888  0.018815505           19 
 3676000   0.66834849   -7.4213481    855.91021  0.019403115  0.018809971           13 
 3677000    0.6758633   -7.4071657    855.05968  0.019378562  0.018804438           49 
 3678000   0.67287763   -7.4242149    853.91687  0.019347401  0.018798904           23 
 3679000   0.66752131   -7.4097463    856.21763  0.019394256  0.018793386           34 
 3680000   0.67195294   -7.4041922    854.80919  0.019357092  0.018787857           40 
 3681000   0.65969085   -7.4334127    854.88829  0.019353624   0.01878234           33 
 3682000    0.6592174   -7.4152722    857.30864  0.019403147  0.018776816           29 
 3683000   0.65654478   -7.4235963    855.64403  0.019360214  0.018771283           23 
 3684000   0.67311367   -7.4128461    853.59052  0.019308508  0.018765761           14 
 3685000   0.67119862   -7.4328085    854.93811  0.019333743  0.018760245           18 
 3686000   0.66665632   -7.4253681    855.01299  0.019330191  0.018754735           43 
 3687000   0.67631354    -7.418305    856.29368  0.019353894  0.018749232           55 
 3688000   0.66365071   -7.4292443    855.79673  0.019337417   0.01874373           25 
 3689000   0.65764864   -7.3951326    853.45361  0.019279245  0.018738226           34 
 3690000   0.65843789   -7.3947118    855.69726   0.01932469  0.018732736           15 
 3691000   0.66128839   -7.3961979    857.08623  0.019350813  0.018727246           15 
 3692000   0.66381568   -7.4193543    856.33358  0.019328584  0.018721769           15 
 3693000   0.67726928   -7.4174422      857.865  0.019357907  0.018716284           19 
 3694000   0.64421972   -7.4167664    855.49481  0.019299197  0.018710789           32 
 3695000   0.64692806   -7.4157786    857.34216  0.019335637  0.018705286           17 
 3696000   0.64603392    -7.409953    855.28501  0.019284024  0.018699781           18 
 3697000   0.66579134   -7.4209042    856.13724  0.019298017  0.018694277           12 
 3698000   0.65586368   -7.4382434    856.11398  0.019292275  0.018688774           18 
 3699000   0.65516953   -7.4411285    854.07771  0.019241185  0.018683267           21 
 3700000   0.65224543   -7.4390559    855.27783  0.019263014  0.018677749           22 
 3701000   0.66911197    -7.443515    854.43855  0.019238912  0.018672229           25 
 3702000   0.65805375   -7.4122437    856.61143  0.019282627  0.018666734           27 
 3703000   0.65374741   -7.4147565    855.03406  0.019241922  0.018661246           13 
 3704000   0.64637914   -7.4227519     855.7257  0.019252288  0.018655748           11 
 3705000   0.64446639   -7.4050664    855.48283  0.019241629   0.01865026           12 
 3706000   0.65043771   -7.4246479    856.03891  0.019248941  0.018644763           17 
 3707000   0.65969664   -7.4303548    853.86682   0.01919492  0.018639273           16 
 3708000   0.65773362   -7.4361217    856.23696   0.01924301  0.018633777           29 
 3709000   0.66790297   -7.4432678    855.63968  0.019224402  0.018628292           14 
 3710000   0.65743084   -7.4276425    854.37318  0.019190772  0.018622805           23 
 3711000   0.66475136   -7.4052571    857.23449  0.019249854  0.018617319           13 
 3712000   0.67641034   -7.4104629    856.46398   0.01922737  0.018611853           11 
 3713000   0.66733365   -7.4117176      858.054  0.019257878  0.018606379           14 
 3714000   0.64939471   -7.4117393    856.88634  0.019226493  0.018600915           19 
 3715000    0.6623952   -7.4052393    856.83866  0.019220248  0.018595448           15 
 3716000   0.66816903   -7.4144126    856.34946  0.019204105  0.018589987           13 
 3717000   0.64814367   -7.4444145     856.7468  0.019207847  0.018584537           10 
 3718000   0.65561774    -7.440605    857.02172  0.019208843  0.018579081           13 
 3719000   0.67299012   -7.4204719    855.80899  0.019176503  0.018573621           12 
 3720000   0.65298528   -7.4121942    857.43157  0.019207696  0.018568158           11 
 3721000   0.66921955    -7.412468    856.85623   0.01918965   0.01856271           10 
 3722000   0.65075868   -7.4333078    856.69028  0.019180778  0.018557259           16 
 3723000   0.64527671   -7.4230345    856.89129  0.019180126  0.018551815           18 
 3724000   0.65028533    -7.445766    855.52942    0.0191445   0.01854636           17 
 3725000   0.66140655   -7.4415747    855.09457  0.019129632   0.01854091           12 
 3726000   0.65539334   -7.4207385    855.50887  0.019133764  0.018535441            7 
 3727000   0.65439733   -7.4143027    856.93177  0.019160446  0.018529984           12 
 3728000   0.67581037   -7.4475082    856.45103   0.01914456  0.018524528           16 
 3729000   0.66625176   -7.4372074    855.88343  0.019126741  0.018519073           18 
 3730000   0.65336292   -7.4502408    854.19478  0.019083887  0.018513613           12 
 3731000   0.65577838   -7.4545795    857.33484  0.019148907   0.01850817           17 
 3732000   0.65397412   -7.4206365    857.43758   0.01914607  0.018502722            9 
 3733000   0.66125682   -7.4358203    856.87151  0.019128304  0.018497273           11 
 3734000   0.65351573   -7.4200405    856.99419  0.019125919  0.018491823            8 
 3735000   0.65470111   -7.4306871    856.71348  0.019114535  0.018486377           11 
 3736000   0.64434482   -7.4388401    854.96867    0.0190705  0.018480921            8 
 3737000   0.64543347   -7.4367654    856.84517  0.019107242  0.018475471           14 
 3738000   0.65379601   -7.4128494    858.24364  0.019133308   0.01847003            9 
 3739000   0.66590099   -7.4203299    858.16974  0.019126543  0.018464605            9 
 3740000   0.66399113   -7.4586068    856.21511  0.019077877  0.018459169            8 
 3741000   0.64301052   -7.4144764    856.79166   0.01908562  0.018453744            9 
 3742000   0.65137075   -7.4698575    856.50356  0.019074104  0.018448301           11 
 3743000   0.64987469   -7.4489341    855.67022  0.019050455  0.018442864           10 
 3744000   0.66007885   -7.4275494    856.98022  0.019074524  0.018437421           10 
 3745000   0.66130414   -7.4518229    857.70612  0.019085583  0.018431983            8 
 3746000   0.64835099    -7.459451    856.69735  0.019058047  0.018426551           18 
 3747000   0.64924949   -7.4373035    855.13582  0.019018233   0.01842111           13 
 3748000   0.66157064   -7.4483077    856.03421  0.019033133  0.018415681           14 
 3749000   0.64393048    -7.441398    856.88893  0.019047056  0.018410245            9 
 3750000   0.64658384   -7.4169082     857.6947  0.019059882  0.018404799           10 
 3751000   0.64819117   -7.4428769    856.71255  0.019032981   0.01839937           20 
 3752000   0.65925008   -7.4384222    856.58376  0.019025048  0.018393941           12 
 3753000   0.65796926   -7.4418838    857.81808  0.019047386  0.018388523           10 
 3754000   0.64060756     -7.41501    857.53564  0.019036042  0.018383112           24 
 3755000   0.64894915    -7.419736     856.4391  0.019006638  0.018377711           30 
 3756000    0.6575659   -7.4306948     857.5931  0.019027181    0.0183723           19 
 3757000    0.6504846   -7.4435289    858.67306  0.019046071  0.018366905           12 
 3758000   0.66337869    -7.427137    859.50541   0.01905946  0.018361507           13 
 3759000    0.6552338   -7.4282247    855.81517  0.018972581  0.018356112           19 
 3760000   0.66710721   -7.4564084    856.31674  0.018978651  0.018350695           15 
 3761000   0.65963923   -7.4593211    858.65677  0.019025454  0.018345279            8 
 3762000   0.64609678   -7.4397108    856.18606  0.018965667  0.018339866           20 
 3763000   0.63175589    -7.440308    856.25306   0.01896211  0.018334458           12 
 3764000   0.65263057   -7.4432651    858.36781  0.019003892   0.01832905           11 
 3765000    0.6596559   -7.4649173    857.86183  0.018987646  0.018323645           17 
 3766000   0.64738641   -7.4426392    858.35444  0.018993504  0.018318245           17 
 3767000   0.64768166   -7.4547103    858.53603  0.018992479  0.018312832           15 
 3768000   0.65398805   -7.4641875    856.43316  0.018940932  0.018307416            7 
 3769000   0.64317008   -7.4573374    856.33936  0.018933832  0.018302005           14 
 3770000   0.65623802     -7.44683    856.05461  0.018922516   0.01829659           28 
 3771000   0.67329805   -7.4519603    858.16689  0.018964176  0.018291175           39 
 3772000   0.64189691   -7.4401195    855.89713  0.018909004  0.018285775           42 
 3773000   0.64594976    -7.448233    856.14693  0.018909509  0.018280364           53 
 3774000   0.65818121   -7.4701386    856.03412  0.018902007  0.018274949           50 
 3775000   0.65042187   -7.4283354    856.81305  0.018914195  0.018269534           33 
 3776000   0.66458889   -7.4745404    856.22893  0.018896295  0.018264117           46 
 3777000   0.64023889   -7.4674418    855.86894   0.01888335  0.018258704           18 
 3778000     0.641309   -7.4632789    855.31483  0.018866129  0.018253286           13 
 3779000   0.65438794   -7.4475682    856.71096  0.018891924  0.018247858           22 
 3780000   0.63931619   -7.4774172     857.3395  0.018900783  0.018242459           19 
 3781000   0.64210086   -7.4725305    856.69086  0.018881488  0.018237063           31 
 3782000   0.64685398   -7.4609228    856.78137   0.01887849  0.018231665           27 
 3783000   0.64256776   -7.4577785     856.4515  0.018866233   0.01822628           10 
 3784000   0.63699209   -7.4344985    855.71055  0.018844929  0.018220893           14 
 3785000   0.66126963   -7.4546068    856.58293  0.018859157  0.018215524           32 
 3786000   0.63941478   -7.4551972    857.24623  0.018868776  0.018210148           16 
 3787000   0.66680381    -7.443376    857.92777  0.018878791  0.018204769           14 
 3788000   0.64382606   -7.4314215    857.89477  0.018873081  0.018199393           13 
 3789000   0.65435047    -7.451245    858.04472  0.018871398  0.018194022           47 
 3790000   0.64102514   -7.4393885    857.82324  0.018861549  0.018188659           22 
 3791000   0.66319265   -7.4400968    855.80033  0.018812106  0.018183291           39 
 3792000   0.64592629   -7.4526563    857.06871  0.018835019  0.018177915           25 
 3793000   0.64268814   -7.4512133    857.25813  0.018834215  0.018172539           50 
 3794000   0.64272739   -7.4667904     856.9912  0.018823388  0.018167157           53 
 3795000   0.65067601   -7.4911367    857.94691  0.018839414  0.018161767           17 
 3796000   0.64276491   -7.4526831     857.3658  0.018821694  0.018156391           14 
 3797000   0.64064221   -7.4403281    856.60596  0.018800061   0.01815102           17 
 3798000   0.64818123   -7.4373013     856.8018  0.018799407  0.018145648           14 
 3799000   0.64539383   -7.4618896    857.27364  0.018804809  0.018140269           26 
 3800000   0.63148712   -7.4626221    858.54105  0.018827655   0.01813489           16 
 3801000   0.64054933   -7.4501785    856.78334  0.018784165  0.018129506           36 
 3802000   0.63987519   -7.4536736    856.89865  0.018781752  0.018124148           13 
 3803000    0.6374213   -7.4427444    858.06666  0.018802407  0.018118783           13 
 3804000   0.64761842   -7.4533761    857.29855  0.018780638  0.018113424           20 
 3805000    0.6542638   -7.4484453    857.15319  0.018772518  0.018108072           31 
 3806000   0.64657375   -7.4781643    856.83995  0.018760728   0.01810271           18 
 3807000   0.64747139   -7.4400206    856.17238  0.018741187  0.018097353           35 
 3808000   0.64542203    -7.464015    857.20268  0.018758812  0.018091994           26 
 3809000   0.66118912   -7.4732759    857.28331  0.018755651  0.018086637           16 
 3810000   0.65159959   -7.4546524    857.18993  0.018748686  0.018081273           20 
 3811000   0.63444851    -7.478407    856.97403  0.018739045  0.018075899           12 
 3812000   0.63202716   -7.4740891    856.30252   0.01871945  0.018070523           20 
 3813000   0.64384325   -7.4662375    856.98383  0.018729431  0.018065144           15 
 3814000   0.63331646   -7.4956227    857.36545  0.018732858  0.018059764           15 
 3815000   0.63913771   -7.4638238    856.10374  0.018700388  0.018054379           14 
 3816000   0.63109461   -7.4840492    855.63548  0.018685261  0.018048988           36 
 3817000   0.62921367   -7.4920491    857.90117  0.018729831  0.018043617           18 
 3818000    0.6383052   -7.4848697    856.65403  0.018697705  0.018038238           18 
 3819000   0.65067342   -7.4760121    857.15095  0.018703652  0.018032854           18 
 3820000   0.63206177   -7.4858002    855.93229   0.01867217  0.018027485           24 
 3821000   0.64873014   -7.4801633    854.85867  0.018643869  0.018022102           12 
 3822000   0.64138324   -7.4951182    854.25667  0.018625865  0.018016713           23 
 3823000   0.64193161   -7.4847244    857.01464  0.018681111  0.018011341           43 
 3824000   0.63185131   -7.4912201    857.15088  0.018679195  0.018005957           24 
 3825000   0.64269236   -7.4873322    855.60618  0.018640658  0.018000563           28 
 3826000   0.63175846   -7.4855721    856.50289  0.018655317  0.017995189           18 
 3827000   0.65078797   -7.4513695    855.89277  0.018637156  0.017989805           21 
 3828000   0.66287895   -7.4824456    854.66081  0.018605469  0.017984429           40 
 3829000   0.64187482   -7.4985302    855.80401   0.01862549  0.017979039           46 
 3830000   0.63506513   -7.4965624    857.47561  0.018656998  0.017973661           26 
 3831000   0.64242478   -7.4760008    856.12776  0.018622809   0.01796829           39 
 3832000   0.61991779   -7.4742901    855.36512  0.018601364  0.017962924           43 
 3833000    0.6294107   -7.4748401    853.88722   0.01856438  0.017957554           31 
 3834000   0.63975911   -7.4816935    855.30438   0.01859034  0.017952192           33 
 3835000   0.65108705   -7.4855349     855.5249  0.018590285  0.017946836           29 
 3836000   0.64565774   -7.4841826    856.35485  0.018603468  0.017941473           36 
 3837000   0.63745212   -7.4816679     858.3275  0.018641462  0.017936114           31 
 3838000   0.63384618   -7.4860118    856.27927  0.018592133  0.017930751           32 
 3839000   0.65545727   -7.4824479    856.38025  0.018589482   0.01792539           24 
 3840000   0.63969163   -7.4806028      856.641  0.018590299  0.017920034           47 
 3841000   0.63069563   -7.4822815    854.96936  0.018549192  0.017914682           17 
 3842000   0.62834707   -7.4753445    856.79817  0.018584031  0.017909321           39 
 3843000   0.62938246   -7.4916716    856.84105  0.018580125  0.017903968           46 
 3844000   0.62765313   -7.4651137    857.42549  0.018587961  0.017898612           25 
 3845000   0.63950684   -7.4789911    856.38304  0.018560534  0.017893263           24 
 3846000   0.63782933   -7.4866691    857.35258  0.018576716  0.017887921           20 
 3847000   0.63719535   -7.4705447    857.10401  0.018566502  0.017882583           23 
 3848000   0.63764455   -7.4838809    855.14781  0.018519313  0.017877238           21 
 3849000   0.64210834   -7.4635832    856.02512  0.018533496  0.017871912           23 
 3850000   0.63977168   -7.4737657    858.12534  0.018574142  0.017866588           27 
 3851000   0.64609529   -7.4758264    855.08811  0.018503595  0.017861255           48 
 3852000   0.64842889   -7.4760909    856.44175  0.018528075  0.017855931           29 
 3853000   0.63844964   -7.4800204    856.65366   0.01852785  0.017850595           49 
 3854000   0.64144671   -7.4804246    856.21172  0.018513486  0.017845262           19 
 3855000   0.64685574   -7.4783953    856.49856  0.018514885  0.017839932           38 
 3856000   0.63923555   -7.4618906    855.31588  0.018484524  0.017834608           45 
 3857000   0.64691485   -7.4755467     857.2167    0.0185208  0.017829291           19 
 3858000   0.63079281    -7.462099    856.58268  0.018502304  0.017823973           54 
 3859000   0.63004899   -7.4858157    857.25855  0.018512105  0.017818654           40 
 3860000   0.62552415   -7.4749672    857.68577  0.018516532   0.01781334           37 
 3861000   0.63221609   -7.4856342    857.09523  0.018498991  0.017808019           45 
 3862000   0.63437601   -7.4734959    855.55621  0.018460992  0.017802699           34 
 3863000   0.63085268   -7.4553818    856.30801  0.018472431  0.017797395           42 
 3864000   0.62441524   -7.4705741    857.60458  0.018495613  0.017792091           32 
 3865000   0.62583668   -7.4781972    857.30384  0.018484343  0.017786783           40 
 3866000   0.63467562   -7.4652819     857.6291  0.018486573  0.017781489           24 
 3867000   0.64007434    -7.458523    858.47859  0.018500099  0.017776191           18 
 3868000   0.62880601   -7.4719125    856.85587  0.018460356   0.01777089           18 
 3869000   0.62642896   -7.4831037    857.58965  0.018471389  0.017765584           16 
 3870000   0.63851782   -7.4840624    857.06517  0.018455322  0.017760262           19 
 3871000   0.62534317   -7.4850642    854.56686  0.018396772   0.01775495           14 
 3872000   0.63652477   -7.4793103     857.3714   0.01845238  0.017749633           38 
 3873000   0.62877665   -7.4970999    856.29275  0.018424407  0.017744312           46 
 3874000   0.63279405   -7.4854056    855.68594  0.018406598  0.017738999           18 
 3875000   0.64022163   -7.4748277    856.70055  0.018423668   0.01773369           38 
 3876000   0.63528384   -7.4457944    857.05125  0.018426455  0.017728386           15 
 3877000    0.6110234   -7.4387367    857.39838  0.018429163  0.017723097           20 
 3878000   0.63099598   -7.4708267    856.31882  0.018401212  0.017717804           16 
 3879000    0.6283324   -7.4747274    857.93639  0.018431219  0.017712515           26 
 3880000   0.62537332    -7.468985    856.82612  0.018402623  0.017707221           21 
 3881000   0.64754326   -7.4741002    856.73142  0.018395848  0.017701922           15 
 3882000   0.62850445    -7.484794    856.31351  0.018382138   0.01769661           29 
 3883000   0.63107737   -7.4835688    855.29952  0.018355643  0.017691292           15 
 3884000   0.62691151   -7.4873775    857.27612  0.018393326  0.017685985           23 
 3885000   0.61964115   -7.4697161    855.83762  0.018357735  0.017680677           17 
 3886000   0.62796559   -7.4710959    856.29294  0.018362775  0.017675379           10 
 3887000   0.63264111    -7.492052    855.48771  0.018340788  0.017670085           15 
 3888000   0.61145197   -7.4797189    856.95715  0.018367566  0.017664784           15 
 3889000   0.63579236   -7.4916929    856.74069  0.018358205  0.017659489           12 
 3890000   0.64286946   -7.4931554    856.25771  0.018343139  0.017654186           17 
 3891000   0.63003248   -7.4878535    854.82333  0.018307704  0.017648882           23 
 3892000   0.63369697   -7.4823075    855.35396  0.018314362  0.017643571           22 
 3893000   0.61831844   -7.4887211    856.82879  0.018341228  0.017638273           26 
 3894000   0.63807568    -7.498399    858.39423  0.018370019  0.017632986           38 
 3895000   0.63045126   -7.4908443    857.30371  0.018341971  0.017627694           20 
 3896000   0.62562424   -7.5078198    856.06156  0.018310694  0.017622389           22 
 3897000   0.62244844    -7.474211    857.08189  0.018327814  0.017617101           25 
 3898000   0.63321719   -7.4719482    857.08403  0.018323158  0.017611808           13 
 3899000   0.62781101   -7.4847174    856.92932  0.018315152  0.017606525           17 
 3900000   0.63804082   -7.4577142    856.70786  0.018305724  0.017601248           18 
 3901000   0.61151639   -7.4876882    856.86275   0.01830434  0.017595973           23 
 3902000   0.63092238   -7.4982963    856.79551  0.018298213  0.017590701           19 
 3903000   0.62530897   -7.4800956    856.86345  0.018294975  0.017585428           27 
 3904000   0.62206853   -7.4756005    857.22649  0.018298038  0.017580166           18 
 3905000   0.63222369    -7.480354     856.1078  0.018269479  0.017574899            9 
 3906000   0.61944982   -7.4556902    857.54095  0.018295378  0.017569627           24 
 3907000   0.63347641   -7.4823179    856.98493  0.018278836  0.017564356            9 
 3908000   0.62655326   -7.5011588    857.84659  0.018292532  0.017559076           20 
 3909000   0.61849677    -7.495335    857.63124  0.018283262  0.017553801           19 
 3910000   0.63161084   -7.4739515    857.23602  0.018270162  0.017548525           12 
 3911000   0.61928913   -7.4922118    855.43628  0.018227143  0.017543238           33 
 3912000   0.62979406   -7.4867111    855.71362  0.018228392  0.017537953           28 
 3913000     0.634048   -7.4928869    855.68619  0.018223149  0.017532678           57 
 3914000   0.63112624   -7.4944581    854.48972  0.018193019  0.017527403           38 
 3915000   0.62380486   -7.4829094    856.91954  0.018240092  0.017522133           49 
 3916000   0.62178843   -7.4981098      856.111  0.018218229  0.017516859           42 
 3917000   0.62837124   -7.4818496    857.57893  0.018244807  0.017511598           44 
 3918000   0.63680849   -7.4757188    856.10131  0.018208723  0.017506344           35 
 3919000   0.62425455   -7.4881914     857.7085  0.018238252  0.017501087           34 
 3920000   0.62950909   -7.4942309    856.67366    0.0182116  0.017495834           50 
 3921000    0.6231979   -7.4827822    856.33145  0.018199682  0.017490579           57 
 3922000   0.62293698   -7.4867011    857.03019  0.018209888  0.017485317           39 
 3923000   0.62055331   -7.4953629    856.62771  0.018196697  0.017480063           58 
 3924000   0.61437627   -7.5067929    856.63974  0.018192315  0.017474807           46 
 3925000   0.61998358   -7.5062212    856.32146  0.018180923  0.017469543           44 
 3926000   0.63410308   -7.4931433    856.55742    0.0181813   0.01746429           66 
 3927000   0.63074239   -7.5022746    857.54155  0.018197554  0.017459045           61 
 3928000   0.62827973   -7.4833828    856.00259  0.018160272  0.017453801           59 
 3929000   0.61742342   -7.4943203    855.86326  0.018152695  0.017448559           76 
 3930000   0.61869907   -7.4984157    856.07767  0.018152622  0.017443316           51 
 3931000   0.63606495    -7.517445     857.5754  0.018179755  0.017438075           66 
 3932000   0.63509406   -7.5270885    855.52331   0.01813164  0.017432832           49 
 3933000   0.65047922   -7.5296961    857.95733  0.018178603  0.017427586           21 
 3934000   0.62108303    -7.526872    857.50069  0.018164309  0.017422336           79 
 3935000    0.6206316   -7.5027422    856.45515  0.018137551  0.017417093           92 
 3936000    0.6183588   -7.5260019    855.27441  0.018107944  0.017411844           88 
 3937000   0.62013048    -7.525604    857.94129  0.018159794  0.017406596           88 
 3938000   0.63373551   -7.5101697    856.87276  0.018132571  0.017401359           57 
 3939000   0.62471624    -7.510597     856.7041  0.018124399  0.017396103           49 
 3940000   0.63348373   -7.5139874     856.9492  0.018124983  0.017390853           78 
 3941000   0.62650734   -7.5159306    855.63175  0.018092526  0.017385615           51 
 3942000   0.62416339   -7.5214299    857.65898  0.018130792  0.017380377           62 
 3943000   0.63074682   -7.5230421    856.99681  0.018112199  0.017375144           55 
 3944000   0.61454352   -7.5313179    855.15711  0.018068735  0.017369907           35 
 3945000   0.62692375   -7.5010158    857.32919  0.018110038  0.017364673           35 
 3946000     0.620399   -7.5225823    856.90749  0.018096543  0.017359437           16 
 3947000   0.62579699   -7.5294174    856.47768  0.018082883  0.017354216           30 
 3948000   0.62619616   -7.5400262    856.87032  0.018086591  0.017348987           33 
 3949000    0.6263644   -7.5160725    856.84746  0.018081528  0.017343753           46 
 3950000   0.62648851   -7.5220427    856.12286  0.018061664   0.01733852           74 
 3951000   0.61223994   -7.5187692    856.14901  0.018057644  0.017333282           31 
 3952000   0.63205453   -7.5225603    855.39403  0.018037155   0.01732806           32 
 3953000   0.62173774    -7.504212     855.8923  0.018043096  0.017322835           26 
 3954000   0.61459287   -7.5336729    857.72283  0.018077112  0.017317614           33 
 3955000   0.61758564   -7.4956773    857.87324  0.018075711   0.01731241           18 
 3956000   0.60453675   -7.5141601    857.69538  0.018067395  0.017307206           41 
 3957000   0.61558056   -7.5100931    857.52635  0.018059269  0.017301992           33 
 3958000   0.60412162   -7.5215472    857.65595  0.018057435  0.017296785           20 
 3959000   0.62963814   -7.5293908    856.42649  0.018026995  0.017291583           42 
 3960000   0.60289361     -7.53263    854.58801  0.017983754  0.017286371           17 
 3961000   0.60624611   -7.5365542    856.96015   0.01802912  0.017281167           25 
 3962000   0.61582375   -7.4790164    855.57289  0.017995391  0.017275962           20 
 3963000   0.61234906   -7.5103267    858.04142  0.018042758  0.017270765           28 
 3964000   0.62396349   -7.4896562     857.7463  0.018032003  0.017265581           15 
 3965000   0.61976307   -7.5053246     856.5632  0.018002589  0.017260389           30 
 3966000   0.63044358   -7.4834418     854.8743  0.017962563   0.01725519           30 
 3967000   0.61051194   -7.5249002    855.18638  0.017964591  0.017249992           50 
 3968000   0.61641472   -7.5331504    856.24194  0.017982232  0.017244786           40 
 3969000   0.60792489   -7.5027113    856.65693  0.017986414   0.01723959           30 
 3970000   0.61304381    -7.534297    855.82026  0.017964321  0.017234379           36 
 3971000   0.61303793   -7.5583754    854.44918  0.017931025  0.017229164           37 
 3972000   0.61896643   -7.5181034    856.25585  0.017964414  0.017223952           51 
 3973000   0.61232843   -7.5077301    856.28307  0.017960464  0.017218746           35 
 3974000    0.6131609   -7.5069445    856.25959  0.017955452   0.01721355           43 
 3975000   0.61724144   -7.5369672    855.75628  0.017940383   0.01720836           79 
 3976000   0.61546028   -7.5184417    855.64181  0.017933472  0.017203171           39 
 3977000   0.60586546   -7.5205001    856.00839  0.017936644  0.017197975           45 
 3978000   0.62302819   -7.5239721    857.74216  0.017968455  0.017192793           41 
 3979000   0.61556094   -7.5218457    857.41011  0.017956985  0.017187615           35 
 3980000   0.61766342   -7.5123195    856.69019  0.017937399  0.017182431           43 
 3981000   0.62508885   -7.5113708    855.89266  0.017916199  0.017177246           25 
 3982000   0.60062938   -7.5013604    856.31521  0.017920543  0.017172061           37 
 3983000   0.61124532   -7.5263737    856.47078  0.017919298  0.017166883           31 
 3984000   0.62070837   -7.5254599    855.92083  0.017903297  0.017161703           41 
 3985000   0.60885913   -7.5156887    856.96465  0.017920633  0.017156515           42 
 3986000   0.63060183   -7.5197827    856.03018    0.0178966  0.017151335           29 
 3987000   0.60249251   -7.5216719    855.81705  0.017887657  0.017146156           28 
 3988000   0.60511956   -7.5166908    855.96452  0.017886253  0.017140984           43 
 3989000   0.62119271   -7.5045013     855.5303  0.017872698  0.017135816           42 
 3990000   0.62871956   -7.5094681    856.03961  0.017878856  0.017130648           31 
 3991000     0.599241   -7.5326044    855.29409  0.017858809  0.017125477           22 
 3992000    0.6105152    -7.534226    856.92505  0.017888382  0.017120301           27 
 3993000   0.61155676   -7.5080907    855.91275  0.017862775  0.017115132           23 
 3994000   0.63136961   -7.5209383    856.10651  0.017862346  0.017109949           50 
 3995000   0.60065055   -7.5143423    857.81474  0.017893507  0.017104777           37 
 3996000   0.60170814   -7.5458628    855.53407  0.017841468    0.0170996           29 
 3997000   0.60721708   -7.5212156    856.61493  0.017859539  0.017094418           49 
 3998000   0.63013484   -7.5421438    857.28719  0.017869084  0.017089245           29 
 3999000    0.5989473    -7.520315    856.43101  0.017846774  0.017084064           31 
 4000000   0.61714537   -7.5344096    854.34009  0.017798752  0.017078884           57 
 4001000   0.61854643   -7.5393778    857.23657  0.017854632  0.017073698           53 
 4002000   0.60587979    -7.536953    857.16881  0.017848759  0.017068518           65 
 4003000   0.61402997    -7.531405    855.39577   0.01780739  0.017063341           40 
 4004000    0.6049601   -7.5455907    855.51954  0.017805518  0.017058161          114 
 4005000   0.60552271    -7.534301      856.416  0.017819725  0.017052986           90 
 4006000   0.60950757   -7.5400461    856.53454  0.017817743  0.017047815           88 
 4007000    0.6067818   -7.5288117    855.62676  0.017794417  0.017042652           37 
 4008000   0.59723304   -7.5204506    856.18483  0.017801581  0.017037486           41 
 4009000   0.61190295   -7.5150711    856.64843  0.017806777  0.017032329           28 
 4010000   0.60855458   -7.5181717    856.03539  0.017789597  0.017027161           33 
 4011000   0.62024254   -7.5349265    854.20479  0.017747129  0.017021989           78 
 4012000   0.62810069   -7.5359587     857.0332  0.017801454  0.017016833           86 
 4013000   0.61088007    -7.531535    854.65642  0.017747662  0.017011669           39 
 4014000   0.60486478   -7.5266924    854.88782  0.017748045  0.017006504           77 
 4015000   0.60095261   -7.5218122    855.80811  0.017762725  0.017001354           32 
 4016000   0.60783919   -7.5353002    855.51712  0.017752264  0.016996201           26 
 4017000   0.61454413   -7.5211142    855.14336  0.017740091  0.016991048           39 
 4018000   0.60181523   -7.5229831    855.71117  0.017747452  0.016985894           59 
 4019000   0.60312686    -7.551061     856.0105  0.017749243  0.016980737           30 
 4020000   0.60843076   -7.5426732    856.15223  0.017747766  0.016975591          106 
 4021000   0.60125978   -7.5590648    856.97448  0.017760393  0.016970435           62 
 4022000   0.60123782   -7.5431092     856.4787  0.017745705  0.016965283           29 
 4023000   0.59707848   -7.5376744    854.92408  0.017709091  0.016960134           68 
 4024000   0.61673784   -7.5629984    854.74277  0.017700935  0.016954976           65 
 4025000   0.60848306   -7.5463971    855.50393  0.017712297  0.016949827           34 
 4026000    0.6079476   -7.5475924    856.26301  0.017723609  0.016944678           22 
 4027000   0.60147015   -7.5438247    856.73861   0.01772905  0.016939535           27 
 4028000   0.61619055   -7.5368772    855.58995  0.017700884  0.016934394           26 
 4029000   0.59999025   -7.5427216    855.92921  0.017703508  0.016929251           19 
 4030000   0.60537591   -7.5320644    855.69478  0.017694268  0.016924116           30 
 4031000   0.58996225   -7.5436368    857.35163   0.01772413  0.016918985           57 
 4032000   0.61454959   -7.5432643    855.59188  0.017683364  0.016913856           27 
 4033000   0.60940716   -7.5400452    857.02494   0.01770859  0.016908716           16 
 4034000   0.60931395   -7.5410084    856.89149  0.017701444  0.016903576           39 
 4035000    0.6150193   -7.5357567    856.10069  0.017680725   0.01689845           61 
 4036000   0.59920896   -7.5394412    855.08561  0.017655385  0.016893325           52 
 4037000    0.5949556   -7.5521887    857.27627  0.017696232  0.016888197           16 
 4038000   0.60516822   -7.5380903    855.61876  0.017657643  0.016883064           22 
 4039000   0.60827098    -7.544705    853.76398  0.017615003  0.016877927           26 
 4040000   0.60416924   -7.5479828    854.90102  0.017634097  0.016872791           53 
 4041000   0.61111867    -7.527149    856.22079  0.017656949  0.016867667           35 
 4042000     0.622022   -7.5379288    855.04263  0.017628291  0.016862547           42 
 4043000    0.5955004   -7.5435718    856.57412  0.017655498  0.016857441           38 
 4044000   0.61244268   -7.5153786     857.1007  0.017661983  0.016852334           40 
 4045000   0.60949959    -7.541659    856.30829  0.017641291  0.016847226           22 
 4046000   0.60628559    -7.526175    856.09556   0.01763255  0.016842124           16 
 4047000   0.60697603   -7.5349785    857.21485  0.017651241  0.016837017           38 
 4048000   0.59320967   -7.5551978    855.87732  0.017619345  0.016831912           24 
 4049000   0.62166258   -7.5527713    855.48165   0.01760685  0.016826798           23 
 4050000   0.60012008    -7.538894    855.93639   0.01761186  0.016821704           30 
 4051000   0.59766538   -7.5480186    857.96237  0.017649189  0.016816604           24 
 4052000   0.60394318   -7.5616308    855.03709  0.017584672  0.016811506           16 
 4053000    0.5972863   -7.5331122    856.26976  0.017605678  0.016806402           21 
 4054000   0.61451057   -7.5450196    857.26449  0.017621783  0.016801311           23 
 4055000   0.60899066    -7.529484    854.69294   0.01756459  0.016796218           25 
 4056000   0.60214943   -7.5277534    855.29775  0.017572685  0.016791121           20 
 4057000   0.61143621   -7.5682125    857.17123  0.017606837   0.01678603           26 
 4058000   0.60339702   -7.5511395    857.24378  0.017603988  0.016780933           26 
 4059000   0.59615653   -7.5421506    855.79808   0.01756997  0.016775833           25 
 4060000   0.59915742   -7.5483214    856.37797  0.017577545  0.016770731           22 
 4061000   0.60135404   -7.5182352      856.906  0.017584052  0.016765638           59 
 4062000   0.60034734   -7.5394875    855.77748  0.017556571  0.016760546           66 
 4063000   0.59989935   -7.5443883    855.59521  0.017548511  0.016755455           25 
 4064000   0.59738619   -7.5450416    856.13832   0.01755533  0.016750366           27 
 4065000   0.60349244   -7.5546364    857.04119   0.01756952  0.016745277           24 
 4066000   0.60049999   -7.5723244    855.12561  0.017525939  0.016740189           58 
 4067000   0.59224904   -7.5424541    856.29456  0.017545582  0.016735111           30 
 4068000   0.59993734   -7.5582267    854.76239  0.017509882  0.016730032           90 
 4069000   0.59072974   -7.5587978    855.25422  0.017515651  0.016724942           40 
 4070000   0.60370394   -7.5505472    856.65533  0.017540035  0.016719857           43 
 4071000   0.60157033   -7.5460241     856.6897   0.01753643   0.01671478           42 
 4072000   0.60225413   -7.5445428    855.68688  0.017511601  0.016709695           64 
 4073000    0.5935503   -7.5589928    856.03035  0.017514329  0.016704613           85 
 4074000   0.60227313   -7.5760428    855.11046  0.017491214   0.01669953           69 
 4075000   0.60345373    -7.546438    853.03647  0.017444509  0.016694441           62 
 4076000   0.60829713   -7.5782546    856.45304   0.01751008  0.016689349           39 
 4077000   0.59439936   -7.5583659    855.58737  0.017488091  0.016684261           76 
 4078000   0.60531283   -7.5582754    856.14602  0.017495219  0.016679171           79 
 4079000   0.58502457    -7.574737    855.63061    0.0174804  0.016674088           32 
 4080000   0.59660768   -7.5603928     855.7353  0.017478254  0.016669008           40 
 4081000   0.58950419   -7.5582353    854.17383  0.017442086  0.016663922           32 
 4082000   0.59763463   -7.5484815    856.96477  0.017494789  0.016658847           32 
 4083000   0.58594468   -7.5733156    854.55293   0.01744128  0.016653764           56 
 4084000   0.59804698   -7.5664051    855.28173   0.01745188  0.016648676           22 
 4085000    0.5996965   -7.5717212    855.97325  0.017461715  0.016643591           28 
 4086000   0.59959672   -7.5502896    855.04171  0.017438442  0.016638507           59 
 4087000   0.59925214   -7.5707917     856.5213  0.017464344  0.016633423           32 
 4088000    0.5861869   -7.5660611    853.98234  0.017408316   0.01662834           28 
 4089000   0.59384188    -7.554654     855.2128  0.017429135  0.016623257           95 
 4090000   0.61570004   -7.5701251    853.25703  0.017385025   0.01661817           60 
 4091000   0.60731466   -7.5904182    854.99488  0.017416175  0.016613085           82 
 4092000    0.6057575   -7.5726599    855.05763  0.017413197  0.016608001           58 
 4093000   0.59356036   -7.5694747    853.36523  0.017374486   0.01660292           91 
 4094000    0.5966772    -7.562052    854.43465   0.01739201   0.01659783           75 
 4095000   0.59070487   -7.5661432    854.93904  0.017398027  0.016592748           34 
 4096000   0.59893472   -7.5616357    855.52553  0.017405711   0.01658767           79 
 4097000   0.59925767    -7.575687    855.62127   0.01740341  0.016582603           74 
 4098000   0.59388717   -7.5812415    855.86369  0.017404093  0.016577538           36 
 4099000   0.59470321   -7.5627866    854.53847  0.017372905  0.016572465           47 
 4100000   0.59991408   -7.5744501    853.47622  0.017347078  0.016567398           80 
 4101000   0.59631962   -7.5395769    855.40612  0.017382064  0.016562337           34 
 4102000    0.6029712   -7.5602484    854.89192   0.01736738  0.016557278           25 
 4103000   0.58080764   -7.5586738    853.85908   0.01734217  0.016552215           65 
 4104000   0.60244117   -7.5764721    856.19907  0.017385459  0.016547149           96 
 4105000   0.60447051   -7.5874886    856.66361  0.017390654  0.016542091           46 
 4106000    0.6020233   -7.5745875    854.58395  0.017344211  0.016537031           94 
 4107000   0.60517984   -7.5542866    853.78034  0.017323682  0.016531969           54 
 4108000   0.59119912   -7.5847007    854.11476  0.017326249  0.016526904           78 
 4109000   0.58860116   -7.5865359    855.10644  0.017342144  0.016521834           84 
 4110000   0.59471462   -7.5849168    854.74496  0.017330595  0.016516772           93 
 4111000   0.59750691   -7.5708341    854.99741  0.017331497  0.016511715           93 
 4112000   0.58791613   -7.5652241    855.33033  0.017334029  0.016506663           48 
 4113000   0.60378819   -7.5736419    855.18478  0.017326866  0.016501604           81 
 4114000   0.58397723   -7.5785359     854.3391  0.017305524   0.01649654           38 
 4115000   0.58344758   -7.5827799    856.56845  0.017346465  0.016491483           48 
 4116000    0.5889632   -7.5642976    853.75362  0.017285261  0.016486431           75 
 4117000   0.59220405   -7.5823423    855.76506  0.017321777  0.016481382           51 
 4118000   0.60183753    -7.574425    855.27643  0.017307682  0.016476331           41 
 4119000   0.59277561   -7.5892831    855.42589  0.017306504  0.016471282           43 
 4120000   0.58810657   -7.5651829    854.01429  0.017273752  0.016466228           36 
 4121000   0.58802186   -7.6009408    855.02345  0.017289967   0.01646118           34 
 4122000    0.5926028   -7.5680792    854.89131  0.017283101  0.016456136           44 
 4123000   0.59628655   -7.5859282    854.30117  0.017266981  0.016451103           86 
 4124000   0.59113239   -7.5684843    853.41388  0.017244865  0.016446067           34 
 4125000   0.59459839   -7.5961271    853.25681  0.017237511  0.016441027           63 
 4126000   0.57510168   -7.5903322    855.12459  0.017271057  0.016435988           28 
 4127000   0.60329725   -7.5691229    853.47549  0.017233574  0.016430951           36 
 4128000   0.58863803   -7.5849008    854.88951  0.017257944   0.01642591           38 
 4129000   0.57859972   -7.5919043    854.75977  0.017251146  0.016420872           51 
 4130000   0.59396829   -7.5754974    856.40745  0.017280215   0.01641584           73 
 4131000   0.59290929     -7.57699    854.75052  0.017242607  0.016410803           61 
 4132000   0.58762916   -7.5784197    854.45121  0.017232398  0.016405774           54 
 4133000   0.57570126   -7.5771442    854.18303  0.017222821  0.016400753           67 
 4134000   0.58976112   -7.5669506    854.06707  0.017216317  0.016395736           47 
 4135000   0.58097795    -7.580329    855.80756   0.01724723   0.01639071           41 
 4136000   0.61271391   -7.5851646    855.24188  0.017231663  0.016385693           79 
 4137000   0.58459028   -7.5711927    853.93111  0.017201094  0.016380674           63 
 4138000   0.58599621   -7.5832684    853.29145  0.017184055  0.016375659           72 
 4139000   0.59500645     -7.58213    854.84783  0.017211239  0.016370643           71 
 4140000    0.5931277    -7.576784    854.02952   0.01719061  0.016365636           65 
 4141000   0.59076699   -7.5999594    854.37982  0.017193508  0.016360627           90 
 4142000   0.59793391   -7.5723411     855.1094  0.017204036  0.016355618           68 
 4143000   0.59538391   -7.5826196    855.43683  0.017206469  0.016350611           89 
 4144000   0.59844743   -7.6063611    853.57499  0.017164877  0.016345601           55 
 4145000   0.59169304   -7.5664858    852.25087  0.017134115  0.016340595           63 
 4146000   0.59031503   -7.5757234     854.8971  0.017183171  0.016335586           70 
 4147000   0.58749894   -7.5712931    853.79114  0.017156803  0.016330585           61 
 4148000   0.59463397   -7.5951609    856.06398  0.017198328  0.016325582           57 
 4149000    0.6008015   -7.5646145    855.59792  0.017184822  0.016320592           43 
 4150000   0.59451482   -7.5803391    854.49245  0.017158483  0.016315596           57 
 4151000   0.58539899   -7.5979406    854.49628  0.017154426  0.016310603           83 
 4152000   0.58307033   -7.5857723    853.12826  0.017122838  0.016305603           68 
 4153000    0.5849021    -7.564846    853.66682  0.017129521  0.016300611           50 
 4154000   0.57439257   -7.5957505    853.59037  0.017123864  0.016295615           84 
 4155000   0.58802581   -7.6017012    855.29305  0.017153892  0.016290619          117 
 4156000   0.58848669   -7.5866041    854.89026  0.017141688  0.016285625          108 
 4157000   0.59301463   -7.5870682    853.53621   0.01711042  0.016280632          133 
 4158000   0.59038571   -7.5828938    853.31507  0.017101873  0.016275641           43 
 4159000   0.58682782   -7.5882667    854.30679  0.017117632  0.016270658           96 
 4160000   0.58818004   -7.5841366    853.47243  0.017096803  0.016265678           97 
 4161000   0.57797174    -7.581251    855.29967  0.017129289  0.016260704           91 
 4162000   0.58102221   -7.5800277    854.80622  0.017115293  0.016255726           90 
 4163000   0.58507269   -7.5877796    854.52928  0.017105639  0.016250744          111 
 4164000   0.60031499   -7.6023131      853.351   0.01707795  0.016245764          128 
 4165000   0.57751554   -7.6007181    855.78534  0.017122556  0.016240787           87 
 4166000   0.58161987   -7.5887312    855.00671  0.017102871  0.016235818           66 
 4167000   0.58249357   -7.5871246    854.18338  0.017082301  0.016230852          123 
 4168000   0.58043863   -7.5794754    855.70468  0.017108619  0.016225882          107 
 4169000   0.58321601   -7.6045246    855.09651  0.017092359  0.016220911           92 
 4170000   0.57758373    -7.608033    855.08863  0.017088102  0.016215937          100 
 4171000   0.58765243   -7.5956969    854.62269  0.017074696  0.016210963           85 
 4172000   0.58576297    -7.598618     855.0431  0.017079001  0.016205993           49 
 4173000   0.59543468   -7.6162652    854.65148  0.017067088  0.016201032          123 
 4174000   0.58289141   -7.5992133    853.98099  0.017049613   0.01619607           87 
 4175000   0.60033182   -7.5739401    854.40721  0.017054036  0.016191115           99 
 4176000   0.58643342   -7.5994045    853.80195  0.017037874   0.01618616           84 
 4177000   0.57966581   -7.5785277    854.57825  0.017049283  0.016181209           67 
 4178000   0.57916731   -7.5817917     856.4848   0.01708323  0.016176264           72 
 4179000    0.5918998     -7.58857    855.36683  0.017056848  0.016171329           79 
 4180000   0.57294004   -7.5794445    855.46396  0.017054704  0.016166388          114 
 4181000   0.57159355   -7.5797161     856.5305  0.017071883   0.01616145           61 
 4182000   0.58115062   -7.5948232    855.58456  0.017048951  0.016156514           81 
 4183000    0.5790939   -7.5848733    853.55991   0.01700454  0.016151576          101 
 4184000   0.56507759   -7.5797899     855.2316  0.017033771  0.016146637           72 
 4185000   0.58213142   -7.5970778     855.4084  0.017033222  0.016141702           72 
 4186000   0.58235794   -7.6003397    853.66035  0.016994353  0.016136774          102 
 4187000   0.57092774   -7.5878878    854.71138  0.017011213  0.016131844           84 
 4188000   0.58954036    -7.591174    855.17341  0.017016345  0.016126909           61 
 4189000   0.58367405   -7.5813077     855.8017  0.017024781  0.016121977           69 
 4190000    0.5892792   -7.5982407     854.8103     0.017001  0.016117035           69 
 4191000    0.5881313   -7.5956671    855.14498  0.017003599  0.016112096          119 
 4192000   0.57325272   -7.5934933    855.84556  0.017013469  0.016107162           82 
 4193000   0.57392146   -7.5996175    854.76838  0.016988003  0.016102236           48 
 4194000   0.59722119   -7.6119449    854.56928  0.016979997  0.016097303           37 
 4195000    0.5845613   -7.5882406    854.78539  0.016980242  0.016092358           58 
 4196000    0.5854688   -7.5739788      856.143  0.017003158  0.016087426           51 
 4197000   0.57816182   -7.5809439     854.3696  0.016963895  0.016082492           47 
 4198000    0.5842042    -7.584759    854.29243  0.016958322  0.016077557           86 
 4199000    0.5829609   -7.5946413    855.20833   0.01697246  0.016072628           60 
 4200000   0.59031181   -7.6087296    853.68109  0.016938117  0.016067697           66 
 4201000   0.56650319   -7.6119393     854.0889  0.016942174   0.01606276           70 
 4202000   0.57922599   -7.5953016     853.4306  0.016925087  0.016057828           53 
 4203000   0.57333254   -7.5959756    855.52188  0.016962524  0.016052898          122 
 4204000   0.57154976   -7.5969891    854.46893  0.016937618  0.016047958           44 
 4205000   0.57878236   -7.6067255    854.83944  0.016940932  0.016043023           77 
 4206000   0.56670353   -7.6061056    855.65528  0.016953069  0.016038093           58 
 4207000   0.57974718    -7.625063    853.97429  0.016915741  0.016033166           47 
 4208000   0.57274693   -7.6109781    853.26049  0.016897586   0.01602824          130 
 4209000   0.58435826   -7.6088015    854.89387   0.01692591  0.016023313           56 
 4210000   0.56749358   -7.6160261    854.51234  0.016914338  0.016018379           88 
 4211000   0.56196359   -7.6141059    853.02443  0.016880876  0.016013446           58 
 4212000   0.56706085   -7.5975782    855.36574  0.016923191  0.016008516           78 
 4213000   0.56967741   -7.6092654    853.19772   0.01687629  0.016003589           62 
 4214000   0.58286756   -7.6217576    854.71308  0.016902252  0.015998665           49 
 4215000   0.59402539   -7.6107398    854.75885  0.016899147  0.015993742          121 
 4216000   0.57092229   -7.6158116    854.46984  0.016889426  0.015988816          119 
 4217000   0.58940814   -7.6103628    854.56774  0.016887356  0.015983894           81 
 4218000   0.58245363   -7.6101711    852.94767  0.016851345  0.015978975           69 
 4219000   0.56427812   -7.6155435    853.45706  0.016857412  0.015974045          113 
 4220000   0.58350355   -7.6218882    854.45818  0.016873187  0.015969125           83 
 4221000    0.5778797   -7.6149282    852.46115  0.016829763  0.015964209           85 
 4222000   0.56587262   -7.5939454    853.47025  0.016845694   0.01595929          117 
 4223000   0.57300462   -7.6029987     852.8226  0.016828925  0.015954373           77 
 4224000   0.58276825   -7.6034779    853.92983  0.016846785  0.015949461           69 
 4225000   0.58765433   -7.6083207    855.17152  0.016867288  0.015944553           81 
 4226000   0.57620935   -7.6258043     854.1977  0.016844094  0.015939647           62 
 4227000   0.58074405   -7.6037893    853.41846  0.016824747  0.015934745          105 
 4228000   0.56937354   -7.6014381    853.76377  0.016827574  0.015929844          100 
 4229000   0.57652046   -7.6327417    852.86717  0.016805927  0.015924942           72 
 4230000    0.5861504   -7.6136586    853.29929  0.016810467  0.015920044           57 
 4231000   0.56684207   -7.6062994     853.3772  0.016808028  0.015915141           66 
 4232000   0.56888548   -7.6233898    853.73297  0.016811062  0.015910234           79 
 4233000   0.57379279   -7.6209881     855.0264  0.016832554   0.01590533           92 
 4234000   0.57299262     -7.62605    854.31899  0.016814655  0.015900433          177 
 4235000   0.57258505    -7.618371    853.71905  0.016798879  0.015895534          103 
 4236000   0.57384607   -7.6326989    853.66021  0.016793756  0.015890639          100 
 4237000   0.56906468    -7.619724    853.86646  0.016793849  0.015885732           71 
 4238000   0.58040432   -7.6127462    853.61849   0.01678501  0.015880824          155 
 4239000   0.57053922   -7.6170108    853.30363  0.016774861  0.015875928           87 
 4240000   0.57706246   -7.6076268    853.59151  0.016776563   0.01587103           70 
 4241000   0.56974829   -7.6225362    854.68017  0.016793999  0.015866136          134 
 4242000   0.56555063   -7.6308004    853.08475  0.016758698   0.01586124          165 
 4243000   0.57093242   -7.6081473    853.49184  0.016762743  0.015856355           83 
 4244000   0.57718117   -7.6145143    852.72311  0.016743699   0.01585146          116 
 4245000   0.57997669   -7.6277525    852.44391  0.016734274  0.015846562           70 
 4246000   0.57584384    -7.632376    855.01415  0.016780777  0.015841671          119 
 4247000   0.57855378   -7.6288042    853.91288  0.016755217  0.015836783          150 
 4248000   0.56709316   -7.6257421    854.70822  0.016766875  0.015831892          133 
 4249000   0.55738779   -7.6354413    852.22741  0.016714274  0.015827006           68 
 4250000   0.57536604   -7.6282119    853.83191  0.016741802  0.015822129           53 
 4251000   0.57625159   -7.6396563    852.88028  0.016719209  0.015817244          117 
 4252000   0.56435988    -7.620229    855.79858  0.016772471  0.015812365           53 
 4253000   0.57843348   -7.6333162    852.23119  0.016698628   0.01580748          110 
 4254000     0.579232   -7.6367005     853.3291   0.01671621  0.015802596           66 
 4255000   0.55919183    -7.622524    853.75922  0.016720705  0.015797718          125 
 4256000   0.54938184   -7.6086983    853.27486  0.016707293  0.015792837          153 
 4257000   0.57301891   -7.6229407    853.17326  0.016701379  0.015787969          223 
 4258000   0.56398292   -7.6363499    852.58493  0.016685943  0.015783105           56 
 4259000   0.57146199   -7.6237918    852.94789  0.016689127  0.015778229          163 
 4260000   0.57655908   -7.6172744    853.55322   0.01669705  0.015773365           75 
 4261000   0.58077085   -7.5982001    854.30098  0.016707756  0.015768498           95 
 4262000   0.55635251    -7.621611    852.15057   0.01666179  0.015763639          105 
 4263000   0.55922115   -7.6269614    852.97621  0.016674021  0.015758767           60 
 4264000   0.57138213   -7.6366702    851.76671  0.016646473  0.015753903           79 
 4265000   0.56433607   -7.6420432    852.01419  0.016647405  0.015749029          245 
 4266000   0.56583806   -7.6257551    853.14057  0.016665506   0.01574416          107 
 4267000   0.57709104   -7.6520363    853.10445  0.016660895  0.015739292           88 
 4268000   0.56936515    -7.632222    852.52511  0.016645679  0.015734422          128 
 4269000   0.56662566   -7.6332546    852.91222  0.016649337  0.015729552           79 
 4270000   0.57673277   -7.6342805    853.44922  0.016655918  0.015724699          101 
 4271000   0.56259895   -7.6167421    852.03168   0.01662436  0.015719841           70 
 4272000   0.56669741   -7.6303523    854.00607  0.016658982  0.015714987          156 
 4273000   0.56926267   -7.6271961    853.20663  0.016639493  0.015710132           68 
 4274000   0.56325622   -7.6222311    852.54828  0.016622763  0.015705272           76 
 4275000   0.57246576    -7.610885    852.36523  0.016615307  0.015700429           70 
 4276000   0.56032233   -7.6348808    852.73184  0.016618566   0.01569558           47 
 4277000   0.57218425    -7.659037    854.06742  0.016640703  0.015690733          108 
 4278000   0.56208951   -7.6338446    852.34929  0.016603345  0.015685892           52 
 4279000   0.56967172   -7.6286753    854.06555  0.016632888  0.015681051           93 
 4280000   0.57140992   -7.6177974    851.96819  0.016588166  0.015676214          102 
 4281000   0.55885499   -7.6379079     852.5483  0.016595583  0.015671376           55 
 4282000   0.55435196   -7.6223511    853.19186  0.016604232   0.01566654          101 
 4283000   0.57180653   -7.6270645    852.67832  0.016590364  0.015661706           95 
 4284000    0.5574388   -7.6377336    853.26215  0.016597848  0.015656879           92 
 4285000   0.56808516   -7.6250158    852.62815  0.016581644  0.015652049          136 
 4286000   0.56949113   -7.6454379    853.13389  0.016587609  0.015647226           91 
 4287000   0.56874612   -7.6378153    851.95256  0.016560776  0.015642404          114 
 4288000   0.57129073   -7.6328504    853.11159  0.016579439  0.015637583          165 
 4289000   0.56844288   -7.6234222    853.69079  0.016586827  0.015632755           62 
 4290000   0.56353068   -7.6600868    853.62627  0.016581707   0.01562793          121 
 4291000   0.57754698   -7.6280002    851.78337  0.016542053  0.015623108          134 
 4292000   0.55802641   -7.6235968    853.75397  0.016576459  0.015618282           53 
 4293000   0.56172415   -7.6332742    854.77001  0.016592321  0.015613458          113 
 4294000   0.56896851   -7.6343948    852.20075  0.016538596  0.015608634          112 
 4295000    0.5716395   -7.6526129    852.91848  0.016548671  0.015603813           94 
 4296000   0.56436451   -7.6392508     853.5956  0.016557953  0.015598993          201 
 4297000    0.5755783   -7.6517871    853.62562  0.016554682  0.015594168          192 
 4298000   0.55852604   -7.6526898    852.14986  0.016522217  0.015589354          179 
 4299000    0.5665569   -7.6471575    852.74772  0.016529963  0.015584537          196 
 4300000   0.56199901   -7.6369703    852.57597   0.01652279  0.015579725          132 
 4301000    0.5600326   -7.6376558     853.2518  0.016532043  0.015574918          200 
 4302000   0.56477608   -7.6143415     850.9564  0.016483736  0.015570109           94 
 4303000   0.56866455   -7.6365014    851.82818  0.016496789  0.015565306          141 
 4304000   0.57591608   -7.6422434    854.17443  0.016538383  0.015560507          165 
 4305000   0.56348693   -7.6428357    853.50513  0.016521586  0.015555704          137 
 4306000   0.55426771    -7.654913    853.00991  0.016508165  0.015550897          146 
 4307000   0.58147767   -7.6397276    853.15979  0.016507232  0.015546092          198 
 4308000   0.56867748   -7.6239795    852.50257  0.016490687   0.01554129          166 
 4309000   0.56074478   -7.6565397    853.46722  0.016505516  0.015536497          188 
 4310000    0.5692497    -7.632883    853.51021  0.016502518  0.015531702           55 
 4311000   0.55873036   -7.6342081     853.5102  0.016498689  0.015526913           92 
 4312000   0.56123474   -7.6325457    853.81551  0.016500764  0.015522131          231 
 4313000   0.56806283   -7.6320419    852.65119  0.016474441  0.015517343           99 
 4314000   0.56369281   -7.6320772    851.02625  0.016439234  0.015512559          120 
 4315000   0.55912229   -7.6491783    851.53187  0.016445189  0.015507775           43 
 4316000   0.54794314   -7.6174211    852.61061  0.016462207  0.015502992           95 
 4317000   0.56517747   -7.6334136    854.12576  0.016487641  0.015498217          117 
 4318000   0.56772855   -7.6411696    853.94177  0.016480272  0.015493441          158 
 4319000   0.55963966   -7.6240861    853.40497  0.016466099  0.015488663          139 
 4320000   0.55118984    -7.619814    853.14064  0.016457188  0.015483893          116 
 4321000   0.55496683    -7.636866    852.90697  0.016448873  0.015479116           84 
 4322000   0.55602392   -7.6283491     853.3439  0.016453492  0.015474346          213 
 4323000   0.56098468    -7.643072     852.0129  0.016424029  0.015469567           95 
 4324000   0.56068561   -7.6320799    853.58358  0.016450501  0.015464793          124 
 4325000   0.56009984   -7.6465934    851.43283  0.016405257  0.015460015          116 
 4326000   0.56281619    -7.644278    852.04864  0.016413327  0.015455235          197 
 4327000   0.55537207   -7.6512443    851.66678   0.01640218  0.015450459          187 
 4328000   0.56767712   -7.6658459    852.02251  0.016405239  0.015445684          160 
 4329000   0.57350298   -7.6300213    852.66993  0.016413913   0.01544091          122 
 4330000   0.55191081   -7.6583268    852.47659  0.016406401  0.015436142          147 
 4331000   0.55546384   -7.6613223    853.59055  0.016424047  0.015431376          164 
 4332000   0.56530859   -7.6285872     852.5263  0.016399783  0.015426604          147 
 4333000   0.55796661   -7.6594391    852.68297  0.016399011  0.015421838          108 
 4334000   0.56400577    -7.644358    852.86441  0.016398716  0.015417071          111 
 4335000   0.54926677   -7.6440621    852.21914  0.016382529    0.0154123          143 
 4336000   0.54605321    -7.647346    852.61358  0.016386331  0.015407535          165 
 4337000   0.55716491   -7.6493214    852.14335  0.016373518  0.015402775          223 
 4338000    0.5592063   -7.6336637    852.09715  0.016368856  0.015398015          135 
 4339000   0.55253406   -7.6530768    853.88145  0.016399352  0.015393256           85 
 4340000    0.5547564   -7.6437152    851.27841  0.016345592  0.015388499          141 
 4341000   0.56167842   -7.6501679    852.30475  0.016361529   0.01538374          132 
 4342000   0.55922433   -7.6548711     851.2358  0.016337245  0.015378985          103 
 4343000   0.57043254    -7.661808     853.5618  0.016378114  0.015374227          169 
 4344000   0.55244105   -7.6565279    851.28709  0.016330707  0.015369465          169 
 4345000    0.5614355   -7.6532617     852.2982  0.016346341  0.015364705          105 
 4346000   0.55683509   -7.6548546    851.41399  0.016325625  0.015359951          138 
 4347000   0.55471529   -7.6735968      851.659  0.016326566  0.015355193          110 
 4348000   0.55973424   -7.6542494    852.68602  0.016342495  0.015350437          148 
 4349000   0.55202543   -7.6536044    850.91377  0.016304778  0.015345681          161 
 4350000   0.55392955   -7.6475362    851.63275  0.016314804  0.015340923          208 
 4351000   0.56993331   -7.6628137    853.01052  0.016337442  0.015336172          168 
 4352000   0.54410324   -7.6777914      851.845   0.01631137  0.015331422          202 
 4353000   0.54872302   -7.6574484    851.65568  0.016303999  0.015326672          146 
 4354000   0.55187268   -7.6719479    851.41074  0.016295566  0.015321926          204 
 4355000    0.5503741   -7.6515547    850.49062  0.016274218  0.015317175           87 
 4356000   0.54916092    -7.633486    851.58497  0.016291417   0.01531243          185 
 4357000   0.56236965   -7.6580992    852.04578  0.016296492   0.01530768          109 
 4358000     0.548052   -7.6742091    852.50517  0.016301537  0.015302936          148 
 4359000   0.55890084   -7.6669067    851.64443  0.016281342  0.015298192          284 
 4360000   0.55282244   -7.6664614    852.68175  0.016297434  0.015293447          101 
 4361000   0.55266976   -7.6902495    850.58658  0.016253661  0.015288706          125 
 4362000   0.55883182   -7.6452183    851.30165  0.016263596  0.015283965          249 
 4363000   0.56800857    -7.671188    852.80911   0.01628866  0.015279232          138 
 4364000   0.56286742   -7.6583172    853.24715  0.016293293  0.015274504          127 
 4365000   0.54978349   -7.6698181    853.26616  0.016289923  0.015269775          106 
 4366000    0.5532765   -7.6651328    851.52602  0.016252978  0.015265045          244 
 4367000   0.55420784   -7.6420492    850.77795  0.016234981  0.015260315          105 
 4368000   0.55961063   -7.6702851    850.74301  0.016230598  0.015255587          111 
 4369000   0.55458061   -7.6520834    851.53793  0.016242045  0.015250861          196 
 4370000   0.55192253   -7.6684513    851.61018  0.016239706  0.015246129          115 
 4371000   0.55219089   -7.6712117    852.25143  0.016248216    0.0152414           83 
 4372000   0.55607084   -7.6770788    852.96317  0.016258066  0.015236671          126 
 4373000   0.54717937   -7.6756818    851.77216  0.016231652  0.015231947          112 
 4374000   0.54653907   -7.6688501    852.18184  0.016235746  0.015227223           96 
 4375000   0.55492485   -7.6625759    852.55798    0.0162392  0.015222501           79 
 4376000   0.56512957   -7.6682534    850.86202  0.016203192  0.015217777           86 
 4377000   0.55555327    -7.650661    850.21808   0.01618723  0.015213058          112 
 4378000   0.54952758   -7.6782024    851.15576  0.016201381  0.015208343          131 
 4379000   0.56222793    -7.670641    852.35403  0.016220485  0.015203626          202 
 4380000   0.56047298   -7.6756975    850.94093  0.016189896  0.015198911          157 
 4381000   0.54451366   -7.6737786    851.40829   0.01619509  0.015194199          290 
 4382000   0.55224441    -7.661415    851.72103  0.016197342  0.015189484          246 
 4383000     0.541748    -7.671859    850.41379  0.016168792  0.015184772          241 
 4384000   0.55120931   -7.6694618    852.66782   0.01620795  0.015180059          150 
 4385000   0.54984901   -7.6986836    851.60354  0.016184028  0.015175351          175 
 4386000   0.55658199   -7.6574343    851.39992  0.016176469  0.015170641          115 
 4387000   0.54874482   -7.6807554    850.53901  0.016156428  0.015165932          136 
 4388000    0.5627343   -7.6648753    851.11353  0.016163657  0.015161222          195 
 4389000   0.55570807   -7.6790949    851.29502   0.01616342  0.015156514          253 
 4390000   0.54084812   -7.6859273    852.50526  0.016182712  0.015151804          133 
 4391000   0.55270573   -7.6780038    851.73151  0.016164342    0.0151471          167 
 4392000   0.54600623   -7.6721049    850.86204  0.016144164  0.015142401          250 
 4393000   0.55974178   -7.6833232    852.28321  0.016167448  0.015137701          137 
 4394000   0.54003041   -7.6712798    851.65709  0.016151894  0.015133004          148 
 4395000   0.54838832   -7.6664277    851.96002  0.016153963  0.015128309          204 
 4396000   0.55254875   -7.6679173    850.12916  0.016115582  0.015123616          140 
 4397000   0.54234109   -7.6879687    851.54801  0.016138807  0.015118928          152 
 4398000   0.54950876   -7.6659169    851.81189  0.016140137  0.015114242          187 
 4399000   0.55282966   -7.6513763    850.59453  0.016113407  0.015109555          146 
 4400000   0.54453277   -7.6769113    849.90361  0.016096659  0.015104864          167 
 4401000   0.54829484   -7.6914076    851.62362   0.01612557  0.015100172          195 
 4402000   0.54840961   -7.6808093    850.55934   0.01610176  0.015095478          185 
 4403000   0.55338947   -7.6811935    850.31946  0.016093562  0.015090791          312 
 4404000   0.54927597   -7.6863901    850.39685  0.016091372   0.01508611          182 
 4405000   0.54807886    -7.684504    849.16471   0.01606441  0.015081425          135 
 4406000   0.54696283    -7.691129    851.03356  0.016096111  0.015076735          291 
 4407000   0.54586509   -7.6905873     850.4789   0.01608197  0.015072043          252 
 4408000   0.55437242    -7.671752    850.38056  0.016076462  0.015067356           94 
 4409000   0.55262058   -7.6929887    850.65006   0.01607791  0.015062676          390 
 4410000   0.55014424   -7.6841238    851.64404  0.016093047  0.015057998          232 
 4411000   0.54044902   -7.6750815    850.92522  0.016075818  0.015053315          170 
 4412000   0.54879759   -7.6733438    849.40537  0.016043468  0.015048639          145 
 4413000   0.54768448   -7.6960202    851.12067  0.016072224  0.015043966          180 
 4414000   0.55055697   -7.6898789    851.06188  0.016067472  0.015039291          129 
 4415000   0.54178601   -7.7023398    849.88344   0.01604159   0.01503462          125 
 4416000   0.54811854   -7.6904706    849.98004   0.01603978  0.015029948          128 
 4417000   0.55523213   -7.6803427    850.49916  0.016045943  0.015025278          117 
 4418000   0.53686667   -7.6820643     850.9255  0.016050353  0.015020611          142 
 4419000   0.54619826   -7.6966425    851.34366  0.016054606  0.015015941          144 
 4420000   0.54833614   -7.6963003    850.40878  0.016033348  0.015011273          155 
 4421000   0.55249177   -7.6873425    849.30404  0.016008898  0.015006601          117 
 4422000   0.54055654   -7.6952326    849.66408  0.016012062  0.015001939           83 
 4423000   0.54917664    -7.687896    849.17907  0.015999304  0.014997273          104 
 4424000   0.55528811     -7.68654    850.99749  0.016029941  0.014992616          153 
 4425000    0.5428124   -7.6936937    851.49093  0.016035611  0.014987952          170 
 4426000   0.53289527   -7.6781094    850.49823  0.016013297  0.014983299          143 
 4427000    0.5417889   -7.6794454    851.46753  0.016027926  0.014978644          154 
 4428000    0.5413885   -7.6957177    849.00954  0.015978048  0.014973981          140 
 4429000   0.54797126   -7.6899496    851.00476  0.016011981  0.014969323          127 
 4430000   0.54055622   -7.7111391      850.215   0.01599351  0.014964665          202 
 4431000   0.54493054   -7.6869002    849.68863  0.015980001  0.014960015          133 
 4432000   0.54541586   -7.6943913    851.41522   0.01600886   0.01495537          283 
 4433000   0.54124863   -7.7003013    852.09086   0.01601795  0.014950726           86 
 4434000   0.53699155   -7.6820515     850.9702  0.015993275  0.014946083          174 
 4435000   0.53825006   -7.6862235     849.5439  0.015962869  0.014941441          122 
 4436000   0.53738033   -7.6723065    850.86731  0.015984132  0.014936803          163 
 4437000    0.5515833   -7.6872426    850.57158  0.015974975  0.014932166           94 
 4438000   0.55418573   -7.7008632    849.69692  0.015954952  0.014927523          125 
 4439000   0.54219563   -7.6954604    851.55545  0.015986248   0.01492288           96 
 4440000    0.5373057   -7.6856907    851.02997  0.015972785  0.014918243          115 
 4441000     0.530447    -7.689895     850.2263  0.015954107  0.014913607          267 
 4442000   0.54127385   -7.6746085    850.53631  0.015956332  0.014908972          225 
 4443000   0.54750404    -7.706049    850.82707  0.015958194  0.014904336          163 
 4444000   0.55085406   -7.6944992    850.34263  0.015945519  0.014899707          191 
 4445000   0.53747446   -7.6905698    849.50515  0.015926231  0.014895074          126 
 4446000   0.54543084    -7.707572    850.72273   0.01594547  0.014890443          129 
 4447000   0.52855985   -7.7121086    849.08994  0.015911287  0.014885807          140 
 4448000   0.55082833   -7.6941153    849.99257  0.015924621  0.014881179          210 
 4449000    0.5375405   -7.7032845    850.32819  0.015927328  0.014876554          166 
 4450000   0.54944362   -7.6754774    850.14137   0.01592025  0.014871931          109 
 4451000   0.55033876   -7.7101851    851.03232  0.015933354  0.014867304          108 
 4452000   0.53633514   -7.7042834    849.37895  0.015898827  0.014862678          172 
 4453000    0.5319347   -7.6761528    850.03422   0.01590752  0.014858055          214 
 4454000   0.53297434   -7.6814738    849.96934  0.015902734  0.014853441          281 
 4455000   0.53568374   -7.6831315    851.81309  0.015933653  0.014848825          109 
 4456000    0.5329966   -7.6822594    851.88207  0.015931367  0.014844211          183 
 4457000    0.5425189   -7.7047213    850.99793  0.015911262  0.014839598          170 
 4458000   0.54678983   -7.6794955    850.05378  0.015890044  0.014834983          164 
 4459000   0.53549718   -7.6973072    849.85026  0.015882677  0.014830371          216 
 4460000    0.5450927   -7.7029881     850.8377  0.015897565  0.014825757          235 
 4461000   0.53581166   -7.7184152    849.95836  0.015877575  0.014821142          122 
 4462000   0.53744036   -7.7148528    849.88667  0.015872678  0.014816532          188 
 4463000   0.53415195   -7.6910565    849.66621  0.015865005  0.014811925          355 
 4464000   0.53516698   -7.6633293    849.79678  0.015863888  0.014807318          204 
 4465000   0.52648717   -7.7030752    851.02705  0.015883297  0.014802716          107 
 4466000   0.53213579   -7.6961652    849.64403  0.015853934  0.014798112          134 
 4467000   0.53766982   -7.7112618    850.57418  0.015867737  0.014793511          209 
 4468000    0.5370298   -7.6993104    850.73813  0.015867244  0.014788908          146 
 4469000   0.54047361   -7.6905146     851.2567  0.015873363  0.014784312          121 
 4470000   0.52838956   -7.7004005    849.08376  0.015829302  0.014779716          170 
 4471000   0.54934374   -7.6947728    850.39056  0.015850119  0.014775116          210 
 4472000   0.52674384   -7.6813748    849.44141  0.015828887  0.014770521          307 
 4473000    0.5345229   -7.7014371    850.18207  0.015839147  0.014765924          167 
 4474000   0.53929658   -7.7017429    849.27089  0.015818635  0.014761334          245 
 4475000   0.53262815   -7.7134614     849.4874  0.015819132   0.01475674          134 
 4476000   0.53232291   -7.7024425    849.70197  0.015819593   0.01475215          212 
 4477000   0.53714159   -7.7118008    850.10885  0.015823633  0.014747559          153 
 4478000   0.53589327   -7.7141944    848.64953  0.015792942  0.014742971          124 
 4479000   0.52779957   -7.6947038    849.75375   0.01580996  0.014738381          191 
 4480000   0.53409359   -7.6897841    848.37467  0.015780779  0.014733798          292 
 4481000   0.53325014   -7.6952386    849.98987  0.015807295  0.014729214          107 
 4482000   0.53279226    -7.699416    848.31798  0.015772683  0.014724628          240 
 4483000   0.55229244   -7.7148808    849.69183  0.015794703  0.014720043          124 
 4484000   0.52597906   -7.6922599    850.28326  0.015802172  0.014715456          175 
 4485000   0.52766301   -7.6986647    849.44618  0.015783095  0.014710873          312 
 4486000   0.54122637   -7.6942182     850.6717  0.015802342  0.014706293          108 
 4487000   0.53843356   -7.7037258    850.01153   0.01578656   0.01470171          362 
 4488000   0.53257264   -7.7092386    850.91946  0.015799901  0.014697131          123 
 4489000   0.54578003   -7.7080825    849.07942  0.015762223  0.014692551          201 
 4490000   0.53416822   -7.7192623    849.79727  0.015772036   0.01468797          132 
 4491000   0.53251525   -7.7046732    848.97584  0.015753281  0.014683394          297 
 4492000   0.52979916   -7.7129596    848.93049  0.015748933  0.014678821          187 
 4493000   0.52968519   -7.7229917    848.98609  0.015746459  0.014674246          322 
 4494000   0.53127657   -7.7113425    847.95324  0.015723803  0.014669669          338 
 4495000    0.5375439   -7.7147603    849.89916   0.01575638  0.014665097          200 
 4496000   0.53299195   -7.6969512    850.27551  0.015759852  0.014660528          245 
 4497000   0.52330564    -7.709505    849.34174  0.015739043  0.014655955          246 
 4498000    0.5221649   -7.7165736     850.3408  0.015754054  0.014651389          196 
 4499000   0.53070242   -7.7108463    848.53834  0.015717166  0.014646825          149 
 4500000   0.52789806   -7.7240353    849.94602  0.015739741  0.014642264          159 
 4501000   0.52108895    -7.712334    849.82772  0.015734054  0.014637698          203 
 4502000   0.52667271   -7.6961564    849.63525  0.015726996  0.014633141          238 
 4503000   0.53593014   -7.7021777    848.68862  0.015705985  0.014628583          189 
 4504000   0.54634413    -7.712261    848.87048  0.015705863  0.014624027          334 
 4505000    0.5406477   -7.7128277    849.89581  0.015721343  0.014619474          145 
 4506000   0.51448624   -7.7159415     849.4142  0.015708947  0.014614921          127 
 4507000   0.52468544   -7.7100837    848.00855  0.015679472  0.014610368          198 
 4508000   0.52511883   -7.6946176    847.99088  0.015675667  0.014605816          205 
 4509000   0.53026108   -7.7122658    849.10379  0.015692759  0.014601265          191 
 4510000   0.52711798   -7.7121216      849.391  0.015694586  0.014596714          110 
 4511000    0.5230074   -7.6982929    849.75255  0.015697786  0.014592165           91 
 4512000   0.52364351   -7.7045718    848.08098  0.015663434  0.014587615          177 
 4513000   0.53047478   -7.7139939    849.22046  0.015681004  0.014583067          248 
 4514000   0.52563874   -7.7066168    850.05513  0.015692939  0.014578524          268 
 4515000   0.52440206   -7.7045719    850.59103  0.015699355  0.014573984          211 
 4516000   0.52833866   -7.6974519    848.16252  0.015651065  0.014569447          168 
 4517000   0.53332355   -7.7110678    850.17348    0.0156847  0.014564911          166 
 4518000    0.5246876   -7.7292579    849.29782  0.015665077  0.014560375          283 
 4519000   0.53112052   -7.6984138    848.88878  0.015654068   0.01455584          129 
 4520000   0.52702479    -7.703281     850.1319  0.015673523  0.014551306          153 
 4521000    0.5364134   -7.7202174    848.65246  0.015642787  0.014546774          205 
 4522000   0.51730275   -7.7063121    847.86526  0.015624821  0.014542244          131 
 4523000   0.53184464   -7.7187287    849.43898  0.015650361  0.014537713          172 
 4524000   0.52698467   -7.7237369     849.7313  0.015652286  0.014533186          149 
 4525000   0.52896399   -7.7083008    847.62507  0.015610038  0.014528655          278 
 4526000   0.52720533   -7.7077995    848.45611   0.01562189   0.01452413          151 
 4527000     0.528865   -7.7115755    848.59248   0.01562095  0.014519607          301 
 4528000   0.52711841   -7.7249286    849.21714  0.015628996  0.014515082          242 
 4529000   0.53658853   -7.7153533    848.47563  0.015611902  0.014510559          201 
 4530000   0.52360913    -7.711828    847.91717  0.015598182  0.014506036          169 
 4531000    0.5211579   -7.7307316    849.64458   0.01562651  0.014501517          386 
 4532000   0.53309791    -7.725156    850.57027  0.015640083  0.014497001          192 
 4533000    0.5402902   -7.7059144    849.30618  0.015613394  0.014492484          196 
 4534000   0.51920016   -7.7186523    848.39468  0.015593197  0.014487968          183 
 4535000   0.53288185   -7.7278026    848.27494  0.015587559  0.014483457          303 
 4536000   0.52073536   -7.7168215     850.0424  0.015616593  0.014478945          378 
 4537000   0.52669328   -7.7354097    849.85115  0.015609638  0.014474433          260 
 4538000   0.52803631   -7.7348405    848.48171  0.015581051  0.014469925          146 
 4539000   0.53046353   -7.7203737    849.82114  0.015602209  0.014465413          131 
 4540000   0.51822298   -7.7309931    847.95234   0.01556447  0.014460902          275 
 4541000   0.51921249   -7.7258079    848.94965  0.015579345  0.014456394          214 
 4542000   0.52297088   -7.7364221    848.70553  0.015571436  0.014451887          292 
 4543000   0.51827506   -7.7150342    848.20651  0.015558854  0.014447385          301 
 4544000   0.51960416   -7.7323403    848.73419  0.015565108  0.014442877          123 
 4545000   0.52126214   -7.7192272    848.08616  0.015549801   0.01443837          220 
 4546000   0.54080984   -7.7285283    848.92969  0.015561843  0.014433875          360 
 4547000   0.51823809   -7.7344775    847.65623  0.015535082  0.014429373          188 
 4548000   0.52338197    -7.731699    848.42458  0.015545745  0.014424876          164 
 4549000   0.51849043   -7.7273192    846.81582  0.015512857  0.014420375          169 
 4550000   0.52234254   -7.7415771    849.55546  0.015559624  0.014415879          333 
 4551000   0.52918041   -7.7395354    848.60491  0.015538799  0.014411386          284 
 4552000   0.52562252   -7.7293617    847.92239  0.015522891  0.014406897          228 
 4553000   0.51634032   -7.7261744    848.55775   0.01553111  0.014402405          244 
 4554000   0.53399076   -7.7432804    848.67341  0.015529816  0.014397917          305 
 4555000   0.51799546   -7.7297291     847.7215  0.015508992  0.014393427          317 
 4556000   0.52532183   -7.7410131    847.41697  0.015500018   0.01438894          199 
 4557000   0.51951006   -7.7263511    848.36595   0.01551397  0.014384461          155 
 4558000   0.51434856   -7.7324101    849.22509  0.015526274  0.014379985          185 
 4559000   0.53361088   -7.7375146    849.07149  0.015520061  0.014375506          264 
 4560000    0.5213416   -7.7166961    848.31096  0.015502759  0.014371031          175 
 4561000   0.51696513   -7.7318268     848.8316  0.015508872  0.014366555          299 
 4562000    0.5303332   -7.7228325     849.1401  0.015511108  0.014362081          182 
 4563000   0.52726325   -7.7264792    847.31686  0.015474411  0.014357607          270 
 4564000   0.52777647   -7.7190225    849.06036  0.015502855  0.014353136          142 
 4565000   0.51383489   -7.7494091    847.68638  0.015474377  0.014348663          174 
 4566000   0.52270275    -7.727347     847.3197  0.015464296   0.01434419          306 
 4567000   0.51598104   -7.7286491    849.11528  0.015493673  0.014339721          144 
 4568000   0.52614975   -7.7332876    848.41937  0.015477586  0.014335256           86 
 4569000   0.52492113   -7.7286904    849.28073  0.015489909  0.014330789          291 
 4570000   0.52248623   -7.7180867    850.77907  0.015513842  0.014326328          307 
 4571000   0.52098957   -7.7226198    848.75503  0.015473548  0.014321864          194 
 4572000   0.51998964   -7.7301434    849.43001  0.015482466  0.014317406          215 
 4573000   0.51364397   -7.7271828    849.20496  0.015474979  0.014312949          160 
 4574000    0.5164862   -7.7250262    848.07415  0.015450994  0.014308492          255 
 4575000   0.51059193   -7.7348477    848.17315   0.01544942  0.014304038          174 
 4576000   0.52270083   -7.7440739    848.78197  0.015457131  0.014299586          152 
 4577000   0.52451372   -7.7224142    848.74326  0.015453049  0.014295137          148 
 4578000   0.52558183   -7.7260795    848.88246  0.015452207  0.014290685          243 
 4579000   0.52298826   -7.7402759     848.6215  0.015444084  0.014286238          178 
 4580000   0.51834204   -7.7406304    849.52959  0.015457234  0.014281793          232 
 4581000    0.5187186   -7.7482622    849.17239  0.015447362  0.014277349          119 
 4582000   0.51855072   -7.7274907    847.29733  0.015409889  0.014272904          116 
 4583000   0.52279101   -7.7413328    847.88125  0.015417144   0.01426846          168 
 4584000    0.5133742    -7.743646    848.99292   0.01543399  0.014264018          199 
 4585000   0.52687748   -7.7359467    848.17081  0.015415682  0.014259574          137 
 4586000   0.51222064   -7.7287391    849.97368  0.015445081  0.014255135          217 
 4587000   0.52487831    -7.735098     847.8652  0.015403408  0.014250695          223 
 4588000   0.51547632   -7.7346577    848.74604   0.01541605  0.014246258          324 
 4589000   0.53139531   -7.7409678    848.46886  0.015407657   0.01424182          209 
 4590000   0.52241655   -7.7404446    847.76978  0.015391608  0.014237384          146 
 4591000   0.51085513   -7.7362627    848.12525  0.015394708  0.014232948          181 
 4592000   0.52122458    -7.742814    849.11399  0.015409299  0.014228522          146 
 4593000   0.51971032   -7.7466596    848.08552  0.015387283  0.014224093          181 
 4594000   0.50778905   -7.7323147    846.56384  0.015356331  0.014219662          279 
 4595000   0.50743148   -7.7322501    848.20687  0.015382787  0.014215232          351 
 4596000   0.50983831   -7.7275813    848.48748  0.015384528  0.014210807          121 
 4597000   0.52522944   -7.7222204    847.22691   0.01535833  0.014206383          129 
 4598000   0.52443742   -7.7487909    849.25751  0.015391792  0.014201961          143 
 4599000   0.51893456   -7.7536093    849.83661  0.015398938   0.01419754          172 
 4600000   0.50518897   -7.7385103    848.60534  0.015373285   0.01419312          272 
 4601000   0.50108259   -7.7378633     848.4749  0.015367581    0.0141887          252 
 4602000    0.5180681    -7.738557    848.64952  0.015367404   0.01418428          110 
 4603000   0.51428881   -7.7405028    849.26233   0.01537516   0.01417986          183 
 4604000    0.5112202    -7.741392    846.93083   0.01532962  0.014175445           94 
 4605000   0.51181033   -7.7332325    848.23941  0.015349971  0.014171029          282 
 4606000   0.50730874   -7.7474563    850.04726  0.015379347  0.014166622          226 
 4607000   0.50706556   -7.7469844    847.18309    0.0153242  0.014162208          202 
 4608000    0.5249315   -7.7276793    848.39199  0.015342737  0.014157801          267 
 4609000   0.52927603   -7.7467303    847.86566  0.015329892    0.0141534          282 
 4610000   0.52938061   -7.7296484    847.43543  0.015318789  0.014148999          286 
 4611000   0.51034473   -7.7445893    848.72519  0.015338777  0.014144603          265 
 4612000   0.51940062   -7.7461948    847.62549  0.015315581    0.0141402          115 
 4613000   0.51737208   -7.7481821    847.56034  0.015311084  0.014135802          279 
 4614000    0.5111234   -7.7445853    848.25626  0.015320334  0.014131404          169 
 4615000   0.50942524   -7.7273059    848.36651  0.015319005  0.014127007          154 
 4616000   0.51606217   -7.7501659    847.04917  0.015291904  0.014122611          308 
 4617000   0.51340846   -7.7458408    847.72183  0.015300733  0.014118219          229 
 4618000   0.51661342   -7.7389052    848.44155  0.015310408  0.014113825          189 
 4619000    0.5286192   -7.7492321    848.14894  0.015301814  0.014109436          237 
 4620000   0.52256767   -7.7528493    845.99508  0.015259652  0.014105048          248 
 4621000   0.52006757   -7.7269799    848.38363  0.015299423  0.014100661          177 
 4622000   0.51665694   -7.7599634    847.32794   0.01527708  0.014096278          194 
 4623000   0.50319198   -7.7580411    848.03658  0.015286549  0.014091893          283 
 4624000   0.50266425   -7.7269752     848.8518  0.015297935  0.014087515          269 
 4625000   0.50069752   -7.7248973    847.17809   0.01526447  0.014083131          178 
 4626000   0.50815526   -7.7466343    849.45007  0.015302098  0.014078753          172 
 4627000   0.51536211   -7.7542593    849.56817  0.015300918  0.014074376          230 
 4628000   0.51131568   -7.7500601    848.92326  0.015285999      0.01407          244 
 4629000   0.51706479   -7.7639904    848.15185   0.01526881  0.014065627          198 
 4630000   0.51030602   -7.7313052    847.20779   0.01524852  0.014061253          254 
 4631000   0.51886264   -7.7248065    846.41672  0.015230993  0.014056882          318 
 4632000   0.50536231   -7.7359486    848.66794  0.015268206   0.01405251          113 
 4633000   0.51941893   -7.7479949    847.43052  0.015242653   0.01404814          268 
 4634000   0.51612999   -7.7459903    848.40815  0.015256944  0.014043772          344 
 4635000   0.51209027    -7.744394    848.20304  0.015249965  0.014039405          163 
 4636000   0.52008469   -7.7351549    845.57583  0.015199451   0.01403504          385 
 4637000   0.50912498   -7.7266926    849.09591  0.015259433  0.014030674           95 
 4638000   0.51113441   -7.7306352    846.79264  0.015214759  0.014026312          194 
 4639000   0.50469002   -7.7293578    848.41144  0.015240559  0.014021951          143 
 4640000   0.51194573   -7.7468461    848.28054  0.015234923  0.014017594          216 
 4641000   0.49957244   -7.7363446    848.89179  0.015242616  0.014013238          246 
 4642000    0.5047575   -7.7443957    846.86331  0.015202917  0.014008881          187 
 4643000   0.51151389   -7.7486033      847.153  0.015204842  0.014004527          231 
 4644000   0.51034733    -7.739165    847.30893  0.015204366  0.014000177          265 
 4645000   0.50532081   -7.7658871    848.75567  0.015227048  0.013995824          217 
 4646000     0.525197   -7.7444321    847.82432  0.015207066  0.013991477          276 
 4647000   0.50431558   -7.7522148     846.3255  0.015176915  0.013987127          210 
 4648000   0.50838935   -7.7309792    847.27203   0.01519062  0.013982779          175 
 4649000   0.50908396   -7.7513277    848.20023  0.015203991  0.013978429          256 
 4650000   0.50582838   -7.7473845    846.68211  0.015173515  0.013974081          277 
 4651000   0.50317911   -7.7364324     846.0244  0.015158468  0.013969738          290 
 4652000   0.50435304   -7.7437747    847.10395  0.015174548  0.013965395          164 
 4653000   0.49066114   -7.7493672    847.35893  0.015175853  0.013961052          101 
 4654000   0.50702278   -7.7540984    847.68752  0.015178476  0.013956713          299 
 4655000   0.50143657    -7.741894    847.96733  0.015180224  0.013952373          192 
 4656000   0.50146486   -7.7376537    846.13467  0.015144163  0.013948034          183 
 4657000   0.50918739   -7.7581512    847.56798  0.015166559  0.013943696          166 
 4658000   0.50225927   -7.7368759    846.51675  0.015144496  0.013939361          219 
 4659000   0.50541259   -7.7511131    847.61164  0.015160829  0.013935026          326 
 4660000   0.49428472   -7.7518025    847.85188  0.015161872  0.013930694          293 
 4661000   0.51191691   -7.7406889    846.87102  0.015141082  0.013926362          309 
 4662000   0.51318416   -7.7552037    846.20442  0.015125919  0.013922033          102 
 4663000   0.50971378   -7.7753473    845.97257  0.015118532  0.013917703          290 
 4664000   0.49329291   -7.7441636    847.58173  0.015144042  0.013913377          255 
 4665000    0.5089823   -7.7496002    848.17772  0.015151442  0.013909055          152 
 4666000   0.50117121   -7.7539072    845.71045   0.01510413  0.013904733          256 
 4667000   0.50253877   -7.7323697    846.52623   0.01511546  0.013900413          108 
 4668000   0.49259719   -7.7357232    848.44157  0.015146415  0.013896097          193 
 4669000   0.50678564   -7.7604104    847.12897  0.015119743   0.01389178          275 
 4670000   0.49584734   -7.7585353    847.55134  0.015124042  0.013887464          191 
 4671000   0.50336215    -7.739289    848.87722  0.015144459  0.013883152          168 
 4672000   0.50402259   -7.7576729    848.44378  0.015133486  0.013878839          179 
 4673000   0.50412103   -7.7610061    847.94706   0.01512139  0.013874531          234 
 4674000    0.5045688   -7.7433441    846.21754  0.015087319  0.013870224          105 
 4675000   0.50897009    -7.745823    847.40385  0.015105238  0.013865918          200 
 4676000   0.50184734   -7.7451463    848.05819  0.015113669  0.013861609          255 
 4677000   0.50032411   -7.7423389    848.20875   0.01511312  0.013857306          181 
 4678000   0.50552826   -7.7499899    847.15524  0.015091122  0.013853004          284 
 4679000   0.50327846   -7.7496229    846.56839  0.015077445  0.013848699          285 
 4680000   0.50711935   -7.7494247    849.24916  0.015121958  0.013844394          167 
 4681000    0.4994695   -7.7503588    847.51852  0.015087918   0.01384009          184 
 4682000   0.50438824   -7.7358923    847.42743  0.015083074  0.013835793          167 
 4683000   0.49282372   -7.7418596    845.46941   0.01504501  0.013831496          175 
 4684000   0.51829907   -7.7541963    846.38718  0.015058127  0.013827202          263 
 4685000   0.49341572   -7.7379343    846.69724  0.015060428  0.013822911          201 
 4686000   0.50939694    -7.750717    846.17322  0.015047895  0.013818618          181 
 4687000   0.50142303   -7.7589102    845.91099  0.015040022  0.013814325          210 
 4688000   0.51040824   -7.7544653    846.37033  0.015044979  0.013810033          171 
 4689000   0.49902639    -7.758054    846.78794  0.015049192  0.013805741          186 
 4690000   0.50630569    -7.763148     846.8589  0.015047244  0.013801456          355 
 4691000   0.50476149   -7.7577424    847.50536  0.015055521  0.013797173          162 
 4692000   0.50217595   -7.7594361    848.36448   0.01506757  0.013792885          185 
 4693000   0.50494663   -7.7527598    847.10584   0.01504201  0.013788603          256 
 4694000   0.50368815   -7.7509906    848.18308   0.01505793  0.013784326          118 
 4695000   0.50081873    -7.748276    847.15193  0.015036421  0.013780049          171 
 4696000   0.50136503   -7.7691572    848.15114   0.01505095  0.013775766          217 
 4697000   0.49588426   -7.7453707    846.31724  0.015015209  0.013771491          173 
 4698000   0.48689437     -7.74522    846.05556  0.015007371  0.013767214          215 
 4699000    0.5030308   -7.7539479    847.37566  0.015027588  0.013762943          219 
 4700000   0.49392565   -7.7619348    846.18217   0.01500323  0.013758671          205 
 4701000   0.49841373   -7.7490008    848.88201  0.015047898  0.013754402          276 
 4702000   0.50128581   -7.7613694    846.55225  0.015003407  0.013750132          324 
 4703000   0.51455151   -7.7384133    846.44064  0.014998239  0.013745864          174 
 4704000   0.50393357   -7.7423289    846.21295  0.014991017  0.013741596          188 
 4705000   0.49402663   -7.7612922     845.4483  0.014974288  0.013737331          277 
 4706000   0.50444817   -7.7769872    847.66403  0.015010342  0.013733067          166 
 4707000   0.49321542   -7.7579096    847.04692  0.014996228  0.013728808          214 
 4708000   0.49424198   -7.7630637    847.15304  0.014994921   0.01372455          298 
 4709000   0.49029887   -7.7693876    846.29026  0.014976468  0.013720291          226 
 4710000   0.49666156   -7.7363808    847.21042  0.014989569  0.013716035          327 
 4711000   0.49290267   -7.7668198    847.57376  0.014992814  0.013711779          194 
 4712000    0.4997852   -7.7533517    847.18425  0.014982744  0.013707526          223 
 4713000   0.48931578   -7.7453193    846.09167  0.014960246  0.013703275          331 
 4714000   0.50865955   -7.7582552    847.21755  0.014976976   0.01369903          318 
 4715000   0.50403929   -7.7425908    849.20521  0.015008929  0.013694781          373 
 4716000   0.49885084   -7.7483566    846.24394   0.01495342  0.013690533          288 
 4717000    0.4931665   -7.7543085    846.88266  0.014961534  0.013686288          320 
 4718000   0.50258934   -7.7532072    846.18518  0.014946043  0.013682042          304 
 4719000    0.4967519   -7.7663889    845.25356  0.014926424    0.0136778          295 
 4720000   0.48850118   -7.7695503    847.12613  0.014956323  0.013673559          216 
 4721000   0.49574148   -7.7665026    846.01844  0.014933602  0.013669317          352 
 4722000   0.50277445   -7.7685846     845.9355  0.014928976  0.013665073          303 
 4723000   0.49130587   -7.7453962     845.8726  0.014924705  0.013660832          314 
 4724000   0.50258172   -7.7652162    846.87721  0.014939268  0.013656595          234 
 4725000   0.49014582   -7.7645661    846.33941  0.014926621   0.01365236          285 
 4726000   0.49552862   -7.7582922    846.44406  0.014925308   0.01364812          308 
 4727000   0.49025835   -7.7548086     846.5629  0.014924246  0.013643882          278 
 4728000   0.50621013   -7.7552219    846.60819  0.014921887  0.013639649          328 
 4729000   0.49069881   -7.7649841    847.86232  0.014940832  0.013635417          245 
 4730000   0.49318967   -7.7613892    846.38178  0.014911589  0.013631186          243 
 4731000   0.48805881   -7.7658284    846.66875  0.014913492  0.013626962          227 
 4732000   0.50450989   -7.7525479    845.64849  0.014892373  0.013622738          304 
 4733000   0.49292432   -7.7664764    845.92609  0.014894114  0.013618512          299 
 4734000   0.49910307   -7.7595256    846.90274   0.01490816  0.013614287          332 
 4735000   0.48305627   -7.7602804    846.11734  0.014891189  0.013610064          254 
 4736000   0.49554128   -7.7736154    847.96488  0.014920553  0.013605841          214 
 4737000   0.48780129   -7.7502679     847.3196  0.014906052  0.013601616          345 
 4738000   0.48820697    -7.774395    846.63499  0.014890864  0.013597398          340 
 4739000   0.49802317   -7.7748167    846.06984  0.014877784  0.013593182          238 
 4740000   0.49412858   -7.7623504    846.95449  0.014890198  0.013588962          306 
 4741000   0.49787393   -7.7655955    847.04132  0.014888584  0.013584748          233 
 4742000   0.49378845   -7.7642213    846.38535  0.014873917  0.013580536          373 
 4743000   0.49888544   -7.7731267    845.86625   0.01486166  0.013576325          247 
 4744000   0.49098986   -7.7698992    846.75749  0.014874183  0.013572111          350 
 4745000   0.50689476   -7.7700893    846.02469  0.014858179  0.013567902          274 
 4746000   0.48683674    -7.761756    846.94012  0.014871122  0.013563694          326 
 4747000   0.49584702   -7.7655809    845.85407  0.014848923  0.013559488          263 
 4748000   0.49588736   -7.7840025    847.01088  0.014866099  0.013555288          264 
 4749000   0.49476277   -7.7821347    846.35722  0.014851499  0.013551088          342 
 4750000   0.49151758   -7.7805811    847.19773  0.014863118  0.013546893          338 
 4751000   0.49267852   -7.7870167    846.95568  0.014855744  0.013542698          221 
 4752000   0.48594387   -7.7692374    847.15641  0.014856138  0.013538501          334 
 4753000   0.49414577   -7.7609258    845.48258  0.014823665  0.013534305          327 
 4754000   0.49029005   -7.7837386    846.53347  0.014838968   0.01353011          360 
 4755000   0.48535183   -7.7836469    846.30931  0.014831919  0.013525916          309 
 4756000   0.48825417   -7.7560779    846.39613  0.014830322  0.013521725          243 
 4757000   0.48587747   -7.7808068    845.91744  0.014818819  0.013517532          338 
 4758000   0.48939689   -7.7857826     847.2706  0.014839404  0.013513346          321 
 4759000   0.48348588   -7.7788425    847.55188  0.014841211   0.01350916          349 
 4760000    0.4983798    -7.763798    846.12383  0.014813092  0.013504972          206 
 4761000   0.49126878   -7.7774646     846.2297  0.014811834  0.013500786          223 
 4762000   0.48451776   -7.7692194    846.09484  0.014806364  0.013496599          317 
 4763000   0.49723618   -7.7705257     846.8761  0.014816924  0.013492417          333 
 4764000   0.49596964   -7.7984638      847.584  0.014826196  0.013488237          335 
 4765000   0.48326914   -7.7609409    846.94001  0.014811822  0.013484061          330 
 4766000   0.48515322   -7.7682691    847.08435  0.014811238  0.013479888          338 
 4767000   0.49515982   -7.7655642    847.05845  0.014807679  0.013475716          325 
 4768000   0.48690538   -7.7612106    844.84187  0.014765833  0.013471547          233 
 4769000   0.49303727   -7.7641502    846.01393  0.014783217  0.013467376          346 
 4770000   0.49822624   -7.7618311    846.04648  0.014780686  0.013463211          349 
 4771000   0.48506862   -7.7753752    845.26453   0.01476393  0.013459043          325 
 4772000   0.49756257   -7.7720945    846.98339  0.014790853  0.013454876          358 
 4773000   0.50505261    -7.763071    845.40242  0.014760151  0.013450713          357 
 4774000   0.48717176   -7.7820715    844.83836  0.014747213  0.013446547          248 
 4775000   0.48214272   -7.7778404    847.42781  0.014789316  0.013442386          235 
 4776000   0.48771023   -7.7745625    846.42569  0.014768734  0.013438225          385 
 4777000    0.4781528   -7.7826253    845.81366  0.014754966  0.013434063          341 
 4778000    0.4976232   -7.7741966    847.75577   0.01478575  0.013429906          290 
 4779000   0.49383092   -7.7816409     845.9526  0.014751214  0.013425751          327 
 4780000   0.48627414   -7.7771538    847.23791  0.014770535  0.013421598          347 
 4781000   0.47878817   -7.7883071    845.92978  0.014744645  0.013417445          403 
 4782000   0.48450183    -7.776996    845.58315  0.014735521  0.013413295          358 
 4783000   0.47921297   -7.7640823    846.24875  0.014744037  0.013409146          297 
 4784000   0.48693859   -7.7716253    847.40649  0.014761122     0.013405          313 
 4785000    0.4956873   -7.7764777    846.13794  0.014735945  0.013400854          368 
 4786000   0.48781975   -7.7660552     845.2495  0.014717396   0.01339671          350 
 4787000   0.48004935   -7.7809684    846.45154  0.014735247  0.013392568          356 
 4788000   0.48901009    -7.781314    845.88128  0.014722245  0.013388426          371 
 4789000   0.47973159   -7.7792893    845.92764  0.014719977  0.013384287          253 
 4790000   0.49072158   -7.7814061    845.52667  0.014709928  0.013380147          374 
 4791000   0.47406358   -7.7860816    845.80559  0.014711709   0.01337601          326 
 4792000   0.48501051   -7.7848052     845.5645  0.014704447  0.013371875          399 
 4793000   0.48127668   -7.7736706    846.42361  0.014716316  0.013367742          385 
 4794000   0.49069846   -7.7787738    845.70342  0.014700727  0.013363608          324 
 4795000   0.48256918   -7.7884291     847.2741  0.014724958  0.013359478          369 
 4796000   0.48206981   -7.7775517    846.42561  0.014707145  0.013355347          328 
 4797000   0.48547708   -7.7614304    846.15875  0.014699443  0.013351222          347 
 4798000   0.48647416   -7.7759851    846.67134  0.014705282  0.013347094          329 
 4799000   0.48209507   -7.7749201     847.4748   0.01471617  0.013342968          409 
 4800000   0.48678079   -7.7832632    845.89424  0.014685664  0.013338845          405 
 4801000   0.49341676   -7.7838859    845.70662  0.014679348  0.013334721          375 
 4802000   0.49552475    -7.770885     845.6376  0.014675094  0.013330601          293 
 4803000   0.48378211   -7.7618146     845.1238  0.014663124  0.013326483          317 
 4804000   0.48306651   -7.7814893    847.41387  0.014699797  0.013322368          356 
 4805000   0.48612229   -7.7678225    846.98672  0.014689329   0.01331825          383 
 4806000   0.48900122   -7.7764584    845.39232  0.014658627  0.013314138          332 
 4807000   0.48852405   -7.7805682    847.08497  0.014684921  0.013310027          384 
 4808000   0.48391389   -7.7824149    845.97929  0.014662703  0.013305918          308 
 4809000   0.48531898   -7.7766298    845.98019  0.014659669   0.01330181          289 
 4810000   0.48366052   -7.7705652    845.57173  0.014649545  0.013297702          374 
 4811000   0.48050765   -7.7776844    844.29574  0.014624398  0.013293595          326 
 4812000   0.48309798   -7.7789127     845.8938  0.014649034  0.013289492          333 
 4813000   0.48500306   -7.7997803      846.883  0.014663117  0.013285389          231 
 4814000    0.4871196   -7.7716235    846.30032  0.014649985  0.013281285          336 
 4815000   0.50336073   -7.7729786    846.76976  0.014655067  0.013277186          390 
 4816000   0.48331668   -7.7818151    845.88609  0.014636733  0.013273087          325 
 4817000   0.48797558   -7.7839732    845.50706  0.014627138  0.013268986          353 
 4818000    0.4829494   -7.7785128    845.99959   0.01463262  0.013264888          203 
 4819000   0.47027266   -7.8107751    848.10173  0.014665936  0.013260791          322 
 4820000   0.47749427   -7.7895996    845.92352  0.014625234  0.013256695          329 
 4821000   0.48486107   -7.7758531    844.59433  0.014599224  0.013252601          323 
 4822000   0.47802437   -7.7868594    845.61876  0.014613901  0.013248507          342 
 4823000   0.48951182   -7.7758216    845.30762  0.014605495  0.013244418          327 
 4824000   0.47259623    -7.797432    844.47017     0.014588  0.013240329          405 
 4825000    0.4828823   -7.7816451    845.13855  0.014596521  0.013236242          339 
 4826000   0.47778333   -7.7913622    846.37529  0.014614852  0.013232157          305 
 4827000   0.47648418   -7.7858699    846.10129  0.014607094  0.013228075          316 
 4828000   0.48033345   -7.8002181      846.621  0.014613039  0.013223989          325 
 4829000   0.46730979   -7.7918115    844.84019  0.014579281  0.013219908          203 
 4830000   0.48872814   -7.7792457    845.42177  0.014586297  0.013215828          221 
 4831000   0.47060401     -7.78794    846.15945  0.014596002  0.013211748          403 
 4832000   0.48033836   -7.7883571    846.30094  0.014595422   0.01320767          335 
 4833000   0.48498499   -7.7859201    845.68655  0.014581808  0.013203595          330 
 4834000   0.47997479    -7.795517    847.36662  0.014607754  0.013199519          309 
 4835000   0.48093819   -7.7726157    845.86785  0.014578901   0.01319545          366 
 4836000   0.47717366   -7.7949033    845.74969  0.014573851  0.013191378          224 
 4837000   0.47479081    -7.775149    845.01332  0.014558151   0.01318731          351 
 4838000   0.47767664   -7.7873815     845.7756  0.014568272  0.013183242          288 
 4839000   0.47695943   -7.7892856    844.21328  0.014538356  0.013179171          413 
 4840000   0.47736239   -7.7869319    845.13748  0.014551265  0.013175107          218 
 4841000   0.47835041   -7.7892164    845.25301  0.014550248   0.01317104          308 
 4842000   0.48162366    -7.767094    845.89251  0.014558249  0.013166977          364 
 4843000   0.49045145   -7.7731547    844.74938  0.014535573  0.013162917          319 
 4844000   0.48206904   -7.7953754     845.1288    0.0145391  0.013158858          326 
 4845000   0.47611895   -7.7927577     845.0618  0.014534947    0.0131548          281 
 4846000   0.48345773   -7.7999819    844.20363   0.01451719  0.013150743          332 
 4847000   0.46639464   -7.7978026    845.77337  0.014541183  0.013146693          299 
 4848000   0.47521064   -7.7927581     844.5345  0.014516888  0.013142641          315 
 4849000   0.47933846   -7.7872071    845.41747  0.014529069   0.01313859          345 
 4850000   0.47683562   -7.7997585    846.18617  0.014539281  0.013134542          362 
 4851000   0.47238961   -7.7878742    845.55976  0.014525523  0.013130492          311 
 4852000   0.46989251   -7.7851467     844.8002  0.014509484  0.013126442          329 
 4853000   0.47273139   -7.7964675    844.36336  0.014498993  0.013122392          352 
 4854000   0.48046102   -7.7864537    845.58417  0.014516965  0.013118344          195 
 4855000   0.46765887   -7.8072167    846.31408  0.014526503  0.013114302          280 
 4856000   0.46573456    -7.798943    845.57236  0.014510783  0.013110264          250 
 4857000   0.47338421   -7.8016445    845.32302  0.014503518  0.013106224          345 
 4858000   0.47926011   -7.7970589    844.73726  0.014490484  0.013102181          332 
 4859000   0.47223011   -7.7892146     846.1089  0.014511026  0.013098143          222 
 4860000   0.46531226   -7.8022033    846.05409    0.0145071  0.013094108          318 
 4861000   0.47893616   -7.8041347    846.32174  0.014508704  0.013090072          327 
 4862000   0.47481771   -7.7863619     846.7208   0.01451256   0.01308604          253 
 4863000   0.47468084   -7.7938236    845.22035  0.014483864   0.01308201          417 
 4864000   0.48401723   -7.8073272    845.13784  0.014479472  0.013077977          334 
 4865000   0.48422383   -7.7903787    846.86848   0.01450614   0.01307395          318 
 4866000   0.48452777   -7.8006275     844.9165  0.014469731  0.013069918          342 
 4867000   0.46970058   -7.7889811    845.76806  0.014481338  0.013065891          399 
 4868000   0.46956042   -7.7976368    845.05758  0.014466201  0.013061867          379 
 4869000   0.47034693   -7.7887365    845.49527  0.014470721  0.013057844          266 
 4870000   0.47383309   -7.8006238     846.1537  0.014479016  0.013053826          264 
 4871000   0.47822212   -7.7863179    845.43142  0.014463687  0.013049807          376 
 4872000    0.4807309   -7.8007191    844.68652  0.014447977   0.01304579          327 
 4873000   0.47082616   -7.8153057    846.12477  0.014469608  0.013041774          371 
 4874000   0.46536083   -7.8072617    845.27006  0.014452025  0.013037755          364 
 4875000   0.47121237   -7.8072511    846.37347  0.014467923   0.01303374          228 
 4876000   0.46620296   -7.8149395    845.87569  0.014456448  0.013029726          324 
 4877000   0.46943929   -7.8077091    845.68864  0.014450288  0.013025715          230 
 4878000   0.47081736   -7.8154269    844.83768  0.014432788  0.013021703          351 
 4879000   0.47498865   -7.7921416    844.69206  0.014427343  0.013017693          331 
 4880000    0.4743839   -7.8129471    844.87996  0.014427595  0.013013685          430 
 4881000   0.46912138   -7.8129378    844.84977  0.014424124  0.013009677          355 
 4882000   0.47984221    -7.812319    846.05975  0.014441823  0.013005673          322 
 4883000    0.4657043   -7.7969854    845.91836  0.014436452  0.013001674          290 
 4884000   0.47149319   -7.8008366    845.57922   0.01442771  0.012997668          198 
 4885000   0.47736888   -7.8026526     845.5621  0.014424464  0.012993664          390 
 4886000   0.47544602   -7.8028483    845.13946  0.014414304  0.012989666          339 
 4887000   0.46912554    -7.791647    844.24064  0.014396027  0.012985668          401 
 4888000   0.48113441   -7.8133747    845.71724  0.014418256   0.01298167          312 
 4889000   0.47109067   -7.8120623     846.4529  0.014427847  0.012977673          285 
 4890000   0.47396101   -7.7999404    844.78141  0.014396411  0.012973681          352 
 4891000   0.47003059   -7.8026886    844.64294  0.014391108  0.012969691          214 
 4892000   0.45859108   -7.7962902    846.19855  0.014414666  0.012965697          333 
 4893000   0.46642652   -7.7967221     844.8543  0.014388826   0.01296171          318 
 4894000   0.46528616   -7.7949568     844.6907    0.0143831   0.01295772          232 
 4895000   0.46770201    -7.792341      845.178  0.014388458  0.012953733          335 
 4896000   0.46156303   -7.7944233    845.21133  0.014386086  0.012949749          454 
 4897000   0.47067436   -7.8095998    844.48589  0.014370803  0.012945764          342 
 4898000   0.46253517   -7.8128509    844.78546  0.014372966   0.01294178          326 
 4899000   0.46925451    -7.807015    845.02206  0.014374057  0.012937803          323 
 4900000   0.47273494   -7.8032558    844.39918   0.01436053  0.012933823          380 
 4901000   0.46593247   -7.8039988    845.10443  0.014369592  0.012929845          393 
 4902000   0.47071021   -7.7956579    845.64624  0.014375871  0.012925867          414 
 4903000    0.4631149   -7.8085091    845.84916  0.014376388  0.012921894          404 
 4904000   0.46425426   -7.8002834    845.05706  0.014359996  0.012917918          372 
 4905000   0.47481232   -7.8181876    846.34336  0.014378922  0.012913946          394 
 4906000   0.47695798   -7.7881888    843.77029  0.014332285  0.012909974          340 
 4907000   0.47191483    -7.804924    845.64409  0.014361186  0.012906005          342 
 4908000   0.47146113   -7.8061893    845.25037  0.014351575  0.012902034          325 
 4909000   0.47160266   -7.8037881    844.51077  0.014336096   0.01289807          337 
 4910000   0.46511425   -7.8024321    844.35024  0.014330452  0.012894108          324 
 4911000   0.46410964   -7.8106574    845.50068  0.014347056  0.012890145          421 
 4912000   0.46519517   -7.7994019    843.62053  0.014312238  0.012886182          431 
 4913000   0.46191394    -7.810877    845.30854  0.014337956   0.01288222          378 
 4914000   0.46593608   -7.7950567     844.1986  0.014316216  0.012878263          365 
 4915000    0.4610258   -7.7899555    846.12363  0.014345941  0.012874308          317 
 4916000   0.46005843   -7.8061465    844.61649  0.014317475  0.012870355          369 
 4917000   0.46585219   -7.8149334    845.13373  0.014323329  0.012866403          385 
 4918000   0.45891741   -7.8157283      845.242  0.014322252  0.012862447          400 
 4919000   0.46988621   -7.8061768    845.10465  0.014317013  0.012858495          429 
 4920000   0.47272857   -7.8099076    845.03924  0.014312995  0.012854543          343 
 4921000   0.46423019   -7.8066965    845.09486  0.014311029  0.012850599          249 
 4922000   0.46526614   -7.8046902    844.02736  0.014290047  0.012846648          323 
 4923000   0.46669285   -7.8049287    846.61128  0.014330884  0.012842701          428 
 4924000   0.46542316   -7.8195968    845.89347  0.014315825  0.012838757          310 
 4925000   0.45526377   -7.7988262     844.9636  0.014297185  0.012834814          348 
 4926000   0.45384469   -7.8195936    845.28978    0.0142998  0.012830874          322 
 4927000   0.45541081    -7.811616    844.43624  0.014282461   0.01282693          433 
 4928000   0.45833427   -7.8314633     844.3428  0.014277983   0.01282299          427 
 4929000   0.46055529   -7.8054806    844.83345  0.014283381   0.01281905          353 
 4930000   0.45314589   -7.8147416    844.69488  0.014278142  0.012815114          379 
 4931000   0.46554782   -7.8141698    844.84303   0.01427775  0.012811178          472 
 4932000   0.46888801   -7.7993935    843.79763  0.014257192  0.012807243          372 
 4933000   0.44984547   -7.7979666    844.90746   0.01427305  0.012803311          314 
 4934000   0.46399881   -7.8135356    844.01324  0.014255054  0.012799381          398 
 4935000   0.46441248   -7.7949989    845.73364  0.014281216  0.012795451          339 
 4936000   0.46447439       -7.828    845.59526  0.014275987   0.01279152          314 
 4937000   0.46535019   -7.8090347    844.16953   0.01424903  0.012787593          359 
 4938000   0.46728526   -7.8091339    844.67887   0.01425474  0.012783664          380 
 4939000   0.45776277   -7.8196093    844.03872  0.014241053  0.012779738          333 
 4940000   0.46812287   -7.8169055    844.70407  0.014249394  0.012775812          229 
 4941000   0.46313552   -7.8220699    845.01522  0.014251758  0.012771888          382 
 4942000   0.46995635   -7.8093071     843.6038  0.014225074  0.012767967          334 
 4943000   0.45886809   -7.8231076    844.69671  0.014240622  0.012764045          418 
 4944000   0.46148738   -7.8203128    843.76721  0.014222074  0.012760125          403 
 4945000   0.46761664   -7.8051788     845.4093  0.014246871  0.012756211          412 
 4946000   0.45192874   -7.8269863    844.80134  0.014233747  0.012752292          329 
 4947000   0.45083064   -7.8268732    844.33808  0.014223066  0.012748377          335 
 4948000    0.4606226    -7.816617    845.46553   0.01423918  0.012744462          307 
 4949000   0.46352906   -7.8285377    845.81097  0.014242119  0.012740554          335 
 4950000    0.4591254   -7.8180649    844.84724  0.014223018  0.012736646          416 
 4951000   0.46221016   -7.8130522    843.05032    0.0141899  0.012732735          427 
 4952000   0.45194681     -7.82288      845.178  0.014222839  0.012728828          359 
 4953000   0.46184265   -7.8196032     843.5185  0.014192047  0.012724916          435 
 4954000   0.45864037   -7.8247975    845.28489  0.014218895  0.012721013          358 
 4955000   0.46163138   -7.8274106    843.99599  0.014194349  0.012717107          368 
 4956000   0.44842762     -7.81874    845.14595  0.014210821  0.012713205          376 
 4957000   0.45321429   -7.8193193     844.2746  0.014193306  0.012709302          388 
 4958000   0.45613616   -7.8348758    843.39517  0.014175662  0.012705402          344 
 4959000   0.45266375   -7.8186813    843.92375  0.014181686  0.012701501          426 
 4960000   0.45825331   -7.8285597    845.13914  0.014199246  0.012697605          324 
 4961000   0.46621409   -7.8251708    843.62383   0.01417093  0.012693706          376 
 4962000    0.4589936   -7.8251728    843.02273  0.014157979  0.012689811          406 
 4963000   0.45577543   -7.8187107    844.90741  0.014186772  0.012685916          353 
 4964000   0.45153073   -7.8408148    845.86891  0.014200056  0.012682022          309 
 4965000   0.45651951   -7.8312247    844.97965   0.01418227  0.012678134          393 
 4966000   0.46234001   -7.8069235    842.80979  0.014143002  0.012674244          408 
 4967000   0.46313563   -7.8358394    845.07005  0.014178076  0.012670355          371 
 4968000   0.46157421   -7.8209241    843.70283  0.014152288  0.012666468          417 
 4969000   0.45401095   -7.8290867    843.30721  0.014142806  0.012662581          402 
 4970000   0.44937655   -7.8266713    844.59487  0.014161551  0.012658698          372 
 4971000   0.45877083   -7.8273048      845.448  0.014173003  0.012654815          371 
 4972000   0.46051655    -7.813742    843.59575  0.014139108  0.012650935          351 
 4973000   0.45617376   -7.8286143    842.98391  0.014126012  0.012647054          412 
 4974000   0.44853816    -7.827713    842.45746  0.014114352  0.012643172          383 
 4975000   0.46298711   -7.8191526    845.49739  0.014162435  0.012639294          402 
 4976000   0.46407982   -7.8175434    843.96674  0.014133955  0.012635418          371 
 4977000   0.46165158   -7.8249403    843.98623  0.014131442  0.012631546          328 
 4978000   0.45811472   -7.8280136    844.62448  0.014139287  0.012627675          347 
 4979000     0.452447    -7.826581    844.94652  0.014141838  0.012623804          307 
 4980000   0.46576408   -7.8166161    844.40114  0.014129872  0.012619938          367 
 4981000   0.45247343   -7.8199342     844.6891  0.014131853  0.012616067          337 
 4982000    0.4514212   -7.8234644    844.19299  0.014120718  0.012612203          405 
 4983000   0.46444094   -7.8204414    843.93318  0.014113539  0.012608339          422 
 4984000   0.44988176   -7.8292889    844.16379  0.014114563  0.012604477          389 
 4985000   0.45193201   -7.8234971    844.07576   0.01411026  0.012600619          406 
 4986000   0.45731284   -7.8390365    842.62787  0.014083231  0.012596757          382 
 4987000   0.44184201   -7.8268324    843.05226  0.014087499  0.012592899          337 
 4988000   0.45562352   -7.8236661    843.50912  0.014092307  0.012589041          377 
 4989000   0.44282422   -7.8196742    842.80007  0.014077639  0.012585185          336 
 4990000    0.4496047   -7.8254639    845.18855  0.014114705  0.012581331          386 
 4991000   0.44245333   -7.8259318    844.66087  0.014103067  0.012577478          431 
 4992000   0.44787525   -7.8397528    845.28281  0.014110624  0.012573628          428 
 4993000   0.45347399   -7.8269996    843.77833  0.014082688  0.012569777          355 
 4994000   0.44995429   -7.8372297    843.44865  0.014074367  0.012565928          422 
 4995000   0.46378491   -7.8442362    844.89627    0.0140957  0.012562079          365 
 4996000   0.45314455   -7.8297232    844.26844  0.014082407  0.012558234          396 
 4997000    0.4533892   -7.8025498    842.82887  0.014055581  0.012554389          432 
 4998000   0.45380202   -7.8142614    843.99229  0.014072167  0.012550545          333 
 4999000   0.46115274   -7.8324411    845.76895  0.014098969  0.012546704          402 
 5000000   0.45376169   -7.8360425    844.40299  0.014073383  0.012542863          382 
 5001000   0.44414964   -7.8297642    843.11086  0.014049038  0.012539023          393 
 5002000   0.44762144   -7.8220505    843.92518  0.014059796  0.012535186          416 
 5003000   0.44511242   -7.8328469    843.87379   0.01405613   0.01253135          357 
 5004000   0.44445399   -7.8373829    843.19386  0.014041997  0.012527514          352 
 5005000   0.45497981   -7.8305919    844.27418  0.014057179  0.012523679          355 
 5006000   0.44284253   -7.8388607    843.94454  0.014048884  0.012519846          402 
 5007000    0.4467972   -7.8434654    844.85655  0.014061257  0.012516015          386 
 5008000   0.44462723   -7.8536497    844.35045  0.014050027  0.012512184          349 
 5009000   0.45074541    -7.823664    843.12659  0.014026861  0.012508358          390 
 5010000   0.44864347   -7.8486128    842.82528   0.01401905  0.012504532          368 
 5011000    0.4529263   -7.8319004    844.38563  0.014042201  0.012500708          360 
 5012000   0.44972506   -7.8220576    843.32828  0.014021819  0.012496885          345 
Loop time of 11018.2 on 48 procs for 5000000 steps with 4000 atoms

Performance: 78415.698 tau/day, 453.795 timesteps/s
99.4% CPU use with 48 MPI tasks x no OpenMP threads

MPI task timing breakdown:
Section |  min time  |  avg time  |  max time  |%varavg| %total
---------------------------------------------------------------
Pair    | 706.17     | 738.62     | 764.33     |  49.6 |  6.70
Neigh   | 68.921     | 70.444     | 72.681     |   9.0 |  0.64
Comm    | 622.06     | 652.12     | 693.87     |  64.7 |  5.92
Output  | 13.893     | 13.897     | 13.989     |   0.4 |  0.13
Modify  | 9385.3     | 9422.8     | 9455       |  16.9 | 85.52
Other   |            | 120.3      |            |       |  1.09

Nlocal:        83.3333 ave          89 max          77 min
Histogram: 2 4 3 1 4 19 7 2 2 4
Nghost:        1828.58 ave        1844 max        1800 min
Histogram: 1 1 0 2 5 9 9 8 10 3
Neighs:        11298.2 ave       12513 max       10188 min
Histogram: 2 2 7 8 9 6 8 1 1 4
FullNghs:      22596.5 ave       24234 max       20830 min
Histogram: 4 3 1 4 11 10 4 4 2 5

Total # of neighbors = 1084634
Ave neighs/atom = 271.15850
Neighbor list builds = 269247
Dangerous builds = 0

#clear
#
#next RN
#
#jump SELF
Total wall time: 3:03:41
