
units lj                  # Use reduced LJ style units
atom_style atomic         # Uncharged point particles
atom_modify map hash      # Needed for indexing of clusters etc
                          # Used to be able to find where atoms are in relation to each other.

lattice fcc 1.0 spacing 1 1 1
Lattice spacing in x,y,z = 1.5874011 1.5874011 1.5874011
region box block 0 10 0 10 0 10 units lattice
create_box 2 box
Created orthogonal box = (0.0000000 0.0000000 0.0000000) to (15.874011 15.874011 15.874011)
  3 by 4 by 4 MPI processor grid
create_atoms 1 box
Created 4000 atoms
  using lattice units in orthogonal box = (0.0000000 0.0000000 0.0000000) to (15.874011 15.874011 15.874011)
  create_atoms CPU = 0.002 seconds
set type 1 type/fraction 2 0.99 78393
Setting atom values ...
  3965 settings made for type/fraction
mass 1 1.0
mass 2 1.0
pair_style lj/cut  3.5
pair_modify tail  yes
pair_coeff 1  1  1.0  1.0   # Intearaction between 1 and 1 set with epsilon = 1 and sigma = 1
pair_coeff 1  2  1.5  0.8
pair_coeff 2  2  0.5  0.88

write_data data.0
System init for write_data ...
Neighbor list info ...
  update every 1 steps, delay 10 steps, check yes
  max neighbors/atom: 2000, page size: 100000
  master list distance cutoff = 3.8
  ghost atom cutoff = 3.8
  binsize = 1.9, bins = 9 9 9
  1 neighbor lists, perpetual/occasional/extra = 1 0 0
  (1) pair lj/cut, perpetual
      attributes: half, newton on
      pair build: half/bin/atomonly/newton
      stencil: half/bin/3d
      bin: standard
WARNING: Not all mixed pair coeffs generated from mixing. Use write_data with 'pair ij' option to store all pair coeffs. (../write_data.cpp:312)


#############################
#   M E L T   S Y S T E M   #
#############################

velocity all create 2.4 5833274 mom yes dist gaussian # Assign velocities
                                                    # Temperature 2.4, random number seed, zero linear momentum
                                                                                # Gaussian distribution

timestep 0.002   # simulation timestep
thermo 1000       # output thermodynamic data every 1000 steps bf 100

# Define a fix  in this case with index 1 applied to all
# particles in the simulation. This fix is for simulations
# in the anisotropic NPT ensemble. Note that we use the MTK
# correction.
fix 1 all npt temp 2.4 2.4 0.1 iso 5.68 5.68 0.5 mtk yes tchain 5 pchain 5 # Use NPT ensemble
                                                                         # Set temperature and pressure and damping
                                                                         # Numbers of thermostats in chain and in barostat
run 10000          # run for 10000 steps
Per MPI rank memory allocation (min/avg/max) = 3.642 | 3.644 | 3.648 Mbytes
Step Temp E_pair E_mol TotEng Press Volume 
       0          2.4   -2.7429598            0   0.85614022   -1.7792645         4000 
    1000    2.4104989   -1.4633926            0    2.1514518     6.020558    4203.6727 
    2000    2.3742645   -1.5156334            0    2.0448731    5.7252852    4213.0739 
    3000    2.4569106    -1.552007            0    2.1324375    5.5323928    4227.8234 
    4000    2.4109818   -1.4839353            0    2.1316333    5.8121728    4220.9384 
    5000    2.3935563   -1.5556299            0    2.0338069    5.3699366    4247.5489 
    6000    2.3664587    -1.500028            0    2.0487727    5.6000853    4256.3998 
    7000    2.3697562   -1.5035837            0     2.050162    5.9049973    4175.1038 
    8000    2.3610845   -1.4882234            0     2.052518    5.5820623    4265.8706 
    9000    2.4051711   -1.5257821            0    2.0810726    5.6485647    4225.9086 
   10000    2.4425848   -1.4526002            0    2.2103611    5.9302961     4256.929 
Loop time of 2.41872 on 48 procs for 10000 steps with 4000 atoms

Performance: 714428.569 tau/day, 4134.425 timesteps/s
99.6% CPU use with 48 MPI tasks x no OpenMP threads

MPI task timing breakdown:
Section |  min time  |  avg time  |  max time  |%varavg| %total
---------------------------------------------------------------
Pair    | 1.0195     | 1.0996     | 1.2269     |   3.6 | 45.46
Neigh   | 0.20406    | 0.21129    | 0.23909    |   1.3 |  8.74
Comm    | 0.6616     | 0.83718    | 0.90293    |   5.1 | 34.61
Output  | 0.00024495 | 0.00024983 | 0.00031992 |   0.0 |  0.01
Modify  | 0.22527    | 0.25542    | 0.29219    |   3.8 | 10.56
Other   |            | 0.01498    |            |       |  0.62

Nlocal:        83.3333 ave          92 max          72 min
Histogram: 1 1 3 6 6 7 9 6 2 7
Nghost:        1572.21 ave        1597 max        1551 min
Histogram: 3 3 4 9 7 11 5 4 0 2
Neighs:        8963.79 ave       10097 max        7693 min
Histogram: 2 2 4 9 5 10 3 2 8 3

Total # of neighbors = 430262
Ave neighs/atom = 107.56550
Neighbor list builds = 907
Dangerous builds = 224

# Equilibrate just above the melting temperature to avoid step fn in T

fix 1 all npt temp 1.25 1.25 0.1 iso 5.68 5.68 0.5 mtk yes tchain 5 pchain 5
run 2000
Per MPI rank memory allocation (min/avg/max) = 3.643 | 3.645 | 3.649 Mbytes
Step Temp E_pair E_mol TotEng Press Volume 
   10000    2.4425848   -1.4526002            0    2.2103611    5.9302961     4256.929 
   11000    1.2526632    -2.304537            0  -0.42601192    5.6577037    3330.6248 
   12000    1.2456711   -2.3092455            0  -0.44120594    5.6780778    3321.9706 
Loop time of 0.584947 on 48 procs for 2000 steps with 4000 atoms

Performance: 590822.999 tau/day, 3419.115 timesteps/s
99.7% CPU use with 48 MPI tasks x no OpenMP threads

MPI task timing breakdown:
Section |  min time  |  avg time  |  max time  |%varavg| %total
---------------------------------------------------------------
Pair    | 0.25509    | 0.27599    | 0.32115    |   2.4 | 47.18
Neigh   | 0.039193   | 0.040906   | 0.047596   |   0.8 |  6.99
Comm    | 0.16159    | 0.21802    | 0.23849    |   3.1 | 37.27
Output  | 5.2432e-05 | 5.4046e-05 | 6.785e-05  |   0.0 |  0.01
Modify  | 0.040707   | 0.04536    | 0.050205   |   1.1 |  7.75
Other   |            | 0.004611   |            |       |  0.79

Nlocal:        83.3333 ave          91 max          75 min
Histogram: 2 3 3 9 7 7 8 0 5 4
Nghost:        1863.92 ave        1885 max        1842 min
Histogram: 6 1 2 8 3 8 9 3 4 4
Neighs:        11509.5 ave       13375 max        9803 min
Histogram: 1 6 1 10 7 10 7 4 1 1

Total # of neighbors = 552456
Ave neighs/atom = 138.11400
Neighbor list builds = 145
Dangerous builds = 18

#############################
# L I N E A R  Q U E N C H  #
#############################

# Define solid atoms. This closely follows ten Wolde  Ruiz-Montero and Frenkel  Faraday Discuss  1996  104  93-110
# Compute components of the per-atom q6 vector
compute q6 all orientorder/atom degrees 1 6 components 6 nnn NULL cutoff 1.3 # compute the Q6 parameter.
                                                                             # Use all neighbours within 1.3 unit cell.

# get number of connections
compute coord_number all coord/atom orientorder q6 0.5

# An atom is solid if it has 8 or more connections (of a possible 14)
variable is_solid atom c_coord_number>=8
group solid dynamic all var is_solid    # Must be dynamic to update
dynamic group solid defined

# do clustering
compute cluster solid cluster/atom 1.3 # Create a cluster where all atoms within are solid and max 1.3 units from another member

# define chunks one chunk per cluster
compute clus_chunks solid chunk/atom c_cluster nchunk every compress yes  # Says which atoms are in which chunk

# count the size of each chunk
compute size_chunks solid property/chunk clus_chunks count


# Find the maximum entry in the vector of chunk sizes
variable max_n equal max(c_size_chunks)


# Thermo style which includes this variable
# thermo_style custom step temp pe vol v_max_n

thermo ${N}  # Print the thermo information every 100 steps
thermo 1000  

# Reset the npt fix at a lower temperature (below freezing)
fix 1  all npt temp  ${temp} ${temp}  0.1  iso  5.68  5.68  0.5  mtk yes tchain  5  pchain  5
fix 1  all npt temp  0.45 ${temp}  0.1  iso  5.68  5.68  0.5  mtk yes tchain  5  pchain  5
fix 1  all npt temp  0.45 0.45  0.1  iso  5.68  5.68  0.5  mtk yes tchain  5  pchain  5

dump dmp2 all dcd ${N} traj.dcd
dump dmp2 all dcd 1000 traj.dcd


compute msd all msd com yes
variable twopoint equal c_msd[4]/6/(step*dt+1.0e-6)
fix 9 all vector 10 c_msd[4]
variable fit equal slope(f_9)/6/(10*dt)
thermo_style custom step temp pe c_msd[4] v_twopoint v_fit v_max_n

fix 1 all npt temp 1.25 ${temp} 0.1 iso 5.68 5.68 0.5 mtk yes tchain 5 pchain 5
fix 1 all npt temp 1.25 0.45 0.1 iso 5.68 5.68 0.5 mtk yes tchain 5 pchain 5
run 5000000 # 5000000  # Run for this many steps
Neighbor list info ...
  update every 1 steps, delay 10 steps, check yes
  max neighbors/atom: 2000, page size: 100000
  master list distance cutoff = 3.8
  ghost atom cutoff = 3.8
  binsize = 1.9, bins = 8 8 8
  4 neighbor lists, perpetual/occasional/extra = 1 3 0
  (1) pair lj/cut, perpetual
      attributes: half, newton on
      pair build: half/bin/atomonly/newton
      stencil: half/bin/3d
      bin: standard
  (2) compute orientorder/atom, occasional
      attributes: full, newton on
      pair build: full/bin/atomonly
      stencil: full/bin/3d
      bin: standard
  (3) compute coord/atom, occasional
      attributes: full, newton on
      pair build: full/bin/atomonly
      stencil: full/bin/3d
      bin: standard
  (4) compute cluster/atom, occasional
      attributes: full, newton on
      pair build: full/bin/atomonly
      stencil: full/bin/3d
      bin: standard
Per MPI rank memory allocation (min/avg/max) = 9.811 | 9.815 | 9.821 Mbytes
Step Temp PotEng c_msd[4] v_twopoint v_fit v_max_n 
   12000    1.2456711   -2.3092455 3.9443045e-34 2.7391003e-36 8.3333333e+20            1 
   13000    1.2548746   -2.3220187    1.1406225 0.0073116827  0.097208031            3 
   14000     1.301193   -2.3129181    2.4391239  0.014518594   0.10312086            2 
   15000    1.2087009   -2.3166216    3.7956757  0.021087086   0.10635515            2 
   16000    1.2340045   -2.3086701    5.0654694  0.026382652   0.10810548            3 
   17000    1.2666391     -2.34473    6.3762475  0.031256114   0.10815916            1 
   18000    1.2517912   -2.3221318    7.7157889  0.035721244   0.10865318            1 
   19000    1.2508133   -2.2971159     9.207235  0.040382609   0.10951005            1 
   20000    1.2203776   -2.3386054    10.485362  0.043689007   0.11020591            1 
   21000    1.2233633   -2.3230832    11.640324  0.046191763   0.11021724            1 
   22000    1.2196751   -2.3409733    12.795541  0.048467957    0.1094969            2 
   23000    1.2218788   -2.2930313    14.087814  0.051042802   0.10880782            3 
   24000    1.2260433   -2.3364013    15.374589  0.053383989   0.10830409            2 
   25000    1.2274162   -2.3343024    16.583023  0.055276742   0.10775991            2 
   26000    1.2426124   -2.2924998    18.025405  0.057773733   0.10764857            1 
   27000     1.236715    -2.330815    19.431617  0.059974125   0.10773004            1 
   28000    1.2634356    -2.306684    20.901371  0.062206461   0.10790896            2 
   29000    1.2218923   -2.3232053    21.883941  0.062884887   0.10788167            1 
   30000     1.229501   -2.3619149    23.235059  0.064541829   0.10791853       -1e+20 
   31000    1.2248941   -2.3349754    24.518257  0.065909291    0.1079834            1 
   32000    1.2265346    -2.347198    25.849728     0.067317   0.10792702            2 
   33000    1.2138306   -2.3352073    27.151813  0.068565184   0.10795671            2 
   34000     1.261335   -2.3129073    28.345131  0.069473359   0.10797807            2 
   35000    1.2524913   -2.3250429    30.193068  0.071888257    0.1082168            1 
   36000     1.248879    -2.322822    31.197603  0.072216673   0.10845727            2 
   37000      1.25124   -2.3303383    32.666506  0.073573211   0.10864056            2 
   38000    1.2447004   -2.3245413    33.849525  0.074231414    0.1088493            1 
   39000     1.261274   -2.2995301     35.46363  0.075776986   0.10902169            2 
   40000    1.2519698   -2.2986634    36.707425    0.0764738   0.10912773            1 
   41000    1.2697568    -2.332044    37.988797  0.077213001   0.10926309            1 
   42000     1.248409   -2.3032021    39.214534  0.077806615   0.10930474            2 
   43000    1.2507299   -2.3388406    40.270493  0.078043591    0.1092765            1 
   44000    1.2280555   -2.3274528    41.528617  0.078652682   0.10919302            3 
   45000    1.2346502   -2.3505635    42.887454   0.07942121   0.10912752            2 
   46000    1.2374429   -2.2921979    44.444274  0.080514988   0.10906691            2 
   47000     1.267981   -2.3116821    45.526313  0.080720412   0.10904081            1 
   48000    1.2447547   -2.3400954    47.195138  0.081936003   0.10905155            1 
   49000    1.2585472   -2.3144557    48.563511  0.082591004   0.10911857            1 
   50000    1.2343176   -2.3351261    49.814608  0.083024346   0.10922807            1 
   51000    1.2377747   -2.3147194    51.301576  0.083826104   0.10932497            2 
   52000     1.248989   -2.3179614    52.761662  0.084553945   0.10941823            2 
   53000    1.2560199   -2.3263327    53.843379  0.084659401   0.10951006            1 
   54000    1.2445022   -2.3419058    55.093277  0.085020489   0.10954792            2 
   55000    1.2502348   -2.3054209    56.270099  0.085257726   0.10954256            1 
   56000    1.2345332   -2.3154997     57.62662  0.085753898   0.10949629            1 
   57000    1.2575383   -2.3193942    59.177273   0.08651648   0.10949056            1 
   58000     1.228596    -2.300005    60.450166  0.086853685   0.10955159            1 
   59000    1.2706328   -2.3127869     61.67817  0.087116058   0.10962109            2 
   60000    1.2486338   -2.3360406    63.146415  0.087703354   0.10968566            3 
   61000    1.2402902   -2.3037554    64.483796  0.088092617   0.10976802            1 
   62000    1.2569169   -2.3320759    65.551233  0.088106496   0.10977261            1 
   63000    1.2478781   -2.3028694    67.049446  0.088689742   0.10977251            1 
   64000    1.2135384   -2.3315383    67.966063  0.088497477   0.10976746            3 
   65000    1.2519821   -2.3441275    69.090733  0.088577862   0.10976883            2 
   66000    1.2411176    -2.337925    70.544741  0.089071643   0.10976106            1 
   67000    1.2418978   -2.3258677    72.145144  0.089732765   0.10972367            2 
   68000    1.2246744   -2.3235736    72.743399  0.089146322   0.10966488            1 
   69000    1.2396553   -2.3542784    73.680012  0.088985521   0.10956117            2 
   70000    1.2331646   -2.3232832    75.247568  0.089580438   0.10944255            1 
   71000    1.2192002   -2.2965383    76.476677  0.089761358    0.1093472            1 
   72000    1.2540508   -2.3261476    77.635222  0.089855581   0.10925057            1 
   73000    1.2381948   -2.3327038    79.092109  0.090287796    0.1091454            2 
   74000    1.2367357   -2.3149348    80.443451  0.090589471   0.10902336            2 
   75000    1.2732587   -2.3552816    81.423743  0.090470825    0.1089123            2 
   76000    1.2168519     -2.34613    82.785366  0.090773427   0.10882822            1 
   77000    1.2180552   -2.3295017      84.0649  0.090979328   0.10875354            2 
   78000    1.2273059   -2.3167254    85.941919  0.091818289   0.10872049            2 
   79000    1.2357779   -2.3337398    87.012576  0.091785417   0.10869471            1 
   80000    1.2027419   -2.3494829    88.777632  0.092476699   0.10869863            3 
   81000     1.229905   -2.3451589    89.632847  0.092214863   0.10869705            3 
   82000    1.2423849   -2.3130566    91.111859  0.092593352   0.10870284            1 
   83000    1.2250587   -2.3154751    92.853137  0.093226041   0.10871515            1 
   84000    1.2311238   -2.3365541    93.951129  0.093205484   0.10872028            2 
   85000    1.2483381   -2.3274793    95.620497  0.093745585   0.10869931            2 
   86000    1.2230335   -2.3240397    96.700926  0.093702447   0.10870246            1 
   87000    1.2402933   -2.3334246    98.014659  0.093883773   0.10872406            1 
   88000    1.2219403   -2.3380885    99.181366  0.093921748   0.10875748            1 
   89000    1.2189676   -2.3024105    101.66847  0.095195196    0.1088045            2 
   90000    1.2559498   -2.3220755    102.00076  0.094445146   0.10884263            2 
   91000    1.2304999   -2.3328863    103.74989  0.095009059   0.10888158            1 
   92000    1.2563592   -2.3196827    104.95737  0.095070078   0.10893753            1 
   93000    1.2099286   -2.3534766    106.24855  0.095204794   0.10899411            2 
   94000    1.2182395   -2.3258154    108.13599  0.095865237   0.10904318            2 
   95000     1.223865    -2.313723    108.78182  0.095422645   0.10906957            3 
   96000    1.2322828   -2.3312112    110.25109  0.095704073   0.10908147            3 
   97000    1.2232203   -2.3106653    111.52638  0.095813039   0.10909932            1 
   98000    1.2167719   -2.3289445    113.18248  0.096243601   0.10912567            2 
   99000    1.2105061   -2.3284772     114.7129  0.096559678   0.10917236            2 
  100000    1.2097916   -2.3515013    116.25578   0.09687982   0.10925822            2 
  101000    1.2574685   -2.2988799    117.96514  0.097330976   0.10935145            2 
  102000    1.2668674   -2.2869886    119.45261     0.097592   0.10944502            2 
  103000    1.2308303   -2.3635482    120.74523  0.097690315   0.10952909            1 
  104000    1.2258234   -2.3460266    121.66832  0.097490639   0.10963283            2 
  105000    1.2381709   -2.3482345    122.75915  0.097427896   0.10970681            1 
  106000    1.2271036   -2.3192982    124.14786   0.09760052   0.10977069            1 
  107000    1.2309303   -2.3338566    126.07224  0.098187104   0.10984442            1 
  108000    1.2330113   -2.3327925    127.62956  0.098479598   0.10992297            4 
  109000    1.2179605   -2.3381193    128.90221  0.098549093   0.10997962            1 
  110000    1.2209593   -2.3062482    130.01936  0.098499517   0.11004186            1 
  111000    1.2379991   -2.3269685    131.26877  0.098550125   0.11009196            1 
  112000    1.2010363    -2.355802    130.94891  0.097432223   0.11012019            2 
  113000    1.2045201   -2.3477744    133.01601  0.098094403    0.1101345            1 
  114000    1.2283689   -2.3233751    134.63949  0.098420681   0.11016645            3 
  115000    1.2177773   -2.3343978    137.31066   0.09950048   0.11020266            2 
  116000    1.2483469   -2.3305467    138.49931  0.099496633   0.11025352            1 
  117000    1.2374116   -2.3130039    139.86017  0.099615507   0.11029735            2 
  118000    1.2290222   -2.3270084    141.05689  0.099616444   0.11034062            1 
  119000    1.2513112   -2.3425509    141.49427  0.099085626   0.11038654            1 
  120000     1.241957   -2.3246953    142.76691  0.099143685   0.11042237            2 
  121000    1.2242773   -2.3630093     144.0129  0.099182438   0.11044751            2 
  122000    1.2454446   -2.3738948    145.44357  0.099346701   0.11046497            2 
  123000    1.2226408    -2.321393    147.34375  0.099826389   0.11049924            1 
  124000    1.2361075   -2.3406061    148.93641   0.10009167   0.11053834            2 
  125000    1.2400244   -2.3061814     150.1206    0.1000804   0.11058553            3 
  126000    1.2224039   -2.3309724    151.15577  0.099970746   0.11063098            1 
  127000    1.2427221   -2.3137069    152.93151   0.10034876   0.11067559            1 
  128000    1.2544715   -2.3475023    154.23709   0.10041477   0.11072116            3 
  129000    1.2258325   -2.3506603    155.27225   0.10030507   0.11075893            1 
  130000    1.2184607   -2.3149524    157.04912   0.10067251   0.11079761            2 
  131000    1.2163544   -2.3237573    158.08271   0.10056152   0.11082811            1 
  132000    1.2261556   -2.3423139    158.57858   0.10011274   0.11085691            1 
  133000    1.2394529   -2.3311814    161.09995   0.10093982   0.11087301            2 
  134000    1.2244714   -2.3447215    161.91074   0.10069076   0.11089391            1 
  135000    1.2341415   -2.3205275    162.42968   0.10026523   0.11090018            2 
  136000    1.2559391   -2.3306118    163.81442   0.10037648   0.11088454            2 
  137000    1.2438386   -2.3769311    164.78808   0.10023606   0.11086468            2 
  138000    1.2079418   -2.3097038    165.77946   0.10010837   0.11083709            1 
  139000    1.2473727   -2.3405752    166.80075   0.10000045   0.11081877            2 
  140000    1.2585499   -2.3460095    168.87161   0.10051881   0.11080157            1 
  141000    1.2313167   -2.3460663    170.26314   0.10062833   0.11077334            1 
  142000    1.2333794   -2.3190213    171.01944   0.10036352   0.11076572            2 
  143000    1.2186191   -2.3524716    172.16628      0.10033   0.11073918            6 
  144000    1.2433062   -2.3282724    173.24371   0.10025678   0.11070704            3 
  145000    1.2188424   -2.3498336    173.56985  0.099752785   0.11066581            5 
  146000    1.2115318   -2.3529998    176.06973   0.10049642   0.11061599            1 
  147000    1.2247509   -2.3460824    175.85835  0.099692943   0.11056454            3 
  148000    1.2193602   -2.3103435    177.69729   0.10005478   0.11051347            1 
  149000    1.2343319   -2.3400365    178.47628  0.099818948   0.11045512            2 
  150000    1.2149442   -2.3560828    179.45312  0.099696176   0.11039624            1 
  151000     1.201481   -2.3301268     180.7018  0.099725054   0.11033708            4 
  152000    1.2232266   -2.3177373    182.27448  0.099931184   0.11028651            3 
  153000    1.2388017   -2.3391041    184.47215   0.10047503   0.11023918            1 
  154000    1.2604003    -2.307313    183.97355  0.099552784   0.11018083            1 
  155000    1.2217679    -2.356112    186.34969     0.100188   0.11012533            2 
  156000    1.2436647   -2.3722318     186.8331  0.099804004   0.11006746            2 
  157000    1.2311031   -2.3339221    188.04295  0.099810483   0.11000334            3 
  158000    1.2247558   -2.3536108    189.00709  0.099687283   0.10994474            1 
  159000      1.24604   -2.3488318     189.6428  0.099393502   0.10988432            1 
  160000    1.2140404   -2.3359338    192.22146   0.10011534   0.10981688            1 
  161000    1.2275948   -2.3799193    194.20541    0.1005204   0.10976136            1 
  162000    1.2288033   -2.3568646    195.08518   0.10035246   0.10970858            1 
  163000    1.2181171   -2.3345712    196.53973   0.10048043   0.10966898            2 
  164000    1.2170857   -2.3484123    197.11672   0.10016094   0.10961338            1 
  165000     1.227425   -2.3131059    199.37687   0.10069539   0.10955988            1 
  166000    1.2085624   -2.3396777    198.83324  0.099815883   0.10950541            1 
  167000    1.2392129   -2.3045958    202.64503   0.10112027   0.10945321       -1e+20 
  168000    1.2304332   -2.3697044     202.1724   0.10028393   0.10939781            1 
  169000    1.2222619   -2.3067287    202.73362  0.099967267   0.10933873            1 
  170000    1.2400235   -2.3538309    204.42764   0.10020963   0.10927789            1 
  171000    1.2244246   -2.3495115    204.31106  0.099566795   0.10920746            2 
  172000    1.2155837   -2.3559245    205.91083  0.099762997   0.10914072            2 
  173000    1.1809143   -2.3620436    207.44704  0.099926319   0.10907257            1 
  174000    1.2521825   -2.3138845     209.4909   0.10033089   0.10901111            1 
  175000    1.2175003   -2.3665686    210.31876   0.10015179   0.10895709            4 
  176000    1.2139441   -2.3327195    212.39865   0.10056754   0.10890845            1 
  177000    1.2344297   -2.3301064    212.90964   0.10023994   0.10886037            2 
  178000    1.2228917     -2.35703    213.47821  0.099942984   0.10880875            1 
  179000    1.2211895   -2.3537409    215.24797   0.10020855   0.10875584            4 
  180000    1.2309387   -2.3519434    217.78162   0.10082482   0.10871153            1 
  181000    1.2296203   -2.3637497    219.59322   0.10110185   0.10866892            2 
  182000    1.2287759   -2.3565358    219.87587   0.10067576   0.10862809            1 
  183000    1.2148192   -2.3532291    221.63965    0.1009288   0.10859549            3 
  184000    1.2313797   -2.3847384    222.03222   0.10055807   0.10856353            1 
  185000    1.2355259   -2.3630497    223.53994   0.10069366   0.10852326            1 
  186000    1.2093544   -2.3676376     225.1784   0.10088638   0.10848607            2 
  187000    1.2358163   -2.3095554    226.81503   0.10107621   0.10844554            3 
  188000    1.2446716   -2.3216327    227.43684    0.1008142   0.10840765            2 
  189000     1.223146   -2.3588071     228.5045   0.10075154   0.10837209            1 
  190000    1.1988959    -2.328683    230.35161   0.10103141    0.1083366            2 
  191000    1.2282603   -2.3468836    231.94128   0.10119602    0.1083126            3 
  192000    1.2179735   -2.3177908    232.98248   0.10112087   0.10828743            1 
  193000    1.2382611    -2.365076    233.69564   0.10090485   0.10826395            1 
  194000    1.2044315   -2.3376823    236.34666   0.10152348   0.10823785            2 
  195000    1.2072022    -2.332576    236.97869   0.10127294   0.10821278            1 
  196000    1.2127997   -2.3475284    237.58571   0.10101433   0.10818474            1 
  197000    1.2295609   -2.3172334    237.89417   0.10063205   0.10815514            1 
  198000    1.2076936   -2.3479126    239.98374   0.10100326   0.10812617            1 
  199000    1.2292095   -2.3615831    240.42564   0.10068075   0.10810143            3 
  200000    1.2122104   -2.3740095    242.76723   0.10115301   0.10806663            2 
  201000     1.223897    -2.351048    242.66321   0.10060664   0.10802644            1 
  202000    1.1822223   -2.3209136    244.52671   0.10087736   0.10798922            2 
  203000    1.2295358    -2.353874    244.44825   0.10034822   0.10794808            2 
  204000    1.2410278   -2.3543207    245.58796   0.10032188    0.1079093            1 
  205000    1.2483815   -2.3549848    247.25416   0.10050982   0.10786564            1 
  206000    1.2264155   -2.3643731    249.89546    0.1010904   0.10783327            1 
  207000    1.1966589   -2.3632065    250.99267   0.10104375    0.1078058            2 
  208000    1.2162451   -2.3205453    252.88814   0.10131736   0.10778302            1 
  209000    1.2413664   -2.3643455    253.18704   0.10095177   0.10775294            1 
  210000    1.2156265   -2.3366944    254.14339   0.10085055   0.10772551            2 
  211000    1.2154109   -2.3602082    256.41255   0.10126878   0.10770332            2 
  212000     1.204786   -2.3524341    257.08031   0.10105358   0.10767452            3 
  213000    1.2173079   -2.3681813    258.49956   0.10113441   0.10764919            1 
  214000    1.2108368   -2.3424578    260.77442   0.10154767   0.10762598            1 
  215000    1.2264388   -2.3265287    261.18864   0.10123591   0.10760431            1 
  216000     1.224372   -2.3552578    262.48231   0.10126632    0.1075712            2 
  217000    1.2222714   -2.3463212    261.71312   0.10050427   0.10753721            1 
  218000    1.2352716   -2.3547734    263.35458   0.10067071   0.10750063            2 
  219000    1.2603746   -2.3717547    264.08581   0.10048927   0.10746315            1 
  220000     1.225012   -2.3618701    266.36181   0.10089463   0.10743039            2 
  221000    1.2151335    -2.356025    266.54724   0.10050801   0.10739216            1 
  222000    1.1878785   -2.3336432    269.43241   0.10113829   0.10735464            1 
  223000     1.222227   -2.3696423     270.7259   0.10116812   0.10732639            4 
  224000    1.2477747   -2.3497893    272.13497   0.10124069   0.10729417            3 
  225000     1.230643   -2.3289402    272.72983   0.10101105   0.10726614            1 
  226000     1.198742    -2.351905    275.49536   0.10158383      0.10724            3 
  227000    1.2348678   -2.3710903    275.83952   0.10126267   0.10721531            2 
  228000    1.2205767   -2.3421063    277.31242   0.10135688   0.10719576            2 
  229000    1.1916557   -2.3349957    280.04044     0.101907   0.10717686            2 
  230000    1.2105154   -2.3829349    279.29263   0.10119298   0.10715746            2 
  231000    1.2317912   -2.3656458    281.76877   0.10164818    0.1071429            2 
  232000    1.2320738   -2.3667083    283.06859   0.10167694   0.10712579            2 
  233000    1.2257575   -2.3464558    284.26806   0.10166955   0.10711406            4 
  234000    1.2107465    -2.383512     285.4766   0.10166545   0.10709614            1 
  235000     1.216758    -2.354423    286.86846    0.1017264   0.10707681            1 
  236000    1.2288104   -2.3579498     287.7697    0.1016136   0.10705897            2 
  237000    1.2162189   -2.3458825    288.96254   0.10160427   0.10704692            1 
  238000    1.2145707   -2.3203523    290.44404   0.10169609    0.1070315            2 
  239000    1.1991272   -2.3933475    290.47059   0.10127984    0.1070137            2 
  240000    1.2241546   -2.3612164    292.60107   0.10159759   0.10698979            2 
  241000    1.2231581   -2.3440375    293.12848    0.1013584   0.10697117            1 
  242000    1.1932094   -2.3523973    295.50728   0.10175871    0.1069529            1 
  243000    1.2251242    -2.346053    296.09634   0.10154195   0.10693564            1 
  244000    1.1863612   -2.3617519    297.10977   0.10147192   0.10691792            2 
  245000    1.2270986    -2.357645    298.97255   0.10169134   0.10690171            2 
  246000    1.2375699   -2.3527501    301.41761   0.10210624   0.10689873            1 
  247000    1.2003412   -2.3591118    304.49443   0.10273092   0.10690072            1 
  248000    1.2267173   -2.3760175    306.22152   0.10289701   0.10690195            2 
  249000    1.2376346   -2.3629438    305.09622   0.10210717   0.10690516            1 
  250000    1.2004063   -2.3706952    305.93832   0.10197944   0.10690638            2 
  251000     1.221966   -2.3405463    307.74777    0.1021739   0.10690167            1 
  252000    1.2110971    -2.361418    308.43363   0.10199525   0.10689543            2 
  253000    1.2057779   -2.3603464    310.12549   0.10214937   0.10688973            2 
  254000    1.2047131   -2.3811477    308.87598   0.10133726   0.10688086            1 
  255000    1.2206933   -2.3428835    312.68823    0.1021857   0.10687341            2 
  256000    1.1660066   -2.3453054    313.48915   0.10204725   0.10686734            1 
  257000     1.221107   -2.3491493    315.47825   0.10229515   0.10686264            3 
  258000    1.2225114   -2.3739718      316.777   0.10231815    0.1068624            1 
  259000     1.199104   -2.3577127    318.55034   0.10249367   0.10686432            2 
  260000    1.1931254   -2.3606735    319.10804   0.10227822   0.10686127            1 
  261000     1.217341   -2.3462876    320.18026   0.10222869    0.1068647            1 
  262000    1.2259078   -2.3625706    322.96827   0.10272527   0.10686836            2 
  263000    1.2407346   -2.3948548     323.7058   0.10256838   0.10687184            1 
  264000    1.2322019   -2.3244647    325.89311    0.1028703      0.10688            1 
  265000    1.1765039   -2.3741599    326.60464   0.10270586   0.10688365            1 
  266000    1.2045251   -2.3574577    328.06347   0.10277677   0.10688474            2 
  267000    1.2250097   -2.3649302    327.58415   0.10224224   0.10688556            2 
  268000    1.2160152   -2.3458967    330.59924   0.10279827   0.10688315            2 
  269000    1.2415828   -2.3877986    331.05355   0.10255686   0.10688521            1 
  270000     1.209819   -2.3441643    333.62244   0.10296989   0.10688377            2 
  271000    1.2067236   -2.3832795    331.00267   0.10178434   0.10687934            1 
  272000    1.1911486   -2.3670735    335.04246   0.10264781   0.10687622            1 
  273000     1.220353   -2.3552795    336.87581   0.10283144   0.10686641            3 
  274000    1.2377301   -2.3554361    337.51402   0.10265025   0.10685894            1 
  275000     1.197585   -2.3930166    338.23592   0.10249573    0.1068511            1 
  276000    1.2548553   -2.3680298    340.44542   0.10279149   0.10684804            3 
  277000    1.1942208   -2.3722485    343.59234   0.10336713   0.10684476            2 
  278000    1.1867565   -2.3675513    343.22698   0.10288579   0.10684513            2 
  279000    1.2134679   -2.3507843    345.09372   0.10307459   0.10684997            1 
  280000    1.1914467   -2.3269962    347.41873   0.10339843   0.10685992            1 
  281000    1.1993602   -2.3458511    348.91309   0.10347363   0.10686988            2 
  282000    1.2439528   -2.3510296    349.95485   0.10341455   0.10688308            1 
  283000    1.1887121   -2.3616424    350.47105   0.10320113   0.10689185            1 
  284000    1.2112119   -2.3587107    351.38972   0.10310731   0.10690113            2 
  285000    1.1902006   -2.3806686    353.54916   0.10337695   0.10691231            4 
  286000    1.2127642   -2.3521844    355.29007   0.10352275   0.10692607            1 
  287000    1.2090443   -2.3749586    357.22008   0.10372244   0.10694225            2 
  288000    1.2271169   -2.3802949    358.30667    0.1036767   0.10695829            3 
  289000    1.2016462   -2.3599217    359.55827   0.10367886   0.10696933            2 
  290000    1.1869293   -2.3598317    360.00166   0.10344875   0.10698256            1 
  291000    1.2225944   -2.3356379    360.62932     0.103273   0.10698974            2 
  292000    1.1977258   -2.3569937    362.23495   0.10337755    0.1069959            3 
  293000    1.1997392   -2.3326883     361.7636   0.10289067   0.10699989            4 
  294000    1.1783639   -2.3672274    364.96089   0.10344697   0.10700629            1 
  295000    1.1960729    -2.383524    364.88641   0.10307526   0.10700799            2 
  296000    1.1994778   -2.3629913    367.60186   0.10349151   0.10701316            1 
  297000    1.1981938   -2.3541367    370.14119   0.10385555   0.10702268            1 
  298000    1.1830206   -2.3615902    370.23812   0.10353415   0.10703219            1 
  299000    1.2187843   -2.3491556     373.3998   0.10406906   0.10703757            2 
  300000    1.1805138   -2.3911031    370.50677   0.10291855   0.10703847            1 
  301000    1.1762715   -2.3508336    373.05469   0.10328203   0.10704075            1 
  302000    1.2179393    -2.379433    374.62743   0.10337401   0.10704592            1 
  303000    1.1660676   -2.3415907    374.34721   0.10295578   0.10704647            1 
  304000    1.1826704   -2.3694355    379.17517   0.10394056   0.10704906            2 
  305000    1.2053894   -2.4009201      377.426   0.10312186   0.10705171            2 
  306000    1.2145736   -2.3638145    379.95443   0.10347343   0.10705254            1 
  307000    1.1891262   -2.3333547    380.01931   0.10315399   0.10705268            1 
  308000    1.2218757   -2.3660035    382.07968   0.10337654   0.10705435            1 
  309000    1.1961177   -2.3439122    382.77985   0.10323081   0.10705364            1 
  310000    1.2152816   -2.3693957    383.10591   0.10298546   0.10705414            1 
  311000    1.1954939   -2.3692622     385.9519   0.10341691   0.10705399            3 
  312000    1.1926292   -2.3581859    386.02724   0.10310557   0.10705074            1 
  313000    1.1963968   -2.3639885    389.11215   0.10359748   0.10705368            1 
  314000    1.1991551      -2.3839    388.75079   0.10317165   0.10704994            1 
  315000    1.2013002   -2.3501296    390.37979   0.10327508   0.10704649            2 
  316000    1.1768414   -2.3604145    391.05948    0.1031275   0.10704757            1 
  317000    1.2426333   -2.3626017    393.34792   0.10340376   0.10704737            1 
  318000    1.2192232   -2.3818045    394.33352   0.10333688   0.10704927            1 
  319000    1.2253514   -2.3668114    396.99755   0.10370887   0.10705607            1 
  320000    1.1795572   -2.4046901    398.99422   0.10390474   0.10706121            1 
  321000    1.1979014   -2.3623639    400.44327   0.10395723   0.10706883            1 
  322000    1.1830514   -2.3709505    397.63631   0.10290795    0.1070763            2 
  323000    1.1950108   -2.3771324    403.03084   0.10398113   0.10708387            3 
  324000    1.2267843   -2.3827082    404.67581   0.10408328   0.10709151            3 
  325000    1.2210046   -2.3399095     406.7536   0.10429579     0.107102            2 
  326000    1.1976156   -2.3552834    404.81498   0.10348031   0.10711092            1 
  327000     1.197483   -2.3884075    408.23742   0.10403604   0.10711803            1 
  328000    1.2070143   -2.3661144    410.24749   0.10422954   0.10712609            2 
  329000    1.2106237   -2.3465736    409.88384   0.10382063   0.10713473            1 
  330000    1.2103321   -2.3496324    412.04981   0.10405298    0.1071424            2 
  331000    1.1973112   -2.3859028    412.77499    0.1039212   0.10714709            2 
  332000    1.1861721   -2.3524694    414.02293   0.10392142   0.10715366            1 
  333000    1.1816544   -2.3571373    419.24419   0.10491596   0.10716317            4 
  334000    1.1748225   -2.3665061    418.72828   0.10447312   0.10717443            1 
  335000    1.2050531   -2.3464787    420.78549   0.10467301   0.10718624            1 
  336000    1.2120408   -2.3784056    418.79502   0.10386781   0.10719506            1 
  337000    1.1778689   -2.3672838    423.11285   0.10462731     0.107205            2 
  338000    1.1765563    -2.336261    425.50415   0.10490733   0.10721588            1 
  339000    1.1910246   -2.3795442    423.27725   0.10405046   0.10722587            1 
  340000    1.2020975   -2.3623853    427.59332   0.10480228   0.10723434            3 
  341000    1.1733687   -2.4029301    425.38796     0.103956   0.10724004            3 
  342000    1.1789321   -2.3596885    427.47414   0.10416037   0.10724739       -1e+20 
  343000    1.1922064   -2.3572564    430.30223   0.10454379   0.10725518            2 
  344000    1.2037347   -2.4054549    430.77665   0.10435481   0.10726762            1 
  345000    1.1867926   -2.3823795    432.13636   0.10438076   0.10727762            1 
  346000    1.2069173    -2.360775    433.39367    0.1043819   0.10728433            4 
  347000    1.1852997   -2.3457948    434.46979   0.10433953   0.10728936            1 
  348000     1.208603   -2.3712695    434.74484   0.10410557   0.10729436            1 
  349000    1.1702497   -2.3563554    435.85986   0.10407351   0.10729277            2 
  350000    1.1840968   -2.3506934     437.4949   0.10416545   0.10729002            2 
  351000    1.1891149   -2.4018489    435.85946    0.1034804   0.10728828            1 
  352000    1.1988965   -2.3879016    437.42016   0.10355591   0.10728535            1 
  353000     1.182716   -2.3612605    441.33768   0.10418737   0.10728296            2 
  354000    1.2094174   -2.3826524    438.84922   0.10330726   0.10728241            1 
  355000    1.1924712    -2.403609    440.75743   0.10346419   0.10727497            1 
  356000    1.2040682   -2.3474056    443.16078   0.10373614   0.10726782            2 
  357000    1.2152811   -2.3598101    445.45179   0.10398034   0.10726274            1 
  358000    1.1642353   -2.4127241    443.52611   0.10324165   0.10725527            1 
  359000    1.2404463   -2.3852532    443.57958   0.10296648   0.10724758            3 
  360000    1.2172521   -2.3526306    446.48057   0.10335198    0.1072388            1 
  361000    1.1883842   -2.3794848    449.07186   0.10366386    0.1072304            4 
  362000    1.1662859   -2.3719409    448.05486   0.10314338   0.10721792            1 
  363000    1.2018066   -2.3556697    450.37192   0.10339117   0.10720435            1 
  364000    1.2152525   -2.3626379     453.3848   0.10379689   0.10719223            1 
  365000    1.2129628   -2.3785601    454.44068   0.10375358   0.10718315            3 
  366000    1.2128106   -2.3520371    453.73022   0.10330834   0.10717328            1 
  367000    1.2011795   -2.3769366    454.29168   0.10315433   0.10716309            2 
  368000    1.1813219   -2.3854979    458.17457    0.1037533   0.10715474            1 
  369000    1.2045334   -2.3623312    458.43751   0.10353151   0.10714457            4 
  370000    1.2022315   -2.3643166    461.17732   0.10386877   0.10713612            2 
  371000     1.196657   -2.3405598    459.04674   0.10311023   0.10712746            2 
  372000    1.2215154   -2.3700493    462.71891   0.10365567   0.10712042            1 
  373000    1.1631194   -2.3908338     462.3889   0.10330404   0.10711037            3 
  374000     1.203879   -2.3780485    462.05968   0.10295447   0.10709858            2 
  375000    1.1714483   -2.3655817    467.04142   0.10378698   0.10708615            2 
  376000    1.1660493    -2.392566    466.56289    0.1034049   0.10707239            3 
  377000    1.1953412   -2.3620127    466.91171   0.10320772   0.10705629            1 
  378000    1.2064834   -2.3964555    465.57577   0.10264016   0.10704172            3 
  379000    1.1802091    -2.342931    469.51336   0.10323513   0.10702729            1 
  380000    1.1973454   -2.3830972    467.83653   0.10259573   0.10701081            2 
  381000    1.2053066     -2.33483    471.06264   0.10303207   0.10699263            2 
  382000     1.191306   -2.3653856    473.37878   0.10326762   0.10697467            3 
  383000    1.1845384   -2.3978235    469.57046   0.10216938   0.10695187            2 
  384000    1.2022947   -2.3468999    473.00173   0.10264794   0.10692823            1 
  385000    1.1927411   -2.3627425      475.075   0.10283009   0.10690295            1 
  386000    1.1991653   -2.3586691    474.65509   0.10247303   0.10688322            1 
  387000    1.1838791   -2.4171558    475.44549   0.10237844   0.10685832            1 
  388000    1.1579103    -2.385613    476.97455   0.10244299   0.10683228            2 
  389000    1.2048773   -2.3928621    475.60409   0.10188605    0.1068052            2 
  390000    1.2148341   -2.3787264     480.4897   0.10266874   0.10678135            1 
  391000    1.2142069   -2.3927059    481.77194   0.10267944   0.10675597            1 
  392000    1.1819563   -2.3621866    482.78796   0.10263349   0.10673262            1 
  393000    1.1965239    -2.383232    481.39782   0.10207757   0.10670693            1 
  394000    1.1949293   -2.3647156     486.6414   0.10292754   0.10668125       -1e+20 
  395000    1.1936538   -2.3579479    483.93212   0.10209538   0.10665591            2 
  396000    1.1790272   -2.3579115    486.91402   0.10246507   0.10662913            2 
  397000    1.2042017   -2.3442692    484.99317   0.10180377   0.10660082            1 
  398000    1.1823931   -2.3887651    487.58776   0.10209124   0.10657761            1 
  399000    1.1804215   -2.3998653    490.70017   0.10248542    0.1065515            2 
  400000    1.1794652   -2.3538759     490.5524   0.10219842    0.1065259            3 
  401000    1.1799328    -2.404981    489.21861   0.10166638   0.10649461            1 
  402000    1.2049551    -2.362339     491.8379   0.10195645   0.10646668       -1e+20 
  403000    1.1905915    -2.374024    493.18189   0.10198137   0.10643804            2 
  404000    1.1895801   -2.3645665    494.90473   0.10208431   0.10640694            1 
  405000    1.2360682    -2.367038    494.38455   0.10172522     0.106377            3 
  406000      1.20207   -2.3949094    496.19457   0.10184618    0.1063459            3 
  407000    1.1861552    -2.384779    498.52619   0.10207334   0.10631563            5 
  408000    1.1606631   -2.3534623    500.41964   0.10220989   0.10628871            2 
  409000    1.1873156   -2.3905322    498.15752   0.10149909   0.10625806            3 
  410000    1.1812856   -2.3681012    500.77952   0.10178446   0.10622801            1 
  411000     1.180989   -2.3954928    500.61094   0.10150262    0.1061989            2 
  412000    1.1688965     -2.37772    504.63681   0.10207055   0.10616694            3 
  413000    1.2014548   -2.3793693    505.85582   0.10206937   0.10613825            1 
  414000    1.1737495   -2.4101623    506.21309   0.10189474   0.10610788            1 
  415000    1.1878469   -2.3420082    507.53916   0.10191549   0.10607884            3 
  416000    1.1935005   -2.3953653    507.73747   0.10171023   0.10604919            2 
  417000    1.1854448   -2.4071903    507.99864   0.10151851   0.10601809            1 
  418000    1.1884848   -2.4088641    506.87051   0.10105074   0.10598465            2 
  419000    1.1762477   -2.3871836    510.32449   0.10149652   0.10595357            1 
  420000    1.1888085   -2.4061959     512.3344   0.10165365   0.10592546            1 
  421000    1.1710432   -2.3834052    513.97507   0.10173695   0.10589451            3 
  422000    1.1858925   -2.3742571    514.10662   0.10152184   0.10586338            2 
  423000    1.2119142   -2.3744774    515.73243   0.10160213   0.10583033            2 
  424000    1.1709682   -2.3898545    513.32278   0.10088891   0.10579802            2 
  425000    1.1821151   -2.3865369    515.82114    0.1011414   0.10576404            2 
  426000    1.2210215   -2.4158348    514.83704   0.10071147   0.10572658            1 
  427000    1.1977107   -2.4061813    518.69346   0.10122823   0.10569207            1 
  428000    1.1862873   -2.3687269    519.22745   0.10109569   0.10565985            1 
  429000     1.151147    -2.392241     521.9642   0.10139165   0.10562701            1 
  430000    1.1850258   -2.3887391    522.68055   0.10129468   0.10559462            2 
  431000    1.2041907   -2.3764144    524.28493   0.10136986    0.1055624            1 
  432000    1.1847985   -2.3660544    524.80855   0.10123622   0.10553025            2 
  433000    1.1665623   -2.3781754    524.12151   0.10087019   0.10549894            1 
  434000    1.1710006   -2.3805179    528.06517     0.101395   0.10546579            1 
  435000    1.1870291   -2.3891783    528.02596    0.1011544   0.10543482            2 
  436000    1.1844684   -2.4135874    529.29469   0.10116489    0.1054043            1 
  437000    1.1845826   -2.4014488    531.74859   0.10140133   0.10537369            2 
  438000    1.1998035   -2.4225444    534.03116    0.1016041   0.10534518            1 
  439000    1.1836607   -2.3959036    534.06896   0.10137983   0.10531635            1 
  440000    1.1728673   -2.3878906    534.93712   0.10131385   0.10528849            3 
  441000    1.1864892    -2.416871    535.29345   0.10115145   0.10526063            1 
  442000    1.1932552   -2.4150331    534.71143   0.10081286   0.10523112            2 
  443000     1.199602   -2.4207519    537.94995    0.1011945    0.1052002            2 
  444000    1.1932026   -2.4018486    539.89398   0.10133145   0.10517039            2 
  445000    1.1900894   -2.3705572    541.93759   0.10148644   0.10514008            2 
  446000    1.1753692   -2.3886881    539.65787   0.10083294   0.10510998            1 
  447000     1.193186   -2.4019043    543.26818   0.10128042   0.10508003            1 
  448000    1.1864914   -2.3858737    545.75322    0.1015166    0.1050516            2 
  449000    1.1645759   -2.4131526    546.68884   0.10146415   0.10502445            2 
  450000    1.1915985   -2.4076237    548.40545   0.10155656   0.10499821            1 
  451000     1.187935   -2.3853586    550.53106   0.10172414   0.10497224            1 
  452000    1.1878895    -2.398803    547.24845   0.10089389   0.10494568            2 
  453000    1.2050116   -2.4044213    550.49097   0.10126765   0.10491752            1 
  454000    1.2070722   -2.3778229    551.25769   0.10118533   0.10489064            1 
  455000     1.163944    -2.413869    549.47687   0.10063679   0.10486229            2 
  456000    1.1523231   -2.4167511    553.21799   0.10109978   0.10483018            2 
  457000    1.1681735   -2.3959811     553.2205   0.10087901   0.10480048            1 
  458000    1.1849056   -2.3982452    556.00485   0.10116537   0.10477103            2 
  459000    1.1556516   -2.3785292    556.72384    0.1010755   0.10474228            1 
  460000    1.1981844    -2.384604    558.39317   0.10115818    0.1047142            1 
  461000    1.1976069   -2.3778306     558.4478   0.10094863   0.10468414            3 
  462000    1.1714621   -2.3860327    559.39572    0.1009011   0.10465377            3 
  463000    1.1943941   -2.3911405    560.24737   0.10083646   0.10462416            1 
  464000    1.1962966   -2.3957912    560.91644    0.1007393   0.10459453            2 
  465000    1.1510287   -2.3807924    562.82479   0.10086466   0.10456639            2 
  466000    1.1534928   -2.3999656    563.60244   0.10078728   0.10454169            1 
  467000    1.1606938   -2.3795131    566.90384   0.10116057   0.10451618            2 
  468000    1.1842571   -2.3826305    567.69315   0.10108496   0.10449019            1 
  469000    1.1901403   -2.3717714    567.77017   0.10088311   0.10446413            1 
  470000    1.1854002   -2.4032423    569.17724   0.10091795    0.1044382            1 
  471000    1.1611816   -2.3943326    568.18288   0.10052776   0.10441228            2 
  472000    1.1854495   -2.4375852    569.99112   0.10063403   0.10438613            3 
  473000    1.1615638   -2.3962351    571.47281   0.10068231   0.10436097            1 
  474000    1.1699653   -2.3664803      576.827   0.10141122   0.10433777            2 
  475000    1.1857699   -2.3942978    576.71446   0.10117798    0.1043153            1 
  476000    1.2090698   -2.4024195     575.2313   0.10070576   0.10429166            1 
  477000    1.1717852   -2.4186283    577.03246   0.10080931   0.10426901            1 
  478000    1.1427317   -2.3741121    580.12762   0.10113801   0.10424708            1 
  479000    1.1583262   -2.3541851    582.21499   0.10129001   0.10422287            2 
  480000     1.178338   -2.3847405    582.88185   0.10119477    0.1041993            1 
  481000    1.1704399   -2.4131949    580.91465   0.10064356   0.10417404            2 
  482000    1.1484746   -2.3905141    583.13276   0.10081825   0.10414932            2 
  483000    1.1770368   -2.4044543    586.18776    0.1011366   0.10412576            2 
  484000    1.1885948   -2.3963164    585.29453   0.10077385   0.10410193            1 
  485000    1.1689779    -2.377695    589.85924   0.10135038   0.10407915            1 
  486000    1.1698704   -2.3926646     587.7296   0.10077668   0.10405662            1 
  487000    1.1566069   -2.3751735    591.21119    0.1011655   0.10403305            2 
  488000    1.1563386   -2.3952037     592.6965   0.10121183   0.10400927            1 
  489000    1.1892504   -2.3985118    590.71639   0.10066741   0.10398492            2 
  490000    1.1491711   -2.4130229    591.63977   0.10061901   0.10395957            1 
  491000    1.1972845   -2.4017771    595.16361   0.10101215     0.103934            1 
  492000    1.1677054   -2.3830533    595.27073   0.10082499   0.10391147            3 
  493000    1.1618788   -2.3918731    594.02581   0.10041004   0.10388771            1 
  494000    1.1834101   -2.3997122    597.40939   0.10077756   0.10386426            2 
  495000    1.1745101   -2.3834968    600.09613   0.10102628   0.10384155            1 
  496000    1.1730965   -2.3880991    599.28937   0.10068706   0.10381704            2 
  497000    1.1735034   -2.3887765    597.46059   0.10017783   0.10379221            1 
  498000    1.1755406   -2.4102573    597.21889  0.099936226   0.10376641            1 
  499000    1.1601521   -2.3727405    598.76941  0.099994892   0.10373967            2 
  500000    1.1653188   -2.4332196    602.46131   0.10041022    0.1037143            1 
  501000     1.186143   -2.3966753    602.32355   0.10018688   0.10368776            2 
  502000    1.1554319   -2.3668528    606.11081     0.100616   0.10366131            3 
  503000    1.1836165   -2.4101196    600.67958  0.099516166   0.10363256            2 
  504000    1.1765105   -2.3910464     604.1988  0.099900595   0.10360423            2 
  505000    1.1880693   -2.3850305     604.9588  0.099828184   0.10357462            2 
  506000    1.1846348   -2.4162644    607.95194   0.10012384   0.10354406            1 
  507000     1.203256   -2.3908819    605.45122  0.099515323   0.10351307            2 
  508000    1.1921561   -2.4008262    607.57785  0.099668282   0.10348302            2 
  509000    1.1602886   -2.3932388     609.6125  0.099805583   0.10345227            2 
  510000    1.1728998   -2.4046357    608.03966  0.099352886   0.10341864            1 
  511000    1.1602059   -2.4069252    610.69681  0.099591783   0.10338465            1 
  512000    1.1743184   -2.4338666    608.87842  0.099101305   0.10335067            2 
  513000    1.1532073   -2.3962818    612.03356  0.099420656   0.10331729            1 
  514000    1.1787981   -2.3945384    613.84944  0.099521635   0.10328495            1 
  515000    1.1755242   -2.3964612    615.30908  0.099564575   0.10325154            1 
  516000    1.1699553   -2.3717477     620.9315   0.10027964   0.10321755            3 
  517000    1.1877034     -2.37594    616.92025  0.099439111   0.10318716            2 
  518000    1.1525303   -2.3942021    623.08263   0.10023852   0.10315792            2 
  519000    1.1643042   -2.4048571    618.47466    0.0993055   0.10312739            2 
  520000    1.1706485   -2.3771598    622.87647  0.099819947   0.10309704            6 
  521000    1.1832057   -2.3993311    623.53999  0.099734483   0.10306762            2 
  522000    1.1491397   -2.4178245    623.74463   0.09957609   0.10303907            1 
  523000    1.1567348   -2.4007824     624.3366  0.099480018   0.10301074            2 
  524000    1.1486737    -2.406505    626.92258  0.099701428   0.10298472            2 
  525000    1.1990159   -2.4000891    631.30631   0.10020735   0.10296069            3 
  526000    1.1914372   -2.4179661    628.26623  0.099535207   0.10293394            2 
  527000    1.1570049   -2.4107834    632.15652  0.099961499   0.10290762            1 
  528000    1.1659746   -2.3873314    633.59512  0.099999229   0.10288036            1 
  529000     1.160836   -2.4116389    631.42749  0.099468729   0.10285337            1 
  530000    1.1766279   -2.3906067    636.09534   0.10001499   0.10282628            4 
  531000     1.168024   -2.4047158    635.54441  0.099740176   0.10279765            1 
  532000    1.1557972   -2.3930021    635.40471  0.099530813   0.10276785            2 
  533000    1.1821375   -2.3734941    638.14732  0.099772876   0.10274028            2 
  534000     1.164856   -2.4109761     639.2158  0.099752778   0.10271156            2 
  535000    1.1677922   -2.4161839    639.29812  0.099579147   0.10268328            4 
  536000    1.1642191   -2.4324498    639.20683  0.099379172   0.10265632            2 
  537000    1.1673243    -2.432257    639.50509  0.099240392   0.10262835            1 
  538000    1.1827841   -2.3828165    641.21861  0.099321347    0.1026013            1 
  539000    1.1562285   -2.3969483    644.76729  0.099685728   0.10257516            1 
  540000    1.1856738   -2.3819926    645.10906  0.099553867   0.10255074            4 
  541000    1.1595338   -2.4154073    646.57023  0.099594921   0.10252519            3 
  542000    1.1457215   -2.4144265    647.97417  0.099627024    0.1025029            1 
  543000    1.1600482   -2.4232542     648.2905  0.099492096   0.10247865            2 
  544000    1.1712162   -2.3927738    651.45622  0.099794151   0.10245511            2 
  545000     1.167139     -2.41844    654.21116   0.10003229    0.1024316            2 
  546000     1.170364   -2.4066704    651.80426  0.099481725   0.10240846            1 
  547000     1.184655   -2.4244369    651.33527  0.099228408   0.10238515            2 
  548000    1.1644465   -2.3856543    656.40487  0.099818258   0.10236347            2 
  549000    1.1601394   -2.3833753      657.429  0.099791894    0.1023418            2 
  550000    1.1702048   -2.3881569    659.05453  0.099856747   0.10231885            2 
  551000    1.1841229   -2.4053635    658.54061  0.099597793    0.1022953            2 
  552000     1.160365   -2.4128461    660.17222   0.09966368   0.10227428            6 
  553000    1.1728055   -2.3870128    660.88469  0.099590821   0.10225453            1 
  554000     1.152158   -2.3922032    666.80525   0.10030163   0.10223551            1 
  555000    1.1548059   -2.4002159    663.58937  0.099638044   0.10221726            2 
  556000    1.1620657    -2.420521    670.28145   0.10046185   0.10219868            1 
  557000    1.1674142   -2.4070496    663.55634  0.099275336   0.10217923            3 
  558000    1.1483178   -2.3981931    670.11659   0.10007715    0.1021613            2 
  559000    1.1648416   -2.4070944    666.53069  0.099363549   0.10214273            1 
  560000     1.168543   -2.3982156    673.15907   0.10017248   0.10212623            1 
  561000    1.1474745   -2.3715566    673.27606    0.1000113   0.10210916       -1e+20 
  562000    1.1432384   -2.3753567    671.84765  0.099621538   0.10209222            1 
  563000    1.1883418   -2.3894821    672.94819  0.099607488    0.1020767            1 
  564000    1.1480386   -2.3992555    677.39172   0.10008743   0.10205991            2 
  565000    1.1670244   -2.3980812    676.46579  0.099773716    0.1020429            2 
  566000    1.1622219   -2.3886995    681.15371   0.10028765   0.10202488            1 
  567000    1.1495802   -2.4070597    677.34872  0.099551546   0.10200749            1 
  568000    1.1623057   -2.4096424    678.12883  0.099490732   0.10199047            2 
  569000    1.1689075   -2.4342068    681.27312   0.09977638   0.10197152            1 
  570000    1.1541491   -2.3995375    683.07857  0.099865288   0.10195271            1 
  571000    1.1609018   -2.4368496    686.81214   0.10023528   0.10193364            2 
  572000    1.1501351   -2.4257252    686.30122  0.099985608   0.10191451            1 
  573000    1.1746135   -2.4136607    683.68502  0.099430631   0.10189488            1 
  574000     1.158196   -2.4244919    684.66301  0.099399392   0.10187565            2 
  575000    1.1612125   -2.3764293    684.50577  0.099203734   0.10185477            2 
  576000    1.1418777   -2.3781713    690.05662   0.09983458   0.10183472            1 
  577000    1.1285477   -2.3922436    688.89842  0.099494284   0.10181432            2 
  578000    1.1711558   -2.4125321    687.80818  0.099164963   0.10179176            3 
  579000    1.1820294   -2.4034793    691.42894  0.099514816     0.101769            5 
  580000    1.1957428   -2.3970458    691.16225  0.099304921   0.10174745            3 
  581000    1.1818264   -2.4025851    691.17938  0.099136457   0.10172535            1 
  582000     1.165548   -2.3773908    693.37583  0.099280618   0.10170311       -1e+20 
  583000    1.1710953   -2.4165373     691.5977  0.098856161   0.10168105            2 
  584000     1.153255   -2.3806102     700.6893  0.099984203   0.10165885            1 
  585000    1.1530565   -2.3925465    697.16545  0.099311318   0.10163797            5 
  586000    1.1586773   -2.4020594    697.48455  0.099187222   0.10161393            3 
  587000    1.1901418   -2.3838128    698.01569  0.099093653   0.10159066            2 
  588000    1.1586752   -2.3884721    698.97115  0.099060537     0.101568            1 
  589000    1.1772368   -2.4211884    694.02168  0.098192088   0.10154473            2 
  590000    1.1581028    -2.402363    701.12027  0.099028287   0.10151996            1 
  591000    1.1463675   -2.4076939    700.64472  0.098793671   0.10149367            3 
  592000    1.1275571   -2.4165935    702.07674  0.098828369   0.10146817            1 
  593000    1.1815933   -2.3930345    704.30972  0.098975509   0.10144264            1 
  594000    1.1540128   -2.4124868    702.41994  0.098543763   0.10141766            2 
  595000    1.1682511   -2.3864507    708.26553  0.099196852   0.10139015            2 
  596000    1.1724335   -2.4116746      705.425   0.09863325   0.10136553            2 
  597000    1.1439101   -2.4058156    703.73205  0.098231721   0.10133942            1 
  598000    1.1656913   -2.4215097     706.4455  0.098445583   0.10131389            2 
  599000    1.1402021   -2.4096909    705.89969  0.098205299   0.10128814            3 
  600000    1.1535267   -2.4278315    714.34312  0.099214322   0.10126164            1 
  601000    1.1438917   -2.3940656     711.9201  0.098713269   0.10123734            2 
  602000    1.1579555   -2.4117688    708.79466  0.098116647   0.10120974            1 
  603000    1.1595039   -2.4291725    708.63131  0.097931358   0.10118271            3 
  604000    1.1548487   -2.4157894    713.39605  0.098426607   0.10115503            2 
  605000    1.1446351   -2.3780268    715.62592  0.098571063   0.10112766            1 
  606000    1.1653311   -2.4265477    713.59519  0.098129152   0.10110145            2 
  607000    1.1545761   -2.4103717    715.05122  0.098167383   0.10107616            4 
  608000    1.1696659   -2.4086069    720.39091   0.09873779   0.10105022            2 
  609000    1.1562963   -2.3995444    719.08308  0.098396699   0.10102469            2 
  610000      1.13497   -2.4197652    724.63212  0.098993458        0.101            3 
  611000    1.1272661   -2.4306718    720.98602  0.098334155   0.10097569            1 
  612000    1.1834291   -2.4209847    727.13967  0.099011393   0.10095061            1 
  613000     1.155597    -2.383954    727.82059   0.09894244   0.10092775            3 
  614000     1.170014   -2.4211419    724.73414  0.098362396    0.1009043            2 
  615000    1.2063959   -2.4044556    727.93681  0.098636424   0.10088166            2 
  616000    1.1602622   -2.4017482    728.47737  0.098549428   0.10086047            2 
  617000    1.1612574   -2.4117089    729.80136  0.098568524   0.10083863            2 
  618000    1.1368565    -2.457401    729.90018  0.098422354    0.1008152            2 
  619000    1.1618584   -2.4024584    727.90991  0.097995411    0.1007907            1 
  620000    1.1579201   -2.4233252    733.49512  0.098588053   0.10076663            1 
  621000    1.1746084   -2.4217548    737.54573  0.098972857   0.10074403            4 
  622000    1.1592032   -2.3981036    734.40573  0.098393051   0.10072089            1 
  623000     1.160144   -2.4134521    733.55409    0.0981212    0.1006984            3 
  624000    1.1623861   -2.3931745    739.23949  0.098723223   0.10067642            2 
  625000    1.1726479   -2.3925155    737.63174  0.098350899   0.10065527            2 
  626000    1.1406461   -2.4300154    738.40934  0.098297302   0.10063241            3 
  627000    1.1530514    -2.426578    740.76378  0.098453453   0.10061057            2 
  628000    1.1438053   -2.4165505    739.16233  0.098084174   0.10058803            1 
  629000     1.162848   -2.4215546    741.10403  0.098185484   0.10056561            1 
  630000    1.1558188   -2.4092813    741.16587  0.098037813   0.10054346            1 
  631000    1.1712141   -2.4321103    743.12732  0.098141485   0.10051938            2 
  632000    1.1652931   -2.4252891    744.64999  0.098186971   0.10049443            3 
  633000    1.1553788   -2.4238871    744.62462  0.098028517   0.10046883            2 
  634000    1.1649122    -2.406616    746.11635  0.098069972   0.10044268            2 
  635000    1.1594058   -2.4204228    745.02316  0.097772069   0.10041562            1 
  636000    1.1530123   -2.4526377    744.85557   0.09759638   0.10038816            1 
  637000    1.1544777   -2.4071926    746.03913  0.097598003   0.10036096            3 
  638000    1.1326351   -2.4131764    745.82494   0.09741705   0.10033487            3 
  639000    1.1410164   -2.3991024    750.93901  0.097931535   0.10030915            3 
  640000    1.1523631   -2.4234882    749.71366  0.097618965   0.10028418            3 
  641000    1.1481647   -2.4430954    750.97139  0.097630186   0.10025782            2 
  642000    1.1607745   -2.4192852     751.9011  0.097598793   0.10023173            1 
  643000    1.1498179   -2.4308493    752.12877  0.097476513   0.10020568            2 
  644000    1.1519827   -2.4038332    755.77335  0.097796758   0.10018149            1 
  645000    1.1634594   -2.4194573    754.93327  0.097536598   0.10015553            2 
  646000    1.1540083   -2.4108325    755.04473   0.09739999   0.10012992            2 
  647000    1.1578092   -2.4139736     756.1594   0.09739302   0.10010399            2 
  648000    1.1441361   -2.4054728    754.95527  0.097087869   0.10007726            2 
  649000    1.1425095   -2.4141028    756.62805  0.097153062   0.10004967            2 
  650000    1.1394955   -2.4026741    759.68483  0.097395492   0.10002215            2 
  651000    1.1337012   -2.4209976    758.32557  0.097071885  0.099996647            3 
  652000     1.137106   -2.4220432    765.62205  0.097855579  0.099969563            2 
  653000    1.1408927   -2.4124408     763.8139  0.097474975  0.099942481            1 
  654000     1.152436   -2.4131597    762.48027  0.097155997   0.09991487            1 
  655000    1.1591346   -2.4411654    762.65353  0.097029711  0.099887128            1 
  656000    1.1830037   -2.4397126    763.43264  0.096980773  0.099859694            2 
  657000    1.1735122   -2.4278682    762.18135  0.096674448  0.099832263            1 
  658000    1.1655179   -2.4238548    765.86076   0.09699351  0.099804182            1 
  659000    1.1229856   -2.4158219    766.03497  0.096868358  0.099776619            1 
  660000    1.1223333   -2.4175271    775.21108  0.097880187  0.099749253            1 
  661000    1.1324741   -2.4125643     772.4664  0.097386081  0.099722224            2 
  662000    1.1566142   -2.4656605    769.69223  0.096889756  0.099694382            1 
  663000    1.1696048   -2.4367878      768.976  0.096653595  0.099666857            1 
  664000    1.1289075   -2.4496249    772.87679  0.096997589  0.099640943            1 
  665000    1.1513743   -2.4260325    773.64849  0.096948433  0.099615244            2 
  666000    1.1425328   -2.4390657    777.70975   0.09731103  0.099591004            1 
  667000    1.1359614   -2.4122472    779.44854  0.097382376  0.099566593       -1e+20 
  668000     1.143224    -2.418587    780.80968  0.097406397  0.099540537            1 
  669000    1.1290466   -2.4307757    779.76945  0.097131222  0.099517149            2 
  670000    1.1583646   -2.4183727    783.64845  0.097468713  0.099493992            3 
  671000    1.1431755   -2.4283558    784.14087  0.097384609  0.099470786            4 
  672000    1.1344463   -2.4313074    786.63195  0.097548605  0.099448538            1 
  673000    1.1216555   -2.4441065    788.57095  0.097643754  0.099425711            2 
  674000    1.1470067   -2.4354115    785.74509  0.097149492  0.099403966            1 
  675000    1.1243422    -2.425019    790.14863  0.097549214  0.099382866            2 
  676000    1.1531799   -2.4242446    788.26228  0.097172371  0.099361115            1 
  677000    1.1531121   -2.4583649    787.92712  0.096987582  0.099337412            1 
  678000    1.1798367    -2.459075    789.60406  0.097050646  0.099313901            2 
  679000    1.1328727   -2.4063569    795.34529  0.097612333  0.099290148            1 
  680000    1.1392365    -2.431525    789.79525  0.096788633  0.099266516            3 
  681000    1.1571258   -2.4317494    796.58779  0.097477704  0.099242811            2 
  682000    1.1417144   -2.3987323    794.18287  0.097040917  0.099220914            2 
  683000    1.1386879   -2.4435004    793.91423   0.09686606  0.099199744            2 
  684000    1.1110679   -2.4451582    793.17107  0.096633902  0.099177882            2 
  685000     1.134441   -2.4295809    794.36398  0.096637953  0.099155866            4 
  686000    1.1468056   -2.4186626    801.52523   0.09736701  0.099134309            1 
  687000    1.1424179   -2.4292966    800.92961  0.097153034  0.099112947            2 
  688000    1.1439049   -2.3974699     804.1766  0.097405111  0.099090878            2 
  689000    1.1523565   -2.4102758    803.23506  0.097149862  0.099071015            1 
  690000    1.1525314   -2.4120589    811.50441  0.098007779  0.099052126            2 
  691000    1.1508584   -2.4469938    806.45704  0.097257241  0.099033878            2 
  692000    1.1282851   -2.3996548    811.08833  0.097674413  0.099015341            2 
  693000    1.1423173   -2.4354775    808.68899  0.097244948  0.098996395            2 
  694000    1.1356176   -2.4152131    815.38685  0.097909084  0.098978533            1 
  695000    1.1642725   -2.4285438    813.04464  0.097487366   0.09896057            7 
  696000    1.1357022   -2.4284303     812.3353  0.097262368  0.098942053            1 
  697000    1.1154812   -2.4238173    814.37314  0.097366468  0.098923847            2 
  698000     1.144145   -2.4228716    815.02124   0.09730435  0.098905391            1 
  699000    1.1362359    -2.457713    818.94637  0.097633092  0.098888125            2 
  700000    1.1594183   -2.4140449    819.06002  0.097507145  0.098871317            1 
  701000    1.1574499   -2.4570815    820.88479  0.097584973  0.098854291            1 
  702000    1.1478205   -2.4574977    822.10599   0.09759093  0.098838004            1 
  703000    1.1508085   -2.4170083     822.1122  0.097452845   0.09882115            2 
  704000     1.143862   -2.4362994    824.21537  0.097563372   0.09880374            1 
  705000    1.1312076   -2.4202945    828.21285    0.0978975  0.098787912            2 
  706000    1.1471647   -2.4406953    827.24327   0.09764439  0.098771056            1 
  707000    1.1226076   -2.4015185     828.5049  0.097654986  0.098754849            1 
  708000    1.1468753   -2.4395737     827.1944  0.097362807  0.098737443            2 
  709000    1.1329428   -2.4347399    827.86344  0.097304118  0.098721117            3 
  710000    1.1343277   -2.4366505    829.12246  0.097314843  0.098703756            1 
  711000    1.1416713   -2.4281354    832.48536  0.097572124  0.098685158            1 
  712000    1.1300756   -2.3873612    833.98695  0.097610832   0.09866826            1 
  713000    1.1282715   -2.4193383    831.17673   0.09714548  0.098652555            1 
  714000    1.1642183   -2.4338868    834.29185  0.097372998  0.098635522            3 
  715000    1.1465709   -2.4392944    836.30928  0.097471944  0.098620089            1 
  716000    1.1461238   -2.4309473    838.90675  0.097638122  0.098604193            2 
  717000    1.1176657   -2.4488498    838.87631  0.097498409  0.098588745            1 
  718000    1.1524659   -2.4472327    837.40528  0.097191885  0.098572894            2 
  719000    1.1334327   -2.4530742     837.2432  0.097037922   0.09855662            2 
  720000    1.1437704   -2.4288856    841.23628   0.09736531  0.098541362            2 
  721000    1.1503295   -2.4493436    840.08853  0.097097611  0.098525288            4 
  722000    1.1536729    -2.417951    843.39893  0.097345214  0.098508436            1 
  723000     1.133345   -2.4425837    841.77275  0.097023139  0.098492436            3 
  724000     1.129912   -2.4517762    848.21567  0.097630717  0.098478062            1 
  725000    1.1294025   -2.4415242    849.53769  0.097648011  0.098463546            6 
  726000    1.1410326   -2.4272466    845.64093  0.097066223  0.098451174            2 
  727000    1.1198741   -2.4257241    848.82434  0.097297608   0.09843815            2 
  728000    1.1505143   -2.4402772    853.70577  0.097722731  0.098425307            1 
  729000    1.1464547   -2.4271257    853.78602  0.097597853  0.098410769            2 
  730000    1.1906238    -2.422138    851.03459  0.097150068  0.098396501            2 
  731000    1.1299244   -2.4251714    854.48293  0.097410275  0.098382188            1 
  732000    1.1188789   -2.4568619    853.54635  0.097170577  0.098369235            3 
  733000    1.1367779   -2.4177886    858.71549   0.09762568  0.098356567            2 
  734000    1.1317106   -2.4289343    858.04417  0.097416458  0.098343527            1 
  735000    1.1457118   -2.4383596    859.20554  0.097415594  0.098330627            2 
  736000    1.1409623   -2.4083428    859.30816  0.097294855    0.0983168            2 
  737000    1.1427301   -2.4311168    862.57209  0.097531896  0.098304098            1 
  738000    1.1291703   -2.4301098    861.12906  0.097236796  0.098291391            2 
  739000    1.1698486   -2.4348875     864.2345  0.097455401   0.09827952            4 
  740000    1.1284105   -2.4574254    861.84524  0.097054644  0.098268021       -1e+20 
  741000    1.1070068   -2.4379915     869.6007   0.09779585  0.098256106            3 
  742000    1.1307867   -2.4222423    866.58068  0.097324874  0.098244813            1 
  743000    1.1507043   -2.4135891    873.83165  0.098007138  0.098234397            2 
  744000    1.1232723   -2.4157825    871.87485  0.097656234  0.098223654            1 
  745000    1.1464486    -2.463102    872.00455  0.097539658   0.09821241            1 
  746000     1.121442   -2.4369892    871.97055   0.09740511  0.098200376            2 
  747000    1.1432556   -2.4140637    867.68627  0.096796773  0.098186101            2 
  748000    1.1517869   -2.4380202    872.35111  0.097187067   0.09817224            1 
  749000    1.1254564   -2.4445951    875.34837  0.097390785  0.098158478            2 
  750000    1.1288868   -2.4367862    871.93649  0.096881832  0.098145643            2 
  751000    1.1148478   -2.4468342    874.95203  0.097087442  0.098131864            1 
  752000      1.13111    -2.426881    879.54844  0.097467691  0.098117148            1 
  753000    1.1675009   -2.4499945    871.33292  0.096429053   0.09810169            1 
  754000    1.1333333   -2.4174445     879.7226  0.097228404  0.098085891            1 
  755000    1.1325638   -2.4310254    882.10978   0.09736311  0.098072418            1 
  756000    1.1275725   -2.4395962    883.31266  0.097366916  0.098058145            3 
  757000    1.1372208   -2.4360189    883.47755  0.097256446  0.098044316            4 
  758000    1.1205006   -2.4531781    884.55202  0.097246265  0.098031486            2 
  759000    1.1372648   -2.4452807    882.86653  0.096933084  0.098017791            4 
  760000    1.1205194    -2.444788    889.67226  0.097551783   0.09800384            3 
  761000    1.1511246   -2.4109008    890.34703  0.097497485  0.097991486            1 
  762000    1.1514605   -2.4274951    889.77948  0.097307467  0.097979254            2 
  763000    1.1362291   -2.4426477    889.40008  0.097138497  0.097966648            1 
  764000    1.1376363    -2.433844    888.89246  0.096955984  0.097952825            2 
  765000    1.1221865   -2.3964029    895.36501  0.097534314  0.097940349            2 
  766000    1.1556539   -2.4353166     889.9416  0.096816971  0.097926792            2 
  767000    1.1036034   -2.4272787    891.97316  0.096911469  0.097913234            3 
  768000    1.1381703   -2.4557351    894.35148  0.097043346  0.097900536            3 
  769000    1.1249323     -2.43805    891.94995  0.096656909  0.097886135            2 
  770000     1.147818   -2.4690065     892.8565  0.096629491  0.097872312            2 
  771000    1.1380353   -2.4460211    896.61411  0.096910301  0.097859637            1 
  772000    1.1218634   -2.4360709     898.4655  0.096984617   0.09784693            2 
  773000     1.126455   -2.4375537    900.28737   0.09705556  0.097835539            2 
  774000    1.1495587   -2.4460604    902.71973  0.097192046  0.097822962            2 
  775000    1.1267639   -2.4442134    903.28091   0.09712698  0.097810116            2 
  776000    1.1239443   -2.4624071    900.07734   0.09665779  0.097796603            2 
  777000    1.1079218   -2.4032469    903.83425   0.09693632  0.097783635            1 
  778000    1.1116832   -2.4387902    904.68381  0.096902721  0.097770603            1 
  779000    1.1227376   -2.4410156    906.49465  0.096972042   0.09775693            2 
  780000     1.152583   -2.4308247    902.87379  0.096460875  0.097743999            2 
  781000    1.1429112   -2.4363978    907.43353  0.096823893  0.097730856            1 
  782000    1.1395382   -2.4507454     910.0356  0.096977366   0.09771668            2 
  783000     1.132363   -2.4508099    907.73327  0.096608479  0.097702736            1 
  784000    1.1258747   -2.4401093    909.65972  0.096690021  0.097689174            1 
  785000    1.1189412   -2.4531807    918.03331  0.097455765  0.097676626            4 
  786000    1.1211261   -2.4428321    915.15725   0.09702685  0.097663292            1 
  787000    1.1245699   -2.4291652    916.19502   0.09701345  0.097650901            2 
  788000    1.1308894   -2.4248552    916.92973  0.096968034  0.097638698            2 
  789000    1.1461384   -2.4722675    917.42607  0.096897557  0.097626017            2 
  790000    1.1209713   -2.4552835    919.30784  0.096973401  0.097613424            1 
  791000     1.142196   -2.4363003    921.02687  0.097031908   0.09760085            2 
  792000    1.1483877   -2.4228581    919.84629  0.096785174  0.097588445            1 
  793000    1.1305846   -2.4469349    923.45631  0.097042487  0.097576602            2 
  794000    1.1444806   -2.4763404    924.29846  0.097008655  0.097564498            2 
  795000    1.1249549    -2.446926    927.40589  0.097212357  0.097551471            5 
  796000    1.1398745   -2.4514435    926.14079  0.096957787  0.097540386            2 
  797000    1.1647535   -2.4303296    927.57218  0.096985799  0.097529386            3 
  798000    1.1184371   -2.4552759    930.15387  0.097133862  0.097518159            2 
  799000    1.0945004   -2.4607218    928.41525  0.096830961  0.097506528            4 
  800000    1.1011266    -2.476312     929.3146  0.096803604  0.097495596            2 
  801000    1.1438507    -2.458027    930.99118  0.096857177  0.097484665            2 
  802000    1.1450792   -2.4299245    933.00181  0.096945326  0.097474456            3 
  803000    1.1392407   -2.4667711    934.26328  0.096955508   0.09746393            1 
  804000    1.1241833   -2.4300133     932.1839  0.096619393  0.097452663            1 
  805000    1.1243467   -2.4694632    935.92926  0.096887087  0.097442873            1 
  806000    1.0969029   -2.4313192    936.46751   0.09682253  0.097431886            1 
  807000    1.1262329   -2.4378814    939.41826  0.097007255  0.097420374            2 
  808000    1.1053102   -2.4884855    937.83313  0.096723714  0.097410052            2 
  809000    1.1077383   -2.4596985    937.13122  0.096531852   0.09739855            4 
  810000    1.1346977   -2.4479056    937.08714  0.096408142  0.097387013            1 
  811000    1.1284614   -2.4485638    940.20169  0.096609298  0.097374853            3 
  812000    1.1187001   -2.4580134    941.90107  0.096664724  0.097362036            1 
  813000    1.1358645   -2.4388641    942.61565   0.09661907  0.097349325            3 
  814000    1.1231802   -2.4607073    941.47419  0.096383517  0.097336841            3 
  815000     1.135634   -2.4490585    947.83486   0.09691563  0.097325397            2 
  816000    1.1287215   -2.4373027    951.34415  0.097155244  0.097314778            2 
  817000    1.1152725   -2.4572085    949.92254  0.096891324   0.09730344            1 
  818000    1.1098511   -2.4518655     950.3578  0.096817217  0.097293298            2 
  819000    1.1141321   -2.4349541    949.04991  0.096565925  0.097282884            2 
  820000    1.1203942    -2.462514    953.83163  0.096934109  0.097271561            4 
  821000    1.0964887   -2.4551748    955.51776  0.096987187  0.097260441            1 
  822000    1.1257854   -2.4654835    953.84671  0.096699788  0.097250688            2 
  823000    1.1156185   -2.4582217    955.40914  0.096740496  0.097240038            1 
  824000    1.1097831   -2.4446648     956.6253  0.096746086  0.097229915            1 
  825000    1.1175167   -2.4324365      955.985  0.096564141  0.097218621            1 
  826000     1.130135   -2.4763166    958.86167  0.096737457  0.097206908            2 
  827000    1.1321045   -2.4729963     955.9229  0.096324355  0.097196067            1 
  828000    1.1368376   -2.4630942     962.6085  0.096880887  0.097185014            2 
  829000    1.1082032    -2.441728    959.30656  0.096432102   0.09717329            4 
  830000    1.0915385   -2.4352063    964.28289  0.096815552  0.097161765            2 
  831000    1.1287268   -2.4592037    963.02076  0.096572478  0.097150435            3 
  832000    1.0998807   -2.4838342    964.29576   0.09658411  0.097138616            2 
  833000    1.1172649   -2.4518479    962.69399  0.096307922  0.097126343            2 
  834000    1.1341591   -2.4323901    970.44449  0.096966875  0.097114397            4 
  835000    1.1193391   -2.4396954    965.93947  0.096401144  0.097103881            2 
  836000     1.129181   -2.4610392     969.4324  0.096634011   0.09709217            1 
  837000    1.1098851   -2.4920357    965.89935  0.096166801  0.097080048            3 
  838000    1.1133156    -2.429483    974.04137  0.096861712  0.097068581            4 
  839000    1.1418166   -2.4459461    972.60262   0.09660336   0.09705785            2 
  840000    1.1152268   -2.4701128     971.8671  0.096415386  0.097046807            2 
  841000    1.0970476   -2.4560412    975.10421  0.096621503  0.097036693            4 
  842000    1.1072155    -2.465814    977.49075  0.096742948  0.097026107            2 
  843000    1.1145235   -2.4516896    977.87308  0.096665982  0.097017009            2 
  844000    1.1405715   -2.4310742    981.09353  0.096869424  0.097007388            1 
  845000    1.1189889    -2.443185    982.84209  0.096927227  0.096997698            1 
  846000    1.1182524   -2.4553112    982.73809  0.096802412  0.096988268            1 
  847000    1.1233973   -2.4385078    983.02742   0.09671659  0.096978313            1 
  848000    1.1255022    -2.450657    982.81952  0.096582107  0.096967485            3 
  849000    1.0993236   -2.4616591    983.59677  0.096544638  0.096957535            1 
  850000    1.0955027   -2.4515625    984.69789  0.096539008  0.096947755            2 
  851000    1.1063696   -2.4258299    985.35961  0.096490365  0.096938734            1 
  852000    1.1367954   -2.4452124    991.90676  0.097017484  0.096930014            1 
  853000      1.10435   -2.4677232    990.68168  0.096784064    0.0969202            3 
  854000    1.1010027   -2.4808962    988.61682  0.096469245  0.096911242            5 
  855000    1.1034739   -2.4376162    989.15919  0.096409278  0.096901623            3 
  856000    1.1132243   -2.4767632    989.05527  0.096286533  0.096891691            4 
  857000    1.1266376   -2.4480489    993.84929  0.096640343  0.096883379            1 
  858000    1.1189946   -2.4587932     995.7307  0.096710441  0.096875077            3 
  859000     1.120328   -2.4516115    1001.4137  0.097149177   0.09686671            1 
  860000    1.1273887   -2.4529478    1000.6038  0.096957729  0.096857727            1 
  861000    1.0876186   -2.4329788    1001.9113  0.096971675  0.096849308            1 
  862000    1.1101985   -2.4461763    999.60645  0.096636354   0.09684067            2 
  863000    1.1278021   -2.4758702    999.69806  0.096533224  0.096831685            2 
  864000    1.1204216   -2.4973629    996.88264  0.096149946  0.096822466            1 
  865000     1.122217   -2.4340245    1004.5944  0.096781738  0.096813699            2 
  866000    1.1078442   -2.4476245    1006.7936  0.096881604  0.096804729            2 
  867000    1.1060046   -2.4643856    1001.4701  0.096258176  0.096795976            3 
  868000    1.1030985    -2.452115    1006.2737  0.096608458  0.096786567            1 
  869000    1.0948309   -2.4625434    1008.9178   0.09675084  0.096777028            2 
  870000    1.1096301   -2.4547594    1008.2136  0.096572185  0.096768096            2 
  871000    1.1161491   -2.4613648     1006.417  0.096289422  0.096758021            1 
  872000    1.1270373   -2.4440168    1008.8213  0.096408767  0.096748254            2 
  873000    1.1039463   -2.4590059    1008.7933  0.096295653   0.09673782            1 
  874000      1.11101     -2.45055    1009.1873  0.096223046  0.096727352            3 
  875000    1.1125653   -2.4773857    1013.5068  0.096524454  0.096717389            2 
  876000    1.1270031   -2.4837036    1010.3557  0.096114508   0.09670775            1 
  877000    1.1003518   -2.4612117    1010.5536  0.096023718  0.096697861            2 
  878000    1.1152528   -2.4632582    1018.6853   0.09668615  0.096688522            1 
  879000    1.1126517   -2.4511392    1019.5729  0.096660309  0.096679346            5 
  880000    1.0840071   -2.4637648    1020.3211  0.096621317  0.096669688            2 
  881000    1.0981689   -2.4752259    1017.2755  0.096223564  0.096660483            3 
  882000    1.1237974   -2.4610929    1020.2624  0.096396675  0.096651743            1 
  883000    1.1280456   -2.4677122    1020.2191  0.096283419  0.096644141            1 
  884000    1.0994055   -2.4682305    1025.1287  0.096637323  0.096635692            3 
  885000    1.1231629   -2.4690694    1023.3145  0.096357302  0.096627246            2 
  886000    1.1041444   -2.4766958    1024.3159  0.096342733  0.096618056            2 
  887000    1.1368857   -2.4862894    1027.3909  0.096523008  0.096608964            2 
  888000    1.1082202   -2.4650903    1023.8069  0.096077973  0.096599928            3 
  889000    1.1089057   -2.4858022    1024.5722  0.096041635  0.096590023            2 
  890000    1.1296946   -2.4392489    1023.5502  0.095838032  0.096579243            1 
  891000    1.1297741   -2.4734059    1024.3119  0.095801709  0.096567655            2 
  892000    1.1053144   -2.4640535    1028.1491  0.096052791  0.096557358            3 
  893000    1.0944267   -2.4490818    1030.5737  0.096171489  0.096546435            1 
  894000     1.123879   -2.4671722    1030.8091  0.096085859   0.09653457            2 
  895000    1.1074742   -2.4695101    1033.6927  0.096246996  0.096524588            2 
  896000    1.0865484   -2.4529791    1035.3132  0.096290292  0.096514115            2 
  897000    1.1223588   -2.4497262    1033.4289   0.09600789  0.096503649            1 
  898000    1.1008715   -2.4668912    1032.3689  0.095802603  0.096494054            2 
  899000    1.0805016   -2.4724236    1034.8759  0.095928433  0.096483855            2 
  900000    1.1109267   -2.4687332     1037.276  0.096044076  0.096473045            1 
  901000    1.0994732   -2.4234067    1040.0883  0.096197585  0.096464039            2 
  902000    1.1175194   -2.4888198    1043.6872  0.096423431  0.096455191            2 
  903000    1.1005067   -2.4809311    1040.4788  0.096020563  0.096446048            3 
  904000    1.1166236   -2.4590775    1046.7257  0.096490202  0.096437717            2 
  905000    1.1023709   -2.4742512    1045.9055  0.096308059  0.096429421            3 
  906000    1.1249248   -2.4773427    1045.0812  0.096125941  0.096420155            2 
  907000    1.1092463   -2.4589639    1049.0151  0.096381396   0.09641023            1 
  908000    1.1131126   -2.4846988     1050.514  0.096412816  0.096401403            3 
  909000     1.120902   -2.4872534    1050.2695  0.096284333  0.096392781            7 
  910000    1.1112164   -2.4807211    1053.5307  0.096477173  0.096384039            3 
  911000    1.0967663   -2.4375471    1051.5488  0.096189971  0.096374325            1 
  912000    1.1257142   -2.4924753    1045.1174  0.095496835  0.096364715            2 
  913000    1.0859984   -2.4385697    1055.5672  0.096346041  0.096356137            2 
  914000    1.1150397   -2.4714417    1060.9043  0.096727233  0.096346958            2 
  915000    1.1124666   -2.4721105    1057.6954  0.096329272  0.096337696            1 
  916000    1.0989494   -2.4514651    1061.1474  0.096538156  0.096329703            1 
  917000    1.1133977   -2.4652572    1058.1346  0.096159091  0.096321518            3 
  918000    1.1036293   -2.4894703     1061.136  0.096326799  0.096312509            1 
  919000    1.1323311   -2.4521355    1062.3842  0.096335166  0.096304791            2 
  920000     1.113345   -2.4714574    1062.8483   0.09627249  0.096296355            1 
  921000    1.1225799   -2.4605555    1063.1641  0.096196532  0.096288322            1 
  922000    1.1148353   -2.4760073    1064.1386  0.096180277  0.096281158            1 
  923000    1.1160928   -2.4868571    1064.2846  0.096089252  0.096273137            1 
  924000    1.0996393   -2.4509415    1070.8058  0.096573396  0.096265296            1 
  925000    1.0852552   -2.4953898    1064.9629  0.095942607  0.096257904            4 
  926000    1.1082489    -2.483944    1072.0508   0.09647685  0.096249669            2 
  927000    1.1037635   -2.4463544    1077.3397  0.096848228  0.096242229            1 
  928000    1.1037225    -2.468082    1071.6313  0.096231261   0.09623393            2 
  929000    1.0974585   -2.4771443    1067.8292  0.095786617  0.096225288            3 
  930000     1.114705     -2.48519    1071.9289  0.096050974  0.096216984            2 
  931000    1.1110835   -2.4586938    1072.9682  0.096040836  0.096208762            2 
  932000    1.0560526   -2.4809651    1072.0095  0.095852066  0.096199649            2 
  933000    1.1182681   -2.4476163    1078.5655  0.096334894   0.09619153            1 
  934000    1.0779225   -2.5086094    1071.5794   0.09560844  0.096183308            3 
  935000    1.1016386   -2.4666617    1076.0924  0.095908416  0.096174116            1 
  936000    1.1032092   -2.4719284    1078.8229  0.096049044  0.096165748            1 
  937000    1.1042447   -2.4909664     1079.372  0.095995373  0.096157235            3 
  938000    1.1224454   -2.4959448    1083.0745  0.096221969  0.096148654            1 
  939000    1.0896035   -2.4694301    1084.6076  0.096255555   0.09614069            2 
  940000    1.1179819   -2.4780859    1086.0771  0.096283433  0.096132282            1 
  941000    1.1150112   -2.4910359    1084.9484  0.096081156  0.096123543            2 
  942000    1.1201154   -2.4717211    1086.5981  0.096125094  0.096115108            1 
  943000    1.0870336   -2.4666899     1095.769  0.096833598  0.096106764            2 
  944000    1.0795073   -2.4714226    1083.2631  0.095627036  0.096098424            1 
  945000    1.0713685   -2.4877292    1088.3359  0.095973187  0.096089456            2 
  946000    1.1175196    -2.464434     1096.535  0.096593997  0.096080704            1 
  947000    1.0984209   -2.4535282    1092.4051  0.096128575  0.096072648            2 
  948000    1.0885993     -2.49315    1088.8513  0.095714777  0.096064702            1 
  949000    1.0984964   -2.4571104    1094.4561  0.096106081   0.09605638            3 
  950000    1.1003393   -2.4647842    1097.5221  0.096273872  0.096048936            2 
  951000    1.1044913   -2.4859891    1096.9724  0.096124469  0.096042464            1 
  952000    1.0917935    -2.492216     1100.006  0.096289043  0.096035739            1 
  953000    1.0984398   -2.4550627    1104.9028  0.096616192  0.096029776            2 
  954000    1.0726357   -2.4805577    1103.4734  0.096390061  0.096023843            3 
  955000    1.1122767   -2.4812888    1100.6419   0.09604205  0.096017703            2 
  956000    1.1116106   -2.4571682    1105.3494  0.096351937  0.096011488            2 
  957000    1.0611963   -2.4703453      1107.01  0.096395854  0.096005499            2 
  958000    1.0769138   -2.4995281    1107.3298  0.096323056  0.095999281            2 
  959000    1.1006751   -2.4604288    1111.4764  0.096582935  0.095993352            2 
  960000    1.0756553   -2.4821436    1105.6171   0.09597371  0.095987029            3 
  961000    1.1147475   -2.4861916    1106.3147  0.095934334   0.09598125            1 
  962000    1.1027886   -2.4557112    1114.7793  0.096567857  0.095975932            1 
  963000    1.1009813    -2.481036    1113.5085  0.096357607   0.09596991            2 
  964000    1.0962532   -2.4703751    1115.5485  0.096433998  0.095964619            4 
  965000    1.0775039   -2.4590374    1116.4702  0.096413663  0.095958518            2 
  966000    1.1215989   -2.4977523     1114.262  0.096123362  0.095952958            2 
  967000    1.1150988   -2.4842396    1117.0418  0.096263515  0.095947032            1 
  968000    1.0817004   -2.4874872    1118.5744  0.096296005  0.095940626            3 
  969000     1.081343   -2.4606662    1119.0137  0.096234404  0.095935876            2 
  970000    1.0900295   -2.4542192     1122.902  0.096469245  0.095930903            2 
  971000    1.0889833   -2.4691667    1122.1312  0.096303741  0.095926128            2 
  972000    1.0714974   -2.4830122    1120.3667  0.096053383   0.09592141            2 
  973000    1.1091577   -2.4733494     1122.313   0.09612136  0.095916664            2 
  974000    1.0841142   -2.4814197    1123.1652  0.096095583  0.095911181            3 
  975000    1.0962148   -2.4541734     1133.553  0.096884871  0.095906783            2 
  976000     1.097979   -2.4995875    1132.7727  0.096718984  0.095903238            2 
  977000    1.1080321   -2.4591781    1131.5255  0.096513601   0.09589923            2 
  978000    1.0627167   -2.4504062    1135.1909  0.096727245  0.095894603            2 
  979000    1.1096845   -2.4698693    1132.2075  0.096374486   0.09589004            3 
  980000    1.0902115   -2.4950933     1135.409   0.09654838  0.095885559            3 
  981000    1.1073951   -2.4660107     1136.493  0.096542053  0.095882376            1 
  982000    1.0919944   -2.4863654    1140.0314  0.096744011  0.095879224            2 
  983000    1.0698233   -2.4507358    1142.4444  0.096850149  0.095876476            1 
  984000    1.1161283   -2.4755614    1136.7798  0.096272001  0.095871287            2 
  985000    1.1034275   -2.4803073    1140.7966  0.096514095  0.095866298            1 
  986000    1.0919333   -2.4660544    1139.8138  0.096333145  0.095861298            2 
  987000    1.1056901   -2.4808097    1138.9761  0.096164816  0.095856165            2 
  988000    1.1057815   -2.4940998    1144.3336  0.096519362  0.095850535            3 
  989000    1.1001018   -2.5124766     1138.219  0.095906554  0.095845006            1 
  990000    1.0966823   -2.4545344    1143.5126  0.096255271   0.09583965            4 
  991000     1.068278    -2.460703    1149.8494  0.096691005  0.095834137            2 
  992000    1.0631033   -2.4970524    1143.6522  0.096072931  0.095828639            1 
  993000    1.1039009   -2.4835071    1142.9223  0.095914932  0.095821984            2 
  994000    1.1013288   -2.4916293    1148.7545  0.096307389  0.095815734            1 
  995000     1.099824    -2.476447    1149.7018  0.096289931  0.095810282            1 
  996000    1.1049851   -2.4730921    1148.1678  0.096064909  0.095803948            1 
  997000    1.1028576   -2.4829993    1145.3367  0.095731918  0.095796967            3 
  998000    1.0964275   -2.4719169    1149.9712  0.096022978  0.095789867            1 
  999000     1.100376   -2.4937038    1154.2216  0.096281416   0.09578259            3 
 1000000    1.1005738   -2.4407223    1157.9029  0.096491912  0.095776773            1 
 1001000    1.1029005   -2.4779026    1151.3292  0.095848255   0.09577139            3 
 1002000    1.1109488    -2.488127    1150.7724  0.095706288  0.095765794            3 
 1003000    1.0671059   -2.4693566    1154.8907  0.095953034    0.0957604            2 
 1004000    1.1139613   -2.4514462    1161.4685  0.096403431  0.095755901            4 
 1005000    1.0981616   -2.4551534    1155.6269  0.095823129  0.095751048            2 
 1006000     1.098378   -2.4874826    1156.3695  0.095789389   0.09574525            1 
 1007000    1.0736192   -2.4700765    1163.4214  0.096277837  0.095739057            2 
 1008000    1.0976386   -2.4486145    1166.6659  0.096450556  0.095732862            2 
 1009000    1.0881819   -2.4686425    1162.2118    0.0959871  0.095727226            4 
 1010000    1.0912243   -2.4730398    1161.1976  0.095808386  0.095721385            1 
 1011000    1.0861273   -2.4816957    1169.8798  0.096429259  0.095716219            1 
 1012000     1.099543   -2.4837316    1164.5769  0.095897304  0.095710738            2 
 1013000     1.065387   -2.5082713    1170.4284   0.09628401  0.095705002            1 
 1014000    1.0931956   -2.5030148    1167.7292  0.095967223  0.095699136            4 
 1015000    1.0698991   -2.5175003    1167.7888  0.095877571  0.095692699            2 
 1016000    1.0864139   -2.5011509    1171.4786  0.096085845  0.095686189            1 
 1017000    1.0942669   -2.4832094    1175.8138  0.096346595  0.095680073            2 
 1018000    1.0588445   -2.4976226    1165.8522  0.095436494   0.09567373            3 
 1019000    1.0896341   -2.4950731    1173.7485  0.095988596  0.095666681            2 
 1020000    1.1197999   -2.4977919    1175.2038  0.096013383  0.095660628            1 
 1021000    1.0908638   -2.4802503    1169.1711  0.095426959  0.095653526            2 
 1022000    1.0897456   -2.4786378    1169.5189  0.095361942  0.095646157            3 
 1023000    1.0769888   -2.4964844    1173.5856  0.095600004  0.095638356            1 
 1024000    1.0919956   -2.4913099    1173.3102  0.095484224  0.095630744            1 
 1025000    1.1090246   -2.4719541    1181.9642  0.096094654  0.095622751            2 
 1026000    1.1003398   -2.4783346    1177.8944  0.095670432  0.095615585            1 
 1027000    1.0940377   -2.4985645    1174.5239  0.095303792  0.095607267            3 
 1028000    1.0948921   -2.4889559    1176.5781  0.095377599  0.095598957            4 
 1029000    1.0742156   -2.4917571    1180.6415  0.095613985  0.095591047            2 
 1030000    1.1023813   -2.5188755       1179.5  0.095428806  0.095582866            3 
 1031000    1.0923595   -2.4831707    1184.9125  0.095773724  0.095574811            1 
 1032000    1.1080468   -2.4589183    1184.3903  0.095638748  0.095568072            1 
 1033000    1.0743924   -2.4941109    1179.2026  0.095127666  0.095559975            4 
 1034000    1.0954374   -2.4819784    1185.3617  0.095532054  0.095552643            1 
 1035000    1.0802958   -2.5136287    1183.6529  0.095302163  0.095544664            6 
 1036000       1.0931   -2.4766494    1181.9437   0.09507269  0.095536705            3 
 1037000    1.0947749   -2.4726728    1189.2714  0.095569865  0.095529128            5 
 1038000    1.0987072   -2.5072071    1183.8751  0.095044562  0.095521729            2 
 1039000    1.0890379   -2.5175285     1191.305  0.095549003  0.095515067            5 
 1040000    1.0900027   -2.4751152    1189.4247  0.095306464  0.095507133            2 
 1041000    1.0960854   -2.5047067    1190.8058   0.09532547   0.09549918            1 
 1042000    1.0636166   -2.4953643     1194.691  0.095544705  0.095491148            4 
 1043000    1.0560548   -2.4904985    1191.4433  0.095193616  0.095483344            3 
 1044000    1.0787704   -2.5140809    1194.1697  0.095320058  0.095475296            2 
 1045000    1.0965587   -2.4845159     1194.313  0.095240274  0.095466908            1 
 1046000    1.0807377   -2.4742395    1196.9171  0.095356683  0.095458737            3 
 1047000    1.0542236   -2.4701521     1193.069  0.094959326  0.095450351            3 
 1048000    1.0891653   -2.4948357    1196.3174  0.095127023  0.095442491            2 
 1049000    1.0927231   -2.4695839    1203.2085   0.09558377  0.095433064            2 
 1050000    1.0876313   -2.4943806    1199.7736  0.095220125  0.095424331            2 
 1051000    1.0985208   -2.4859111    1202.7753  0.095367531  0.095415503            1 
 1052000    1.0835814   -2.4886876    1202.8916  0.095286092  0.095406196            5 
 1053000    1.0847596   -2.4952361    1198.0096  0.094809241  0.095397966            2 
 1054000    1.0542426   -2.4769199    1205.6082  0.095320066  0.095388657            1 
 1055000    1.1027861   -2.4934494    1204.8112  0.095166764  0.095379346            1 
 1056000    1.1111227   -2.4718666    1206.9309  0.095243915  0.095370769            1 
 1057000    1.0972128   -2.4787991    1205.8771  0.095070726  0.095362519            1 
 1058000    1.0834755   -2.4925832    1204.6035  0.094880553  0.095354328            1 
 1059000    1.0637682   -2.4978578    1208.6606  0.095110215  0.095346161            2 
 1060000    1.0907829   -2.4937977    1206.5205  0.094852242  0.095338121            1 
 1061000    1.0915608   -2.5112266    1209.4248  0.094990956  0.095329139            2 
 1062000    1.0753391   -2.5139544    1213.0756   0.09518798   0.09532031            2 
 1063000    1.0835985   -2.4690482     1214.957  0.095245927  0.095311858            2 
 1064000    1.0896066   -2.5036485     1213.272  0.095024433   0.09530365            2 
 1065000    1.0722135   -2.4976046    1213.2643  0.094934611  0.095295119            1 
 1066000    1.0985475   -2.5062069    1218.2161  0.095232653  0.095285723            2 
 1067000    1.0689532   -2.5039926    1215.4765  0.094929435  0.095276363            2 
 1068000     1.053932   -2.4976288    1216.3608  0.094909549  0.095266772            3 
 1069000    1.0758565   -2.4719724     1214.442  0.094671186  0.095256519            1 
 1070000    1.0702017   -2.4854719    1218.4986  0.094898642  0.095246534            1 
 1071000    1.0967407   -2.4721571    1220.3651  0.094955265  0.095236013            3 
 1072000    1.0682112   -2.4723344    1223.7326  0.095128466  0.095226864            3 
 1073000    1.0797917   -2.5137742    1221.2216  0.094844799  0.095217739            1 
 1074000    1.0700558   -2.5110766    1221.0977  0.094746875  0.095208055            2 
 1075000    1.0785496   -2.4666458    1217.9545   0.09441508  0.095198874            2 
 1076000    1.0960639   -2.4814382    1223.9754  0.094793633  0.095189528            1 
 1077000    1.0599511   -2.4906672    1228.2631  0.095037382  0.095180033            1 
 1078000    1.0968149    -2.514872    1221.2549  0.094407458  0.095170121            2 
 1079000    1.0866024   -2.4879685    1225.9106  0.094679534  0.095160131            3 
 1080000    1.0826379   -2.4969416    1226.2571  0.094618602  0.095149198            2 
 1081000    1.0777772   -2.5171152    1228.0426  0.094668721  0.095138953            1 
 1082000    1.0980288   -2.4621243      1229.25  0.094674217  0.095128407            1 
 1083000    1.0905276   -2.5120028    1233.9677  0.094949805  0.095118686            4 
 1084000    1.0793008   -2.4668751     1238.126  0.095181889  0.095109149            1 
 1085000    1.0769977   -2.5071253    1234.9837  0.094852815  0.095100033            3 
 1086000    1.0630389   -2.4965468     1238.984  0.095072439  0.095090441            3 
 1087000    1.0800237    -2.503929    1236.2367  0.094774359   0.09508043            3 
 1088000    1.0794987   -2.4848956    1235.0241  0.094594373  0.095070134            1 
 1089000    1.0662157   -2.5144699    1235.1845  0.094519785  0.095060035            4 
 1090000    1.0939922   -2.5269094    1237.3768  0.094600676  0.095049479            3 
 1091000    1.0815436    -2.514679    1232.7409  0.094159861  0.095038535            4 
 1092000    1.1100709    -2.500645    1234.6369  0.094218322  0.095026887            3 
 1093000    1.0533247   -2.4821924    1242.2794  0.094714806  0.095016111            5 
 1094000    1.0863357   -2.5098443    1233.3331  0.093946764  0.095005468            4 
 1095000     1.067528   -2.5024498    1237.7485  0.094196995  0.094994451            3 
 1096000    1.0489299   -2.4999808    1243.9276  0.094580874  0.094983392            2 
 1097000    1.0760829   -2.5079447    1244.4058  0.094530977  0.094971902            1 
 1098000    1.0788651   -2.4936038    1247.8489  0.094706202  0.094960684            2 
 1099000     1.070395   -2.5127109    1243.3894  0.094281881  0.094949331            2 
 1100000    1.0971761   -2.4796387    1247.7033   0.09452298  0.094937927            1 
 1101000     1.109729   -2.5193418     1239.183  0.093792234  0.094925898            2 
 1102000    1.0794402   -2.4848822    1245.8565  0.094211776  0.094913171            2 
 1103000    1.0983249   -2.5121921    1250.0025  0.094439599  0.094900847            6 
 1104000    1.0766466   -2.4827214    1246.8607  0.094116903  0.094888035            2 
 1105000    1.0528301   -2.4685167    1247.9162   0.09411133  0.094875779            3 
 1106000    1.0744773   -2.4874418    1246.5505  0.093923331  0.094862915            1 
 1107000    1.1013032   -2.5091917    1250.8882  0.094165029  0.094850025            3 
 1108000    1.0670737   -2.5126176    1248.6402  0.093910966  0.094836442            2 
 1109000    1.0507831   -2.5018221     1249.329  0.093878045  0.094823038            1 
 1110000     1.072011   -2.5255534    1251.5824  0.093962641  0.094809744            2 
 1111000     1.071275   -2.4895913    1249.4198  0.093715859  0.094796213            2 
 1112000    1.0515513   -2.4832441    1255.7126  0.094103164   0.09478359            1 
 1113000    1.0891266   -2.5037156    1250.8816  0.093656906  0.094771106            1 
 1114000    1.0977961   -2.4961555    1254.8487  0.093869595  0.094758817            2 
 1115000    1.0568581   -2.4750417    1258.6442  0.094069075  0.094746583            2 
 1116000    1.0988014   -2.5161835    1257.2396  0.093879897   0.09473468            2 
 1117000    1.0732921   -2.4933675    1253.3117  0.093502815  0.094722482            1 
 1118000    1.0595683   -2.4902382    1256.8971   0.09368643  0.094710076            2 
 1119000     1.074115   -2.5056502    1263.6398  0.094104838  0.094698063            2 
 1120000    1.0705435   -2.5005664    1268.0038  0.094345523  0.094686784            2 
 1121000    1.0650494   -2.5086778    1259.0624  0.093596667  0.094674094            3 
 1122000    1.0944849   -2.5005354    1265.6219  0.094000435  0.094661623            3 
 1123000     1.045161   -2.5054642    1264.9326  0.093865581  0.094649006            2 
 1124000    1.0788247   -2.5045304     1259.621  0.093388273  0.094636145            1 
 1125000    1.0832188   -2.4937536    1273.1717  0.094309018  0.094623977            4 
 1126000    1.0396359   -2.5029141    1267.2845  0.093789555  0.094611195            1 
 1127000     1.062756   -2.5098939    1271.8157  0.094041382  0.094598095            1 
 1128000    1.0805342   -2.4811919    1270.9185  0.093891736  0.094585375            2 
 1129000    1.0527718   -2.5137925    1269.8943  0.093732971  0.094572638            3 
 1130000    1.0704675   -2.4937837     1268.856  0.093573449   0.09455955            1 
 1131000    1.0975717   -2.5016665    1271.7061  0.093700716  0.094547375            1 
 1132000    1.0577482    -2.519211    1271.6556  0.093614224  0.094534663            3 
 1133000    1.0775991    -2.499216     1275.629  0.093823844  0.094522025            2 
 1134000    1.0624223   -2.4894878    1282.4525  0.094242544  0.094510449            3 
 1135000    1.0548997    -2.539339     1276.798  0.093744348  0.094498634            3 
 1136000    1.0905332   -2.4661012    1280.1731  0.093909412  0.094487367            2 
 1137000    1.0651598   -2.4943798     1284.522  0.094145558  0.094476727            2 
 1138000    1.0526659   -2.5470379      1275.29  0.093386789  0.094464329            4 
 1139000    1.0675836   -2.5125659    1276.4302  0.093388222  0.094450971            2 
 1140000    1.0465258   -2.4578638    1285.1614  0.093944546  0.094438703            2 
 1141000    1.0494561   -2.5227277     1280.565   0.09352651  0.094425792            2 
 1142000    1.0797816   -2.4898341    1280.5806   0.09344575  0.094413552            1 
 1143000    1.0557414   -2.5284671      1280.99  0.093393849  0.094399903            4 
 1144000    1.0646013   -2.5033287     1287.255  0.093768577  0.094386594            2 
 1145000    1.0765352   -2.5331235    1283.1715   0.09338948  0.094373751            1 
 1146000    1.0819015   -2.4922957    1280.3693  0.093104222  0.094360886            2 
 1147000    1.0690684   -2.4976484    1284.6696  0.093335483  0.094347229            4 
 1148000    1.0585023   -2.5300608    1285.3899  0.093306468  0.094333659            1 
 1149000    1.0756418   -2.5205382    1288.3011  0.093436401  0.094319822            2 
 1150000    1.0671537   -2.4947481    1289.6358  0.093451871  0.094305662            5 
 1151000    1.0619652   -2.5113025    1285.8126  0.093093876  0.094292485            2 
 1152000    1.0542819    -2.529329    1284.8283  0.092941863  0.094278144            2 
 1153000    1.0728846    -2.501862    1289.2349   0.09317974  0.094263947            2 
 1154000    1.0707415   -2.5108389    1292.7337  0.093351657  0.094249416            2 
 1155000    1.0740448    -2.510071    1292.8065  0.093276083  0.094235056            1 
 1156000    1.0516071   -2.5272419    1292.3244  0.093160637  0.094220583            1 
 1157000    1.0696139   -2.5315444    1284.5259   0.09251843  0.094206268            1 
 1158000    1.0770941   -2.5202791     1297.331   0.09336003  0.094192439            2 
 1159000    1.0440034   -2.5168444    1296.8372  0.093243977  0.094179239            1 
 1160000    1.0675333   -2.4830437    1299.5365  0.093357509  0.094165369            3 
 1161000     1.076546   -2.4992778    1299.7912  0.093295379   0.09415146            1 
 1162000    1.0761977   -2.5146249    1299.7785  0.093214178  0.094138074            2 
 1163000    1.0700453   -2.5295765      1300.43  0.093180713  0.094124136            3 
 1164000    1.0663038   -2.5223205    1296.8456   0.09284404  0.094110335            1 
 1165000     1.060692   -2.4962682    1302.9376  0.093200116  0.094097121            3 
 1166000    1.0725003   -2.5196863    1300.5582  0.092950129  0.094083491            3 
 1167000    1.0769128   -2.4885658    1304.8151  0.093174459  0.094069364            2 
 1168000    1.0782567   -2.5208263     1303.021  0.092966679  0.094055833            2 
 1169000    1.0475706   -2.5243117    1301.0611  0.092747443  0.094040856            4 
 1170000    1.0624452   -2.5128954    1303.5587  0.092846059  0.094025725            2 
 1171000    1.0693092   -2.5069415     1306.634  0.092985625  0.094010555            2 
 1172000    1.0593359   -2.4926466    1305.0704  0.092795108  0.093995433            1 
 1173000    1.0661965   -2.5204374    1303.1395  0.092578825  0.093980502            2 
 1174000    1.0717098   -2.4894386    1307.6617  0.092820959  0.093966042            2 
 1175000    1.0588019   -2.5051077    1317.1802  0.093417034  0.093951804            2 
 1176000    1.0498195   -2.5001425    1309.8756  0.092819986  0.093937019            2 
 1177000    1.0553498   -2.5097753    1309.6913  0.092728073  0.093922576            3 
 1178000    1.1005915   -2.5089934    1311.2501  0.092759628  0.093907982            3 
 1179000    1.0839113   -2.5056821    1317.1361  0.093096985  0.093893384            1 
 1180000    1.0455877   -2.5273496     1313.994  0.092796186  0.093878858            2 
 1181000    1.0792718   -2.5128054    1309.2556  0.092383266  0.093863479            3 
 1182000    1.0416622   -2.5328943    1311.4956  0.092463026   0.09384854            1 
 1183000    1.0580281   -2.5215915    1314.9338  0.092627061  0.093833505            2 
 1184000    1.0475965   -2.5256076    1313.7347  0.092464432   0.09381875            2 
 1185000     1.049877    -2.505508    1323.2096  0.093052715  0.093804444            2 
 1186000    1.0515643   -2.5190017    1319.5987  0.092720541  0.093790306            2 
 1187000    1.0520966   -2.5242461    1314.6701  0.092296411  0.093775151            2 
 1188000    1.0706328   -2.5301043    1317.3774  0.092408628  0.093760753            1 
 1189000    1.0412008   -2.4930168    1316.1866  0.092247452  0.093745579            2 
 1190000    1.0482247   -2.5074172    1324.2401  0.092733902  0.093730792            2 
 1191000    1.0439375   -2.4856251    1325.0422  0.092712163  0.093715856            3 
 1192000    1.0662134   -2.5052173    1322.9508  0.092488171  0.093700908            3 
 1193000    1.0497041    -2.499933    1325.8925  0.092616126  0.093686421            2 
 1194000    1.0599302   -2.5274484    1326.0179   0.09254731  0.093671572            2 
 1195000    1.0614386   -2.4994364     1323.444  0.092290373  0.093656983            2 
 1196000    1.0742366   -2.5267475    1326.8987  0.092453923  0.093641588            1 
 1197000    1.0962917    -2.513451    1326.0822  0.092319843  0.093626783            1 
 1198000    1.0517804   -2.5107098    1325.7585  0.092220263  0.093611432            1 
 1199000    1.0481758   -2.5173821    1334.2745  0.092735231  0.093595808            1 
 1200000    1.0761729   -2.4998197    1328.4173  0.092251201   0.09358047            2 
 1201000    1.0674657   -2.5317547     1329.342  0.092238552  0.093564772            2 
 1202000    1.0443576   -2.4928818    1333.0911  0.092421735  0.093549031            3 
 1203000    1.0577655   -2.4990606    1332.0206  0.092270753  0.093533552            1 
 1204000    1.0591524    -2.514521    1331.7184  0.092173202  0.093518207            2 
 1205000    1.0609135   -2.5504712    1327.2366  0.091786767  0.093502283            2 
 1206000    1.0909927   -2.5276365    1332.9673  0.092106638  0.093486876            3 
 1207000    1.0541328   -2.4986332    1339.4407  0.092477267  0.093471714            1 
 1208000    1.0488691   -2.5116563    1337.2123  0.092246983  0.093456536            2 
 1209000    1.0588538   -2.4993333    1341.6801  0.092478638  0.093441222            1 
 1210000    1.0442901   -2.4908622    1336.6193  0.092053669  0.093426153            2 
 1211000    1.0780777   -2.5048294    1342.5773   0.09238765  0.093411395            4 
 1212000    1.0641103   -2.5211465    1343.3992  0.092367933  0.093396404            1 
 1213000    1.0748001   -2.4944435     1345.264  0.092419895  0.093381227            2 
 1214000    1.0428025   -2.5160029    1346.3557  0.092418709  0.093366384            4 
 1215000    1.0364047   -2.5262739    1342.1399  0.092053492  0.093350721            3 
 1216000    1.0636147   -2.4927137    1349.4582   0.09247932  0.093334983            3 
 1217000    1.0698866    -2.522871    1344.9281  0.092093133  0.093319345            2 
 1218000    1.0368933   -2.5122944    1350.8582  0.092423248  0.093303674            2 
 1219000    1.0690387   -2.5263773     1341.784  0.091727096  0.093288386            2 
 1220000    1.0700722   -2.5191264    1351.9608  0.092347048  0.093273037            1 
 1221000    1.0499698   -2.5131434    1348.9541  0.092066207  0.093257955            2 
 1222000    1.0598633   -2.5132074    1353.7686  0.092319193  0.093243501            2 
 1223000    1.0490972   -2.5208286    1352.8979  0.092184376  0.093228928            6 
 1224000    1.0620816   -2.5129857    1354.1619  0.092195118  0.093214693            3 
 1225000    1.0701717   -2.5214115    1355.8349  0.092233664  0.093200457            1 
 1226000    1.0528751   -2.4945508    1354.5871  0.092073623   0.09318674            3 
 1227000    1.0586866    -2.512388    1357.2646  0.092180429   0.09317213            1 
 1228000     1.066076   -2.5290305    1352.0734  0.091753078  0.093157062            1 
 1229000    1.0509597   -2.5178112    1356.2645  0.091962607  0.093142067            2 
 1230000    1.0428823   -2.5114068    1361.0407  0.092211427  0.093127426            3 
 1231000    1.0413475   -2.5177847    1361.3152  0.092155104  0.093112689            2 
 1232000    1.0609719   -2.5416207    1359.7095  0.091971692  0.093098115            2 
 1233000    1.0490979    -2.544903    1367.0796  0.092395215  0.093083477            3 
 1234000     1.047799   -2.5045294    1365.5434  0.092216601  0.093068451            2 
 1235000    1.0404194   -2.5288325    1359.0182  0.091701636  0.093053317            1 
 1236000    1.0545833   -2.5231184    1356.8583  0.091481814  0.093038285            4 
 1237000    1.0792873   -2.5358733    1359.7919   0.09160549  0.093023643            2 
 1238000    1.0655819   -2.5147919    1370.6428  0.092261903  0.093009046            2 
 1239000    1.0553768   -2.5078072     1367.877  0.092001409  0.092994937            2 
 1240000    1.0583348   -2.4808669    1368.1642  0.091946521   0.09298017            1 
 1241000    1.0764463    -2.525636    1366.0523  0.091730613  0.092966315            2 
 1242000    1.0299341   -2.5156672    1363.4267  0.091480586  0.092951569            3 
 1243000    1.0261449   -2.4984868    1376.6892   0.09229614  0.092937293            2 
 1244000    1.0481862   -2.5307094    1371.6591   0.09188499  0.092922377            3 
 1245000    1.0770713   -2.5246087    1369.7188  0.091681313  0.092908036            2 
 1246000    1.0535363   -2.5146147    1372.5706   0.09179846  0.092893934            3 
 1247000    1.0444731   -2.4742372    1378.3772  0.092112881  0.092880004            1 
 1248000    1.0458135   -2.5194685    1370.2355  0.091495424  0.092865574            3 
 1249000    1.0677946   -2.4864137    1381.6734  0.092185309  0.092851014            3 
 1250000    1.0374792   -2.5344475    1375.4892  0.091699279  0.092836678            1 
 1251000    1.0566185   -2.4946549    1380.2228  0.091941301  0.092821833            2 
 1252000    1.0402706   -2.5195473    1376.8172  0.091641188  0.092806878            2 
 1253000    1.0755959   -2.5321471    1378.8385  0.091702483  0.092792217            2 
 1254000    1.0457692   -2.5369078    1371.5864  0.091147422  0.092776893            2 
 1255000    1.0477949   -2.5303683    1377.3804  0.091459525  0.092761384            2 
 1256000    1.0444287    -2.524587    1374.3594  0.091186265  0.092746464            4 
 1257000    1.0571939   -2.5060139    1377.1787  0.091300628  0.092731569            3 
 1258000    1.0677834   -2.5252237    1381.2259  0.091496153  0.092716607            2 
 1259000     1.047623   -2.5365126    1382.7513  0.091524441  0.092702106            2 
 1260000    1.0458737   -2.5474569    1378.7286  0.091185755  0.092686923            1 
 1261000    1.0409854    -2.518223    1384.3561  0.091485334  0.092671565            3 
 1262000    1.0559457   -2.5293195    1388.5312  0.091688535  0.092656115            1 
 1263000    1.0427647   -2.5220516    1384.0286  0.091318856  0.092640688            2 
 1264000    1.0766872   -2.5296855    1383.6913  0.091224372  0.092625221            2 
 1265000    1.0505006   -2.5417993    1379.7691   0.09089388  0.092609147            2 
 1266000    1.0525771   -2.5293294     1378.567  0.090742957  0.092592628            3 
 1267000    1.0302022   -2.5499342    1393.9595  0.091683733  0.092576479            2 
 1268000     1.033412   -2.5428956    1390.2071   0.09136482  0.092560711            2 
 1269000    1.0441174   -2.5514758    1385.7892  0.091002704  0.092545011            2 
 1270000    1.0483625   -2.5428138    1395.8049  0.091588246  0.092529659            4 
 1271000    1.0631993   -2.5297151    1395.4093  0.091490249  0.092514347            1 
 1272000     1.057745   -2.5298568    1393.8372  0.091315332  0.092498666            1 
 1273000    1.0628997   -2.5644449    1393.5895  0.091227385   0.09248334            2 
 1274000     1.043036   -2.5560103     1399.088  0.091515436   0.09246839            3 
 1275000    1.0501588   -2.5456494     1397.909  0.091366604  0.092452853            2 
 1276000    1.0288949   -2.5314473     1401.646  0.091539054  0.092437775            4 
 1277000    1.0369672   -2.4922636    1397.3857  0.091189357  0.092422227            3 
 1278000    1.0427661   -2.5381656    1398.7549  0.091207283  0.092406947            4 
 1279000    1.0450884   -2.5345567     1394.836  0.090880633  0.092392321            2 
 1280000    1.0618317   -2.5563254     1404.205  0.091419597  0.092377232            2 
 1281000    1.0440233   -2.5412855    1400.1778  0.091086245  0.092362493            1 
 1282000     1.033824    -2.516277    1399.1785   0.09095024  0.092347168            2 
 1283000    1.0457707   -2.5187824    1405.5837  0.091295381  0.092331983            2 
 1284000    1.0570082   -2.5333804    1408.9373  0.091441934  0.092316737            2 
 1285000    1.0630005    -2.510647    1407.6255  0.091285702  0.092301597            5 
 1286000    1.0651112   -2.5444851    1404.1441  0.090989117  0.092286551            1 
 1287000    1.0553315    -2.525557    1406.9526  0.091100269  0.092270926            5 
 1288000    1.0297642   -2.5239451      1406.03  0.090969847  0.092256056            3 
 1289000    1.0267325   -2.5255397    1409.0163   0.09109234  0.092241448            1 
 1290000     1.064827   -2.5329575    1406.6563  0.090869268    0.0922261            2 
 1291000      1.04808   -2.5428222    1406.9004  0.090814642  0.092210564            2 
 1292000    1.0399263   -2.5279661    1415.9916  0.091330727  0.092195108            1 
 1293000    1.0398155   -2.5073616    1411.8512  0.090993246  0.092180171            1 
 1294000    1.0640759   -2.5566799    1408.9812  0.090738101  0.092165279            1 
 1295000    1.0382367   -2.5380609    1409.7531  0.090717705  0.092150629            2 
 1296000    1.0325988    -2.537274    1417.1219  0.091121523  0.092135469            2 
 1297000    1.0621487   -2.5211108    1416.4696  0.091009358   0.09212045            3 
 1298000      1.03875   -2.5456321    1410.5283  0.090557803  0.092105104            4 
 1299000    1.0499886   -2.5153504    1417.2114  0.090916819  0.092089361            1 
 1300000    1.0357714   -2.5196541    1419.9949  0.091025313  0.092073833            2 
 1301000    1.0397708   -2.5332819    1415.7285  0.090682074  0.092058308            5 
 1302000    1.0462394   -2.5204461    1421.7735   0.09099933  0.092042681            2 
 1303000    1.0263562   -2.5286842    1423.9481  0.091068565   0.09202722            2 
 1304000    1.0573419   -2.5428691    1422.7607  0.090922847  0.092011279            7 
 1305000    1.0184057   -2.5252168    1420.5571  0.090712459  0.091995616            2 
 1306000    1.0292272   -2.5180326    1429.4157  0.091208248  0.091979592            2 
 1307000    1.0228604   -2.5387359    1425.1021  0.090863434  0.091964439            1 
 1308000    1.0257225   -2.5284679    1426.2934  0.090869867  0.091949042            2 
 1309000    1.0433336   -2.5400664    1422.6334  0.090567442  0.091933337            1 
 1310000    1.0634502   -2.5300184    1427.0848  0.090781476  0.091918872            3 
 1311000    1.0349827   -2.5670206    1427.5066   0.09073904  0.091903677            2 
 1312000    1.0450725   -2.5254094    1428.4319  0.090728654  0.091888682            1 
 1313000    1.0408404    -2.524146    1425.5194  0.090474699  0.091873345            2 
 1314000    1.0262888   -2.5276942    1429.6284  0.090666438  0.091858775            2 
 1315000    1.0342987   -2.5440922    1432.4067  0.090773556   0.09184316            3 
 1316000    1.0297103   -2.5060577    1434.8044  0.090856411  0.091827925            1 
 1317000    1.0575264   -2.5228852    1426.2422  0.090245646  0.091812892            3 
 1318000    1.0519211   -2.5595699    1431.4856  0.090508697  0.091797451            2 
 1319000    1.0408804   -2.5482987    1433.0229  0.090537207  0.091782336            1 
 1320000    1.0495352   -2.5282748    1430.6869  0.090321142  0.091767517            2 
 1321000    1.0349833   -2.5439498    1434.8378   0.09051462  0.091752903            6 
 1322000    1.0352977   -2.5251722    1435.8377  0.090509183  0.091738297            1 
 1323000    1.0508529   -2.5500253    1438.9418  0.090636293  0.091723674            3 
 1324000    1.0454053   -2.5476059    1438.3605  0.090531251  0.091708175            2 
 1325000    1.0459723   -2.5496046    1443.2916  0.090773056   0.09169262            4 
 1326000    1.0202139   -2.5592486    1438.2457  0.090387488   0.09167718            2 
 1327000     1.030839   -2.5679803     1435.062  0.090119441  0.091661737            3 
 1328000    1.0459112   -2.5252283    1439.2961  0.090317273  0.091646829            1 
 1329000     1.043587   -2.5635127    1437.6019  0.090143083  0.091631296            1 
 1330000     1.025523   -2.5493657    1445.5361  0.090572436  0.091616243            2 
 1331000    1.0195674   -2.5265088    1445.3797  0.090494595  0.091601641            3 
 1332000    1.0402618   -2.5124079    1448.1784  0.090601753  0.091586182            1 
 1333000    1.0511477   -2.5525203    1443.7427  0.090256484  0.091570723            1 
 1334000     1.044649   -2.5193303    1452.8419  0.090757239  0.091554783            1 
 1335000    1.0339071   -2.5287725    1447.4373  0.090351893  0.091539416            3 
 1336000    1.0373957   -2.5524906    1444.9802  0.090130999  0.091523278            4 
 1337000    1.0515662   -2.5497276    1444.6086  0.090040427   0.09150675            1 
 1338000    1.0149575   -2.5114998    1440.3645    0.0897088  0.091490459            3 
 1339000    1.0467644   -2.5399726    1452.8218  0.090417091  0.091474011            2 
 1340000    1.0343496   -2.5097279    1450.2261  0.090188192  0.091457499            1 
 1341000    1.0271762   -2.5197014     1450.276  0.090124034  0.091440545            2 
 1342000    1.0521635    -2.512125    1449.5635  0.090012639  0.091423981            2 
 1343000      1.02969   -2.5621926    1449.7266  0.089955736  0.091407018            6 
 1344000    1.0709288   -2.5176067    1456.1104  0.090284623  0.091390597            3 
 1345000    1.0215765   -2.5699666    1450.1211  0.089846411  0.091373977            1 
 1346000    1.0280208    -2.555002    1452.4842  0.089925965  0.091356983            4 
 1347000     1.076145   -2.5423365    1463.0182  0.090510899  0.091340824            1 
 1348000    1.0438886   -2.5280166    1456.2109   0.09002293  0.091325051            4 
 1349000    1.0341599   -2.5305099     1455.383  0.089905053  0.091308237            2 
 1350000    1.0271544   -2.5744286    1454.2164  0.089766444  0.091292185            3 
 1351000    1.0383451   -2.5341979    1453.8499  0.089677392  0.091275524            1 
 1352000    1.0341949   -2.5285642    1461.7036  0.090095145  0.091258965            2 
 1353000    1.0333121   -2.5291097    1459.4267  0.089888313  0.091242483            6 
 1354000    1.0058672   -2.5317993    1456.1221  0.089618542  0.091225278            2 
 1355000    1.0152996   -2.5273179    1457.8231  0.089657019   0.09120764            2 
 1356000    1.0307016   -2.5337131    1463.0697  0.089913329  0.091190409            2 
 1357000    1.0270753   -2.5363068    1457.1557  0.089483891  0.091173473            4 
 1358000    1.0253664   -2.5298097    1458.3031  0.089488407  0.091156426            2 
 1359000    1.0376229   -2.5440156    1458.4757  0.089433143  0.091138764            3 
 1360000    1.0455088   -2.5500986    1459.1904  0.089411176  0.091121063            2 
 1361000    1.0420346   -2.5294211    1469.9002  0.090001237  0.091103759            1 
 1362000    1.0419876   -2.5472577    1465.7612  0.089681911  0.091085746            1 
 1363000    1.0602472   -2.5352997    1459.0309  0.089204627  0.091067967            2 
 1364000    1.0419922    -2.563613    1465.8813  0.089557752  0.091050064            1 
 1365000    1.0403212   -2.5500229    1463.5981  0.089352751  0.091032357            2 
 1366000      1.03279   -2.5647109    1463.2793   0.08926789  0.091014919            4 
 1367000    1.0200792   -2.5440785    1461.0835  0.089068731  0.090997217            7 
 1368000    1.0478755   -2.5360705      1467.04   0.08936647  0.090979883            2 
 1369000    1.0279607   -2.5209497    1470.1728  0.089491889  0.090962588            3 
 1370000    1.0313154   -2.5442358    1464.4044  0.089075691  0.090944792            2 
 1371000     1.026629   -2.5328385    1472.9514  0.089530233  0.090927751            1 
 1372000    1.0321822   -2.5168292    1467.8534  0.089155334  0.090910344            1 
 1373000    1.0381997   -2.5549895    1475.3643  0.089546264  0.090892855            1 
 1374000    1.0343355   -2.5650261    1469.3962  0.089119131  0.090875108            2 
 1375000    1.0040743    -2.553381    1468.0151  0.088970613   0.09085735            1 
 1376000    1.0385937   -2.5485904    1474.5108  0.089299344  0.090839427            1 
 1377000    1.0317591   -2.5627463    1475.2693  0.089280398  0.090821856            3 
 1378000    1.0131048   -2.5433892    1475.7043  0.089241916   0.09080373            2 
 1379000    1.0342824    -2.560357     1479.349  0.089397453  0.090786195            4 
 1380000    1.0323907    -2.537715     1483.061  0.089556823  0.090768488            1 
 1381000     1.044334   -2.5469122    1476.6772  0.089106761  0.090750516            2 
 1382000     1.059628   -2.5542191    1475.0832  0.088946168  0.090732476            3 
 1383000    1.0338848   -2.5375502    1479.6861  0.089159202  0.090714267            5 
 1384000    1.0169925   -2.5322817       1476.2  0.088884875  0.090695741            2 
 1385000    1.0398346   -2.5342504    1474.0528  0.088691505  0.090677654            1 
 1386000    1.0236282   -2.5443993    1487.1994  0.089417951  0.090660298            2 
 1387000    1.0387648   -2.5591841    1485.3926  0.089244927  0.090642888            1 
 1388000    1.0252861   -2.5527364    1480.4364  0.088883069   0.09062552            2 
 1389000    1.0270515   -2.5520542    1484.5307  0.089064714  0.090608344            2 
 1390000    1.0360258   -2.5375011    1484.3231  0.088988192  0.090591169            4 
 1391000    1.0215363   -2.5244229    1491.3604  0.089345817  0.090573928            2 
 1392000    1.0403773   -2.5435229    1486.9962  0.089020364   0.09055764            1 
 1393000    1.0472367   -2.5408176    1488.1077  0.089022952  0.090541129            2 
 1394000    1.0088631   -2.5642538    1495.5969  0.089406798  0.090524438            2 
 1395000    1.0237291   -2.5619931    1495.0386  0.089309357  0.090507566            3 
 1396000    1.0375594   -2.5495309    1492.2518  0.089079023  0.090490793            2 
 1397000     1.032728   -2.5485515     1488.342  0.088782036  0.090473886            3 
 1398000    1.0096365   -2.5301389    1491.2235   0.08889029  0.090456825            2 
 1399000     1.035924   -2.5552995    1499.0143  0.089290819  0.090439673            1 
 1400000    1.0539695   -2.5718056    1497.4164  0.089131926    0.0904225            2 
 1401000    1.0020275   -2.5375599    1495.9626  0.088981832  0.090405363            2 
 1402000    1.0395377   -2.5399916    1500.5215  0.089189344  0.090388312            3 
 1403000    1.0194888    -2.556565    1497.5211  0.088947556  0.090370483            1 
 1404000    1.0344021   -2.5408904    1496.5362  0.088825746  0.090353027            2 
 1405000    1.0319119     -2.52838    1502.2854  0.089103522  0.090335963            3 
 1406000    1.0170402   -2.5317035    1493.0924  0.088495283  0.090318422            5 
 1407000    1.0306929   -2.5438059    1498.8764  0.088774958  0.090300807            1 
 1408000     1.027202   -2.5757247    1494.7513  0.088467762  0.090283088            2 
 1409000    1.0383056   -2.5724788    1495.4871  0.088448494  0.090265699            1 
 1410000     1.075996   -2.5950396    1496.0469  0.088418849  0.090247794            3 
 1411000    1.0321342   -2.5823956    1498.7543  0.088516082   0.09022987            2 
 1412000    1.0322196   -2.5421704    1501.3779  0.088608233  0.090212302            2 
 1413000    1.0393005   -2.5340268    1501.6145  0.088559475  0.090194738            3 
 1414000    1.0354568   -2.5399216    1505.0871    0.0887015   0.09017716            2 
 1415000    1.0195741    -2.568404    1495.4045  0.088068579  0.090159569            4 
 1416000    1.0308993   -2.5703331    1505.8542  0.088621363   0.09014133            2 
 1417000    1.0214398   -2.5463055    1506.0567  0.088570733  0.090123884            1 
 1418000    1.0353226   -2.5597389    1501.4136  0.088235404  0.090105408            1 
 1419000    1.0387483   -2.5472055    1504.7486  0.088369075  0.090087563            2 
 1420000    1.0163207   -2.5718756    1506.5682  0.088413627  0.090069268            3 
 1421000    1.0052157   -2.5518028    1517.9135  0.089016743  0.090051595            2 
 1422000    1.0272102   -2.5419145    1505.7123  0.088239115  0.090033648            3 
 1423000      1.03827   -2.5522601    1509.4338  0.088395048  0.090016048            2 
 1424000    1.0274241   -2.5576226    1515.6966  0.088699472  0.089998039            2 
 1425000    1.0418199    -2.556524    1509.3413  0.088265572  0.089980365            1 
 1426000    1.0377467   -2.5349731     1521.238  0.088898904  0.089962674            1 
 1427000    1.0393191    -2.552888    1516.6849  0.088570715  0.089945244            4 
 1428000   0.99555956   -2.5503947    1514.1155  0.088358746  0.089928136            2 
 1429000    1.0481771   -2.5550171     1514.244  0.088304409  0.089911318            2 
 1430000    1.0220358   -2.5455562    1515.4582  0.088313415  0.089893693            7 
 1431000    1.0319884   -2.5741241    1519.4606  0.088484775  0.089876606            1 
 1432000    1.0124748   -2.5662131    1513.4132  0.088071068  0.089858973            1 
 1433000    1.0331352   -2.5562059     1522.234  0.088522563  0.089841737            1 
 1434000    1.0070447   -2.5228194    1520.4495  0.088357131  0.089824308            1 
 1435000    1.0225418    -2.539558    1523.3444   0.08846367  0.089807107            1 
 1436000    1.0122269   -2.5705699    1522.1176  0.088330873  0.089789426            3 
 1437000    1.0316185   -2.5520224    1519.2409  0.088102578  0.089772028            1 
 1438000    1.0318342   -2.5577858    1518.9941  0.088027011  0.089755265            5 
 1439000    1.0161511   -2.5601056    1530.8766  0.088653961  0.089738577            2 
 1440000    1.0281087   -2.5618661    1528.3238  0.088444665  0.089722102            3 
 1441000    1.0209211   -2.5633103    1527.9636  0.088362457  0.089705453            2 
 1442000    1.0011183   -2.5294953    1532.4896  0.088562739  0.089689097            3 
 1443000    1.0032286   -2.5468405    1538.1359  0.088827439  0.089673107            1 
 1444000    1.0157802   -2.5494834    1535.0946  0.088590407  0.089656981            2 
 1445000   0.99805147   -2.5675531    1531.7788  0.088337877   0.08964071            3 
 1446000     1.018877   -2.5479764    1529.8441  0.088165291  0.089624378            2 
 1447000    1.0206119   -2.5514035    1529.5228  0.088085856   0.08960786            2 
 1448000    1.0206448    -2.551668    1531.0529  0.088113079  0.089591453            1 
 1449000    1.0192282   -2.5697552    1537.9844  0.088450909  0.089574666            3 
 1450000    1.0139763   -2.5709175    1534.8321  0.088208742  0.089558681            3 
 1451000    1.0185114   -2.5649999    1532.5018  0.088014119   0.08954184            2 
 1452000    1.0438878    -2.557164    1532.7629  0.087968488  0.089525306            3 
 1453000   0.99944043   -2.5772869    1534.6798  0.088017884  0.089508833            2 
 1454000    1.0197806   -2.5308929    1538.6543  0.088185137  0.089492009            2 
 1455000    1.0327913   -2.5762013    1536.6478  0.088009611   0.08947512            1 
 1456000    1.0516785   -2.5631136    1536.7573   0.08795543  0.089458003            2 
 1457000     1.012339   -2.5704291    1535.1661  0.087804057  0.089440973            1 
 1458000    1.0099241   -2.5298721    1538.8452  0.087954114  0.089424037            1 
 1459000    1.0219231   -2.5665655    1542.4748  0.088101142   0.08940758            2 
 1460000    1.0276734   -2.5675987     1542.214  0.088025914  0.089390926            4 
 1461000    1.0240658   -2.5842993     1546.031  0.088183382  0.089374723            2 
 1462000    1.0282826   -2.5380096      1550.52  0.088378932  0.089358417            2 
 1463000    1.0216414   -2.5692869     1542.925  0.087885909  0.089341717            2 
 1464000    1.0126136   -2.5686997    1543.2832  0.087846266  0.089324669            1 
 1465000   0.98554584   -2.5825447    1544.5603   0.08785895   0.08930763            5 
 1466000     1.012851   -2.5690769    1549.3309  0.088070196  0.089290693            3 
 1467000    1.0036447   -2.5835651    1545.7278  0.087805488  0.089273963            3 
 1468000    1.0217352   -2.5555873      1554.02  0.088216396  0.089257075            2 
 1469000    1.0323412   -2.5683912    1556.1516  0.088277261  0.089240899            3 
 1470000    1.0160638   -2.5621191    1554.6836  0.088133988  0.089224995            5 
 1471000    1.0150895   -2.5820887    1548.5713  0.087727808  0.089208831            1 
 1472000     1.003953   -2.5864387    1560.5654  0.088347225  0.089192531            4 
 1473000    1.0320421   -2.5646993    1556.6378  0.088065049  0.089176601            2 
 1474000    1.0004986   -2.5764129    1552.9092  0.087794505  0.089160261            3 
 1475000    1.0157835   -2.5933811    1555.6429  0.087889427  0.089143421            2 
 1476000    1.0150749   -2.5787915    1558.9483  0.088016501   0.08912735            1 
 1477000    1.0159041   -2.5761669    1552.3528  0.087584787  0.089110949            3 
 1478000    1.0238959   -2.5541044    1571.6083  0.088611201  0.089094937            1 
 1479000    1.0160101   -2.5566882    1559.7415  0.087882666  0.089079043            4 
 1480000    1.0428911   -2.5354451     1562.171  0.087960077   0.08906311            2 
 1481000    1.0253249   -2.5470987    1563.7614  0.087990175  0.089047065            2 
 1482000    1.0266625   -2.5797849    1558.3104   0.08762429  0.089030296            3 
 1483000    1.0205261   -2.5722183    1563.0911  0.087833842  0.089014055            2 
 1484000    1.0331424   -2.5666811    1567.5747   0.08802643  0.088997952            3 
 1485000    1.0043203   -2.5779951    1565.0851  0.087827447  0.088982326            2 
 1486000    1.0292375   -2.5527048      1571.15  0.088108455  0.088966492            1 
 1487000     1.017665    -2.541998    1572.5632  0.088128401  0.088951059            5 
 1488000   0.97103026    -2.562475    1578.9949  0.088429372  0.088935708            3 
 1489000    1.0238198   -2.5657766    1569.2138  0.087822577  0.088920331            1 
 1490000    1.0077071   -2.5369825     1579.361  0.088331154  0.088905039            4 
 1491000    1.0269912   -2.5493127    1579.6562  0.088288407  0.088890143            1 
 1492000    1.0356508   -2.5776578    1577.1915   0.08809157  0.088874768            2 
 1493000    1.0057405   -2.5726995    1571.3583  0.087706982  0.088858948            2 
 1494000    1.0029282   -2.5806461    1579.0276  0.088076059  0.088843445            2 
 1495000    1.0177359   -2.5794377    1572.0505  0.087628232  0.088827401            2 
 1496000   0.98792938   -2.5604335    1573.1419  0.087630452  0.088811436            3 
 1497000    1.0180408   -2.5667517      1577.28  0.087802271  0.088795242            2 
 1498000    1.0095094    -2.540401    1573.3131  0.087522978  0.088779131            1 
 1499000    1.0090327   -2.5918384    1577.3772  0.087690525  0.088763373            1 
 1500000    1.0073953   -2.5814593     1578.839  0.087713277  0.088747237            3 
 1501000    1.0177215   -2.5591986     1577.702  0.087591717  0.088731347            1 
 1502000     1.019491   -2.5571915    1588.3288  0.088122994  0.088715862            4 
 1503000    1.0238583   -2.5907892    1580.4304  0.087626436  0.088699905            3 
 1504000    1.0270001   -2.5852074    1585.3067  0.087838359  0.088683941            2 
 1505000    1.0176472   -2.5734793    1575.0762  0.087213524  0.088667678            2 
 1506000    1.0012379   -2.5830454    1580.2247  0.087440499  0.088651125            2 
 1507000    1.0046833   -2.5724952    1586.2762  0.087717107  0.088635213            1 
 1508000   0.99279023   -2.5679288    1585.4053  0.087610815  0.088618745            3 
 1509000    1.0194434   -2.5990997    1583.5151  0.087448369  0.088602318            4 
 1510000   0.99960099   -2.5502824    1583.4451  0.087386595  0.088585948            1 
 1511000    1.0092742   -2.5804546    1582.0597  0.087252357  0.088569381            2 
 1512000    1.0029966   -2.5754742    1578.1768  0.086980641  0.088552938            3 
 1513000    1.0226991   -2.5724014    1583.0257  0.087190224  0.088536472            2 
 1514000    1.0213215   -2.5749874    1592.8853  0.087675323  0.088520534            2 
 1515000    1.0083386   -2.5688455    1582.5273  0.087047706  0.088504116            1 
 1516000    1.0116378   -2.5693045    1585.8148     0.087171  0.088487771            1 
 1517000   0.99417054   -2.5836686    1586.7811  0.087166617  0.088471359            2 
 1518000    1.0099965   -2.5912459    1589.9941  0.087285578  0.088454846            2 
 1519000    1.0149107   -2.5618744    1591.5399  0.087312918  0.088438685            1 
 1520000    1.0300476   -2.5867438    1594.9741  0.087443755   0.08842262            3 
 1521000    1.0156985    -2.557807    1601.4402  0.087740531   0.08840669            4 
 1522000    1.0121623   -2.5576778    1596.8702  0.087432664  0.088390348            2 
 1523000   0.98223408   -2.5532997     1597.316  0.087399652  0.088374305            3 
 1524000    1.0088753   -2.5681864    1598.0531  0.087382607  0.088357809            2 
 1525000    1.0253148   -2.5918743      1594.02  0.087104916  0.088341392            2 
 1526000     1.014737    -2.580929    1592.6258    0.0869717  0.088324518            2 
 1527000   0.99438686   -2.5907857    1593.0073  0.086935565  0.088308086            6 
 1528000    1.0205643   -2.5643841    1598.0939  0.087156079  0.088291531            1 
 1529000   0.98590887   -2.5718697    1596.3405  0.087003514  0.088275266            1 
 1530000   0.99337516   -2.5716765    1599.0962  0.087096742  0.088259425            1 
 1531000   0.99702331   -2.5825845    1597.6606  0.086961712  0.088243713            2 
 1532000    1.0058685   -2.6198109     1600.306  0.087048849  0.088227769            2 
 1533000   0.97506869   -2.5856524    1596.2363  0.086770834  0.088211147            4 
 1534000    1.0227857   -2.5934874    1606.8081  0.087288575  0.088195329            2 
 1535000    1.0005582   -2.5709294    1607.1725  0.087251491  0.088179036            2 
 1536000    1.0094539   -2.5979654    1602.1253   0.08692086  0.088162998            2 
 1537000   0.99379761   -2.5705417    1612.5884  0.087431599  0.088147284            2 
 1538000     1.015998   -2.5788565    1605.1305   0.08697066  0.088131755            6 
 1539000    1.0128867   -2.5846095    1607.1428  0.087023108  0.088116431            3 
 1540000   0.99504938   -2.5662206    1618.5846  0.087585747  0.088101461            7 
 1541000    1.0138276   -2.5396086    1618.6016  0.087529827  0.088086103            2 
 1542000   0.98685954    -2.555579    1609.1355  0.086961494  0.088070972            2 
 1543000    1.0136965   -2.5460073    1618.5117  0.087411517   0.08805573            1 
 1544000    1.0081346   -2.5674211    1618.0372  0.087329297   0.08804023            3 
 1545000    1.0364026   -2.5801606     1611.496  0.086919955  0.088025232            2 
 1546000   0.99326077   -2.5791406    1610.2238   0.08679516  0.088010307            3 
 1547000   0.99740938   -2.5963161    1613.4522  0.086912961  0.087995047            2 
 1548000    1.0103096   -2.5655771    1622.1507  0.087325082  0.087979883            1 
 1549000    1.0282124   -2.5819671    1619.8312  0.087143919  0.087964404            5 
 1550000    0.9985408   -2.5645879    1617.9927  0.086988857  0.087949512            2 
 1551000   0.98132863   -2.5842988    1622.8991  0.087196384  0.087934304            4 
 1552000    1.0041612    -2.592757    1624.6528  0.087234362  0.087918976            2 
 1553000   0.98715993   -2.5938343    1620.3921  0.086949565   0.08790384            2 
 1554000   0.98857394   -2.5946175    1621.3006  0.086942329  0.087889406            2 
 1555000   0.98962787   -2.5969741    1629.1773  0.087308535  0.087874289            3 
 1556000   0.99931317   -2.5814779    1625.4171  0.087051043  0.087859361            2 
 1557000    0.9925323   -2.5823972    1627.4394  0.087103372  0.087844484            1 
 1558000   0.98224954   -2.5866304    1624.2847  0.086878728  0.087829379            4 
 1559000   0.99434494   -2.5814737    1630.8194  0.087172298  0.087814835            1 
 1560000   0.99149112   -2.5909979    1632.7056  0.087217178  0.087799975            1 
 1561000    1.0273159   -2.5766488    1629.7159  0.087001703  0.087784756            3 
 1562000   0.99344356   -2.5891235    1628.8936  0.086902134  0.087769303            1 
 1563000   0.97954051   -2.5718801    1640.1979  0.087449237  0.087754644            2 
 1564000   0.99669096   -2.6094663     1630.376  0.086869992  0.087739975            7 
 1565000     0.983969   -2.5804616    1639.4517  0.087297749  0.087725554            3 
 1566000    1.0148881   -2.5802553    1629.1064  0.086691485  0.087711384            2 
 1567000   0.99872512   -2.5690107    1631.3511  0.086755536  0.087696852            1 
 1568000    1.0011294   -2.5800903    1633.2825  0.086802851  0.087682355            1 
 1569000    1.0363251   -2.5711286    1636.9522  0.086942437  0.087667294            1 
 1570000    1.0061076   -2.5880964    1631.1542  0.086579308  0.087652156            1 
 1571000    1.0028487   -2.5925304    1637.4357  0.086857402  0.087637139            2 
 1572000   0.99486781   -2.5843618    1632.9172  0.086562616  0.087622112            3 
 1573000   0.99766436   -2.5975941    1634.8635  0.086610697  0.087607271            3 
 1574000    1.0227715   -2.5809555     1639.968  0.086825919  0.087592411            3 
 1575000    1.0024531   -2.5897807    1643.3599  0.086950259   0.08757729            2 
 1576000   0.99617968   -2.5995789    1644.7716  0.086969734  0.087561995            2 
 1577000    1.0017228   -2.5591286     1644.768  0.086914394  0.087547399            2 
 1578000   0.98771304   -2.5641701    1648.6634  0.087065027  0.087532697            2 
 1579000   0.97592891   -2.5787194    1642.3869   0.08667864  0.087517964            2 
 1580000   0.99078044   -2.5791925     1651.722   0.08711614  0.087503493            5 
 1581000    1.0154871   -2.5767723    1651.3204  0.087039868   0.08748944            4 
 1582000   0.99330249   -2.5813154    1648.5424  0.086838519  0.087475199            5 
 1583000   0.99269549   -2.6079456    1656.9012  0.087223688  0.087461091            2 
 1584000    1.0067392   -2.5633296    1653.3578  0.086982209  0.087446817            3 
 1585000    1.0001993    -2.571898    1653.1219  0.086914927  0.087432539            1 
 1586000   0.98671071   -2.5809563    1659.4112  0.087190587  0.087418242            3 
 1587000   0.99240416   -2.6000919    1652.4164  0.086768346  0.087404226            2 
 1588000   0.96995123   -2.5905773    1649.7965  0.086576222  0.087390101            1 
 1589000   0.99828609   -2.5914192    1660.3893  0.087077264  0.087376351            4 
 1590000    1.0141734   -2.5977728    1657.7793  0.086885707  0.087362085            1 
 1591000   0.99917765   -2.6061247    1649.2849   0.08638618   0.08734785            4 
 1592000   0.98565267   -2.5951339    1662.9607  0.087047774  0.087333068            3 
 1593000   0.98437542   -2.5977693     1651.206  0.086378219  0.087318501            2 
 1594000   0.98991119   -2.5902327    1653.8884  0.086464259  0.087303751            1 
 1595000    1.0023381   -2.5998856    1657.7686  0.086612782  0.087289081            2 
 1596000    1.0011354   -2.5883593    1655.7819  0.086454777  0.087274702            3 
 1597000    1.0109492   -2.5843548    1659.0467  0.086571001  0.087260284            3 
 1598000    1.0094476   -2.6047531    1665.2842  0.086842106  0.087245989            1 
 1599000    1.0106135   -2.5737233    1661.2046  0.086575182  0.087231567            5 
 1600000   0.99175015   -2.5697518    1672.5775  0.087113411  0.087217904            2 
 1601000   0.99341669   -2.6022672    1666.1248  0.086723133  0.087204002            3 
 1602000   0.99087444   -2.5826985    1668.9826  0.086817653  0.087190099            1 
 1603000   0.97713217   -2.5702802     1666.772  0.086648578  0.087176551            4 
 1604000     1.008016   -2.5853615    1670.4201  0.086784084  0.087162924            1 
 1605000   0.99041395   -2.5896788    1669.8067   0.08669817  0.087149498            3 
 1606000    1.0069919   -2.6047996    1677.9501  0.087066736  0.087136216            3 
 1607000    1.0107251   -2.5870422    1676.1043  0.086916837  0.087122969            1 
 1608000    1.0124615   -2.5912374     1682.346  0.087186255  0.087109465            2 
 1609000   0.98651373   -2.5811522    1666.4203  0.086307244  0.087095956            3 
 1610000    1.0081643   -2.5983707    1675.4224  0.086719588  0.087081758            3 
 1611000   0.98111075    -2.593812    1680.0774  0.086906547  0.087067861            3 
 1612000    1.0155782   -2.6201103    1680.3573  0.086867106  0.087053907            2 
 1613000   0.97620207      -2.5987    1679.7124  0.086779934  0.087040431            1 
 1614000   0.97620472    -2.588645    1675.7264  0.086520366  0.087026556            3 
 1615000    1.0009044   -2.5895202    1682.9721  0.086840668  0.087012717            3 
 1616000    1.0048097   -2.5864993    1677.3086  0.086494872  0.086999203            5 
 1617000   0.98768336   -2.6103809    1678.4991  0.086502739  0.086985455            3 
 1618000   0.99006004   -2.5889812    1686.5317  0.086862986  0.086971938            4 
 1619000    0.9889044   -2.5798746    1683.8619  0.086671909  0.086957836            2 
 1620000   0.99161938   -2.5564227    1686.1402  0.086735609  0.086944222            2 
 1621000   0.97433667   -2.5898857    1682.3895  0.086489282  0.086930302            2 
 1622000   0.98900559   -2.6028919    1677.8559  0.086203036  0.086916324            3 
 1623000    0.9737032   -2.5910318    1686.5597  0.086596822  0.086902362            2 
 1624000    1.0031647   -2.5896883    1681.7797  0.086298217  0.086888632            5 
 1625000    1.0073867   -2.5889909    1682.6552   0.08629001  0.086874621            4 
 1626000   0.97748958    -2.599159    1683.9093  0.086301217  0.086860599            1 
 1627000   0.98980827   -2.6107579    1680.8309  0.086090498  0.086846263            1 
 1628000    1.0025198   -2.5699754    1694.2772  0.086725902  0.086832364            1 
 1629000   0.98512663   -2.5563648    1688.4727  0.086375727  0.086818519            3 
 1630000   0.99318127   -2.5977165    1684.2288  0.086105765  0.086804519            2 
 1631000    1.0003262    -2.582881    1693.2047  0.086511581  0.086790366            2 
 1632000   0.98844231   -2.5987785    1687.5997  0.086172369  0.086776137            2 
 1633000   0.98141455   -2.5913059    1686.8059  0.086079092  0.086761843            1 
 1634000   0.99468046   -2.5886565    1694.4094  0.086414188  0.086748103            3 
 1635000   0.99232926   -2.5814784    1690.2322  0.086148428  0.086734089            2 
 1636000   0.98263626   -2.6032871    1695.3909  0.086358543  0.086720328            2 
 1637000   0.98382486   -2.5819776    1693.6096   0.08621511  0.086706331            2 
 1638000   0.98536774   -2.5868539    1694.2927  0.086197226  0.086692499            1 
 1639000   0.98306401   -2.5995863    1691.4024  0.085997684  0.086678491            2 
 1640000    1.0006241   -2.5856541    1699.8327  0.086373611  0.086664199            2 
 1641000   0.98232222   -2.5806548    1688.2585  0.085733214  0.086650492            3 
 1642000   0.97797274   -2.5925682    1695.4861  0.086047812  0.086636498            3 
 1643000   0.99537261   -2.5871005    1701.7402  0.086312651  0.086622587            3 
 1644000   0.97400567   -2.6028482    1692.4243   0.08578793  0.086608351            4 
 1645000   0.98590615   -2.5826323    1703.5096  0.086297343  0.086594004            3 
 1646000   0.97831293   -2.6037694    1697.1055  0.085920693  0.086579243            3 
 1647000    1.0013456   -2.6136096    1697.6033   0.08589371  0.086564457            3 
 1648000    0.9964839   -2.5854881    1704.0447  0.086167307  0.086549501            6 
 1649000   0.97231239   -2.6092484    1700.2342  0.085922486  0.086534777            2 
 1650000    0.9821738   -2.5964182     1699.559  0.085836312  0.086519733            4 
 1651000    1.0049265   -2.6043069    1706.0413  0.086111511  0.086504822            4 
 1652000   0.99476564   -2.5874055     1704.707  0.085992082  0.086490142            3 
 1653000    1.0128502   -2.5602029    1705.2382  0.085966839  0.086475802            2 
 1654000   0.99099029   -2.6111668    1700.0046  0.085651181  0.086461337            3 
 1655000   0.97935301   -2.6097118    1700.3206  0.085615338  0.086446405            4 
 1656000   0.96510205   -2.6099839    1704.5241  0.085775168  0.086431506            3 
 1657000   0.98936482   -2.5969387    1700.2175  0.085506812  0.086416793            1 
 1658000    1.0028853   -2.6205903    1701.3959  0.085514468  0.086402048            1 
 1659000   0.98868168   -2.5895914    1713.2934  0.086060547  0.086387262            5 
 1660000   0.97035374   -2.5981905    1706.8384  0.085684658  0.086372511            2 
 1661000   0.98125601   -2.5876476    1709.2923  0.085756186  0.086357929            1 
 1662000    1.0004844   -2.6146328    1707.6372    0.0856216  0.086343001            3 
 1663000   0.99238054   -2.6292875    1707.8641  0.085581486  0.086328227            2 
 1664000   0.98290589   -2.5987688    1718.2123  0.086048291  0.086313243            2 
 1665000    1.0015346   -2.5805228    1715.8219  0.085876971  0.086299057            2 
 1666000   0.97967654    -2.609503    1719.6764  0.086018227   0.08628494            4 
 1667000    1.0113743   -2.5844004    1706.5314  0.085309509  0.086270304            2 
 1668000   0.98080951   -2.5993754    1717.2453  0.085793628  0.086255375            5 
 1669000   0.99482611   -2.5977793    1715.7684  0.085668486  0.086240782            4 
 1670000   0.98609658   -2.6092086    1719.0607  0.085781471  0.086226391            1 
 1671000   0.98163544   -2.6112079    1715.5866   0.08555688  0.086211286            2 
 1672000   0.98215776   -2.6095032    1716.9478  0.085573556  0.086196583            1 
 1673000   0.99070364   -2.5930741    1714.1865  0.085384863  0.086181565            2 
 1674000   0.98261805   -2.6233154    1714.7914  0.085363967  0.086166561            2 
 1675000   0.96231112   -2.5812457    1724.7597  0.085808942   0.08615195            4 
 1676000   0.98262507   -2.5964156      1718.77  0.085459925  0.086136739            2 
 1677000   0.99247522   -2.5874187     1726.491  0.085792637  0.086121666            1 
 1678000   0.99106449   -2.6016659    1723.3129  0.085583677  0.086106505            1 
 1679000   0.99096393   -2.6110557    1719.1474  0.085325959  0.086091064            3 
 1680000   0.97035615   -2.5835674    1717.2374  0.085180428  0.086076038            1 
 1681000   0.97220643   -2.5981926    1718.7334  0.085203916  0.086060941            3 
 1682000   0.99882964    -2.601318    1715.3537  0.084985815  0.086045592            1 
 1683000   0.97662859   -2.6111718    1724.2661  0.085376612  0.086030096            1 
 1684000   0.99327968   -2.5899883    1717.2148  0.084976979  0.086014385            2 
 1685000   0.97420041   -2.6114055     1725.552  0.085338873  0.085998722            4 
 1686000   0.97656901    -2.616936    1728.5942   0.08543862  0.085983692            2 
 1687000    0.9764709     -2.58038    1724.0355   0.08516279   0.08596874            1 
 1688000   0.99275543    -2.614176    1721.8222  0.085003069  0.085953485            2 
 1689000   0.95413499   -2.6064053     1733.368  0.085522402   0.08593859            4 
 1690000   0.98603222   -2.6091342    1726.3769  0.085127066  0.085923544            2 
 1691000   0.99080884   -2.5922804    1723.4841  0.084934168  0.085908243            2 
 1692000   0.96752467    -2.620935    1725.3883  0.084977752  0.085892782            3 
 1693000   0.96382281   -2.6212055    1727.0819  0.085010923  0.085877023            2 
 1694000   0.98100679   -2.6085766    1727.8953  0.085000754  0.085861103            3 
 1695000   0.99254385   -2.6058371    1728.1334  0.084962312  0.085845612            2 
 1696000   0.96057393   -2.6133112    1729.4283  0.084975839  0.085830112            1 
 1697000    1.0068557   -2.6071983    1729.2889   0.08491892  0.085815183            2 
 1698000   0.97775462   -2.6032172    1731.7209  0.084988263  0.085800108            4 
 1699000    0.9484371   -2.5871613    1738.5141  0.085271437  0.085785387            3 
 1700000   0.99464022   -2.5958563    1736.9615  0.085145171  0.085770613            2 
 1701000    0.9835627   -2.6084921    1728.8692  0.084698668  0.085756059            4 
 1702000   0.96508942   -2.6161654    1743.0723  0.085344314  0.085741068            3 
 1703000   0.98238402   -2.5953719    1733.1988  0.084811059  0.085726178            2 
 1704000   0.98066553   -2.5890265    1743.9035  0.085284796   0.08571111            3 
 1705000    0.9978733   -2.6186856    1736.6404  0.084879786  0.085696175            3 
 1706000   0.98876426   -2.5970893    1737.4651  0.084870316  0.085681136            3 
 1707000   0.97500975   -2.6054335    1739.6141  0.084925508  0.085665895            2 
 1708000    1.0085845   -2.5817696    1735.7103  0.084685318  0.085650546            2 
 1709000   0.95468798   -2.5796418    1740.9962  0.084893514  0.085635445            3 
 1710000   0.99541271   -2.6292663    1742.5854  0.084921314  0.085620222            2 
 1711000   0.97466948    -2.632356    1738.0746  0.084651987  0.085604917            2 
 1712000   0.94899265   -2.6255274    1745.5321  0.084965543  0.085589482            2 
 1713000   0.96417597   -2.5953595    1744.1655   0.08484946  0.085574617            5 
 1714000   0.97754201   -2.5980694    1747.0095  0.084938231  0.085560301            6 
 1715000   0.97051345   -2.6105846    1758.9139  0.085467148  0.085545389            2 
 1716000     0.966102   -2.5965072    1748.7189  0.084922244  0.085530581            6 
 1717000   0.98840448   -2.6176934    1750.3913  0.084953955  0.085516048            4 
 1718000   0.96857163   -2.5907251    1752.3488  0.084999457  0.085501182            2 
 1719000   0.98607434   -2.5917274    1747.4548  0.084712757  0.085486308            4 
 1720000    0.9710086   -2.5882748    1752.5239  0.084909102   0.08547172            4 
 1721000   0.98628708   -2.6238805    1752.1752  0.084842882  0.085456816            3 
 1722000   0.99171098   -2.6029846    1750.9529  0.084734461  0.085441894            1 
 1723000    0.9771064    -2.619177     1758.791  0.085064372  0.085427347            2 
 1724000    0.9866864   -2.5979525    1754.5035  0.084807787  0.085412749            2 
 1725000   0.98513798   -2.6203824    1756.3685   0.08484872  0.085398072            2 
 1726000    0.9706947   -2.6219833    1754.6954  0.084718783  0.085383433            4 
 1727000   0.98767076   -2.5901619    1746.5754  0.084277908  0.085369291            3 
 1728000   0.97949592   -2.6006433    1756.3239  0.084699264  0.085354693            2 
 1729000   0.96726613   -2.6003384    1752.4825   0.08446513  0.085340027            2 
 1730000    1.0086896   -2.5846868    1761.1739  0.084834964  0.085325814            2 
 1731000   0.97636489   -2.6153598     1767.465  0.085088822  0.085311509            1 
 1732000    0.9781604   -2.6183359    1760.7867  0.084718375  0.085297068            3 
 1733000   0.97688904   -2.6199529    1758.1274  0.084541613  0.085283094            2 
 1734000   0.97630476   -2.6004285    1765.6388  0.084853842  0.085268828            3 
 1735000    1.0067096   -2.6061178    1771.9449  0.085107824  0.085254712            1 
 1736000   0.97372482   -2.6447491    1769.6522  0.084948742  0.085240612            2 
 1737000   0.96875593   -2.6149588    1763.1642  0.084588571  0.085226016            2 
 1738000   0.96797976   -2.5985631    1767.9024  0.084767088   0.08521168            2 
 1739000   0.99934145   -2.6016718    1771.7189  0.084901231  0.085197068            2 
 1740000   0.98872268   -2.6308936    1766.2136  0.084588773  0.085182811            1 
 1741000   0.98386968   -2.6097663    1772.7334  0.084852259  0.085168207            2 
 1742000   0.96698478   -2.6245052    1773.2934  0.084830339  0.085154026            1 
 1743000   0.97687466    -2.624794    1767.9364  0.084525551  0.085139764            3 
 1744000   0.97159131     -2.62994    1770.2278  0.084586575  0.085125836            1 
 1745000   0.97829067   -2.6219915    1776.1175  0.084819363   0.08511166            3 
 1746000   0.98569468   -2.6090193    1776.5156  0.084789788  0.085097592            2 
 1747000   0.95964942   -2.5787152    1786.3226  0.085209052  0.085083777            2 
 1748000   0.94986446   -2.6080091    1773.1495    0.0845323  0.085069834            2 
 1749000   0.98653637   -2.6193221     1776.191  0.084628885  0.085056176            3 
 1750000   0.94893919   -2.6278105    1777.3981  0.084638004  0.085042053            2 
 1751000   0.96720344   -2.6017262    1773.9889   0.08442742  0.085028148            3 
 1752000   0.97108661   -2.6141958     1782.816  0.084799086  0.085014703            1 
 1753000   0.97290437   -2.5912844    1786.8555  0.084942739  0.085000864            2 
 1754000   0.96749207    -2.630561    1785.5541  0.084832482  0.084987323            2 
 1755000   0.98034267   -2.6151568     1782.421  0.084635373  0.084973345            4 
 1756000   0.95984908   -2.6176017    1785.4305  0.084729995  0.084959229            2 
 1757000    0.9712986   -2.6072549    1783.8908  0.084608745  0.084945555            2 
 1758000   0.96716647   -2.6463311    1780.0071  0.084376522  0.084931927            2 
 1759000   0.96997877   -2.6037117    1785.6918  0.084597867  0.084917788            2 
 1760000    0.9538287   -2.5952358    1789.5389  0.084731958  0.084904081            2 
 1761000   0.98573231   -2.6226832    1779.6943  0.084217978  0.084890035            1 
 1762000   0.96772246    -2.634374    1786.3059  0.084482875  0.084876087            2 
 1763000   0.96397736   -2.5909639     1794.758  0.084834465  0.084862344            1 
 1764000   0.97980873   -2.6320735    1790.5489  0.084587534  0.084848514            5 
 1765000   0.94930191   -2.5980401     1791.241  0.084572287  0.084834208            1 
 1766000   0.97586349   -2.6028512    1786.8227  0.084315908  0.084820217            1 
 1767000   0.96217344   -2.6032533    1789.0877  0.084375011  0.084806283            1 
 1768000   0.99246163   -2.6147747    1791.5508  0.084443382  0.084792251            3 
 1769000   0.94979329   -2.6166092    1783.9413  0.084037184  0.084778252            2 
 1770000   0.95912949   -2.6094194    1799.0337  0.084700269  0.084764435            1 
 1771000   0.96877588   -2.5819008    1789.8764  0.084221553  0.084750567            2 
 1772000   0.97884157   -2.6069084    1798.3286  0.084571508  0.084736729            2 
 1773000   0.97222381   -2.6271689    1799.5915  0.084583167  0.084723065            2 
 1774000   0.96534778   -2.5883137    1799.8736  0.084548741  0.084709191            3 
 1775000   0.95850682   -2.6194452     1797.936  0.084410139  0.084695183            4 
 1776000   0.98618747   -2.6469693    1793.7066  0.084164162   0.08468142            2 
 1777000   0.96626446   -2.6175054     1798.901  0.084360392  0.084667379            2 
 1778000   0.98764043   -2.6182734    1798.8656  0.084311288  0.084652768            3 
 1779000   0.97015663   -2.6201535    1807.5657  0.084671432  0.084638691            2 
 1780000     0.961287   -2.6208412    1789.0138  0.083755329  0.084624474            2 
 1781000    0.9869929   -2.6132321    1796.3252  0.084050403  0.084610717            4 
 1782000   0.97030277   -2.6133862    1808.3051  0.084563465  0.084596702            1 
 1783000   0.95475978   -2.6131105    1798.9157  0.084077197  0.084582813            2 
 1784000   0.93444222   -2.6406542    1798.3062  0.084001599  0.084568421            3 
 1785000   0.96071191   -2.6236671    1801.2812  0.084093427  0.084554277            4 
 1786000   0.96750475   -2.6178537    1805.9282  0.084263167  0.084540299            2 
 1787000    0.9703196   -2.6160705    1807.9459  0.084310108  0.084526535            4 
 1788000    0.9611005   -2.6490691    1801.9913  0.083985425  0.084512919            3 
 1789000   0.97067634   -2.6361637    1802.4615  0.083960384  0.084499419            2 
 1790000   0.97612462   -2.6152402    1812.6802  0.084389209  0.084486058            2 
 1791000   0.95900575   -2.6295731    1812.8291  0.084349018  0.084472618            2 
 1792000   0.97755339   -2.6303055    1809.6183  0.084152635  0.084459594            1 
 1793000   0.94721876   -2.6258326    1817.7798  0.084485027  0.084446378            1 
 1794000    0.9525861    -2.646282    1814.8498   0.08430183  0.084433165            3 
 1795000   0.96410858   -2.6364739    1810.4561  0.084050886  0.084419913            3 
 1796000   0.95415942    -2.615981    1820.6949  0.084479162   0.08440693            2 
 1797000   0.94978068   -2.6424956    1816.0433  0.084216438  0.084393998            1 
 1798000   0.97242003   -2.6263521    1821.5818  0.084426299  0.084381373            2 
 1799000   0.97535392   -2.6315175    1825.0441  0.084539749  0.084368818            2 
 1800000   0.97701159   -2.6514704    1826.0237  0.084538134  0.084356375            1 
 1801000   0.96927803   -2.6210605    1821.8026  0.084295881  0.084344219            4 
 1802000   0.95188974   -2.6219303    1826.0964  0.084447669  0.084331586            2 
 1803000   0.96233098   -2.6276051    1830.8785  0.084621857  0.084319493            3 
 1804000   0.97304804   -2.6187076    1828.1274  0.084447865  0.084306744            6 
 1805000   0.96133156   -2.6339856    1821.1666  0.084079714  0.084294056            3 
 1806000   0.95401491   -2.6387318    1823.6867   0.08414944  0.084281651            2 
 1807000    0.9604672   -2.6196554    1825.2272  0.084173915  0.084269023            2 
 1808000   0.96798317   -2.6613501    1827.3488  0.084225147  0.084256394            4 
 1809000    0.9742149   -2.5999989    1830.0487  0.084302961  0.084243761            2 
 1810000   0.94971854   -2.6326989    1831.2424  0.084311346  0.084230946            3 
 1811000   0.95462434   -2.6192219    1835.2438  0.084448914  0.084218527            2 
 1812000   0.95998045   -2.6262616    1826.7178  0.084010198  0.084205931            9 
 1813000   0.95929577   -2.6466416    1834.7285   0.08433207  0.084193686            1 
 1814000   0.97056595   -2.6048991    1830.5167  0.084092093  0.084181281            4 
 1815000   0.95248405   -2.6510217    1843.5205  0.084642814  0.084168629            6 
 1816000   0.95825164   -2.6185696    1841.4379  0.084500638  0.084156197            1 
 1817000    0.9727477    -2.643462    1837.3573  0.084266983  0.084143783            5 
 1818000   0.95248642   -2.6210762    1835.9338   0.08415538  0.084131738            2 
 1819000   0.95631925   -2.6523065    1833.8768   0.08401488  0.084119679            2 
 1820000   0.97650708   -2.6318909    1837.5332  0.084136136  0.084107265            2 
 1821000   0.96789955   -2.6300754     1843.126  0.084345872  0.084095326            3 
 1822000   0.94111378   -2.6202861    1846.1626  0.084438464  0.084083499            3 
 1823000   0.98975053   -2.6080403    1839.3153  0.084079142  0.084071863            2 
 1824000   0.95285297   -2.6492803    1848.3208  0.084444481  0.084060247            2 
 1825000   0.93988969   -2.6362954    1852.2516  0.084577701  0.084048458            2 
 1826000   0.97426895   -2.6146566    1849.5481     0.084408  0.084036876            1 
 1827000   0.93267797   -2.6312495    1850.4738  0.084404022   0.08402496            3 
 1828000    0.9727157   -2.6114428    1851.3169  0.084396286  0.084013199            4 
 1829000   0.94899661   -2.6149389     1855.182  0.084526243  0.084001733            2 
 1830000   0.98493917   -2.6209546    1852.2471  0.084346405  0.083990456            1 
 1831000   0.94636783   -2.6103537    1853.5346  0.084358937  0.083979122            2 
 1832000   0.94545627   -2.5956431    1852.6546  0.084272861  0.083967602            2 
 1833000   0.95809815    -2.646448      1855.72  0.084366248  0.083956313            5 
 1834000   0.95212225   -2.6241011    1856.2778  0.084345593  0.083944837            2 
 1835000   0.94751035   -2.6003498    1856.1347  0.084293131  0.083933501            2 
 1836000   0.94214031   -2.6414767    1854.2754  0.084162827  0.083921886            2 
 1837000    0.9417952   -2.6387636    1852.2991  0.084027358  0.083910429            2 
 1838000   0.95918421   -2.6287084    1868.0851  0.084697366  0.083899031            2 
 1839000   0.96331623   -2.6167151    1856.0774  0.084107186   0.08388761            4 
 1840000   0.95644368   -2.6290049    1863.0569  0.084377575  0.083876182            3 
 1841000   0.96071497   -2.6362406    1863.7393  0.084362633  0.083864698            4 
 1842000   0.97435352   -2.6445027    1857.5711  0.084037782  0.083853166            3 
 1843000   0.95649243   -2.6090861    1870.7985  0.084590275  0.083841956            2 
 1844000   0.97029312   -2.6255593    1872.8052  0.084635087  0.083830922            2 
 1845000   0.96716339   -2.6326373    1859.1048  0.083970409  0.083819217            1 
 1846000   0.97034246   -2.6130763    1870.2832  0.084429543  0.083807717            3 
 1847000   0.96011007    -2.649993    1862.7922  0.084045847  0.083796036            1 
 1848000   0.96680125   -2.6379722    1864.2041  0.084064038  0.083784364            2 
 1849000   0.92125968   -2.6329693    1867.4582  0.084165235  0.083772722            2 
 1850000   0.98009264   -2.6415382    1865.0447  0.084011023  0.083760935            2 
 1851000   0.95509901    -2.629681    1866.5309  0.084032546  0.083749138            1 
 1852000      0.95809   -2.6619656    1860.2079  0.083702661  0.083737619            2 
 1853000   0.95008629   -2.5950569    1877.3236  0.084427219   0.08372589            1 
 1854000   0.94960283   -2.6290041    1864.1969  0.083791663  0.083714499            1 
 1855000    0.9506821   -2.6358078    1878.4368  0.084386198  0.083702783            2 
 1856000   0.94576812   -2.6238212     1874.643  0.084170395  0.083691211            3 
 1857000   0.97072341   -2.6016165     1873.852  0.084089573  0.083679639            3 
 1858000   0.94928326    -2.622424     1866.181  0.083700259  0.083667819            1 
 1859000   0.96518031    -2.633268    1873.5119   0.08398386  0.083655844            2 
 1860000   0.94970692   -2.6020215    1869.9258  0.083778037  0.083644069            2 
 1861000   0.94482983   -2.6215859    1874.5304  0.083939209  0.083631862            3 
 1862000   0.94969007   -2.6353563    1870.4381   0.08371098  0.083619791            2 
 1863000   0.95684692    -2.640863    1871.6775  0.083721486   0.08360735            3 
 1864000   0.93413852   -2.6382338    1877.8414  0.083952135  0.083595679            1 
 1865000   0.95503576   -2.6383239    1869.6453  0.083540896  0.083583461            2 
 1866000   0.94254318   -2.6489944    1870.6528  0.083541122  0.083571339            2 
 1867000   0.91787033   -2.6402514    1875.2138  0.083699953  0.083559372            4 
 1868000   0.93530884   -2.6426545    1877.7648   0.08376895  0.083546803            2 
 1869000   0.96928129   -2.6589559    1880.7646  0.083857884  0.083534579            2 
 1870000   0.93360325   -2.6552814    1882.9559   0.08391069  0.083522126            3 
 1871000   0.95738148   -2.6367191    1873.1222  0.083427855  0.083509522            2 
 1872000   0.94684087   -2.6609405    1877.5526  0.083580512  0.083497044            2 
 1873000   0.96226601   -2.6327343    1869.9048  0.083195622   0.08348474            3 
 1874000   0.94808836   -2.6505162     1880.891  0.083639763  0.083472035            1 
 1875000   0.96117656   -2.6509356    1881.9521  0.083642316  0.083459454            2 
 1876000   0.95503598   -2.6465668    1877.3359  0.083392674  0.083446514            4 
 1877000   0.94648469   -2.6242478     1880.439  0.083486017  0.083433898            1 
 1878000   0.91578508   -2.6360513    1880.1803  0.083430083  0.083421376            2 
 1879000   0.96050242   -2.6549445    1873.8209  0.083103642   0.08340822            4 
 1880000   0.95357746   -2.6483921    1880.1646  0.083340628  0.083395514            3 
 1881000   0.96044949   -2.6548804    1883.4717  0.083442835  0.083382927            3 
 1882000   0.97272966   -2.6297556    1888.4801  0.083620266  0.083370345            3 
 1883000   0.94819599    -2.638904    1881.7107  0.083276274  0.083358016            2 
 1884000   0.95590499   -2.6430754    1886.0829  0.083425466  0.083345293            3 
 1885000    0.9599397    -2.628104    1882.6523  0.083229546  0.083332713            1 
 1886000   0.94658627   -2.6368213    1883.6613  0.083229997  0.083319927            2 
 1887000   0.95075567   -2.6363455    1883.5066  0.083179058  0.083307217            4 
 1888000    0.9502973   -2.6469863     1892.595  0.083536147  0.083294397            2 
 1889000   0.94533778   -2.6417606    1877.9029  0.082843783   0.08328153            2 
 1890000   0.93917481    -2.679553    1882.9236  0.083021321  0.083268418            4 
 1891000   0.96023076   -2.6588786    1886.1944  0.083121557  0.083255633            3 
 1892000   0.95682229    -2.640162    1886.3134  0.083082867  0.083242885            1 
 1893000   0.93764352   -2.6404207     1888.167  0.083120578  0.083230059            1 
 1894000   0.93899282   -2.6486809    1886.8777  0.083019964  0.083216964            1 
 1895000   0.95432389   -2.6260191    1890.9365  0.083154639  0.083204175            2 
 1896000   0.94220801   -2.6538239    1888.1221  0.082987081  0.083191416            1 
 1897000   0.95760209   -2.6867104    1893.0728  0.083160814  0.083177988            3 
 1898000   0.93603666   -2.6113712    1896.3658  0.083261582  0.083165057            2 
 1899000   0.92865717   -2.6474986    1895.1124  0.083162736  0.083151904            3 
 1900000   0.93802264   -2.6628587    1891.8698  0.082976746  0.083138742            1 
 1901000    0.9369441   -2.6690574    1887.4452  0.082739138  0.083125271            2 
 1902000   0.96112881    -2.623871    1897.2639  0.083125826  0.083112109            3 
 1903000   0.93156929   -2.6204967    1899.1006  0.083162577  0.083099122            8 
 1904000   0.94762995   -2.6563585    1892.9873  0.082851335  0.083085878            4 
 1905000   0.95124221   -2.6313531    1897.5598  0.083007863  0.083072561            2 
 1906000    0.9250788   -2.6384268    1890.5839  0.082659315  0.083059106            2 
 1907000   0.94621275   -2.6438347    1899.4214   0.08300216  0.083045591            2 
 1908000    0.9519565   -2.6557455    1887.8078  0.082451424  0.083031841            4 
 1909000   0.95423277   -2.6199477    1898.4415  0.082872423  0.083018193            3 
 1910000   0.95513347   -2.6619507    1898.7058  0.082840566  0.083004825            3 
 1911000   0.92281352   -2.6422664    1906.2419  0.083125845  0.082991068            4 
 1912000   0.94121379   -2.6276618    1896.5101  0.082658216  0.082977647            3 
 1913000   0.95864784   -2.6725921    1891.0108  0.082375447  0.082964573            3 
 1914000   0.94350151   -2.6512458    1894.0942   0.08246666  0.082950873            3 
 1915000    0.9446485   -2.6534322    1904.5911  0.082880378  0.082937565            2 
 1916000   0.95102364   -2.6560872    1900.3324  0.082651898  0.082924132            4 
 1917000   0.93210492   -2.6921411    1897.9428  0.082504905   0.08291069            1 
 1918000   0.94003744   -2.6376224    1910.8889   0.08302437   0.08289736            2 
 1919000   0.94796883   -2.6570207     1904.964  0.082723817  0.082884228            3 
 1920000   0.96028279   -2.6229631    1903.6236  0.082622553  0.082870825            2 
 1921000   0.93582927   -2.6394194    1898.6762  0.082364924  0.082857443            2 
 1922000   0.94627328   -2.6748718    1908.9225  0.082766325  0.082844051            2 
 1923000   0.94220898   -2.6234192    1906.7044  0.082627163  0.082830832            2 
 1924000    0.9594368   -2.6444661    1903.2488  0.082434544  0.082817221            2 
 1925000   0.95333338   -2.6490809    1910.1499  0.082690473  0.082803616            7 
 1926000   0.95299958   -2.6476151    1910.6086  0.082667386  0.082790145            2 
 1927000   0.94755775   -2.6377348    1907.7666  0.082501581  0.082776632            4 
 1928000   0.94440143   -2.6419049    1911.4005  0.082615858  0.082763447            1 
 1929000   0.95323991   -2.6598077    1914.7291  0.082716826  0.082750234            4 
 1930000   0.94943112   -2.6426183    1908.4271  0.082401862  0.082736973            4 
 1931000    0.9491532   -2.6438276    1918.6733  0.082801369  0.082723551            4 
 1932000   0.95587396   -2.6380717    1909.9812  0.082383592  0.082709841            3 
 1933000   0.94392988   -2.6733581    1915.7553  0.082589899   0.08269653            2 
 1934000   0.96726021   -2.6248331     1913.158  0.082435281  0.082683235            2 
 1935000   0.94951954   -2.6478566    1914.7462  0.082461077    0.0826702            2 
 1936000   0.94553455     -2.62039    1924.7993  0.082851209  0.082657352            1 
 1937000   0.96238206   -2.6719946    1918.0525  0.082518177   0.08264428            3 
 1938000     0.954042   -2.6599343    1925.1218  0.082779576  0.082630934            3 
 1939000   0.94257933   -2.6443853    1915.1377  0.082307792  0.082617652            3 
 1940000    0.9408379   -2.6709733    1910.1086  0.082049338  0.082604378            3 
 1941000    0.9563882   -2.6410595    1918.5223  0.082368292  0.082590892            3 
 1942000   0.92906293   -2.6521859    1920.0559  0.082391688  0.082577733            4 
 1943000   0.94467625   -2.6476323    1919.8978  0.082342502  0.082564425            4 
 1944000   0.93589823   -2.6627418    1920.9941  0.082347143  0.082551339            3 
 1945000   0.96711988    -2.660548    1926.2462  0.082529829   0.08253793            1 
 1946000   0.92986759   -2.6483344    1918.4441  0.082153311  0.082524783            2 
 1947000   0.91932437   -2.6495166    1924.1354  0.082354707  0.082511167            2 
 1948000   0.93901533   -2.6665313    1929.6198  0.082547046  0.082498015            2 
 1949000   0.94190077   -2.6541067    1916.6731  0.081951135    0.0824847            3 
 1950000   0.93437895   -2.6729956    1930.3276  0.082492633  0.082471253            3 
 1951000   0.93423766   -2.6466144    1924.3082  0.082193244  0.082457709            4 
 1952000   0.94586678   -2.6437672    1920.6285  0.081994046   0.08244442            2 
 1953000   0.93469255   -2.6512254    1925.6175  0.082164938  0.082430997            2 
 1954000    0.9527074    -2.662455    1931.8395  0.082388242  0.082417981            2 
 1955000   0.93568844   -2.6429777    1930.1031  0.082272086   0.08240502            2 
 1956000   0.93581379   -2.6632239    1932.1475  0.082317123  0.082391749            3 
 1957000   0.94700285   -2.6848364    1926.3701  0.082029044  0.082378718            1 
 1958000   0.93292972   -2.6385882    1928.4403   0.08207526  0.082365446            3 
 1959000   0.94584879    -2.648512    1931.6325  0.082169156  0.082351997            2 
 1960000   0.95343765   -2.6691129     1929.326  0.082029168  0.082338715            2 
 1961000   0.92681197   -2.6701789    1931.4271  0.082076621  0.082325059            3 
 1962000   0.91884021   -2.6497128    1933.0761  0.082104829  0.082311632            1 
 1963000   0.94841026   -2.6506453    1921.5116  0.081572068  0.082297963            3 
 1964000   0.92900512   -2.6389863    1931.7819  0.081966305  0.082284413            3 
 1965000   0.94454808   -2.6490548    1940.9186   0.08231207  0.082270885            2 
 1966000   0.94680172    -2.634258     1935.459  0.082038783  0.082257016            4 
 1967000   0.93101028   -2.6800128    1931.5402  0.081831056  0.082243368            3 
 1968000   0.95137648   -2.6592436    1934.4747  0.081913731  0.082229544            1 
 1969000   0.93151212   -2.6621284     1940.675  0.082134544  0.082215923            4 
 1970000   0.92157362   -2.6891565    1927.8274  0.081549381  0.082202412            2 
 1971000   0.95313177   -2.6701241     1934.957  0.081809443  0.082188434            1 
 1972000   0.95037976   -2.6312807    1943.3801  0.082123907  0.082174988            2 
 1973000   0.93561947   -2.6460056      1936.69  0.081799715   0.08216153            4 
 1974000   0.94899123   -2.6455861    1940.2305  0.081907737   0.08214797            2 
 1975000   0.92971777   -2.6534726    1941.0067  0.081899018  0.082134533            2 
 1976000   0.92138024   -2.6685152    1938.1093  0.081735377  0.082121275            1 
 1977000   0.94355137   -2.6351673     1945.464  0.082004046  0.082108067            1 
 1978000   0.95624645   -2.6665256    1943.4296  0.081876881  0.082094742            6 
 1979000   0.94278246   -2.6812311    1936.5807  0.081547105  0.082080976            2 
 1980000   0.91709622   -2.6851042     1942.476   0.08175404  0.082067421            2 
 1981000   0.92056093   -2.6455838    1953.0666   0.08215828  0.082053659            2 
 1982000   0.93965784   -2.6518891    1944.3224  0.081749177  0.082040163            3 
 1983000   0.93440795     -2.66694    1943.8339  0.081687422  0.082026663            3 
 1984000   0.93207992   -2.6722102    1947.3739   0.08179494  0.082013083            2 
 1985000   0.93937748   -2.6676124    1943.0447  0.081571986  0.081999725            3 
 1986000   0.93813016    -2.661394    1956.9955  0.082116293  0.081986554            5 
 1987000   0.92800151   -2.6563693    1947.7018  0.081685197  0.081973114            2 
 1988000   0.91313485   -2.6456132    1953.1976  0.081874482  0.081959628            3 
 1989000   0.92609213   -2.6761114    1949.9874   0.08169882  0.081946195            2 
 1990000   0.93909201   -2.6619624    1947.0649  0.081535383  0.081932519            2 
 1991000   0.93650552    -2.663136    1944.6242  0.081392273  0.081918819            3 
 1992000   0.91320752   -2.6633443    1947.1579  0.081457408  0.081905002            1 
 1993000   0.94721407   -2.6590348    1948.4136   0.08146904  0.081891383            3 
 1994000   0.91557951   -2.6563268    1951.5183  0.081557935  0.081877797            2 
 1995000   0.94003775   -2.6478096    1951.9699   0.08153592  0.081864159            2 
 1996000   0.95275854   -2.6611618    1953.6329  0.081564499  0.081850564            3 
 1997000   0.94429363   -2.6562204     1950.185  0.081379778  0.081836444            3 
 1998000   0.90518268   -2.6468657    1956.0142  0.081582172  0.081822603            3 
 1999000   0.92832544    -2.665035    1955.4383  0.081517355  0.081808721            1 
 2000000   0.94809121   -2.6446155    1962.1153  0.081754802   0.08179475            1 
 2001000   0.94656911   -2.6405995    1958.0603  0.081545074  0.081780299            2 
 2002000   0.93757424   -2.6705383    1954.5492   0.08135819  0.081766116            4 
 2003000   0.94552718   -2.6681021    1954.4972  0.081315412  0.081752203            2 
 2004000   0.93277137   -2.6599419    1950.7032  0.081117064  0.081738058            2 
 2005000   0.92237118   -2.6584264      1957.95  0.081377806  0.081723858            2 
 2006000   0.92234392   -2.7038008    1958.2743  0.081350711  0.081709894            2 
 2007000   0.91903898   -2.6439752    1951.1898   0.08101602  0.081695891            4 
 2008000   0.91308744   -2.6845662    1959.6815  0.081328085  0.081682253            4 
 2009000   0.91241392    -2.651916    1955.6865  0.081121889  0.081668415            4 
 2010000   0.93345585   -2.6793042    1966.3723  0.081524557  0.081654558            3 
 2011000   0.94734368   -2.6675507    1959.9286  0.081216998  0.081641106            3 
 2012000   0.93711482   -2.6884656    1962.7719  0.081294396  0.081627111            2 
 2013000   0.93094235    -2.672281    1960.6406   0.08116578  0.081613169            6 
 2014000   0.91431274   -2.6656226    1962.9682  0.081221789  0.081599173            2 
 2015000   0.93641803   -2.6745935    1963.4474    0.0812013  0.081585416            4 
 2016000   0.95291921    -2.707073    1967.3538  0.081322497  0.081571729            4 
 2017000   0.92607285   -2.6648996    1964.4288  0.081161327  0.081557908            2 
 2018000   0.92667038   -2.6724002     1965.101  0.081148867    0.0815443            4 
 2019000   0.94830688   -2.6735689    1968.9436  0.081267276  0.081530723            1 
 2020000   0.92179747   -2.6551497    1971.7271  0.081341876  0.081517315            3 
 2021000   0.91885271   -2.6611466    1969.9858  0.081229826  0.081503546            3 
 2022000   0.92808113   -2.6759941    1966.2594  0.081036078  0.081489787            3 
 2023000   0.92698781   -2.6856381    1974.9725  0.081354938  0.081475899            3 
 2024000   0.94479357   -2.6662109    1979.6759  0.081508395  0.081461876            3 
 2025000    0.9273849   -2.6841959     1962.615  0.080766051  0.081447749            3 
 2026000   0.93187884    -2.651048    1972.3939  0.081128409  0.081433664            1 
 2027000   0.93142446   -2.6678196    1968.1621  0.080914411  0.081419858            7 
 2028000   0.91361235   -2.6574397    1965.5331  0.080766483  0.081405866            2 
 2029000   0.92893173   -2.6791341    1973.6758  0.081061106  0.081391785            2 
 2030000   0.91694591   -2.6955922    1972.2986  0.080964638  0.081377303            2 
 2031000   0.93102316   -2.6830555    1966.6738  0.080693986  0.081362961            4 
 2032000   0.91044688   -2.6881414    1979.0422  0.081161506   0.08134865            2 
 2033000   0.92893722   -2.6626756    1968.4022  0.080685448  0.081334615            2 
 2034000   0.91208555   -2.6731035    1969.8123  0.080703553  0.081320131            3 
 2035000   0.93077151   -2.6771482    1977.3026  0.080970621  0.081305466            2 
 2036000   0.90675971   -2.6711542    1971.3212  0.080686034  0.081290994            3 
 2037000   0.92653056   -2.6536164    1974.1748  0.080763164  0.081276502            3 
 2038000   0.93012955   -2.6855367    1971.4759   0.08061318    0.0812623            3 
 2039000   0.93008864   -2.6880948    1972.9637  0.080634448  0.081247812            3 
 2040000    0.9437131   -2.6651102     1978.261  0.080811316  0.081233644            3 
 2041000    0.9210523   -2.6826328    1976.2816  0.080690903  0.081219286            5 
 2042000   0.93129105   -2.6794498    1974.7369  0.080588349  0.081204716            3 
 2043000   0.90553969   -2.6783895    1976.0986  0.080604444  0.081190397            2 
 2044000   0.94037479   -2.6700672    1976.9657  0.080600364  0.081175862            5 
 2045000   0.91808081   -2.6550564    1979.4795  0.080663386  0.081161869            1 
 2046000   0.94693984   -2.6752584    1980.5888  0.080669144  0.081147778            3 
 2047000    0.9143496   -2.6977576    1980.6331  0.080631537   0.08113321            1 
 2048000   0.92811691   -2.6855218     1975.282   0.08037443  0.081118845            3 
 2049000   0.92909771   -2.6521051    1987.3025   0.08082408  0.081104451            2 
 2050000   0.93341518   -2.6725235    1971.4292    0.0801394  0.081090067            2 
 2051000   0.91819372   -2.6799723    1979.0002  0.080407938  0.081075654            2 
 2052000    0.9050434    -2.667252    1981.9127  0.080487032  0.081061434            3 
 2053000   0.94038436   -2.6908057    1986.7042  0.080642319  0.081047234            3 
 2054000   0.91601896   -2.6743278     1984.572  0.080516552  0.081033044            2 
 2055000   0.92016006   -2.7129862    1980.3753  0.080307192  0.081018728            8 
 2056000   0.93372861   -2.6740178    1980.8291  0.080286522  0.081004681            3 
 2057000   0.91462052   -2.7069712    1984.6461  0.080402127  0.080990293            2 
 2058000   0.90752678   -2.6548368    1990.1962  0.080587796  0.080976091            3 
 2059000   0.91792867   -2.6730087    1991.7503  0.080611556  0.080962388            4 
 2060000   0.91628183    -2.685335    1983.3728  0.080233528  0.080948011            3 
 2061000   0.91974023   -2.6868069    1983.8269  0.080212959  0.080933593            2 
 2062000   0.92232421    -2.641992    1987.8826  0.080337965  0.080919377            2 
 2063000   0.93609826     -2.65518     1989.002  0.080344241   0.08090505            3 
 2064000   0.91661125   -2.6571168    1995.0971  0.080551403  0.080890566            2 
 2065000    0.9301681   -2.6816506     1988.354  0.080240275  0.080876193            3 
 2066000   0.92997264   -2.6754962    1985.1133   0.08007072  0.080861421            2 
 2067000   0.93095608   -2.6706294    1991.3974  0.080285334  0.080846872            2 
 2068000   0.92700412    -2.692482    1991.3277  0.080243703  0.080832333            5 
 2069000   0.92410608   -2.6785358    1990.0649  0.080154055  0.080817494            3 
 2070000   0.94224935   -2.6472778    1992.5674  0.080216081  0.080802842            3 
 2071000    0.9378707   -2.6783635    1993.5163  0.080215528  0.080788303            2 
 2072000   0.90646227   -2.6574303    1985.9874  0.079874011  0.080773726            5 
 2073000   0.90935356   -2.6846399    1990.3019   0.08000892  0.080758959            3 
 2074000   0.92361665   -2.6775584    1992.3097  0.080051017  0.080744061            3 
 2075000   0.92587187   -2.6669385    1999.9689  0.080320037  0.080729233            3 
 2076000   0.91463689   -2.6934199    1995.7139  0.080110543  0.080714524            5 
 2077000   0.92253774   -2.6613566    1995.9962  0.080083299  0.080699575            2 
 2078000   0.91127866   -2.6710084    1989.9093  0.079800664  0.080684595            4 
 2079000   0.93274028   -2.6784049    2002.0922  0.080250609  0.080669512            2 
 2080000   0.89531737   -2.6625207    1995.9294  0.079965119  0.080654426            2 
 2081000   0.91531829   -2.6757176    2001.0244  0.080130722  0.080639052            5 
 2082000   0.90228897   -2.6880998    1993.4028  0.079787175  0.080623901            3 
 2083000   0.91875781   -2.6664397    1992.7811     0.079724  0.080608737            2 
 2084000   0.92883768    -2.700278    1993.8306  0.079727711  0.080593437            2 
 2085000   0.91943166   -2.6817043    1996.4947  0.079795951   0.08057785            3 
 2086000   0.91505215    -2.678284    1998.0844  0.079821205  0.080562365            4 
 2087000    0.9056964   -2.6747855    1998.7768  0.079810606  0.080547037            3 
 2088000   0.91467681   -2.6822491    1998.0878  0.079744882  0.080531725            3 
 2089000   0.93252669   -2.6709845    1996.1098  0.079627803  0.080516417            5 
 2090000   0.93187633   -2.6891893    1995.1076  0.079549745   0.08050112            2 
 2091000   0.90217561   -2.6670178    2002.5089  0.079806666  0.080485764            4 
 2092000   0.91114476   -2.6824899    1998.4878  0.079608343  0.080470245            3 
 2093000   0.91375926   -2.6741273    1998.3712  0.079565664  0.080455082            2 
 2094000   0.91087174   -2.6691344    2004.8131   0.07978403   0.08043952            1 
 2095000    0.9420712   -2.6884004    2006.9795  0.079832121  0.080424496            7 
 2096000   0.89750153   -2.6883366    2008.1049  0.079838777  0.080409441            3 
 2097000   0.90403213    -2.672455    2006.9708  0.079755634  0.080394267            3 
 2098000   0.91899395   -2.6768032    2005.4725  0.079658108   0.08037928            2 
 2099000   0.89848287   -2.6710681    2006.8909  0.079676471  0.080364424            3 
 2100000   0.92179955   -2.6820519    2003.3483  0.079497949  0.080349491            2 
 2101000   0.89582175   -2.6969186    2009.8451  0.079717796  0.080334406            4 
 2102000   0.90036788   -2.6815218    2008.3829  0.079621906  0.080319409            2 
 2103000    0.9041736   -2.6791342    2002.0007  0.079331142  0.080304519            2 
 2104000   0.90431101   -2.6973991    2020.2156  0.080014877  0.080289467            1 
 2105000   0.91955101   -2.6851685    2013.5797  0.079714161  0.080274802            2 
 2106000   0.92897124    -2.689432    2012.6104  0.079637956  0.080259992            3 
 2107000   0.92021154   -2.6929063    2016.8786  0.079768969  0.080245181            1 
 2108000   0.90256467   -2.6730427    2015.4626  0.079675149  0.080230543            2 
 2109000   0.90321715   -2.6973361    2017.5214   0.07971872  0.080215592            2 
 2110000   0.92596204   -2.6677978    2015.9071  0.079617185  0.080200596            3 
 2111000   0.93684338   -2.6683659     2004.621  0.079133943  0.080185743            2 
 2112000   0.91157413   -2.7022727    2013.0746  0.079430025  0.080170547            3 
 2113000   0.89070246   -2.6831497    2008.0488  0.079194225  0.080155293            4 
 2114000   0.89078551   -2.6829334    2015.2625  0.079441126  0.080140032            2 
 2115000   0.91494053   -2.6748534    2016.1889  0.079440067  0.080125002            3 
 2116000   0.91515487   -2.6719382     2017.848  0.079467863  0.080109976            2 
 2117000   0.91516645    -2.677354    2016.4746  0.079376264  0.080094743            2 
 2118000   0.92399319   -2.6733965    2015.0975  0.079284605  0.080079718            3 
 2119000   0.90041325   -2.6841568    2012.7423  0.079154564   0.08006462            2 
 2120000   0.90728384   -2.6802076     2014.547  0.079188169  0.080049222            2 
 2121000   0.90415997    -2.711775    2012.0697  0.079053499  0.080033963            4 
 2122000   0.90342388   -2.6635272     2017.906  0.079245444  0.080018642            4 
 2123000   0.93735899   -2.6995453    2023.2276  0.079417005  0.080003317            3 
 2124000   0.92355147   -2.7137857    2018.7298  0.079203148  0.079987974            3 
 2125000   0.91196618   -2.6742564    2009.3235  0.078797002  0.079972689            4 
 2126000   0.90861221   -2.6946102    2016.1409   0.07902716  0.079957695            2 
 2127000   0.92253154   -2.6857815    2027.5223  0.079435915  0.079942623            2 
 2128000   0.93400236   -2.6718461    2016.2208  0.078956015  0.079927618            2 
 2129000   0.92349471   -2.6738238    2020.5053  0.079086633  0.079912357            3 
 2130000   0.90365936   -2.6923013    2026.0853  0.079267813  0.079897204            3 
 2131000   0.90906064   -2.6759756    2018.8747  0.078948641  0.079881908            4 
 2132000   0.90968936   -2.6828395    2025.6041  0.079174643  0.079867012            2 
 2133000   0.89849016   -2.6920999    2024.1866  0.079082145  0.079852029            4 
 2134000    0.9231094   -2.7037138    2019.4197  0.078858939  0.079837018            2 
 2135000   0.91140167   -2.6732678    2027.5018  0.079137464  0.079821635            3 
 2136000   0.92037829   -2.6866418    2036.7913  0.079462833  0.079806513            1 
 2137000   0.88830194   -2.7013725    2028.9404  0.079119498   0.07979135            3 
 2138000   0.89592053   -2.6841114    2028.7243   0.07907407  0.079776236            5 
 2139000   0.92406858    -2.680292    2027.8384  0.079002588  0.079761431            3 
 2140000     0.915739   -2.6618303    2032.4515  0.079145309  0.079746699            2 
 2141000   0.91572908   -2.6917554    2028.7954  0.078966037  0.079731929            4 
 2142000   0.92178296   -2.7203949    2028.4972  0.078917571  0.079716998            2 
 2143000   0.90213193    -2.703672    2024.9844  0.078744144  0.079701972            5 
 2144000   0.90337547   -2.6790954    2036.9364  0.079171969  0.079687029            2 
 2145000   0.91419268   -2.6875822    2033.5298  0.079002712  0.079672068            1 
 2146000   0.93991832   -2.7123422    2028.2436  0.078760626  0.079656902            6 
 2147000   0.89032333   -2.6786514    2034.3567  0.078961214  0.079642059            5 
 2148000    0.9124886   -2.7091279    2033.3439  0.078885162  0.079627083            2 
 2149000    0.8947179   -2.6696345    2036.2631  0.078961652  0.079611836            3 
 2150000     0.913902   -2.6981654    2035.4168  0.078892123  0.079596914            3 
 2151000   0.91628063   -2.7068935    2033.8802  0.078795915  0.079581494            3 
 2152000   0.91124307   -2.6996028    2032.8017  0.078717537  0.079566487            4 
 2153000    0.9259536   -2.7141457    2033.8694  0.078722303  0.079551185            2 
 2154000   0.90411577   -2.6991105    2034.1481  0.078696539   0.07953595            3 
 2155000   0.92292571   -2.6785027    2036.6298  0.078755988  0.079521048            2 
 2156000   0.90359841   -2.6798572    2040.5511  0.078871023  0.079506017            2 
 2157000   0.90240996   -2.7136043    2041.4966  0.078870986   0.07949102            1 
 2158000   0.89335879   -2.6945299    2039.5263  0.078758352  0.079475895            2 
 2159000   0.94031935   -2.7254296    2031.3033   0.07840448  0.079460682            3 
 2160000   0.89813315   -2.6826044    2037.6082  0.078611428  0.079445602            6 
 2161000   0.90196735   -2.6939026    2042.0321  0.078745645  0.079430421            2 
 2162000   0.90188641   -2.6806366    2043.6622  0.078772057  0.079415173            5 
 2163000   0.91832276   -2.7058772     2042.062  0.078673986  0.079400058            1 
 2164000   0.91893696   -2.7053823    2042.7078  0.078662501  0.079384879            2 
 2165000   0.89493748   -2.6967258    2039.7723  0.078513177  0.079369477            3 
 2166000   0.91305139   -2.7100133    2044.0672  0.078642168  0.079354215            2 
 2167000   0.91004665    -2.699581    2046.2018  0.078687962  0.079339308            2 
 2168000   0.89782825   -2.6871566    2046.8577  0.078676878  0.079324036            3 
 2169000    0.9093841   -2.6898062    2042.4577  0.078471558  0.079308654            2 
 2170000   0.90243348   -2.6865329    2047.7973  0.078640451  0.079293302            4 
 2171000   0.90107511   -2.6846766    2043.7088  0.078447292   0.07927809            4 
 2172000   0.89603166   -2.7047057     2044.269  0.078432667  0.079263006            4 
 2173000     0.923904   -2.6995406    2045.9532  0.078461159  0.079247593            4 
 2174000   0.89294301   -2.6987942    2048.3234  0.078515922  0.079232479            2 
 2175000   0.92104556   -2.7084055     2040.781  0.078190844  0.079217213            5 
 2176000   0.88352927   -2.7066704    2044.3093  0.078290032  0.079201874            3 
 2177000   0.90575209   -2.6973724    2050.2072  0.078479833  0.079186637            3 
 2178000   0.89971914   -2.7036244    2050.2003  0.078443537  0.079171584            2 
 2179000   0.90735789   -2.7135129     2055.202  0.078598821  0.079156357            2 
 2180000   0.90020915   -2.7007289    2055.6822  0.078581124   0.07914094            1 
 2181000   0.88352097   -2.7029052    2050.6432  0.078352559  0.079125864            3 
 2182000   0.90289079   -2.6762443    2052.0124  0.078368942  0.079110775           10 
 2183000   0.90572471   -2.7128945    2052.8846  0.078366339   0.07909591            5 
 2184000   0.88782106   -2.7013849    2058.4224   0.07854176  0.079080847            6 
 2185000   0.90605059   -2.6850617    2055.6641  0.078400614  0.079066033            2 
 2186000   0.88763973   -2.6783651    2059.2956  0.078503188  0.079051063            3 
 2187000   0.91774479   -2.7107392     2050.208  0.078121018  0.079036002            4 
 2188000   0.90007358   -2.7070491    2064.3213  0.078622842  0.079021113            1 
 2189000   0.92240686   -2.7049618    2059.6859  0.078410459  0.079006002            3 
 2190000   0.90394049   -2.6845093    2060.6397  0.078410946  0.078991391            1 
 2191000   0.91479407   -2.7033093    2057.8793  0.078270169   0.07897646            1 
 2192000   0.89738699   -2.7116363    2062.6396  0.078415435  0.078961489            2 
 2193000   0.90084845   -2.7080875    2054.2355  0.078060324  0.078946371            2 
 2194000   0.89967088   -2.7110977    2063.6134  0.078380942  0.078931373            2 
 2195000   0.89769503   -2.7068044    2057.9499  0.078130217  0.078916534            2 
 2196000   0.91878313   -2.7234562    2056.8625  0.078053375  0.078901891            2 
 2197000   0.88794798   -2.7056387    2063.7004  0.078277212  0.078887235            6 
 2198000   0.89693898   -2.6998872    2061.5626  0.078160548  0.078872257            3 
 2199000   0.91185067   -2.6878873    2071.9085  0.078517072  0.078857536           10 
 2200000   0.91167541   -2.7159772    2067.2615  0.078305358  0.078842689            4 
 2201000    0.8947824   -2.7055652    2066.7138  0.078249047  0.078827791            6 
 2202000   0.90297212   -2.6923077    2066.8122  0.078217236  0.078813068            2 
 2203000   0.87410703   -2.7147593    2070.3805  0.078316709  0.078798474            3 
 2204000   0.90560522   -2.6886729    2068.6862  0.078217114  0.078783809            3 
 2205000   0.90955668   -2.7034741    2067.0221  0.078118751  0.078769156            2 
 2206000   0.90523946   -2.6765346    2075.2169  0.078392903  0.078754503            2 
 2207000   0.89484408   -2.7169022    2077.1634  0.078430878  0.078740013            1 
 2208000   0.90347858   -2.7287667    2070.2461  0.078134287  0.078725305            5 
 2209000   0.88479061   -2.6992319    2075.4916  0.078296803  0.078710845            3 
 2210000   0.91229119   -2.6972902    2076.0958  0.078284155  0.078696341            1 
 2211000   0.88977635   -2.7305239    2083.8219   0.07853995   0.07868178            2 
 2212000   0.87140443   -2.6969166    2071.5652  0.078042693  0.078666805            2 
 2213000   0.90505292   -2.6887149    2084.3915  0.078490418  0.078652329            4 
 2214000   0.92198829   -2.7165705    2074.3763  0.078077999  0.078637939            2 
 2215000   0.88972339   -2.7160719    2082.7845  0.078359085  0.078623094            5 
 2216000   0.91059364   -2.6950469    2082.8713  0.078326991  0.078608481            1 
 2217000   0.89038496   -2.6932966    2073.7529  0.077948915  0.078594135            4 
 2218000   0.91295507   -2.7173197     2078.133  0.078078335  0.078579397            3 
 2219000   0.91504324   -2.7003475    2072.2992  0.077824065   0.07856482            1 
 2220000   0.89882362   -2.6922409    2082.8157  0.078183773  0.078550191            8 
 2221000   0.88610924   -2.6964943    2072.8206  0.077773548  0.078535724            2 
 2222000   0.88477206   -2.7167307    2076.0653  0.077860234  0.078521179            3 
 2223000   0.88763928   -2.7138464    2084.0711  0.078125323  0.078506899            3 
 2224000   0.89585371   -2.7236222    2082.7212  0.078039612  0.078492511            4 
 2225000   0.91659006    -2.699688    2086.6178   0.07815048  0.078478017            1 
 2226000   0.89791119   -2.7143754    2083.9256  0.078014587   0.07846356            3 
 2227000   0.91424929    -2.715278    2085.5839  0.078041607  0.078449217            4 
 2228000   0.89560053   -2.6945082    2090.5046  0.078190628  0.078435099            7 
 2229000   0.91044711   -2.7291709    2090.4397  0.078153124  0.078420952            3 
 2230000   0.86469905   -2.7086853    2094.6486   0.07827536  0.078406741            1 
 2231000   0.89080559   -2.7124169    2090.9804  0.078103259  0.078392523            2 
 2232000   0.91351083   -2.6994546    2083.0078  0.077770603  0.078378005            1 
 2233000    0.9121407   -2.6811542    2091.1727  0.078040481  0.078363562            4 
 2234000   0.92725589   -2.7342884     2084.159   0.07774392   0.07834911            2 
 2235000    0.9040021   -2.7067709    2089.7688    0.0779183  0.078334631            3 
 2236000    0.8978163   -2.7097493    2082.4774  0.077611711  0.078320051            3 
 2237000   0.90730932   -2.7162008    2084.0429  0.077635334  0.078305404            3 
 2238000   0.88229821   -2.7140495    2090.7786  0.077851453   0.07829095            2 
 2239000    0.8767015   -2.7045852    2092.8186  0.077892608  0.078276548            2 
 2240000   0.89668148   -2.7165823     2086.603    0.0776266  0.078262035            1 
 2241000   0.90772252    -2.694842    2088.5112  0.077662919  0.078247391            2 
 2242000   0.90963527   -2.7094311    2084.0553  0.077462655  0.078232864            2 
 2243000   0.91033122    -2.708383      2094.32   0.07780948  0.078218211            3 
 2244000    0.8820307   -2.7003353    2094.9252  0.077797281  0.078203496            3 
 2245000   0.88290413   -2.7144278    2090.2974  0.077590847  0.078188688            2 
 2246000   0.89510274    -2.693694     2089.371   0.07752193  0.078174302            5 
 2247000     0.900007   -2.7267147     2084.826  0.077318868  0.078159372            2 
 2248000   0.88875606   -2.7054853    2094.9733  0.077660637  0.078144735            1 
 2249000    0.8850944   -2.6957615    2087.9705  0.077366627  0.078130078            3 
 2250000   0.88944952   -2.7241953    2093.0839  0.077521625  0.078115224            4 
 2251000   0.89362457   -2.7339628    2090.2318  0.077381599  0.078100593            9 
 2252000   0.89502644   -2.6858583    2106.5082  0.077949532  0.078085722            2 
 2253000   0.88316188   -2.7202313    2092.3551  0.077391444  0.078071104            6 
 2254000   0.87493982   -2.7254052    2096.4784  0.077509553  0.078056081            3 
 2255000   0.89422326   -2.7016862    2101.2335  0.077650907  0.078041417            2 
 2256000   0.90149817   -2.6904431     2096.022  0.077423982   0.07802675            2 
 2257000   0.90546488   -2.7060065     2095.107  0.077355891   0.07801212            2 
 2258000   0.89606714   -2.6942544    2099.8536  0.077496811   0.07799749            6 
 2259000   0.90067384   -2.7038633    2101.8712  0.077536934  0.077982958            6 
 2260000   0.88682811   -2.7208056    2105.7445  0.077645448  0.077968396            2 
 2261000   0.91625731   -2.7011289    2101.8771  0.077468565  0.077953733            1 
 2262000   0.88577605   -2.7256062    2097.3984  0.077269321  0.077939187            3 
 2263000   0.89275243   -2.7116483    2109.6804  0.077687451  0.077924355            3 
 2264000    0.8935417   -2.7143883    2103.9399  0.077441838  0.077909983            2 
 2265000   0.89511734   -2.7027361    2106.6251   0.07750644  0.077895118            3 
 2266000    0.8855813   -2.7420759    2092.3302  0.076946537  0.077880189            2 
 2267000   0.88860078   -2.7032274    2102.7942  0.077297242  0.077865426            4 
 2268000   0.87497055   -2.7064864    2107.2792  0.077427952   0.07785085            3 
 2269000   0.88090131   -2.7125997    2101.6979  0.077188846  0.077836055            4 
 2270000   0.87113344   -2.7262144    2110.4731  0.077476985  0.077821467            1 
 2271000   0.89021326     -2.72437     2101.983  0.077131331  0.077806796            3 
 2272000   0.91057763   -2.7234687    2107.4661  0.077298491   0.07779206            2 
 2273000   0.91025667   -2.7170589    2101.5266  0.077046731  0.077777587            3 
 2274000   0.88737286   -2.7497944    2098.7377  0.076910647  0.077762851            6 
 2275000   0.88472383   -2.7218417    2103.2814  0.077043276  0.077748024            3 
 2276000    0.8693929   -2.7254106    2104.1308  0.077040526   0.07773328            3 
 2277000   0.90324146   -2.7176796    2111.6871  0.077283235  0.077718519            2 
 2278000   0.89416288   -2.7213589    2109.9489  0.077185722   0.07770365            2 
 2279000   0.89244166   -2.7307977    2111.8568  0.077221617  0.077689033            3 
 2280000   0.88373634   -2.7158831    2108.8397  0.077077476  0.077674566            3 
 2281000    0.8795344   -2.6858345     2117.569  0.077362596  0.077659993            2 
 2282000   0.87741737   -2.7102136    2114.6269  0.077221258   0.07764548            4 
 2283000   0.90375899   -2.7064615    2115.6379  0.077224335   0.07763103            3 
 2284000   0.88612096   -2.7145984    2124.2804  0.077505853  0.077616397            2 
 2285000   0.89353365   -2.7259113    2103.4629  0.076712726   0.07760171            2 
 2286000   0.90198511   -2.7342713    2121.6477  0.077342071  0.077586934            2 
 2287000   0.87069257   -2.7369693    2109.4579  0.076864084  0.077572324            4 
 2288000   0.89854447    -2.703239     2119.269  0.077187827  0.077557787            2 
 2289000   0.86780923   -2.7118839    2110.1879  0.076823498  0.077543159            3 
 2290000   0.86727071   -2.7242913    2118.3678  0.077087619  0.077528467            2 
 2291000    0.8918248   -2.7280377    2114.5576  0.076915379  0.077513872            2 
 2292000   0.86878386   -2.7066873    2116.6553   0.07695809  0.077499095            4 
 2293000   0.88958327   -2.7224055    2119.3865  0.077023785  0.077484489            2 
 2294000   0.89859916   -2.7151611    2111.8155  0.076715179  0.077469643            5 
 2295000   0.90225594   -2.7114373     2121.068  0.077017719  0.077454909            2 
 2296000   0.87327599   -2.7153148    2114.1761  0.076734033  0.077440248            2 
 2297000   0.87033941     -2.73211      2118.45   0.07685568  0.077425132            3 
 2298000   0.87998565   -2.7229692    2125.6851  0.077084606  0.077410354            2 
 2299000   0.90042827    -2.726182    2116.8081  0.076729305  0.077395538            2 
 2300000   0.89037263   -2.7277897    2114.9627  0.076629085  0.077380322            2 
 2301000   0.88138509   -2.7099444     2119.499  0.076760067  0.077365342            2 
 2302000   0.88783657   -2.7506823    2120.1253  0.076749396  0.077350191            2 
 2303000   0.88960434   -2.6863336    2120.5819  0.076732592  0.077335189            4 
 2304000   0.87240368   -2.7032176    2118.7888  0.076634431  0.077320222            2 
 2305000   0.88324125   -2.7137564    2122.6966  0.076742465  0.077304995            2 
 2306000   0.87752266   -2.7193605     2117.505  0.076521573  0.077289841            2 
 2307000   0.88518165   -2.7414883    2123.9493  0.076721185   0.07727472            5 
 2308000   0.90419847   -2.7340241    2121.9632  0.076616235   0.07725962            2 
 2309000   0.85951344   -2.7312008    2113.0182   0.07626022  0.077244263            2 
 2310000   0.90467204   -2.7006038    2125.7971  0.076688208  0.077229165            2 
 2311000   0.87710296   -2.7549084    2119.9831  0.076445372  0.077214078            6 
 2312000   0.87298297   -2.7345351      2120.25  0.076421929  0.077198991            2 
 2313000   0.87123124    -2.716025    2133.9594  0.076882814  0.077184071            4 
 2314000    0.8666156   -2.7012696    2124.4733  0.076507971  0.077169003            5 
 2315000   0.87904397   -2.7166848    2133.2067  0.076789299  0.077154076            3 
 2316000   0.87308382   -2.7324652    2128.2033  0.076576113  0.077139213            5 
 2317000   0.87042864   -2.7241042    2125.1609  0.076433641  0.077124487            3 
 2318000   0.88150786   -2.7180923     2131.774   0.07663841  0.077109615            3 
 2319000   0.87776027   -2.7327841    2120.8638  0.076213303  0.077094516            3 
 2320000   0.86601313    -2.730774    2130.7593  0.076535894  0.077079774            2 
 2321000   0.88480925   -2.7423295    2125.6344  0.076318915   0.07706499            2 
 2322000   0.87715224   -2.7357269    2131.2415  0.076487278  0.077049984            3 
 2323000   0.88440675   -2.7096851    2133.8867  0.076549243  0.077035033            4 
 2324000     0.863702   -2.7329932     2126.503  0.076251541  0.077020008            2 
 2325000   0.88411373   -2.7411433    2123.7941  0.076121651   0.07700482            3 
 2326000   0.89431057   -2.7332002     2134.908  0.076487102  0.076990022            1 
 2327000   0.87824977   -2.7278908    2127.7584  0.076198196  0.076974922            1 
 2328000    0.8866802   -2.7435096    2128.2066  0.076181507  0.076959869            3 
 2329000   0.88300175   -2.7428267    2126.7446  0.076096487  0.076944639            4 
 2330000   0.89591383   -2.7185624    2132.7679  0.076279252  0.076929649            6 
 2331000   0.87714989   -2.7316048    2132.3789   0.07623262  0.076914416            4 
 2332000   0.88490108   -2.7459743    2137.3296  0.076376845  0.076899244            2 
 2333000   0.86356882   -2.7371145    2127.6435  0.075998123  0.076884073            3 
 2334000   0.88839345   -2.7248453     2130.914  0.076082334  0.076868932            4 
 2335000   0.87657862   -2.7236785     2138.087  0.076305747   0.07685385            5 
 2336000   0.88553348   -2.7433493     2142.951  0.076446598  0.076839037            2 
 2337000   0.88360734   -2.7316845    2133.4287  0.076074336  0.076824041            2 
 2338000   0.86094234   -2.7454072    2139.7868   0.07626842  0.076809066            4 
 2339000    0.8782504   -2.7212626    2136.1674  0.076106863  0.076794397            2 
 2340000   0.87290171   -2.7282326    2145.8242  0.076418242  0.076779498            4 
 2341000   0.88944644   -2.7283275    2138.5098  0.076125223  0.076764686            1 
 2342000   0.90514439   -2.7500814    2141.8853  0.076212829  0.076750083            5 
 2343000   0.87012686   -2.7527165    2137.3464  0.076018864  0.076735256            2 
 2344000   0.85745473   -2.7312168    2149.5401  0.076419943  0.076720801            2 
 2345000   0.85098079   -2.7428067    2142.4017  0.076133678  0.076706215            3 
 2346000   0.88028093   -2.7536756    2137.3132  0.075920475  0.076691676            2 
 2347000   0.85976432   -2.7077005    2151.4574  0.076390334  0.076677168            4 
 2348000   0.89952641   -2.7280528    2149.5191  0.076289008  0.076662941            2 
 2349000   0.89089184   -2.7172367    2148.5776   0.07622313  0.076648702            3 
 2350000   0.88050261   -2.7550078    2149.5174  0.076224022  0.076634376            3 
 2351000   0.87479368   -2.7346793    2143.3377  0.075972553  0.076619919            2 
 2352000    0.8753926   -2.7552624    2151.6144  0.076233503  0.076605788            4 
 2353000   0.89157363   -2.7193955    2153.3203  0.076261521  0.076591282            3 
 2354000   0.85231034   -2.7362973    2147.6076  0.076026892  0.076576729            2 
 2355000   0.88134235   -2.7499455    2151.7991  0.076142925  0.076562216            2 
 2356000   0.86739654   -2.7486776    2155.2304  0.076231974  0.076547828            3 
 2357000   0.85012532   -2.7405117    2156.2557  0.076235882  0.076533414            1 
 2358000   0.89305242   -2.7352408    2157.0561  0.076231838  0.076518969            3 
 2359000   0.86771234   -2.7453394    2164.9427  0.076478124  0.076504684            2 
 2360000   0.86828265    -2.721807    2154.8622  0.076089768  0.076490499            2 
 2361000   0.88725766   -2.7379934    2156.6195  0.076119564  0.076475875            2 
 2362000   0.88276752   -2.7279812    2153.4068  0.075973992  0.076461567            3 
 2363000   0.87625822   -2.7051194    2154.4524  0.075978715  0.076447317            4 
 2364000   0.86749946   -2.7573182    2162.3912  0.076226426  0.076432916            4 
 2365000   0.89638318   -2.7353833    2153.2298  0.075871382  0.076418463            3 
 2366000   0.87600263   -2.7490446    2154.2155  0.075874033  0.076403912            2 
 2367000   0.89637496   -2.7636613    2157.2113  0.075947448  0.076389458            4 
 2368000   0.89054601   -2.7198856    2153.0994  0.075770672  0.076374987            4 
 2369000   0.88282374   -2.7402732    2163.2401  0.076095401  0.076360251            3 
 2370000   0.87147157   -2.7419218    2152.0512  0.075669873  0.076345614            4 
 2371000    0.8562599   -2.7499575    2150.3263  0.075577333   0.07633102            5 
 2372000   0.85624669   -2.7281677    2160.4316   0.07590049  0.076316553            3 
 2373000   0.86752197   -2.7597577    2157.8583  0.075778141  0.076302182            4 
 2374000   0.88543486   -2.7140347    2157.5958  0.075737005  0.076287597            2 
 2375000   0.86293137   -2.7307405    2154.7965  0.075606895   0.07627298            3 
 2376000   0.88737012   -2.7282627    2159.4705  0.075739004  0.076258259            4 
 2377000   0.87167542   -2.7520283    2162.0506  0.075797594  0.076243711            3 
 2378000   0.87329057   -2.7401883    2164.1834  0.075840462  0.076228714            4 
 2379000   0.86361764   -2.7146025    2161.3959   0.07571094  0.076213915            3 
 2380000   0.86524338   -2.7455531    2157.9682  0.075559111  0.076199005            1 
 2381000   0.87041323   -2.7303588     2161.734  0.075659176  0.076184089            9 
 2382000   0.88689443   -2.7298857    2157.3743  0.075474892  0.076169418            4 
 2383000   0.85518939   -2.7440795    2158.4418  0.075480549  0.076154603            3 
 2384000   0.83850492   -2.7288351    2162.6712  0.075596729   0.07613971            4 
 2385000    0.8604567    -2.762129    2153.2747  0.075236711  0.076124739            4 
 2386000   0.86122965   -2.7480901    2154.5184  0.075248617  0.076109713            3 
 2387000    0.8687025   -2.7487345    2160.7033  0.075433014  0.076094567            4 
 2388000   0.86905746   -2.7352365    2160.7726  0.075403847  0.076079494            2 
 2389000   0.86409922   -2.7325636    2163.1288  0.075454471  0.076064238            3 
 2390000   0.87000352   -2.7238899    2165.8411  0.075517473  0.076049106            5 
 2391000   0.85928919   -2.7321213    2163.7439  0.075412793  0.076033935            3 
 2392000   0.86820159    -2.732607    2170.5061  0.075616853  0.076018637            2 
 2393000   0.86565919   -2.7285041    2164.9378  0.075391343  0.076003493            5 
 2394000    0.8562764   -2.7338562      2159.74  0.075178919   0.07598821            2 
 2395000    0.8663905   -2.7382756    2167.7211  0.075425229  0.075973124            3 
 2396000   0.85797117   -2.7512485    2164.8025   0.07529224  0.075957907            6 
 2397000   0.86493909   -2.7268242    2166.7869  0.075329817  0.075942886            2 
 2398000   0.88157524   -2.7457021    2161.7689  0.075124024  0.075927696            3 
 2399000    0.8580227   -2.7295233    2167.7492  0.075300446  0.075912721            3 
 2400000   0.84629209    -2.750949    2171.7581  0.075408267  0.075897403            5 
 2401000   0.84537316   -2.7489544    2165.3974  0.075156096  0.075882294            3 
 2402000   0.85934538   -2.7469251    2162.2686  0.075016258  0.075867351            4 
 2403000   0.87707525   -2.7668652    2172.1126  0.075326419  0.075851985            4 
 2404000   0.88541539   -2.7374248    2163.6836  0.075002899  0.075836798            3 
 2405000   0.86156178    -2.738975    2173.8928  0.075325461  0.075821775            2 
 2406000   0.86498036   -2.7443405    2166.9407  0.075053365  0.075806661            4 
 2407000    0.8736339   -2.7469059    2169.3573  0.075105849  0.075791429            1 
 2408000   0.88524599    -2.728397    2171.7602  0.075157813  0.075776302            2 
 2409000   0.86043455   -2.7610454    2174.3549  0.075216371  0.075761315            3 
 2410000   0.88189304   -2.7432038    2165.8955  0.074892654  0.075746138            3 
 2411000   0.88798846   -2.7440513    2174.4678  0.075157879  0.075731052            6 
 2412000   0.85927041    -2.747655    2170.3776  0.074985406   0.07571585            6 
 2413000   0.86970976   -2.7354628    2172.2327  0.075018396   0.07570057            3 
 2414000   0.86211769   -2.7545548    2169.8855  0.074906294   0.07568519            7 
 2415000   0.86161853   -2.7405268    2173.8772  0.075013014  0.075670004            4 
 2416000   0.86078903   -2.7276004    2165.6891   0.07469954  0.075654608            2 
 2417000    0.8527716   -2.7416899    2162.7161  0.074566132  0.075639256            8 
 2418000   0.86643092    -2.747799    2170.7347  0.074811646  0.075624025            3 
 2419000   0.86623065   -2.7390639    2175.9242  0.074959495   0.07560863            3 
 2420000   0.86332706   -2.7423033    2162.1805  0.074455252  0.075593207            6 
 2421000   0.84984231   -2.7537648    2166.1224  0.074560182  0.075577641            3 
 2422000   0.85487016   -2.7615866     2168.657  0.074616603  0.075562254            3 
 2423000   0.87160476   -2.7480652    2173.2278  0.074743013  0.075546823            3 
 2424000   0.85544165    -2.737346    2178.8455  0.074905303  0.075531383            3 
 2425000   0.87796866   -2.7341417     2184.766  0.075077868  0.075516451            5 
 2426000    0.8603759    -2.739931     2176.794  0.074773082  0.075501287            2 
 2427000   0.85777797   -2.7405672    2188.6579  0.075149634  0.075486057            3 
 2428000   0.85901662   -2.7643122    2176.2983  0.074694478  0.075470872            3 
 2429000    0.8478395   -2.7546876    2178.9604  0.074755057   0.07545573            5 
 2430000   0.87189724   -2.7542376    2187.5495  0.075018846  0.075440725            5 
 2431000   0.84378555   -2.7591994    2173.6723  0.074512283  0.075425615            3 
 2432000   0.86326604   -2.7265176    2185.2371  0.074877917  0.075410545            3 
 2433000   0.86524912   -2.7442061    2186.3451   0.07488509  0.075395341            2 
 2434000   0.85244847   -2.7608918    2172.4992   0.07438028  0.075380141            6 
 2435000   0.86604794   -2.7618325    2182.5592  0.074694019  0.075364806            4 
 2436000   0.86110661   -2.7573989     2181.002  0.074610085   0.07534941            3 
 2437000   0.85314059   -2.7523052    2183.8745  0.074677693  0.075334162            2 
 2438000   0.84745334   -2.7440715     2186.724  0.074744461  0.075318937            2 
 2439000   0.86835495   -2.7455365     2183.447  0.074601852  0.075303549            2 
 2440000    0.8611638   -2.7460846     2179.547  0.074438081  0.075288265            2 
 2441000   0.87087053   -2.7536672     2180.698   0.07444688  0.075273076            4 
 2442000   0.86334469   -2.7742886    2186.9108  0.074628407  0.075257796            3 
 2443000   0.87039596   -2.7561891     2189.286  0.074678877  0.075242382            3 
 2444000    0.8657818   -2.7516074    2184.4246  0.074482562  0.075227294            3 
 2445000   0.85525122   -2.7644018    2187.6305  0.074561368  0.075212101            3 
 2446000   0.87403468   -2.7645615    2181.3543  0.074317058  0.075196796            3 
 2447000   0.86380437   -2.7539534    2180.2647   0.07424958  0.075181469            2 
 2448000   0.85822559   -2.7422141    2187.9025   0.07447925  0.075166163            3 
 2449000   0.85062908   -2.7461402    2186.3779  0.074396962  0.075150752            2 
 2450000   0.86036749   -2.7394303    2191.8627  0.074553154  0.075135397            2 
 2451000    0.8542453   -2.7710424     2181.124  0.074157623  0.075119989            3 
 2452000   0.86382682   -2.7551865    2194.0855  0.074567888  0.075104613            3 
 2453000   0.85400034   -2.7602454    2201.4759  0.074788554  0.075089697            2 
 2454000   0.86518055   -2.7560285    2190.7319  0.074393231   0.07507454            7 
 2455000   0.85055964    -2.742449    2196.2742   0.07455106  0.075059265            2 
 2456000   0.85338033   -2.7359592    2189.7585  0.074299623   0.07504412            4 
 2457000   0.85779257   -2.7645914    2198.1422  0.074553731  0.075029196            6 
 2458000   0.84440877   -2.7694049    2191.2237  0.074288844  0.075014219            3 
 2459000   0.86446323   -2.7413886    2194.1271  0.074357027  0.074999117            2 
 2460000   0.85740155   -2.7487136    2195.7031  0.074380187  0.074983905            2 
 2461000    0.8568048   -2.7678246    2196.8093  0.074387421  0.074968706            3 
 2462000   0.85592996     -2.75465    2201.2636  0.074507974  0.074953517            3 
 2463000   0.85033281   -2.7634425    2197.9858  0.074366821  0.074938524            3 
 2464000   0.85410478   -2.7225776    2203.9515  0.074538403  0.074923518            3 
 2465000   0.86981697   -2.7587178     2196.946  0.074271331  0.074908525            3 
 2466000   0.85496889   -2.7288937     2206.847  0.074575798  0.074893572            2 
 2467000   0.84602431   -2.7444296    2196.0228  0.074179935  0.074878477            3 
 2468000   0.84851078   -2.7599487    2202.1326   0.07435618  0.074863606            4 
 2469000   0.84946124    -2.756564    2193.5794  0.074037376  0.074848477            4 
 2470000   0.86525247   -2.7369639     2205.306  0.074403038  0.074833572            4 
 2471000   0.84962287   -2.7544819    2204.4755  0.074344919  0.074818674            1 
 2472000   0.83918372   -2.7609093    2209.3225  0.074478238  0.074803577            3 
 2473000   0.85120499   -2.7598134    2202.8373  0.074229591  0.074788614            3 
 2474000   0.83927066   -2.7570166    2202.3147  0.074181984  0.074773703            2 
 2475000   0.84991798   -2.7542909    2204.1382  0.074213406  0.074758869            4 
 2476000   0.84562813   -2.7778282    2197.5939  0.073963178  0.074743976            4 
 2477000   0.85355603   -2.7448067    2207.5344  0.074267744  0.074728941            5 
 2478000   0.85991353   -2.7478849    2210.4889  0.074337131  0.074713966            3 
 2479000   0.85006061   -2.7882611    2203.5494  0.074073868  0.074698863            2 
 2480000   0.84232268    -2.757454    2203.3667  0.074037859  0.074683637            3 
 2481000   0.86182892   -2.7757244    2208.2486  0.074171992  0.074668715            3 
 2482000   0.84161005   -2.7924886    2202.1511  0.073937386  0.074653719            4 
 2483000   0.85204621   -2.7697351    2200.0264  0.073836301  0.074638425            3 
 2484000   0.83119967   -2.7627157    2211.1383  0.074179358   0.07462333            2 
 2485000   0.85796698   -2.7628151     2211.822  0.074172436  0.074608277            3 
 2486000   0.82956938    -2.779882    2203.5891  0.073866623  0.074593235            2 
 2487000   0.86441321   -2.7383344    2208.2359  0.073992626  0.074578245            4 
 2488000   0.83106806   -2.7866826    2203.3559  0.073799433  0.074563249            3 
 2489000   0.86456703   -2.7474936    2201.5136  0.073708102  0.074548212            2 
 2490000   0.84111611   -2.7603438     2209.572  0.073948192  0.074533338            4 
 2491000   0.86300879   -2.7385302    2216.0862  0.074136431  0.074518311            3 
 2492000   0.82597059   -2.7584688    2221.3737  0.074283499  0.074503485            5 
 2493000    0.8694948   -2.7379561    2221.2927  0.074250994  0.074488963            3 
 2494000   0.86249933   -2.7946428    2199.4438  0.073491172  0.074474042            1 
 2495000   0.86170513    -2.759993    2213.4137  0.073928314  0.074459153            4 
 2496000   0.87673494   -2.7697984    2213.9366  0.073916152  0.074444325            5 
 2497000   0.84633324   -2.7755293    2208.7527  0.073713547  0.074429597            3 
 2498000   0.86274328    -2.761937    2212.9869  0.073825291  0.074414875            4 
 2499000   0.83452568   -2.7628676    2225.2311  0.074204053  0.074400203            2 
 2500000    0.8589575   -2.7545368    2216.6426  0.073888087  0.074385555            4 
 2501000   0.83313262   -2.7622147    2219.2889  0.073946719  0.074371064            3 
 2502000   0.84163484   -2.7480029    2211.0661  0.073643288  0.074356237            7 
 2503000   0.86989909   -2.7561175     2218.158  0.073849978  0.074341396            3 
 2504000   0.85959367   -2.7625846     2224.799  0.074041499  0.074326794            2 
 2505000   0.86409104   -2.7297904    2221.0583  0.073887501  0.074312245            4 
 2506000    0.8304524   -2.7295701    2224.2871  0.073965388  0.074297669            4 
 2507000   0.84936884   -2.7793553    2220.2407   0.07380138  0.074283275            3 
 2508000   0.85474688   -2.7644864    2223.9311  0.073894575  0.074268632            2 
 2509000   0.84912071   -2.7499929    2225.9392  0.073931818  0.074253922            2 
 2510000   0.85519308   -2.7648572    2215.3552   0.07355097  0.074239218            4 
 2511000   0.83613183   -2.7678163    2221.6214  0.073729635   0.07422423            3 
 2512000   0.84288421   -2.7716665    2209.3205  0.073292213  0.074209452            4 
 2513000   0.85700272   -2.7532777    2231.8636  0.074010597  0.074194396            2 
 2514000   0.86518442   -2.7538474    2217.9503  0.073519964  0.074179773            3 
 2515000   0.84594921   -2.7793596    2220.9556  0.073590313  0.074164914            4 
 2516000   0.83101628   -2.7593973    2225.8242  0.073722317  0.074149987            3 
 2517000   0.84103826   -2.7645104    2221.4425  0.073547956  0.074135117            3 
 2518000   0.83614355   -2.7833756    2215.3501  0.073317119  0.074120283            2 
 2519000    0.8446355   -2.7857545    2223.6337  0.073562051  0.074105585            4 
 2520000   0.85891485   -2.7723267    2226.4354   0.07362551  0.074090773            2 
 2521000   0.84270217    -2.778648    2230.2463  0.073722276  0.074076085            2 
 2522000   0.85469077    -2.785004    2228.3384  0.073630003  0.074061174            5 
 2523000    0.8385836   -2.7753765    2231.8653  0.073717309  0.074046523            2 
 2524000   0.85052533   -2.7711821    2225.1725  0.073467133  0.074031734            2 
 2525000    0.8463266   -2.7510767    2236.4881  0.073811488  0.074017095            3 
 2526000   0.83494387   -2.7505981     2232.216  0.073641331  0.074002732            3 
 2527000   0.86239024   -2.7684879    2226.3675   0.07341932  0.073988359            5 
 2528000   0.82450583   -2.7622759    2229.6098  0.073497157  0.073973751            5 
 2529000   0.82531584   -2.7652491    2231.3547  0.073525594  0.073959063            4 
 2530000   0.85205981   -2.7764577    2225.1924  0.073293557   0.07394438            3 
 2531000   0.84238813   -2.7616981    2229.0841  0.073392733  0.073929747            4 
 2532000   0.84645502   -2.7849642    2234.4338  0.073539817  0.073915002            1 
 2533000   0.84258428   -2.7658793    2229.9859  0.073364454  0.073900573            4 
 2534000   0.82716785   -2.7824103    2231.2913   0.07337843  0.073885846            3 
 2535000   0.85804405   -2.7621853    2230.2686  0.073315865   0.07387132            2 
 2536000   0.83044373   -2.7795528    2235.2185  0.073449609  0.073856808            3 
 2537000    0.8451706   -2.7725653    2236.0961  0.073449485  0.073842468            3 
 2538000   0.85421922   -2.7501626    2235.9595   0.07341606   0.07382796            3 
 2539000   0.83777296   -2.7524765    2245.3552  0.073695522  0.073813581            2 
 2540000   0.85664604   -2.7590238    2236.9698  0.073391399  0.073799203            2 
 2541000   0.83395989   -2.7849809    2235.7515  0.073322559  0.073784798            3 
 2542000   0.84580265   -2.7690755    2240.5019  0.073449447  0.073770505            2 
 2543000   0.85445745    -2.772634    2240.0487  0.073405713  0.073755952            2 
 2544000   0.84346399   -2.7575666    2240.2512   0.07338349  0.073741411            2 
 2545000   0.85311382   -2.7787245    2245.7638   0.07353516  0.073727055            3 
 2546000   0.85626032   -2.7762391    2242.3351  0.073394054  0.073712627            5 
 2547000   0.83328635   -2.7638956    2243.7778  0.073412438   0.07369838            3 
 2548000   0.83354145   -2.7633323    2250.8018   0.07361335  0.073684147            4 
 2549000   0.82915929   -2.7588812    2245.1256  0.073398902  0.073670083            5 
 2550000   0.83998107   -2.7774933    2248.8662  0.073492361  0.073655871            5 
 2551000   0.87072471   -2.7640077    2240.2879  0.073183325  0.073641558            4 
 2552000   0.83429255   -2.7593256    2253.6477  0.073590901  0.073627464            3 
 2553000   0.84895125    -2.787541    2243.7935   0.07324042  0.073613166            2 
 2554000   0.83049515   -2.7772245     2246.354  0.073295288  0.073598968            4 
 2555000    0.8372235    -2.753665    2252.0567  0.073452598  0.073585052            2 
 2556000   0.84914754   -2.7744503     2247.267  0.073267704  0.073571111            2 
 2557000    0.8467267    -2.773327    2252.3437  0.073404501   0.07355685            5 
 2558000   0.84617043   -2.7533195    2250.1788  0.073305278  0.073542872            9 
 2559000   0.83971745    -2.769022    2245.1734  0.073113631  0.073528858            5 
 2560000   0.82500484   -2.7622771    2252.7115  0.073330454  0.073514729            4 
 2561000   0.84825819   -2.7943089    2250.8064  0.073239829  0.073500834            6 
 2562000   0.85006939   -2.7874423    2257.0663  0.073414853  0.073486854            2 
 2563000   0.84242434   -2.7795297    2252.3026  0.073231325  0.073472637            5 
 2564000   0.84753928   -2.7800652    2251.9904  0.073192615  0.073458442            5 
 2565000   0.82333473   -2.7573773    2256.1088  0.073297881  0.073444355           12 
 2566000   0.84095916   -2.7642558    2250.5719  0.073089502  0.073430255            3 
 2567000   0.85295974   -2.7763561    2251.2378  0.073082645  0.073415979            4 
 2568000   0.85024548   -2.7644229    2265.2731  0.073509642  0.073401658            2 
 2569000   0.84211838   -2.8067541    2248.7847  0.072946176  0.073387356            8 
 2570000   0.84327198   -2.7715523    2261.8528   0.07334153  0.073372947            3 
 2571000   0.82320913   -2.8006658    2253.0341  0.073027166  0.073358795            3 
 2572000   0.84187164   -2.7506221    2254.1278  0.073034208  0.073344557            3 
 2573000   0.84040835   -2.7851257    2257.6054  0.073118454  0.073330468            2 
 2574000   0.84087879   -2.7773832    2253.9991  0.072973293   0.07331635            6 
 2575000   0.82116867   -2.7858037    2257.1138  0.073045755  0.073302292            3 
 2576000   0.85215833   -2.7725091    2260.5656  0.073129062  0.073288117            4 
 2577000   0.84995942   -2.7768894    2249.9773  0.072758289  0.073273912            3 
 2578000   0.83208781   -2.7934192    2257.8633   0.07298498  0.073259572            7 
 2579000   0.85042203   -2.7797996    2257.9182  0.072958451  0.073245446            3 
 2580000   0.84145423   -2.7759497    2261.3641  0.073041476   0.07323137            3 
 2581000   0.85321919   -2.7867549     2254.315   0.07278558   0.07321718            4 
 2582000   0.83731837   -2.7672194     2261.174  0.072978765  0.073202936            4 
 2583000   0.82805906   -2.7670628    2265.7788   0.07309907  0.073188964            3 
 2584000   0.84408983   -2.7765191    2266.5779  0.073096554  0.073174952            3 
 2585000   0.83322735    -2.757811     2270.708  0.073201419  0.073161056            2 
 2586000    0.8173297   -2.7865687    2263.9503  0.072955346  0.073147201            3 
 2587000   0.84741531   -2.7924114    2260.9537  0.072830618  0.073133198            3 
 2588000   0.83975336   -2.7960973    2267.2864  0.073006389  0.073119238            5 
 2589000   0.83024654   -2.7429394    2275.2128  0.073233319  0.073105417            4 
 2590000   0.84634703   -2.7921533    2265.9721  0.072907726   0.07309141            5 
 2591000   0.84050977   -2.7900801    2270.0863  0.073011909  0.073077176            4 
 2592000   0.82555284   -2.7839718    2259.5947  0.072646434  0.073062895            3 
 2593000   0.83262147   -2.7914895    2260.8641  0.072659214  0.073048847            3 
 2594000   0.84078388   -2.7637673    2276.8277  0.073144039  0.073034985            4 
 2595000   0.84427967   -2.7964295     2271.302  0.072938407  0.073020873            3 
 2596000   0.83972815   -2.7767469     2269.627  0.072856543  0.073006683            3 
 2597000   0.84050046   -2.7756994    2269.8243   0.07283482  0.072992623            3 
 2598000   0.82394682   -2.8061861    2272.7748  0.072901423  0.072978616            2 
 2599000   0.83673926   -2.7772556    2275.6637  0.072966004  0.072964774            2 
 2600000   0.83374188   -2.7865492    2271.9142  0.072817763  0.072950924            4 
 2601000      0.83081    -2.758822    2277.6064   0.07297214  0.072937001            2 
 2602000   0.83249519   -2.7811884    2273.0849  0.072799286  0.072922983            5 
 2603000   0.83129551   -2.8103507     2272.322  0.072746893  0.072908903            6 
 2604000   0.83958088   -2.7773504    2277.4481  0.072883005   0.07289487            3 
 2605000   0.83091856   -2.7697078    2276.3267  0.072819151  0.072880925            1 
 2606000   0.81602902   -2.7704243    2277.1989    0.0728191  0.072867007            3 
 2607000    0.8356841   -2.7764027    2268.5973  0.072516215  0.072853018            2 
 2608000   0.84618653    -2.816763     2281.248  0.072892639  0.072839082            3 
 2609000   0.85952247    -2.805733    2279.4001  0.072805676  0.072825009            3 
 2610000   0.81832709   -2.7841014    2279.6275   0.07278504  0.072811072            5 
 2611000   0.83394576   -2.7840354    2271.8399  0.072508615  0.072797041            4 
 2612000   0.82690922    -2.801032    2273.3948  0.072530461  0.072782984            7 
 2613000   0.83268639    -2.789887    2275.9278  0.072583486   0.07276882            3 
 2614000   0.82653177   -2.8111855    2271.7955  0.072423984  0.072754828            5 
 2615000     0.830392   -2.7988757    2282.2727  0.072730169  0.072740948            6 
 2616000   0.84868909    -2.789927    2275.0035  0.072470803  0.072727071            4 
 2617000    0.8439119   -2.8165834    2269.7973   0.07227733  0.072712863            2 
 2618000   0.83812585    -2.780919    2278.1568  0.072515813  0.072698814            3 
 2619000   0.83526291   -2.8015621    2284.9661  0.072704789  0.072684746            2 
 2620000   0.81788764   -2.7856954     2276.631  0.072411929  0.072670932            4 
 2621000   0.82748364   -2.7801691    2281.0813  0.072525794  0.072657024            2 
 2622000   0.82774875   -2.7802804    2283.9425  0.072589072  0.072643024            4 
 2623000    0.8442324   -2.7928071    2282.7088  0.072522202  0.072629133            6 
 2624000   0.81019538   -2.7656454    2285.4811  0.072582606  0.072615215            3 
 2625000    0.8477196   -2.7869505    2281.8683  0.072440262  0.072601198            7 
 2626000   0.82198062   -2.8082909    2276.8842  0.072254511  0.072587208            8 
 2627000   0.82743881   -2.7871574    2279.3168  0.072304173  0.072573195            3 
 2628000   0.83436396   -2.8022896    2278.0828  0.072237532  0.072559224            4 
 2629000   0.82581469   -2.7722986    2291.6329  0.072639562  0.072545356            3 
 2630000   0.82248085   -2.8113537    2286.3141  0.072443413  0.072531433            3 
 2631000   0.82827606   -2.7886594    2288.4366  0.072483107   0.07251748            5 
 2632000   0.83877909   -2.8010494    2283.8821  0.072311362  0.072503524            4 
 2633000   0.83244913   -2.7890764    2291.0927  0.072512111  0.072489687            4 
 2634000   0.82027659   -2.7906731    2284.5939  0.072278977  0.072475625            3 
 2635000   0.84604455   -2.7805072    2293.6116  0.072536735  0.072461766            3 
 2636000   0.82991607   -2.7954926    2287.0303  0.072301159  0.072447886            7 
 2637000   0.82700998    -2.789948    2292.9491  0.072460785  0.072434193            3 
 2638000   0.83910291   -2.8103531    2279.8482  0.072019464  0.072420244            8 
 2639000   0.82172942   -2.8109823    2294.1558  0.072443974  0.072406339            3 
 2640000   0.83450594   -2.7688736     2285.214  0.072134281   0.07239252            4 
 2641000   0.84504264   -2.8155588     2288.536  0.072211788   0.07237865            3 
 2642000   0.83827661   -2.7779816    2299.1219  0.072518356  0.072364888            4 
 2643000    0.8462524   -2.7844314     2288.461  0.072154779  0.072351043            7 
 2644000   0.83938355   -2.7933086    2300.8836  0.072519023  0.072337054            4 
 2645000   0.84300766   -2.7849849    2305.4983  0.072636997  0.072323153            3 
 2646000   0.83454813    -2.766235    2298.6607  0.072394203  0.072309267            4 
 2647000   0.82420646   -2.7809332    2292.9294  0.072186419  0.072295312            3 
 2648000   0.83296842   -2.7843856    2292.1404  0.072134329  0.072281311            4 
 2649000   0.82184953   -2.7775097    2290.8426  0.072066269  0.072267204            2 
 2650000   0.84586796   -2.8044476    2292.7177  0.072098041  0.072253116            5 
 2651000   0.82878496   -2.8027758    2296.6393  0.072194118  0.072239133            3 
 2652000   0.85199348   -2.7777442    2298.8151  0.072235267  0.072225135            2 
 2653000   0.83281708   -2.7947707    2294.3019  0.072066275  0.072211241            2 
 2654000   0.81810734   -2.8074088    2294.7218  0.072052305  0.072197276            2 
 2655000   0.81690064    -2.781204    2292.5224  0.071956133  0.072183435            6 
 2656000   0.84554826   -2.8034429    2296.2079  0.072044675  0.072169586            2 
 2657000   0.85077332   -2.8053232     2297.065  0.072044442   0.07215566            4 
 2658000   0.82701384   -2.8068675    2298.8124  0.072072122  0.072142049            2 
 2659000   0.83087409   -2.7820585    2301.5118  0.072129617  0.072128397            3 
 2660000   0.81178782    -2.811889    2300.0743  0.072057465  0.072114913            2 
 2661000   0.82486339    -2.808214      2299.95  0.072026495  0.072100939            2 
 2662000   0.83204391   -2.7890304    2305.0019  0.072157586   0.07208732            3 
 2663000    0.8378804   -2.7985308    2305.9867  0.072161307  0.072073622            2 
 2664000   0.80000818   -2.7816812    2300.5123  0.071962972  0.072059905            6 
 2665000   0.81670244   -2.8018558    2310.5392  0.072249505  0.072046307            3 
 2666000    0.8153873   -2.7940722    2297.2758  0.071807822   0.07203262            3 
 2667000   0.82881856   -2.7967032    2300.7044  0.071888026  0.072018755            6 
 2668000   0.83799599   -2.8143436    2299.9215  0.071836629  0.072005049            3 
 2669000   0.82851573   -2.8181768    2306.7355  0.072022465  0.071991242            4 
 2670000   0.81916081   -2.7838662    2304.8323  0.071936089  0.071977376            2 
 2671000   0.82712864   -2.7971446    2308.7074  0.072030057   0.07196364            5 
 2672000   0.80575187   -2.7943528    2300.4375  0.071745183   0.07194976            4 
 2673000   0.84683634   -2.8130628    2302.7555  0.071790608  0.071935931            3 
 2674000   0.83079992   -2.8052876      2298.77  0.071639555  0.071922147            4 
 2675000   0.83299714   -2.8107726    2304.2434  0.071783284  0.071908382            3 
 2676000   0.82434318   -2.7889538    2314.8721  0.072087448  0.071894594            4 
 2677000   0.83254918   -2.8014384     2300.254  0.071605465   0.07188078            3 
 2678000   0.81395734   -2.8062677    2301.7176  0.071624271  0.071866875            2 
 2679000   0.83404751   -2.8055318    2316.4214  0.072054914  0.071853012            2 
 2680000   0.81331722   -2.7950396    2308.7167  0.071788453  0.071839321            1 
 2681000    0.8226053   -2.8149007      2313.17    0.0719001  0.071825502            3 
 2682000   0.82851311   -2.7891815    2306.5931  0.071668937   0.07181172            4 
 2683000    0.8331711    -2.802795    2306.3708  0.071635321  0.071797876            4 
 2684000   0.83363996   -2.8118198    2311.7715  0.071776314  0.071784185            4 
 2685000   0.79672615   -2.8044277    2307.8739  0.071628613  0.071770481            5 
 2686000   0.82887606   -2.7971163    2310.5063  0.071683615  0.071756649            3 
 2687000    0.7937559   -2.8065113    2317.0943  0.071861254  0.071742932            2 
 2688000   0.81867988   -2.8186363    2311.9186  0.071674064  0.071729163            3 
 2689000   0.83656263   -2.7900414    2311.5866  0.071637121  0.071715376            4 
 2690000   0.81612816   -2.7880572    2319.7773  0.071864228  0.071701726            6 
 2691000   0.82319247   -2.7949946    2307.7913  0.071466349  0.071687973            5 
 2692000   0.81834554   -2.8098361    2318.0723  0.071758057  0.071674158            3 
 2693000   0.83260917   -2.7905266    2317.5124  0.071714087   0.07166026            4 
 2694000   0.81641181     -2.80136    2309.5794  0.071442076  0.071646348            4 
 2695000   0.82104788   -2.8163039    2320.1242  0.071741626  0.071632583            3 
 2696000   0.80535975   -2.8051444    2320.8449  0.071737292   0.07161873            2 
 2697000   0.81907015   -2.7877817    2316.6139  0.071579962  0.071604776            5 
 2698000   0.81567727   -2.7858662    2322.4519  0.071733749  0.071591083            4 
 2699000   0.83228618   -2.7798308    2322.0396  0.071694442  0.071577411            3 
 2700000   0.81338442   -2.7889185    2329.3673  0.071894054  0.071563548            3 
 2701000   0.81567989   -2.8136897    2307.5057  0.071192945  0.071549761            5 
 2702000    0.8091359   -2.7848085    2325.4027  0.071718564  0.071535984            3 
 2703000   0.78875057    -2.791355    2313.4706  0.071324165  0.071522192            3 
 2704000   0.81783609   -2.8329932    2314.3768  0.071325715  0.071508256            5 
 2705000   0.84000255   -2.7987889    2317.4508  0.071394049  0.071494428            6 
 2706000   0.81663552   -2.7979094    2323.5374  0.071555105  0.071480777            6 
 2707000   0.80840502   -2.7995132    2312.2048  0.071179807   0.07146732            5 
 2708000   0.84829908   -2.8125487    2319.2056  0.071368956  0.071453747            2 
 2709000   0.83364316   -2.8166517      2323.34  0.071469793  0.071440106            6 
 2710000   0.81240534   -2.8366483    2326.6064  0.071543864   0.07142663            3 
 2711000   0.82127653   -2.8037581    2321.2638  0.071353247  0.071412979            5 
 2712000    0.8153936   -2.8232149    2326.4193  0.071485351  0.071399271            3 
 2713000   0.81980836   -2.8184752    2329.4146  0.071551006  0.071385551            3 
 2714000    0.8121981   -2.8156193     2319.105  0.071208088  0.071371788            3 
 2715000   0.80671274   -2.8147498    2328.8923   0.07148227  0.071358145            3 
 2716000   0.81902267   -2.7935469    2322.9211  0.071272738  0.071344482            4 
 2717000   0.80631014   -2.8015662    2324.6081  0.071298248  0.071330851            2 
 2718000   0.82166923   -2.8065819    2328.8528   0.07140216  0.071316989            5 
 2719000   0.82022879   -2.8025112    2317.2545  0.071020427  0.071303304            3 
 2720000   0.83145159   -2.7813476    2326.3422   0.07127274  0.071289575            2 
 2721000   0.82844462   -2.8304169    2322.4724  0.071128029   0.07127571            7 
 2722000   0.82421601   -2.8053235    2326.2887  0.071218732  0.071261894            3 
 2723000   0.81157883   -2.8245281    2327.9066  0.071242093  0.071248174            6 
 2724000   0.81268997   -2.8334732    2323.3622  0.071076914   0.07123451            4 
 2725000   0.82497612   -2.8319411    2325.1674  0.071106037  0.071220774            4 
 2726000   0.81925118   -2.8133496    2329.1755  0.071202479  0.071207072            2 
 2727000   0.80582803   -2.8112403    2329.6986  0.071192355  0.071193412            4 
 2728000   0.81072857   -2.8052749    2324.4474  0.071005848  0.071179738            5 
 2729000   0.84733196   -2.8419187    2329.0924  0.071121668  0.071166034            2 
 2730000   0.80566106    -2.814956    2338.3207   0.07137731  0.071152285            6 
 2731000   0.80667204   -2.7921981    2336.2548  0.071288135  0.071138573            3 
 2732000   0.80521887   -2.8149222    2336.4152  0.071266935  0.071125075            2 
 2733000   0.81839973   -2.7834007       2338.8  0.071313576  0.071111598            6 
 2734000   0.80940363    -2.810719    2333.5704  0.071128091  0.071098076            2 
 2735000    0.8126572   -2.8109975    2330.7816  0.071017113  0.071084436            6 
 2736000    0.7943661   -2.8222247    2335.2103  0.071126045   0.07107075            6 
 2737000   0.82287568   -2.8230405    2329.5803  0.070928642  0.071056804            4 
 2738000    0.8238985   -2.8304088    2335.4399  0.071081077  0.071042933            6 
 2739000   0.81318616   -2.8246372    2330.9757  0.070919305  0.071029113            3 
 2740000   0.81134467   -2.8248137    2328.8322   0.07082823  0.071015183            5 
 2741000   0.80927241   -2.8349612    2328.0422  0.070778373  0.071001475            2 
 2742000   0.79733323   -2.8020737    2334.6182  0.070952414   0.07098785            2 
 2743000   0.82334851   -2.8159447    2332.8771  0.070873652   0.07097406            4 
 2744000   0.81432731   -2.8052293    2338.9967  0.071033669  0.070960287            3 
 2745000   0.80184806   -2.8186233    2338.3148  0.070987091  0.070946647            3 
 2746000    0.8235856    -2.811744    2338.6501  0.070971415  0.070932948            6 
 2747000   0.80042255   -2.8372536    2333.5545  0.070790998  0.070919234            2 
 2748000   0.82721402     -2.80696    2336.6631  0.070859507  0.070905363            3 
 2749000   0.82088175   -2.7917839    2342.0239  0.070996239  0.070891661            5 
 2750000   0.80699605   -2.8291531    2343.9344  0.071028316  0.070878045            3 
 2751000   0.81153106   -2.8235697    2346.5957  0.071083113  0.070864486            2 
 2752000   0.80972849   -2.8199288     2347.862  0.071095626  0.070850939            4 
 2753000   0.82853882    -2.816216    2339.7075  0.070822967  0.070837337            5 
 2754000   0.81082373   -2.8427549    2350.0645  0.071110641  0.070823802            3 
 2755000   0.80917208   -2.8287096     2338.449  0.070733484  0.070810236            4 
 2756000   0.83574135   -2.8246256    2345.6812    0.0709265  0.070796628            3 
 2757000   0.81589573   -2.8246542    2351.8967  0.071088643  0.070783102            4 
 2758000   0.80890777   -2.8032672    2347.1434  0.070919246  0.070769728            3 
 2759000   0.81074689    -2.806772    2350.1839  0.070985379  0.070756273            4 
 2760000   0.80874979   -2.8046862    2339.2654  0.070629995  0.070742774            3 
 2761000   0.81009509   -2.8270685     2351.161   0.07096345  0.070729137            3 
 2762000    0.8049521   -2.8075977      2349.77  0.070895787  0.070715668            4 
 2763000   0.81408042   -2.8308001    2353.6234  0.070986348  0.070702182            4 
 2764000   0.80895475     -2.79167    2352.9591  0.070940639  0.070688848            5 
 2765000   0.82053414   -2.8158476    2358.3871  0.071078574  0.070675352            2 
 2766000   0.79975189   -2.8206925    2349.1459  0.070774462  0.070661828            4 
 2767000   0.80704051   -2.8505289    2339.3085  0.070452611   0.07064834            5 
 2768000   0.82369841   -2.7961614    2346.3467   0.07063905  0.070634624            3 
 2769000    0.8198926   -2.8240812    2348.6145  0.070681791  0.070621101            3 
 2770000   0.80588184   -2.8199243    2356.2628  0.070886366  0.070607726            3 
 2771000   0.80879966   -2.7933861    2358.2989  0.070922017   0.07059439            3 
 2772000   0.81006078   -2.8252071    2347.3017  0.070565829  0.070580844            3 
 2773000   0.80153842   -2.8328675     2352.065  0.070683524  0.070567467            3 
 2774000   0.81444114   -2.8264228      2354.06  0.070717976  0.070553858            6 
 2775000   0.80517155   -2.8395155    2350.7219  0.070592249  0.070540288            2 
 2776000   0.82573294   -2.8248267    2354.2657  0.070673203  0.070526843            5 
 2777000   0.80256883    -2.813065    2355.2865  0.070678384  0.070513272            3 
 2778000   0.81104647   -2.8290831    2354.3823  0.070625818  0.070499834            3 
 2779000   0.82343109   -2.8352817    2351.3566  0.070509674  0.070486281            7 
 2780000   0.83243909   -2.8374379    2352.2706  0.070511708   0.07047283            5 
 2781000   0.82143107   -2.7991674     2361.281  0.070756353  0.070459196            4 
 2782000   0.81891623   -2.8228858    2356.1212   0.07057636  0.070445614            4 
 2783000   0.81423481   -2.8456907    2356.6522  0.070566899  0.070432157            1 
 2784000   0.80516272   -2.8428383    2357.7212  0.070573552  0.070418756            3 
 2785000   0.82011574   -2.8275556    2356.4688  0.070510737  0.070405434            4 
 2786000   0.80741774   -2.8258326    2357.3533  0.070511884  0.070392113            7 
 2787000   0.83531038   -2.8098486    2363.0198  0.070656016  0.070378659            2 
 2788000   0.80893613   -2.8269265    2365.3279  0.070699663  0.070365281            4 
 2789000   0.80555163   -2.8361123    2356.6341  0.070414547  0.070351796            2 
 2790000   0.81458592   -2.8333575    2360.8332  0.070514732  0.070338461            6 
 2791000   0.81158536   -2.8106168    2361.2794   0.07050279  0.070325136            4 
 2792000    0.7965645   -2.8453631    2357.9297  0.070377558  0.070311662            3 
 2793000   0.79993298   -2.8207183     2361.069  0.070446025  0.070298575            2 
 2794000   0.80029435   -2.8218234    2356.9281  0.070297307  0.070285502            6 
 2795000   0.80055364   -2.8116624     2367.115  0.070575879  0.070272338            4 
 2796000   0.80839411   -2.8405676    2366.8417  0.070542492  0.070259198            3 
 2797000   0.81384794   -2.8405934    2359.2869  0.070292186  0.070246041            8 
 2798000   0.79529585    -2.834832    2360.4538  0.070301817   0.07023256            5 
 2799000   0.80613779   -2.8368503    2365.5264  0.070427723  0.070218952            5 
 2800000   0.78825626   -2.8172008    2374.1621  0.070659587  0.070205489            5 
 2801000    0.8093357   -2.8274739    2361.6519  0.070262165  0.070191839            3 
 2802000   0.80060037   -2.8060346    2356.3714  0.070080043  0.070178221            6 
 2803000   0.79938582   -2.8184882    2359.5651   0.07014999   0.07016474            5 
 2804000   0.80686636   -2.8314078    2358.2622  0.070086252  0.070151209            5 
 2805000   0.80950496   -2.8216429    2363.6163  0.070220331  0.070137743            4 
 2806000   0.77582098   -2.8568052    2366.5652  0.070282881  0.070124118            6 
 2807000   0.80162555   -2.8384802    2364.1783  0.070186981  0.070110601            3 
 2808000   0.79741974   -2.8249902     2362.794  0.070120905  0.070097337            3 
 2809000   0.80969451   -2.8233651    2370.6543   0.07032913  0.070083893            4 
 2810000   0.79189033   -2.8182605    2363.4486   0.07009041  0.070070566            2 
 2811000   0.80097768   -2.8264866    2357.9662  0.069902947  0.070057261            3 
 2812000   0.80219131   -2.8091331    2371.8801  0.070290426  0.070043614            6 
 2813000   0.81248834   -2.8349963    2364.5812  0.070049213  0.070030309            5 
 2814000   0.81473726   -2.8306634    2369.4938  0.070169801  0.070016919            3 
 2815000   0.80282931   -2.8437027     2365.556  0.070028302   0.07000351            5 
 2816000   0.78964474   -2.8362251    2370.8878  0.070161214  0.069990192            3 
 2817000    0.7973356   -2.8245352    2370.8756   0.07013595  0.069976814            4 
 2818000   0.80524104   -2.8276142    2372.2332  0.070151205   0.06996345            4 
 2819000   0.80051856   -2.8246354    2374.1263  0.070182285  0.069950052            5 
 2820000   0.81116779   -2.8238069    2365.8417  0.069912581  0.069936753            6 
 2821000   0.79077679   -2.8270649    2373.3272   0.07010892   0.06992351            3 
 2822000   0.81278758    -2.820524    2373.5352  0.070090218  0.069910268            4 
 2823000   0.80700521   -2.8110896    2371.5852  0.070007828  0.069896845            2 
 2824000   0.81174023   -2.8301853    2376.2124  0.070119583  0.069883555            3 
 2825000    0.7984836   -2.8380504    2374.7296  0.070051022  0.069870188            4 
 2826000   0.80303743   -2.8369935    2376.8464  0.070088654  0.069856924            5 
 2827000    0.7934245   -2.8445545    2374.0774  0.069982237   0.06984385            5 
 2828000   0.78964693   -2.8228237    2376.5122  0.070029238  0.069830786            3 
 2829000    0.8062103   -2.8500365    2376.4254  0.070001927  0.069817569            3 
 2830000   0.77986823   -2.8417514    2372.8511  0.069871941  0.069804199            6 
 2831000   0.80724553   -2.8432034    2380.4199  0.070070054  0.069790864            8 
 2832000   0.78026062   -2.8367929    2384.1297  0.070154477  0.069777837            4 
 2833000   0.79294542   -2.8360508    2370.6257  0.069732489  0.069764625            3 
 2834000   0.80757354   -2.8404973    2384.8682  0.070126683  0.069751464            4 
 2835000   0.79181537    -2.850278    2378.1588  0.069904728  0.069738193            5 
 2836000   0.80994982   -2.8275745    2384.8659  0.070077159  0.069725077            2 
 2837000   0.79837133   -2.8141068    2389.8407  0.070198586  0.069712039            3 
 2838000   0.79123255   -2.8220715    2386.2513  0.070068456  0.069699031            5 
 2839000   0.81471129   -2.8530949    2378.3636  0.069812247  0.069686011            2 
 2840000   0.77731948   -2.8458462    2382.8613  0.069919638  0.069672833            5 
 2841000   0.78106197   -2.8298967    2377.6483  0.069742118  0.069659634           10 
 2842000   0.80005391    -2.822011    2385.5127  0.069948178  0.069646431            4 
 2843000   0.78130686    -2.822383    2383.8484  0.069874791  0.069633148            2 
 2844000   0.80734252   -2.8546817    2377.4543  0.069662866  0.069619878            5 
 2845000   0.78244527   -2.8495985    2380.2214  0.069719432  0.069606419            9 
 2846000   0.80301858   -2.8513232    2376.0703  0.069573387  0.069593172            3 
 2847000   0.80850245   -2.8300055    2393.0035  0.070044593   0.06957982            2 
 2848000    0.7966218   -2.8354491    2385.8824  0.069811634  0.069566611            2 
 2849000   0.78270134   -2.8279817     2387.323  0.069829269   0.06955338            3 
 2850000   0.80326772   -2.8310181    2387.3315  0.069805013  0.069540012            4 
 2851000   0.80648342   -2.8267853     2388.916  0.069826843  0.069526866            5 
 2852000   0.78620571   -2.8278085     2394.716  0.069971832   0.06951378            4 
 2853000   0.80271492   -2.8378533    2390.6765  0.069829318   0.06950062            3 
 2854000    0.7960538   -2.8232984    2389.7771  0.069778589    0.0694874            3 
 2855000   0.79491805    -2.835376    2386.9769  0.069672414  0.069474321            4 
 2856000   0.78788417   -2.8380114    2394.1764  0.069858087  0.069461136            2 
 2857000   0.78176138   -2.8399346    2389.7569  0.069704729  0.069447949            2 
 2858000   0.79445631   -2.8412245    2389.0758   0.06966048  0.069434847            4 
 2859000   0.80705483   -2.8534502    2390.9409  0.069690478  0.069421809            3 
 2860000   0.79500785    -2.830315    2387.4335  0.069563912   0.06940849            2 
 2861000   0.80167602   -2.8378427    2386.2329  0.069504629  0.069395302            4 
 2862000   0.80490767   -2.8451886    2389.2381  0.069567847  0.069382131            3 
 2863000   0.78117952   -2.8183524    2395.5229   0.06972648  0.069368911            3 
 2864000   0.81149786   -2.8386005    2386.4388  0.069437815  0.069355729            3 
 2865000   0.78822799    -2.835811    2396.7439  0.069713318  0.069342723            3 
 2866000   0.81281232   -2.8520852    2395.5539  0.069654393  0.069329546            4 
 2867000   0.78846553   -2.8357717    2393.6443  0.069574592   0.06931629            2 
 2868000   0.81975632   -2.8518035    2394.5242  0.069575902  0.069303018            7 
 2869000   0.79810482   -2.8475092    2391.9239  0.069476122  0.069289534            3 
 2870000   0.77026835   -2.8417024    2386.4701  0.069293556   0.06927613            6 
 2871000   0.80711975   -2.8454499    2393.9019  0.069485135  0.069262815            3 
 2872000   0.80673465   -2.8182571    2397.1401  0.069554902  0.069249513            2 
 2873000   0.79571682   -2.8422308    2391.6532  0.069371539  0.069236222            5 
 2874000   0.79090346   -2.8422328    2392.7538  0.069379315  0.069222937            3 
 2875000   0.78555311    -2.863674     2386.903  0.069185596  0.069209411            2 
 2876000   0.79359072   -2.8378539    2391.6641  0.069299493  0.069196019            4 
 2877000   0.79206085   -2.8356106    2396.8339  0.069425151  0.069182619            2 
 2878000   0.77763629   -2.8456857    2401.1806  0.069526888  0.069169121            2 
 2879000   0.76375625   -2.8670035    2393.9799  0.069294313  0.069155645            2 
 2880000   0.80657809   -2.8552685    2397.7996  0.069380776  0.069142206            3 
 2881000   0.79967135   -2.8554292    2398.5803  0.069379275   0.06912887            2 
 2882000   0.79700011   -2.8355015      2393.95  0.069221317  0.069115508            3 
 2883000   0.77586866   -2.8589517    2398.6534  0.069333257  0.069102139            3 
 2884000   0.79527527   -2.8365789    2401.2282  0.069383616  0.069088551            3 
 2885000   0.79045933   -2.8528166    2390.6932  0.069055263  0.069075241            4 
 2886000   0.77987458   -2.8376377    2395.4249  0.069167963  0.069061888            5 
 2887000   0.77776639   -2.8328156    2393.1766  0.069079109  0.069048541            4 
 2888000   0.80069794   -2.8315108     2401.819  0.069304566  0.069035231            3 
 2889000   0.79972662   -2.8422255    2397.3773  0.069152455  0.069021964            6 
 2890000    0.7939674   -2.8264453    2399.2339  0.069182061  0.069008688            4 
 2891000   0.80229953   -2.8431838     2398.914  0.069148912  0.068995532            4 
 2892000   0.78879976   -2.8658654    2411.2468   0.06948037  0.068982233            5 
 2893000   0.80775159   -2.8429763    2396.3623  0.069027605  0.068969207            5 
 2894000   0.77651384   -2.8365418    2400.9142  0.069134825   0.06895601            4 
 2895000   0.79567293   -2.8542163    2397.8052  0.069021451  0.068942896            3 
 2896000   0.78864228   -2.8506866    2400.9239  0.069087358  0.068929573            1 
 2897000   0.78106829   -2.8382842     2404.444  0.069164767  0.068916486            4 
 2898000   0.78984847   -2.8276948    2405.5356  0.069172292   0.06890347            3 
 2899000   0.77383904   -2.8379578    2404.5145  0.069119079  0.068890466            2 
 2900000   0.76798462   -2.8658992    2407.8638  0.069191488  0.068877385            6 
 2901000   0.80824627   -2.8798331    2412.5074  0.069301028  0.068864057            6 
 2902000   0.80274783   -2.8502355     2403.112  0.069007351  0.068850939            3 
 2903000   0.79155579   -2.8520765    2396.1259  0.068783037  0.068837846            4 
 2904000   0.79460025   -2.8420147    2403.1757  0.068961654   0.06882482            2 
 2905000   0.78395573    -2.857869    2404.8645  0.068986359  0.068811546            4 
 2906000   0.80704504   -2.8428178     2402.789  0.068903102  0.068798323            4 
 2907000   0.80066613    -2.859761    2411.4002  0.069126252  0.068785112            5 
 2908000   0.80191079   -2.8773099    2402.4058  0.068844732  0.068772028            5 
 2909000   0.79071592   -2.8422907    2405.2929  0.068903773  0.068758786            6 
 2910000   0.79548501   -2.8370474    2405.8008  0.068894639  0.068745597            2 
 2911000   0.77618779   -2.8495055     2410.057  0.068992813  0.068732454            3 
 2912000   0.78533477   -2.8590292    2408.2239  0.068916663  0.068719279            8 
 2913000   0.77112751   -2.8335242    2405.0181  0.068801295  0.068705998            4 
 2914000   0.76794153   -2.8508508    2406.9002  0.068831509  0.068692684            6 
 2915000   0.79223718   -2.8395425    2406.3364   0.06879178  0.068679268            3 
 2916000   0.77680217    -2.851841    2406.8852  0.068783871  0.068665849            2 
 2917000   0.78920029   -2.8455611    2401.4445  0.068604859  0.068652384            3 
 2918000   0.79072471   -2.8648588    2411.5626  0.068870306  0.068639095            6 
 2919000    0.8080915   -2.8511915    2403.9253  0.068628677  0.068625814            2 
 2920000   0.75860663   -2.8492625    2406.0777  0.068666601  0.068612434            6 
 2921000   0.79194468   -2.8661817    2416.5409  0.068941597  0.068599193            3 
 2922000   0.78288085    -2.831708    2411.1911  0.068765433  0.068585988            5 
 2923000   0.77624335   -2.8413523     2409.366  0.068689873  0.068572786            3 
 2924000   0.77711834   -2.8565472    2416.9906   0.06888368   0.06855957            4 
 2925000   0.77268257   -2.8582095    2414.2186  0.068781155  0.068546339            4 
 2926000   0.79050184   -2.8450088    2411.2249  0.068672389  0.068533144           10 
 2927000   0.78610083   -2.8463236    2416.7605  0.068806529  0.068520077            3 
 2928000   0.79498635   -2.8458158    2417.5836  0.068806454  0.068506636            3 
 2929000   0.78424053   -2.8486906    2416.9013  0.068763551  0.068493316            3 
 2930000   0.79685278   -2.8520703    2418.2868  0.068779489  0.068480143            3 
 2931000   0.77866864   -2.8294554    2418.6836  0.068767303   0.06846685            4 
 2932000   0.79182557   -2.8495879    2422.9985  0.068866487  0.068453563            4 
 2933000   0.77177454   -2.8543428    2417.3391  0.068682211  0.068440398            2 
 2934000   0.80349668   -2.8601579    2414.8746  0.068588805  0.068427215            5 
 2935000   0.77386185   -2.8609125    2414.7604  0.068562192  0.068413902           11 
 2936000   0.78913275    -2.829424    2415.4604  0.068558709  0.068400595            2 
 2937000   0.77263598   -2.8705429    2409.4466  0.068364731  0.068387208            3 
 2938000   0.78540522   -2.8690949    2415.2289   0.06850547  0.068373866            5 
 2939000   0.78156948   -2.8760934    2420.5783   0.06863384  0.068360592            5 
 2940000   0.77513185   -2.8469109     2418.412  0.068549093  0.068347102            3 
 2941000   0.79075167   -2.8366212    2426.0731  0.068742862  0.068333963            3 
 2942000   0.78257441   -2.8420258      2416.84  0.068457966  0.068320785            4 
 2943000   0.78283128   -2.8678599    2410.8919  0.068266279  0.068307421            6 
 2944000   0.77571157   -2.8539453    2415.4417  0.068371879  0.068294077            4 
 2945000   0.79457762   -2.8569384     2419.556  0.068465081  0.068280808            3 
 2946000   0.78624205   -2.8668874    2416.7877  0.068363534  0.068267522            4 
 2947000   0.79160536   -2.8584902    2422.2601  0.068495082  0.068254209            4 
 2948000   0.77773016   -2.8482214    2425.1263  0.068552869  0.068240891            5 
 2949000   0.78474275   -2.8639887    2421.8377  0.068436692  0.068227658            3 
 2950000   0.79831128   -2.8748554    2432.8441  0.068724409  0.068214367            2 
 2951000   0.76363259   -2.8614105    2430.7455   0.06864186  0.068201149            4 
 2952000   0.75285256   -2.8375947    2416.6641  0.068221095  0.068187905            3 
 2953000   0.76064939   -2.8495652    2427.2901  0.068497859  0.068174718            5 
 2954000   0.77203864   -2.8588605    2432.3112  0.068616317  0.068161681            3 
 2955000   0.77358523   -2.8650558    2425.2705  0.068394543  0.068148597            4 
 2956000   0.78041127   -2.8579384    2429.5589    0.0684923  0.068135366            4 
 2957000    0.7805457   -2.8554558    2429.0004  0.068453398  0.068122233            2 
 2958000   0.77687034    -2.855221    2431.9643  0.068513756  0.068109153            7 
 2959000   0.77634305   -2.8454463    2430.4295  0.068447379   0.06809623            2 
 2960000   0.79846534   -2.8533372     2420.083  0.068132966  0.068083121            7 
 2961000   0.78985781   -2.8528445    2439.6766  0.068661392  0.068069987            7 
 2962000   0.76574939    -2.871907    2423.8182  0.068192048  0.068056855            3 
 2963000   0.76858497   -2.8524875     2426.929  0.068256524  0.068043713            2 
 2964000   0.77213003   -2.8727311    2432.6428   0.06839414  0.068030852            3 
 2965000   0.78549412   -2.8560726    2428.9192   0.06826642  0.068017979            8 
 2966000   0.78390325   -2.8486737    2424.5356  0.068120241  0.068005005           10 
 2967000   0.77657833   -2.8418487    2435.6998  0.068410846  0.067991951            6 
 2968000   0.76232819    -2.865159    2430.7155  0.068247851  0.067978978            4 
 2969000   0.77687151   -2.8561114    2436.6067  0.068390217  0.067965976            6 
 2970000   0.77012071   -2.8808607    2425.7306  0.068062025  0.067952822            7 
 2971000   0.76185318   -2.8540576    2430.7454  0.068179778  0.067939728            3 
 2972000   0.76776246   -2.8692309    2431.7759  0.068185731  0.067926753            2 
 2973000   0.78609198    -2.863377    2435.6124  0.068270332  0.067913602            3 
 2974000   0.77856874     -2.88275     2424.461  0.067934908  0.067900423            6 
 2975000   0.77767288    -2.856831    2430.2312  0.068073703  0.067887301            5 
 2976000   0.76612358   -2.8364455    2441.8765  0.068376918  0.067874177            2 
 2977000   0.78349225   -2.8851938    2429.4024   0.06800477   0.06786105            6 
 2978000   0.78237973   -2.8728208    2434.5646  0.068126387  0.067847715            3 
 2979000    0.7652996   -2.8707727    2426.5386  0.067879004  0.067834493            5 
 2980000   0.78405555   -2.8886289    2441.4919  0.068274382  0.067821231            7 
 2981000   0.77219462   -2.8820754    2431.2794  0.067965989  0.067808027            3 
 2982000    0.7926683   -2.8550414    2434.3006  0.068027626  0.067794856           12 
 2983000   0.77590788   -2.8746153    2431.7138  0.067932556  0.067781702            6 
 2984000   0.77788375   -2.8774967    2439.8647  0.068137418  0.067768551            4 
 2985000   0.77261931   -2.8463433    2426.2125   0.06773346  0.067755339            5 
 2986000   0.76648093   -2.8641461    2439.2248  0.068073924  0.067742066            2 
 2987000   0.78103308   -2.8486461     2427.016  0.067710524  0.067728844            6 
 2988000   0.78205083   -2.8665482    2435.3939  0.067921516  0.067715705            3 
 2989000   0.76776907    -2.872854    2436.5393  0.067930728    0.0677024            3 
 2990000    0.7632269   -2.8932766    2433.1188  0.067812675  0.067689139            3 
 2991000   0.79186699   -2.8661746    2433.1416  0.067790637  0.067675703            5 
 2992000   0.76948524   -2.8662728     2431.116  0.067711565   0.06766239            3 
 2993000   0.77405857   -2.8729573    2432.2696  0.067721061  0.067649128            6 
 2994000   0.75269234   -2.8683267    2439.6346  0.067903435  0.067635812            2 
 2995000   0.76467381   -2.8824432    2433.8296  0.067719242  0.067622658            5 
 2996000   0.77576898    -2.886249    2436.0232  0.067757655  0.067609307            5 
 2997000     0.774968   -2.8606899    2443.3714  0.067939366  0.067596026            7 
 2998000   0.76764706   -2.8586205    2440.1622  0.067827502  0.067582753            5 
 2999000   0.76228675   -2.8533554    2447.7028  0.068014416  0.067569501           10 
 3000000   0.77237982   -2.8613936    2446.6578  0.067962716  0.067556238           12 
 3001000   0.76501063   -2.8641883     2432.174  0.067537876  0.067542954            6 
 3002000   0.77495647   -2.8576313    2445.1377  0.067875243  0.067529658            9 
 3003000   0.78339403   -2.8645192    2434.0514  0.067544995   0.06751644            7 
 3004000   0.77158176   -2.8756598    2449.1541  0.067941469  0.067503228            3 
 3005000   0.77278393   -2.8492422    2437.1921  0.067587135  0.067490011            3 
 3006000   0.76821118   -2.8549763     2438.213  0.067592953  0.067476769            3 
 3007000    0.7716542   -2.8569489    2441.5848  0.067663917  0.067463336            5 
 3008000   0.77515645   -2.8519966    2441.5172  0.067639549  0.067450009            5 
 3009000   0.76272929   -2.8561016    2436.3696  0.067474511   0.06743668            4 
 3010000   0.76057786    -2.853573    2443.6697  0.067654199  0.067423539            2 
 3011000   0.75855523   -2.8567583    2435.0161   0.06739223   0.06741011            6 
 3012000   0.76845751   -2.8802876    2439.1444  0.067484075  0.067396761            4 
 3013000   0.76585738   -2.8770723    2441.9831   0.06754019  0.067383428            6 
 3014000   0.77981704   -2.8714523    2448.4735  0.067697232  0.067370304            4 
 3015000   0.76805693   -2.8723405      2443.29  0.067531509  0.067357019            4 
 3016000   0.77804076   -2.8443676    2438.5301  0.067377599  0.067343731            6 
 3017000   0.76422728   -2.8884868    2450.4485  0.067684469  0.067330487            7 
 3018000   0.78392094   -2.8814457    2444.3383  0.067493327  0.067317257            2 
 3019000    0.7772105   -2.8608633    2443.1655  0.067438598  0.067303969            3 
 3020000   0.74443397   -2.8724701    2448.1057  0.067552586  0.067290771            5 
 3021000   0.78959929   -2.8655464    2448.1219  0.067530671  0.067277571            7 
 3022000   0.76955599   -2.8605216    2448.3726  0.067515239  0.067264436            5 
 3023000   0.77440913   -2.8696333    2447.5194  0.067469385  0.067251336            4 
 3024000   0.77562352   -2.8746069    2453.8929   0.06762271  0.067237995            7 
 3025000   0.76840489   -2.8732722    2445.7113  0.067374968   0.06722479            2 
 3026000   0.77441288   -2.8772712    2444.3991  0.067316564  0.067211575            2 
 3027000   0.76146102   -2.8706332      2448.49  0.067406948  0.067198208            4 
 3028000   0.77815279   -2.8703752    2442.4432  0.067218274  0.067184928            5 
 3029000   0.75956954   -2.8821375    2445.9662  0.067293007  0.067171548            5 
 3030000   0.77638638   -2.8864582     2451.326  0.067418205  0.067158332            2 
 3031000   0.76532806   -2.8820738    2455.6495  0.067514832  0.067145141            5 
 3032000   0.76763216   -2.9052905    2455.7001  0.067493957  0.067131991            6 
 3033000   0.77784184   -2.8788677    2451.5454  0.067357549  0.067118811            6 
 3034000    0.7537666   -2.8798057    2450.2204  0.067298957  0.067105557            3 
 3035000   0.76404099    -2.884476    2448.6621  0.067233994  0.067092276            6 
 3036000    0.7724691   -2.9104741    2449.1488  0.067225208  0.067078969            4 
 3037000   0.76149828   -2.8569704    2456.5337   0.06740571  0.067065701            5 
 3038000   0.77701427   -2.8798985    2449.0112  0.067177177  0.067052429            2 
 3039000   0.77379758   -2.8458418    2460.4867  0.067469745  0.067039287            3 
 3040000   0.78243254   -2.8675135    2452.5116  0.067228938   0.06702621            2 
 3041000   0.76473879   -2.8829228     2452.424  0.067204427  0.067012906            7 
 3042000   0.78960318   -2.8912236     2453.793  0.067219839  0.066999658            8 
 3043000   0.77175592   -2.8674722    2451.6612  0.067139368  0.066986452            5 
 3044000   0.75908091   -2.8870426    2453.4061  0.067165081  0.066973241            2 
 3045000   0.75184454   -2.8938372     2451.159  0.067081527  0.066959949            3 
 3046000   0.75656246   -2.8826219    2453.8528  0.067133202  0.066946669            4 
 3047000   0.75889281   -2.8764408     2460.783  0.067300705  0.066933584            3 
 3048000   0.76594792   -2.8662306    2451.1486  0.067015218  0.066920528            4 
 3049000   0.76800518   -2.8894522    2461.5715  0.067278109   0.06690741            2 
 3050000   0.75056051   -2.8975878     2457.378  0.067141475  0.066894333            3 
 3051000   0.77416159   -2.8770135    2449.3771  0.066900937  0.066881193            3 
 3052000   0.78002837   -2.8687719    2457.2788  0.067094768  0.066868123            3 
 3053000   0.78979942   -2.8751985    2464.6553  0.067274136  0.066855051            3 
 3054000    0.7605973    -2.887094    2461.9395  0.067178005  0.066842017           10 
 3055000   0.76054928   -2.8948263    2456.1052  0.066996868  0.066828826            2 
 3056000   0.77751587   -2.8800731    2462.0003  0.067135697  0.066815597            7 
 3057000   0.78303499   -2.9038369    2461.9331  0.067111903  0.066802555            2 
 3058000   0.75086356   -2.9063632    2466.4868  0.067214051  0.066789349            6 
 3059000   0.77705241   -2.8723236    2467.7835  0.067227402  0.066776219            4 
 3060000   0.76071117   -2.8923449    2459.0638  0.066967969  0.066763186            3 
 3061000   0.78025869   -2.8764099    2470.6139  0.067260532  0.066750067            2 
 3062000   0.75654381   -2.8689254    2458.0973  0.066897923  0.066736985            6 
 3063000    0.7524429   -2.8733456    2465.7403  0.067084022  0.066723891            3 
 3064000   0.75660387   -2.8950778    2459.9377  0.066904312  0.066710954            6 
 3065000   0.77096744   -2.8832935    2462.4439  0.066950624     0.066698            4 
 3066000   0.76039829   -2.8875057    2471.9731  0.067187787  0.066684962            2 
 3067000   0.76072902   -2.8754202    2467.9398  0.067056293   0.06667202            6 
 3068000   0.75493743   -2.8857973    2468.0881  0.067038464  0.066658966            5 
 3069000   0.75205149   -2.8921397     2460.061   0.06679866   0.06664592            3 
 3070000   0.76773611   -2.8707168    2463.8041  0.066878503  0.066633061            4 
 3071000   0.75890996   -2.8634653    2475.2323  0.067166838  0.066620027            1 
 3072000   0.77077581   -2.8873402    2467.4528  0.066933942   0.06660709            5 
 3073000   0.77908866   -2.8906415    2457.5656  0.066644039  0.066594018            3 
 3074000   0.75111434   -2.9118826    2464.4133  0.066807995  0.066580812            7 
 3075000   0.76518902    -2.879537    2469.0919  0.066913059  0.066567697            4 
 3076000   0.75120202   -2.8960762    2465.9277  0.066805583  0.066554655            4 
 3077000   0.75358417   -2.8921926    2463.9804  0.066731133  0.066541663            5 
 3078000   0.77089528   -2.8862934     2464.889  0.066734054  0.066528697            4 
 3079000   0.76285994   -2.8944555    2466.9311   0.06676765  0.066515731            4 
 3080000   0.74784334    -2.897789    2465.7394  0.066713728  0.066502623            2 
 3081000   0.74829643   -2.8859223    2470.7924  0.066828747  0.066489551            3 
 3082000   0.75250287   -2.8995972    2472.6023  0.066856001  0.066476454            2 
 3083000   0.75060824   -2.8997092    2474.5759   0.06688766  0.066463376            3 
 3084000   0.76948085   -2.8683898    2478.0305   0.06695932  0.066450397            6 
 3085000   0.76753427   -2.8780401    2477.3757  0.066919928  0.066437424            7 
 3086000   0.77349798   -2.8994858    2467.1891  0.066623167  0.066424436            3 
 3087000   0.76740168   -2.8846426    2472.2009  0.066736879  0.066411354            2 
 3088000   0.75661966   -2.8879022    2476.5149  0.066831686  0.066398222            2 
 3089000   0.75369486   -2.8800675    2470.5139  0.066648158  0.066385383            3 
 3090000   0.74499868    -2.896522    2477.0679  0.066803342  0.066372478            2 
 3091000    0.7649425   -2.8688054    2476.8275  0.066775248  0.066359582            5 
 3092000    0.7586835   -2.8864546    2465.6656  0.066452823  0.066346689            5 
 3093000   0.75097528   -2.9050078     2467.832  0.066489708  0.066333602           10 
 3094000   0.75778186   -2.8837736    2473.3328  0.066616376  0.066320424            4 
 3095000   0.76498494   -2.8810488    2477.8902   0.06671756  0.066307282            5 
 3096000   0.76622774   -2.9051772    2472.0314  0.066538312  0.066294152            3 
 3097000   0.76206657   -2.9021738    2468.9443  0.066433761  0.066281113            7 
 3098000   0.78542362   -2.8911814    2473.3802  0.066531638  0.066268139            4 
 3099000   0.73447081   -2.8993898    2477.6794  0.066625778  0.066255205            5 
 3100000   0.76917257   -2.8808547    2477.5804  0.066601624  0.066242288            3 
 3101000   0.76258221   -2.8886034    2481.4257   0.06668348  0.066229333            3 
 3102000    0.7636755   -2.9015614    2477.3445  0.066552344  0.066216197            2 
 3103000   0.75236284   -2.8932656    2479.1382  0.066579069  0.066203055            3 
 3104000   0.75631148   -2.8930085    2472.2777  0.066373436   0.06618989            3 
 3105000     0.747797   -2.8938084    2479.5179  0.066546375  0.066176756            4 
 3106000    0.7542758   -2.9077137    2471.0963  0.066298998  0.066163617           10 
 3107000   0.75715363   -2.9072002    2483.9038  0.066621174  0.066150403            9 
 3108000   0.76467134   -2.8960549    2483.2078  0.066581075  0.066137345            7 
 3109000   0.76660999   -2.8858491    2466.4012  0.066109176  0.066124313            4 
 3110000   0.76746588    -2.909247    2476.5154  0.066358935  0.066111194            6 
 3111000   0.75442147   -2.8877862    2486.3146  0.066600092  0.066098085            6 
 3112000   0.76069878   -2.8904288    2483.6382  0.066507022  0.066084973            5 
 3113000   0.75222754   -2.8996092     2478.757   0.06635499  0.066071758            4 
 3114000   0.75168036   -2.9149866    2471.6748  0.066144155  0.066058628            5 
 3115000   0.75616946   -2.8765224    2477.1316  0.066268903   0.06604546            5 
 3116000   0.75100376   -2.8890322    2483.4411  0.066416376  0.066032324            6 
 3117000   0.73998248   -2.8937053     2470.358  0.066045288   0.06601905            3 
 3118000   0.75731865    -2.912607    2471.1247    0.0660446  0.066005737            5 
 3119000   0.74406101   -2.8841829    2482.1221  0.066317252  0.065992497            2 
 3120000   0.75696808   -2.8930744    2470.4369  0.065983891   0.06597928            3 
 3121000   0.75151426   -2.8976196    2483.6186  0.066314711  0.065966053            6 
 3122000   0.74738308   -2.8719249    2480.8381  0.066219253  0.065952827            3 
 3123000   0.74274491   -2.8938696    2486.4141  0.066346838  0.065939575            2 
 3124000   0.74904105   -2.9083772    2479.3053   0.06613597  0.065926329            3 
 3125000   0.75059496   -2.9004622    2471.6854  0.065911611    0.0659131            2 
 3126000   0.73463118   -2.8976578    2477.2669  0.066039318  0.065899841            5 
 3127000    0.7538593   -2.9051323    2475.3287  0.065966548  0.065886562            4 
 3128000   0.73869548   -2.8876553    2478.6124  0.066032938  0.065873298            3 
 3129000   0.75271423   -2.8928149    2479.2235   0.06602811  0.065860037            4 
 3130000   0.74863192   -2.9123887    2472.7054  0.065833476  0.065846826            5 
 3131000   0.73983037   -2.8904938    2479.3912  0.065990398  0.065833488            3 
 3132000   0.74878347   -2.8892531    2478.8314  0.065954434  0.065820233            4 
 3133000   0.76447413   -2.9038731    2473.8845  0.065801801  0.065806859            5 
 3134000   0.73543497   -2.9068935    2481.0109  0.065970295  0.065793479            5 
 3135000   0.75627038   -2.9067543    2478.3002  0.065877199   0.06578006            5 
 3136000   0.75209452   -2.8912382    2474.2881  0.065749577  0.065766611            4 
 3137000   0.73984021   -2.8846938     2474.781  0.065741713  0.065753069            3 
 3138000   0.74161874   -2.8967622    2485.7067  0.066010907  0.065739689            7 
 3139000   0.75868781   -2.8912225    2474.0466  0.065680329  0.065726318            9 
 3140000   0.73977416   -2.8950799    2485.8014  0.065971376  0.065712732            3 
 3141000   0.75216724   -2.8860235    2479.2399  0.065776289  0.065699325            8 
 3142000   0.73681429   -2.8942365    2482.2561  0.065835352  0.065685918            3 
 3143000   0.74169769   -2.8861598    2490.6559  0.066037116  0.065672681            2 
 3144000   0.75203309   -2.8957222    2485.0791  0.065868296  0.065659371            3 
 3145000   0.74480371   -2.8956884    2477.9046  0.065657249  0.065646008            5 
 3146000   0.74540462   -2.9044259    2489.6331  0.065947052  0.065632611            3 
 3147000   0.75511719    -2.898877    2482.5322  0.065738064  0.065619318            4 
 3148000   0.75128886   -2.8960241    2482.5011  0.065716357  0.065605955            5 
 3149000   0.74833513   -2.9202841    2486.1844   0.06579296  0.065592599            4 
 3150000   0.76223891   -2.9008907    2485.4796  0.065753427  0.065579319            7 
 3151000   0.75436169   -2.9007574     2489.826  0.065847509  0.065566136            3 
 3152000   0.72888967   -2.9013705    2487.4613  0.065764099   0.06555293            5 
 3153000   0.74622078    -2.893776    2494.3226  0.065924585   0.06553957            4 
 3154000   0.73936465   -2.9099103    2489.1443  0.065766866  0.065526336            5 
 3155000   0.75184604    -2.920056    2482.8404  0.065579513  0.065512984            7 
 3156000   0.74228743   -2.9042799    2479.5984   0.06547313  0.065499498            4 
 3157000   0.74761868   -2.9136374    2485.8171  0.065616542  0.065486223            3 
 3158000   0.75820115   -2.8849575    2485.5651  0.065589114  0.065472922            3 
 3159000    0.7568182   -2.9120177    2494.8489  0.065813255  0.065459594            8 
 3160000   0.74760351   -2.9161576    2498.2393  0.065881837  0.065446339            3 
 3161000   0.73978755   -2.9178884    2488.8508  0.065613489  0.065433027            3 
 3162000   0.75819821   -2.9088821    2489.4302  0.065608007  0.065419716            5 
 3163000   0.74064705   -2.9025181    2489.0481  0.065577198  0.065406519            5 
 3164000   0.74815008   -2.8857711    2491.7098  0.065626574  0.065393201            3 
 3165000   0.75023789    -2.921305     2484.552  0.065417378  0.065379718            7 
 3166000    0.7310311   -2.8906572    2490.1582  0.065544279  0.065366489            5 
 3167000   0.73657612    -2.919902    2493.8887  0.065621742  0.065353084            6 
 3168000   0.75457421   -2.9146372    2487.7087  0.065438465  0.065339658            6 
 3169000   0.74457228   -2.8994923     2489.028  0.065452509  0.065326261            4 
 3170000   0.72542323   -2.9143474    2488.5001  0.065417983  0.065312886            5 
 3171000   0.75140736   -2.9086824    2487.8372  0.065379934  0.065299459            5 
 3172000   0.74989456   -2.8917532    2486.3801  0.065321041  0.065286179            5 
 3173000   0.74491241   -2.8928259     2490.989    0.0654215   0.06527267            6 
 3174000   0.74846185   -2.8950889    2493.8218  0.065475263  0.065259215            5 
 3175000   0.75121877   -2.9120568    2487.7625  0.065295605  0.065245733            2 
 3176000   0.73414409   -2.8984813    2486.5062  0.065242081  0.065232366            2 
 3177000   0.75338171   -2.9144238    2484.5765  0.065170929  0.065218886            5 
 3178000   0.73844386   -2.9209568    2494.6101  0.065413523  0.065205388            5 
 3179000   0.74839187   -2.9134799    2485.2217  0.065146841  0.065191863            4 
 3180000   0.73398516   -2.9292296    2486.0625  0.065148387  0.065178274            5 
 3181000   0.75251938   -2.8963455    2489.0349  0.065205778  0.065164943            4 
 3182000   0.74555029   -2.9059898    2489.9256  0.065208612  0.065151477            6 
 3183000   0.74826489   -2.9181368    2491.5959  0.065231853  0.065138016           12 
 3184000   0.73048976   -2.8975839    2494.6012  0.065290023  0.065124603            4 
 3185000   0.73533259   -2.9371887    2493.1726  0.065232145  0.065111277           10 
 3186000   0.73717913   -2.9065033    2485.4044  0.065008485  0.065097906            3 
 3187000   0.75192855   -2.9021914    2495.9848  0.065264741  0.065084552            4 
 3188000   0.73868968   -2.8977856    2493.8928  0.065189585  0.065071188            5 
 3189000    0.7464562   -2.8741201     2496.846  0.065246316  0.065057853            4 
 3190000   0.74473538   -2.9048893    2494.3743  0.065161293   0.06504453            4 
 3191000   0.73465672   -2.9089367    2491.7586  0.065072564  0.065031187            3 
 3192000   0.73142276   -2.8826647    2488.1067  0.064956836  0.065017872            3 
 3193000   0.71892725   -2.8996859    2502.5942  0.065314599  0.065004592            4 
 3194000   0.76250967   -2.9113177    2502.8855   0.06530175   0.06499134            3 
 3195000   0.74087839   -2.9035116    2500.9583  0.065231045  0.064977965            3 
 3196000   0.74068103   -2.9147553    2497.6474  0.065124307  0.064964748            5 
 3197000   0.74311804   -2.9361864    2496.6639    0.0650783  0.064951469            7 
 3198000   0.74555262    -2.903266    2506.0784  0.065303273   0.06493818            5 
 3199000   0.74377458   -2.9138612    2493.1178  0.064945237  0.064924821            4 
 3200000   0.74725535   -2.9056967    2502.9354  0.065180608    0.0649115            3 
 3201000   0.73236903   -2.9042418    2500.7913  0.065104429  0.064898154            8 
 3202000   0.74816705   -2.9293828    2499.2331  0.065043544  0.064884846            6 
 3203000   0.74832416   -2.9248195    2493.1677  0.064865431  0.064871413            7 
 3204000   0.73512446   -2.9238669     2510.483  0.065295542  0.064858158            4 
 3205000     0.758113   -2.8989145    2500.0115  0.065002898  0.064844877            9 
 3206000   0.74246899   -2.9194339     2496.469  0.064890543  0.064831543            7 
 3207000   0.72566545    -2.926041     2496.325  0.064866568  0.064818153            4 
 3208000   0.73325586   -2.9129976    2498.6452  0.064906619  0.064804768            7 
 3209000   0.73349309   -2.9230858    2502.5497  0.064987787  0.064791399            4 
 3210000   0.75298761   -2.9327916    2503.2786  0.064986463  0.064778125            4 
 3211000     0.730656   -2.9400274    2503.9402  0.064983394  0.064764886            6 
 3212000   0.74322023    -2.904252    2507.1284  0.065045881  0.064751537            8 
 3213000   0.73242171   -2.8913372    2497.6375  0.064779476  0.064738311            7 
 3214000   0.74890114   -2.9157403    2505.9083  0.064973769  0.064725215            5 
 3215000   0.72657977   -2.9235503    2499.4865  0.064787106   0.06471206            3 
 3216000   0.74944044   -2.9063846    2505.9673   0.06493489   0.06469877            3 
 3217000   0.74639277   -2.9294534    2504.4183   0.06487458  0.064685483            6 
 3218000   0.74239564   -2.9117267     2495.348  0.064619537   0.06467224            4 
 3219000   0.73693861   -2.9141125    2494.1544  0.064568563  0.064659003            8 
 3220000   0.74009413   -2.9141252    2508.8217  0.064928097   0.06464562            3 
 3221000   0.73632104   -2.9195354    2494.8067  0.064545346  0.064632322            6 
 3222000    0.7378697   -2.9189596    2508.9622   0.06489143  0.064619082            4 
 3223000   0.74169767   -2.9290361    2498.1556  0.064591881   0.06460575            5 
 3224000   0.73729153   -2.9163541    2504.3946  0.064733111  0.064592534            6 
 3225000   0.74129399   -2.9226147    2513.3923  0.064945538  0.064579254            5 
 3226000   0.73107946   -2.9151178    2505.6593  0.064725649  0.064565852            3 
 3227000   0.74512091   -2.9199281    2504.6731  0.064680124  0.064552552            4 
 3228000   0.73092699   -2.9281552    2510.8012  0.064818289  0.064539193            6 
 3229000   0.75087727    -2.918002    2512.7223  0.064847793  0.064526007            4 
 3230000   0.71796784   -2.9056548    2507.1156  0.064683064   0.06451271            4 
 3231000   0.74493299   -2.9337969    2505.5251  0.064622024  0.064499342            8 
 3232000   0.72212537   -2.9267867    2504.4142  0.064573386   0.06448585            4 
 3233000   0.73109978   -2.9347448    2510.6888  0.064715147  0.064472478           10 
 3234000   0.74662585    -2.944066    2511.1334  0.064706592  0.064459175            6 
 3235000   0.71743602   -2.9389038     2499.918  0.064397681  0.064445834            3 
 3236000   0.75069049    -2.930471    2507.7855  0.064580385   0.06443247            7 
 3237000   0.73573395   -2.9268252    2506.1801  0.064519105  0.064419176            3 
 3238000    0.7305939   -2.9221163    2508.3111  0.064554022  0.064405756            3 
 3239000   0.73342678   -2.9200362    2507.7309  0.064519164  0.064392457            7 
 3240000   0.73508488   -2.9196756    2508.6031  0.064521685  0.064379188            8 
 3241000   0.73164978   -2.9205972    2514.1593  0.064644639  0.064365981            3 
 3242000   0.73123261   -2.9394761    2511.0497  0.064544768   0.06435277            4 
 3243000   0.74685035   -2.9328301    2502.3797   0.06430208  0.064339401            3 
 3244000   0.73651611   -2.9039304    2520.3136  0.064742952  0.064326193            6 
 3245000   0.73926043   -2.9336144    2505.2893  0.064337168   0.06431304            6 
 3246000   0.73007852   -2.9325663    2521.9534  0.064745158   0.06429983            5 
 3247000    0.7343027   -2.9223291    2515.6833  0.064564299  0.064286668            7 
 3248000   0.72473855   -2.9160438    2520.0894  0.064657465   0.06427334           14 
 3249000   0.73367196   -2.9325099    2520.4119  0.064645838  0.064260301            3 
 3250000   0.72587751   -2.9210778    2522.5396  0.064680502  0.064247224            6 
 3251000   0.73787468   -2.9297979    2517.2997  0.064526293  0.064234191            9 
 3252000    0.7280026   -2.9130574    2517.3835  0.064508598  0.064221159            5 
 3253000   0.72895119   -2.9002107    2518.6711  0.064521751  0.064208195            5 
 3254000     0.733373   -2.9321821    2526.1802  0.064694229  0.064195293            5 
 3255000   0.73247653   -2.9218156    2520.2192  0.064521741  0.064182371            3 
 3256000   0.73356113   -2.9247275     2528.896  0.064723996  0.064169491            5 
 3257000   0.73154021    -2.910783    2526.7164  0.064648358  0.064156526            1 
 3258000   0.73657211   -2.9365311    2508.6701  0.064166926   0.06414366            3 
 3259000   0.73520089   -2.9258054    2526.3297  0.064598796  0.064130763           13 
 3260000    0.7318753    -2.928356    2526.2963  0.064578126  0.064117867            3 
 3261000   0.72505883   -2.9422227    2515.9762  0.064294598  0.064105005            8 
 3262000   0.73516241   -2.9316796     2517.949  0.064325286  0.064091971            3 
 3263000   0.73123122    -2.933605    2524.3813  0.064469846  0.064079032            6 
 3264000   0.73429762   -2.9471638    2518.6725  0.064304342  0.064065977            3 
 3265000   0.72728995   -2.9311218    2526.8176  0.064492536   0.06405287            5 
 3266000    0.7435929   -2.9150891    2524.0535  0.064402263  0.064039916            4 
 3267000   0.73619224   -2.9214246    2515.0206  0.064152144  0.064026969            5 
 3268000   0.73492962   -2.9235001    2522.3654  0.064319802  0.064014093            4 
 3269000   0.72441106   -2.9482643    2517.6372  0.064179597  0.064001043            7 
 3270000   0.72896801   -2.9128753    2525.7326  0.064366274   0.06398805            4 
 3271000   0.73720639   -2.9512581    2518.8722  0.064171818  0.063974992            4 
 3272000   0.69442712     -2.89945    2526.2991  0.064341358  0.063961983            4 
 3273000   0.73387804   -2.9406951    2524.0889  0.064265427  0.063949008            6 
 3274000   0.74062884   -2.9405031    2531.5062   0.06443459   0.06393603            4 
 3275000   0.73579542   -2.9324031    2521.4271  0.064158451  0.063922964            8 
 3276000   0.72534681   -2.9238338    2524.5065  0.064217199  0.063909987            3 
 3277000   0.72718731   -2.8986995    2525.4053  0.064220458  0.063896979            4 
 3278000   0.72008827   -2.9460938    2530.1677  0.064321936  0.063884095            3 
 3279000   0.74018955   -2.9551896     2519.067  0.064020205  0.063870944            6 
 3280000   0.72458458   -2.9085247    2527.6715  0.064219297  0.063857949            6 
 3281000   0.73165521   -2.9291302    2521.4508  0.064041724  0.063844889            4 
 3282000   0.72050328   -2.9198714    2531.6516  0.064281222  0.063831856           10 
 3283000   0.73088186   -2.9388297    2525.2643   0.06409951  0.063818681            4 
 3284000   0.72296768   -2.9134991    2526.3871  0.064108482  0.063805589            4 
 3285000   0.74136264    -2.931706    2527.7764  0.064124212  0.063792507            4 
 3286000   0.72410727   -2.9338445    2524.3858  0.064018709  0.063779326           10 
 3287000   0.72751225   -2.9372482    2522.2071  0.063943999  0.063766113            3 
 3288000   0.71373047    -2.926053    2532.4979  0.064185367  0.063752953            3 
 3289000   0.71218287   -2.9248526    2531.7232  0.064146224  0.063739879            8 
 3290000   0.71262335   -2.9404518    2524.9348  0.063954782   0.06372665            6 
 3291000   0.74403468   -2.9094168    2521.4652  0.063847492  0.063713489            4 
 3292000   0.73356317   -2.9289959    2530.0548  0.064045534  0.063700353            6 
 3293000   0.73363917   -2.9193558     2533.242  0.064106742  0.063687289            3 
 3294000   0.73324869   -2.9140217    2532.2117  0.064061215  0.063674049            8 
 3295000   0.73209013   -2.9268083    2529.2077  0.063965799  0.063660785            5 
 3296000   0.72221697   -2.9357535    2527.7474  0.063909472  0.063647649            4 
 3297000   0.71565976   -2.9267981    2520.6434  0.063710529   0.06363442            5 
 3298000   0.71492914   -2.9364965    2525.3635  0.063810478  0.063621178            2 
 3299000    0.7224192   -2.9364978    2530.9934  0.063933349  0.063607925            3 
 3300000   0.72482987   -2.9270352    2529.0649  0.063865275   0.06359473            3 
 3301000   0.72199706   -2.9294593    2529.9777  0.063868971  0.063581552            6 
 3302000   0.72688547   -2.9390425    2519.4915  0.063584987  0.063568244            3 
 3303000   0.73056213    -2.978087    2525.1157  0.063707631  0.063554918            5 
 3304000    0.7124279   -2.9288106    2526.2514  0.063716995  0.063541624            8 
 3305000   0.71749361   -2.9126539    2531.7476    0.0638363  0.063528346            3 
 3306000   0.71357755   -2.9427585    2529.7305  0.063766146  0.063515053            4 
 3307000   0.74214993   -2.9309851    2524.9803  0.063627163  0.063501776            3 
 3308000   0.71625754   -2.9408671    2528.5621  0.063698157  0.063488474            3 
 3309000   0.71652201   -2.9555667    2524.1469  0.063567718  0.063475022            4 
 3310000   0.72733358    -2.948433    2527.1176  0.063623303  0.063461752            4 
 3311000   0.72784101   -2.9486969    2529.9919  0.063676429  0.063448451            7 
 3312000   0.71308968   -2.9603982     2520.285  0.063412969  0.063435029            6 
 3313000   0.71693586   -2.9533475    2521.3884  0.063421583  0.063421577            2 
 3314000   0.72292772   -2.9224672    2524.1396  0.063471626  0.063408258            3 
 3315000   0.72332344   -2.9285485    2528.3913  0.063559359  0.063394892            9 
 3316000   0.72096217   -2.9510605    2522.4524  0.063390944  0.063381564            6 
 3317000    0.7335382   -2.9157751     2526.776  0.063480453  0.063368114            5 
 3318000   0.72270073   -2.9197567    2527.3404  0.063475497  0.063354798            4 
 3319000   0.70948127    -2.932325    2530.1686  0.063527382    0.0633414            3 
 3320000   0.72552093    -2.942621    2523.0403  0.063329326   0.06332804            2 
 3321000   0.71318431   -2.9356059    2530.1793  0.063489393  0.063314668            3 
 3322000   0.72123901   -2.9491183    2527.4373  0.063401497  0.063301205            4 
 3323000   0.72624376   -2.9438907    2531.2966  0.063479201  0.063287745            4 
 3324000   0.71416659   -2.9434224    2524.1402  0.063280691  0.063274374            3 
 3325000   0.71777404   -2.9276003    2525.9142  0.063306119  0.063260913            3 
 3326000   0.73250479   -2.9305299    2527.2362   0.06332021  0.063247537            9 
 3327000   0.71801043   -2.9489571    2528.0378  0.063321254  0.063234175            3 
 3328000   0.73449464   -2.9450232    2528.3817   0.06331084   0.06322085            4 
 3329000   0.71417334   -2.9377617    2524.0141  0.063182491  0.063207306            6 
 3330000   0.71641195   -2.9670648      2527.84  0.063259259  0.063193759            2 
 3331000    0.7154478   -2.9425151    2527.8841  0.063241372  0.063180193            5 
 3332000   0.71477359   -2.9555474    2535.7554  0.063419253  0.063166738            3 
 3333000   0.69690043   -2.9520138    2529.0814  0.063233358  0.063153155            5 
 3334000   0.70823559   -2.9417907    2536.3561  0.063396223  0.063139695            4 
 3335000   0.70637984   -2.9483882    2526.7072  0.063136112  0.063126267            6 
 3336000   0.72540286    -2.915514    2525.3458  0.063083178  0.063112872            4 
 3337000   0.69487088   -2.9760518    2525.0137  0.063055982  0.063099435            8 
 3338000   0.72433235   -2.9394378    2533.8355  0.063257326  0.063085993           10 
 3339000    0.7149554     -2.94751    2523.7224  0.062985984  0.063072464            6 
 3340000   0.71361417   -2.9378287    2530.2678  0.063130433  0.063059022            5 
 3341000   0.72944373   -2.9448602    2536.2903  0.063261756  0.063045676            7 
 3342000   0.72032964   -2.9188876    2540.2136  0.063340655   0.06303233            4 
 3343000   0.72427301   -2.9504553    2531.0401  0.063093032  0.063018943            3 
 3344000   0.71678571   -2.9411836      2529.28  0.063030303  0.063005513           12 
 3345000   0.73291654   -2.9721265    2525.8849  0.062926878  0.062991919            2 
 3346000   0.72164009   -2.9492219    2527.8904  0.062958019  0.062978406            5 
 3347000   0.70305581   -2.9641398    2534.2429  0.063097374  0.062964783            5 
 3348000   0.72198977   -2.9424851    2534.3981   0.06308239  0.062951395            5 
 3349000   0.72166426   -2.9571517    2535.9591  0.063102395  0.062937923            4 
 3350000   0.72271104   -2.9685459    2530.3463  0.062943937  0.062924448           14 
 3351000   0.71083979   -2.9405937     2533.018  0.062991594  0.062911072            4 
 3352000   0.72298853   -2.9589709    2534.0059  0.062997363  0.062897732            7 
 3353000   0.69959817   -2.9486849    2544.5263  0.063240041  0.062884368            5 
 3354000   0.72459857   -2.9736084    2531.1162     0.062888  0.062871072            9 
 3355000   0.70418677   -2.9467648    2538.1783  0.063044667  0.062857694            6 
 3356000   0.72415559   -2.9737716    2540.9511  0.063094732  0.062844415            3 
 3357000   0.72529915   -2.9692079    2532.6933   0.06287095  0.062831115           14 
 3358000   0.72049083   -2.9548287    2540.9739  0.063057721  0.062817679            7 
 3359000   0.70912032   -2.9327479    2543.0347  0.063090074  0.062804483            2 
 3360000   0.71502167   -2.9651069    2531.6848  0.062789801  0.062791229            7 
 3361000   0.70293553   -2.9659278    2531.2384  0.062760052  0.062777786            5 
 3362000   0.73042873   -2.9453552    2532.2988  0.062767669  0.062764423            6 
 3363000   0.69538972    -2.924165    2548.3505  0.063146756  0.062751168            6 
 3364000   0.71178138   -2.9513087    2539.7775  0.062915614  0.062737971            7 
 3365000   0.71963538   -2.9574665    2537.7423  0.062846516  0.062724662            6 
 3366000   0.70211813   -2.9563645    2539.2878  0.062866106  0.062711226            4 
 3367000   0.71727172   -2.9537537    2533.6065  0.062706824  0.062697776            5 
 3368000   0.71517946   -2.9529089    2539.7438  0.062840059  0.062684477            5 
 3369000   0.71901804    -2.936051    2530.8466   0.06260133   0.06267118            9 
 3370000   0.70034378   -2.9340376    2544.8511  0.062929057  0.062657732            4 
 3371000   0.71522059   -2.9542101    2536.0892  0.062693789  0.062644376            5 
 3372000   0.72898041   -2.9665512    2530.5868  0.062539215  0.062630977            5 
 3373000   0.71523484   -2.9276271     2538.592   0.06271845  0.062617522            5 
 3374000    0.7021212   -2.9553588    2543.8675  0.062830159  0.062604035            3 
 3375000   0.70906245    -2.953385    2542.8599  0.062786663  0.062590459            2 
 3376000   0.71702417   -2.9545284    2536.3591    0.0626076  0.062576896            5 
 3377000   0.71229607   -2.9334418    2541.6312   0.06271916   0.06256353            3 
 3378000   0.71871007   -2.9461102    2528.7292  0.062382306  0.062550127            3 
 3379000   0.71868112   -2.9743754    2540.4718  0.062653442  0.062536597            3 
 3380000   0.71792761   -2.9415238     2542.938  0.062695711   0.06252304            5 
 3381000   0.69705695   -2.9448118    2541.3609  0.062638294  0.062509514           10 
 3382000   0.70868149    -2.970642    2538.4131  0.062547139  0.062496103            3 
 3383000   0.70911816   -2.9550689     2538.722   0.06253626  0.062482641            5 
 3384000   0.70606501   -2.9672984    2549.4792  0.062782683  0.062469175            3 
 3385000   0.69926732   -2.9558621    2539.7073  0.062523567  0.062455745            6 
 3386000   0.69184251   -2.9554577      2537.36  0.062447331  0.062442187            5 
 3387000   0.71680591   -2.9544416    2537.7458  0.062438386  0.062428631            3 
 3388000   0.71621094   -2.9552288     2542.106  0.062527205  0.062415074            4 
 3389000   0.70688284   -2.9569944    2534.1631  0.062313443  0.062401581            5 
 3390000   0.71272666   -2.9395718    2540.5091  0.062451059  0.062388138            8 
 3391000   0.72136968    -2.946754    2540.4176  0.062430393   0.06237458            5 
 3392000   0.70309729     -2.94261    2542.7451  0.062469169  0.062361118            5 
 3393000   0.70181424   -2.9503565    2551.4205   0.06266383  0.062347599            4 
 3394000   0.70238323   -2.9404636    2543.0403  0.062439607  0.062334115            5 
 3395000   0.71515931   -2.9651628    2542.4162  0.062405895    0.0623207            8 
 3396000   0.70001118   -2.9750841     2537.704  0.062271888  0.062307153            6 
 3397000   0.70729656   -2.9507349    2550.8156  0.062575205   0.06229375            5 
 3398000    0.7031842   -2.9576308    2538.6952  0.062259546  0.062280287            3 
 3399000   0.70556854   -2.9475088    2546.8722  0.062441702  0.062266839            6 
 3400000   0.71405584   -2.9507764     2552.849  0.062569828  0.062253496            4 
 3401000   0.71524478   -2.9718824    2534.1278  0.062092713  0.062240094            6 
 3402000   0.71003898   -2.9677062    2544.5646  0.062330114  0.062226625            2 
 3403000   0.70882108   -2.9556789    2541.4615  0.062235808  0.062213251            4 
 3404000   0.70042527    -2.952192    2544.7185   0.06229726  0.062199774            3 
 3405000    0.7055674   -2.9608277    2554.6753  0.062522644  0.062186424            6 
 3406000   0.69253665   -2.9393061    2545.0931  0.062269845  0.062173031            9 
 3407000   0.70695164   -2.9393448     2553.215  0.062450226   0.06215976            6 
 3408000   0.71861773    -2.951584    2549.9353  0.062351704  0.062146393            6 
 3409000   0.71939601   -2.9676606    2540.3164   0.06209828  0.062133071            5 
 3410000   0.70961152   -2.9683794    2550.0564  0.062318093   0.06211972            5 
 3411000   0.71217435   -2.9641705    2543.3601  0.062136228  0.062106332            7 
 3412000   0.70580806   -2.9601405    2551.7582   0.06232313  0.062092942            4 
 3413000   0.71035088   -2.9557656    2544.6418  0.062131113  0.062079524            5 
 3414000   0.70674583    -2.944559    2541.8275  0.062044218  0.062066133            5 
 3415000   0.69335597    -2.983916    2548.7171  0.062194171  0.062052819            4 
 3416000   0.72324976   -2.9851234    2562.2759   0.06250673  0.062039526            3 
 3417000   0.69301975    -2.963192    2548.6196  0.062155389  0.062026313            8 
 3418000   0.71734656   -2.9523102    2552.6457  0.062235365  0.062013012           11 
 3419000   0.70922845   -2.9857825    2557.7586  0.062341782  0.061999641            3 
 3420000   0.70529278   -2.9889059    2548.3781  0.062094983  0.061986278            7 
 3421000   0.69150545   -2.9525634    2561.6822  0.062400911   0.06197295            4 
 3422000   0.70942957   -2.9559689    2545.5186  0.061989056  0.061959663            5 
 3423000   0.70586755   -2.9645694    2553.9379  0.062175915  0.061946211            4 
 3424000   0.69141922   -2.9561603    2550.2937  0.062069064  0.061932851            4 
 3425000   0.69299124   -2.9765356    2546.9995  0.061970791  0.061919564            8 
 3426000    0.7193843   -2.9672579    2552.3463  0.062082757  0.061906211            2 
 3427000   0.70507664   -2.9896875    2543.9184  0.061859702  0.061892834            3 
 3428000   0.71027291   -2.9669176    2555.8928   0.06213275  0.061879434            6 
 3429000    0.7160194    -2.950911    2554.3431  0.062076968  0.061866083            5 
 3430000   0.70820205   -2.9546092    2554.5486  0.062063864   0.06185274            2 
 3431000   0.69859946   -2.9505304    2559.6813  0.062170438  0.061839538            4 
 3432000   0.70041233   -2.9711948    2556.3031  0.062070297  0.061826256            6 
 3433000   0.71035693   -2.9648088    2547.9296  0.061848956  0.061813007            7 
 3434000   0.70848341   -2.9701247    2558.7564   0.06209368  0.061799651            2 
 3435000   0.71453597   -2.9763439    2557.9418  0.062055842  0.061786304            5 
 3436000   0.70073581   -2.9540699    2550.7921  0.061864379  0.061772965            4 
 3437000   0.69533286   -2.9560728    2558.1185  0.062024015  0.061759575            3 
 3438000   0.69194459   -2.9707509    2547.0565  0.061737844  0.061746361            6 
 3439000   0.71986574   -2.9473541    2562.5458  0.062095227  0.061732995            6 
 3440000   0.69249605   -2.9608958    2562.9387  0.062086693  0.061719681            5 
 3441000   0.69500255   -2.9621212      2549.23  0.061736656  0.061706314            9 
 3442000   0.70017191   -2.9692704     2554.976  0.061857834  0.061693005            3 
 3443000   0.69405809   -2.9590939    2556.0021  0.061864704  0.061679725            4 
 3444000   0.70848495   -2.9819476    2550.2361  0.061707223  0.061666364           12 
 3445000   0.69323744    -2.975781    2551.0331   0.06170859  0.061652968            3 
 3446000   0.70375625   -2.9751368    2555.9285  0.061809065  0.061639597            6 
 3447000    0.7010219   -2.9745468    2551.5785  0.061685971  0.061626162            4 
 3448000   0.69016217   -2.9625124    2558.2108  0.061828374  0.061612734            7 
 3449000   0.70047641   -2.9624638    2557.9988  0.061805324  0.061599391            3 
 3450000    0.6917542   -2.9535848    2555.4272  0.061725294  0.061585996            5 
 3451000   0.70172442   -2.9862642    2553.8329   0.06166891  0.061572609            4 
 3452000   0.70451768   -2.9540403    2564.3042  0.061903829  0.061559281            8 
 3453000   0.70815542   -2.9857345    2555.7693  0.061679923  0.061545934            4 
 3454000   0.69447902   -2.9827304    2552.7235  0.061588581  0.061532438            8 
 3455000   0.70585839   -2.9623343    2549.1967  0.061485691  0.061519119           10 
 3456000   0.70178052   -2.9613222    2552.6406  0.061550941  0.061505588           10 
 3457000    0.7110607   -2.9874215    2553.8972  0.061563427  0.061492105            5 
 3458000    0.7029293   -2.9553452    2557.2174  0.061625636  0.061478723            5 
 3459000   0.69961926   -2.9840837    2551.9535  0.061481002  0.061465277            6 
 3460000   0.70827703   -2.9731541    2551.1564  0.061444036  0.061451904            6 
 3461000    0.6958585   -2.9760765    2553.6518  0.061486368  0.061438557            5 
 3462000   0.69046827   -2.9792645    2552.3212  0.061436577  0.061425191            9 
 3463000   0.69962221   -2.9711622    2560.0997  0.061606018  0.061411748            6 
 3464000   0.69093772   -2.9685049    2553.8126  0.061436986  0.061398345            7 
 3465000   0.67810781   -2.9797593    2558.9948  0.061543886  0.061384921            5 
 3466000   0.70124649   -2.9721182    2561.8809  0.061595521  0.061371524            5 
 3467000   0.70454276   -2.9489325    2557.5615  0.061473932  0.061358115            4 
 3468000   0.68289325   -2.9695862     2560.051  0.061516029  0.061344763            4 
 3469000    0.6917184   -2.9729567    2559.6261  0.061488087  0.061331423            4 
 3470000   0.69093261   -2.9950496    2564.3914  0.061584808  0.061318151            2 
 3471000   0.68699235   -2.9654562    2562.3571  0.061518226  0.061304792            4 
 3472000   0.71630847   -2.9557812    2554.7357  0.061317581  0.061291415            4 
 3473000   0.70028046   -2.9818611    2563.7078  0.061515208  0.061278063            8 
 3474000   0.67783612   -2.9817937     2559.681  0.061400907  0.061264749            7 
 3475000   0.70101364   -2.9764715    2561.4238  0.061425031  0.061251381            6 
 3476000   0.69296185   -2.9692005    2554.4711  0.061240676  0.061238142            3 
 3477000    0.6890625   -2.9798592    2557.1015  0.061286107  0.061224761            5 
 3478000   0.69602907   -2.9756243    2553.7607  0.061188439  0.061211346            8 
 3479000   0.70031742   -2.9742449    2560.1763  0.061324526  0.061197928            5 
 3480000   0.69717315   -2.9615049    2563.0926  0.061376738  0.061184528            2 
 3481000    0.6870764   -2.9649668    2560.4925  0.061296861  0.061171085           12 
 3482000   0.69363198   -2.9675331    2560.2196  0.061272727  0.061157581            4 
 3483000   0.68702609   -2.9655512    2560.2076  0.061254848  0.061144205            5 
 3484000   0.71426288   -3.0004373    2553.6898  0.061081368  0.061130761            5 
 3485000   0.69393284   -2.9539666    2569.5732  0.061443645  0.061117368            3 
 3486000   0.68899639   -2.9694573    2564.8178  0.061312339  0.061103995           10 
 3487000   0.68461473    -2.997007    2558.1315  0.061134966  0.061090581            4 
 3488000   0.69580843   -2.9907818    2559.9082  0.061159887  0.061077151            4 
 3489000   0.70078245   -2.9703116    2566.3194  0.061295487  0.061063835            5 
 3490000   0.69984196   -2.9716092    2557.6201  0.061070202  0.061050351           11 
 3491000   0.70708242   -2.9875392      2553.51  0.060954598  0.061036858            8 
 3492000   0.70218615   -2.9893925    2559.4103  0.061077948  0.061023416            7 
 3493000   0.70276899   -2.9686979    2570.2408  0.061318848  0.061009896            2 
 3494000   0.70394597   -2.9765538    2563.9031   0.06115014  0.060996498            5 
 3495000   0.68294496   -2.9893736    2567.1719  0.061210585  0.060983041            6 
 3496000   0.69808568   -2.9895277    2561.8291  0.061065721  0.060969578            9 
 3497000   0.70287898   -2.9870002    2555.5996  0.060899809  0.060956274            5 
 3498000    0.6817323   -2.9861495    2565.2949  0.061113373  0.060942836            2 
 3499000   0.69797253   -2.9688603    2566.7476  0.061130504  0.060929544           10 
 3500000   0.69109639   -2.9956829    2573.5208  0.061274305  0.060916371           11 
 3501000   0.69977498   -2.9913603    2571.5559  0.061210034   0.06090308            8 
 3502000   0.68546698    -2.979312    2563.3188  0.060996544  0.060889736            2 
 3503000    0.6912346   -2.9845487    2570.0425  0.061139084   0.06087646            5 
 3504000   0.69998335   -2.9910706    2562.9433  0.060952798  0.060863114           10 
 3505000   0.70238403   -2.9933114    2567.5177  0.061044168  0.060849814            6 
 3506000   0.70870384    -2.992354    2566.3894  0.060999938   0.06083655            7 
 3507000   0.69325521   -3.0074153    2563.5237  0.060914449  0.060823399            5 
 3508000   0.70517267   -2.9863752    2571.1602  0.061078492  0.060810095            6 
 3509000   0.67714593   -2.9909662     2566.015  0.060938896  0.060796836            4 
 3510000    0.6800439   -2.9874722    2571.8601  0.061060305  0.060783502           13 
 3511000   0.67981643   -2.9979265    2572.1319  0.061049367   0.06077033            4 
 3512000    0.6920301   -2.9832541     2576.844  0.061143794  0.060757105            5 
 3513000   0.69453284   -2.9756241    2563.8198  0.060817435  0.060743851            4 
 3514000   0.69498054   -3.0064744    2569.5652  0.060936379  0.060730615           10 
 3515000   0.70400058   -2.9749121    2568.7869  0.060900591   0.06071742            8 
 3516000   0.66914877   -2.9752874    2576.7318  0.061071574  0.060704277            4 
 3517000   0.66878437   -2.9871848    2565.7792  0.060794693  0.060691192            7 
 3518000   0.68053709   -3.0033324    2567.2954  0.060813328  0.060678071            6 
 3519000   0.68262077   -2.9919905    2567.8321  0.060808755  0.060664989            4 
 3520000   0.69287523   -2.9952405    2577.1901  0.061013024  0.060651887            8 
 3521000   0.67974445   -2.9491546    2587.2143  0.061232942  0.060638793            7 
 3522000   0.68113478   -3.0059275    2580.4025  0.061054385  0.060625669            5 
 3523000   0.68170253   -2.9878103     2574.622  0.060900321  0.060612541            3 
 3524000   0.69469796   -2.9926711    2569.2911  0.060756979  0.060599467           11 
 3525000   0.68751629   -2.9725736    2579.4881  0.060980807  0.060586336            5 
 3526000   0.69495285   -2.9786626    2566.7672  0.060662867  0.060573325            2 
 3527000   0.66905252     -2.97973    2570.9061  0.060743458  0.060560204            3 
 3528000   0.69268463   -2.9845672    2576.7153  0.060863456  0.060547168            3 
 3529000   0.68594826   -2.9954725    2581.5535  0.060960459  0.060534035            8 
 3530000   0.67988895   -2.9950413    2575.7158  0.060805379  0.060520916            4 
 3531000   0.68097325    -2.997069    2570.3514  0.060661556  0.060507831            5 
 3532000   0.69012348   -2.9803452    2580.7582  0.060889916  0.060494877            5 
 3533000   0.68178874   -2.9956954    2586.3004  0.061003405  0.060481924            5 
 3534000   0.68784638   -2.9992472    2583.3764  0.060917196  0.060468935            7 
 3535000   0.68001922   -2.9898158    2589.3105  0.061039852  0.060455911            4 
 3536000   0.68218327   -2.9733644    2581.6957  0.060843131  0.060442959            4 
 3537000   0.68145246   -2.9890931    2575.0238  0.060668734  0.060430047            3 
 3538000   0.68585802   -2.9989315     2585.097  0.060888851  0.060417153            5 
 3539000   0.67957576   -2.9860562    2587.9148  0.060937997  0.060404146            4 
 3540000   0.67550233   -2.9878864    2579.8236  0.060730311   0.06039116            5 
 3541000   0.67662781   -2.9971973    2581.2734   0.06074728  0.060378132            8 
 3542000   0.67039914   -2.9859823    2585.5363  0.060830424  0.060365254            2 
 3543000   0.68333617   -2.9695265    2580.1736   0.06068712  0.060352276            3 
 3544000   0.69094808   -3.0091579     2582.454  0.060723617    0.0603393            4 
 3545000   0.69429393   -3.0029429    2578.4919   0.06061335  0.060326365           11 
 3546000    0.6957734   -3.0015679    2582.1046  0.060681156  0.060313354            5 
 3547000   0.67122751   -3.0060524    2585.0494  0.060733233   0.06030027            4 
 3548000   0.68944028    -3.020021    2584.2409  0.060697128  0.060287223            6 
 3549000   0.66934312   -2.9971696    2574.1171   0.06044231  0.060274111            5 
 3550000   0.68532511   -2.9882158    2589.7922  0.060793245  0.060261132            3 
 3551000   0.69215596   -2.9998259    2581.6525  0.060585106  0.060248217            7 
 3552000   0.68889914   -3.0117626    2580.5169  0.060541407  0.060235223            4 
 3553000   0.68201003   -2.9944076     2585.365  0.060638077  0.060222108            8 
 3554000   0.69303425   -3.0143036    2568.8548  0.060233887  0.060208928            7 
 3555000    0.6681987   -3.0065621    2580.3335  0.060486018  0.060195842            3 
 3556000   0.68703485   -2.9992679    2578.9092  0.060435629  0.060182742            3 
 3557000   0.68806871   -2.9922121    2586.3661   0.06059334  0.060169686            5 
 3558000   0.68175767   -2.9852597    2585.2015  0.060549033  0.060156773           10 
 3559000    0.6852461   -2.9937145    2581.4044  0.060443112  0.060143768           10 
 3560000   0.67201183   -2.9922837    2582.8343  0.060459603  0.060130681            7 
 3561000   0.67530093   -3.0074026    2580.8846  0.060396999  0.060117566            7 
 3562000   0.69279919    -2.984743    2575.2827  0.060248988  0.060104536            8 
 3563000   0.67267867   -3.0202565    2578.4835   0.06030694  0.060091407            3 
 3564000   0.68300882   -2.9833369    2583.6524  0.060410878   0.06007832           12 
 3565000   0.68202837   -2.9974026     2579.116  0.060287892  0.060065231            7 
 3566000   0.68461761    -3.017218    2585.8828  0.060429117  0.060052132            6 
 3567000   0.67267767   -2.9880111    2583.8851  0.060365506  0.060039066            3 
 3568000   0.68455507   -2.9766389     2586.288  0.060404708   0.06002606            4 
 3569000   0.69177199   -3.0062028    2588.4327  0.060437861  0.060013091           11 
 3570000   0.68927554   -3.0107402     2584.524  0.060329692  0.060000056            7 
 3571000   0.68647694   -3.0129202    2584.2133  0.060305548    0.0599871            5 
 3572000   0.67376142   -2.9884946    2593.1867  0.060498009  0.059974021            5 
 3573000    0.6787858   -3.0152107    2580.1441  0.060176885  0.059961037            9 
 3574000   0.67564921   -3.0061283    2590.7965  0.060408425  0.059948023            7 
 3575000   0.66885526   -2.9754414    2577.3461  0.060077999  0.059935158            8 
 3576000   0.69651852   -3.0091106    2583.6928  0.060209099  0.059922201            5 
 3577000   0.68153737    -3.015916    2581.1211  0.060132353  0.059909187            4 
 3578000   0.67696592   -2.9980126    2599.9622  0.060554364  0.059896203            8 
 3579000   0.68645943   -2.9994243    2583.2249  0.060147734  0.059883157            6 
 3580000   0.67360591   -3.0130166    2588.3542   0.06025033  0.059870179            4 
 3581000   0.67672023   -2.9799396    2590.2499   0.06027762  0.059857249            7 
 3582000   0.66158155   -2.9967408    2589.2552  0.060237651    0.0598443            4 
 3583000   0.68014458   -2.9987835    2595.3159    0.0603618  0.059831365            4 
 3584000   0.66506638   -2.9854222    2593.8263  0.060310321  0.059818434            5 
 3585000   0.69102973   -2.9926823     2590.496  0.060216086  0.059805477            6 
 3586000   0.68069338   -3.0140976    2591.1402  0.060214263  0.059792626            2 
 3587000   0.67496464   -3.0273197    2591.6079  0.060208344  0.059779724            5 
 3588000   0.66748056   -2.9943495    2595.3236   0.06027786  0.059766806           10 
 3589000   0.68245502   -2.9923809    2598.6246  0.060337713  0.059753965            6 
 3590000   0.68245731   -2.9864273    2583.9765  0.059980885  0.059741084            3 
 3591000   0.68911695    -3.009298    2590.3527  0.060112149  0.059728212            3 
 3592000   0.66357438    -3.012278    2588.1563  0.060044457  0.059715364            7 
 3593000   0.68980479   -3.0064523    2593.9172  0.060161359   0.05970241            7 
 3594000   0.67210321   -3.0144872     2590.446  0.060064135  0.059689515           10 
 3595000   0.67542309    -3.003936    2590.0614  0.060038512  0.059676616            3 
 3596000   0.68869621   -3.0127633    2589.6841  0.060013072  0.059663698            4 
 3597000   0.66492452   -3.0096055    2593.0201  0.060073674  0.059650897            6 
 3598000   0.66250697   -3.0148521    2593.2461  0.060062213  0.059638069            6 
 3599000   0.69607891   -2.9981712    2592.9237   0.06003806  0.059625187            3 
 3600000   0.67307944   -3.0038585    2599.9384   0.06018376   0.05961233            4 
 3601000   0.68350512   -2.9990778    2591.7807  0.059978263  0.059599488            6 
 3602000   0.67543341   -3.0095913    2584.7769  0.059799578   0.05958655            5 
 3603000   0.67864875   -3.0187831     2597.036  0.060066518  0.059573544            7 
 3604000   0.67835361   -3.0070904    2593.7868  0.059974722  0.059560518            9 
 3605000   0.68759786   -3.0061084    2593.2249  0.059945097  0.059547537           14 
 3606000   0.67384674   -2.9844428    2597.5696  0.060028879  0.059534586            8 
 3607000      0.68209   -3.0230789    2587.0614  0.059769463  0.059521645            7 
 3608000   0.67246754    -3.001068    2597.8286  0.060001585  0.059508618            6 
 3609000   0.69849021   -3.0133504    2594.0675  0.059898114  0.059495666            3 
 3610000   0.66113745   -3.0172817    2593.0595  0.059858253  0.059482724           10 
 3611000   0.67740277   -3.0296713    2591.1452  0.059797499  0.059469762            4 
 3612000   0.69072122   -3.0002536    2596.6423  0.059907768  0.059456812            3 
 3613000   0.68348182   -3.0133084    2591.2837  0.059767591  0.059443853            6 
 3614000   0.68138308    -3.024897    2587.9176  0.059673436  0.059430886            7 
 3615000   0.68733682   -3.0092777    2596.6068  0.059857235  0.059417988            6 
 3616000   0.67686464   -2.9906905    2593.7397  0.059774606  0.059405089            4 
 3617000   0.67900345   -3.0184634    2592.7065  0.059734275   0.05939211            6 
 3618000   0.67769299   -3.0101624    2598.0722  0.059841353  0.059379224           15 
 3619000   0.67617501   -3.0160248     2590.744  0.059656074  0.059366237            5 
 3620000   0.66927853   -3.0075905    2591.3735  0.059654085  0.059353341            5 
 3621000   0.67363476   -3.0015818    2599.0905  0.059815211  0.059340385           10 
 3622000   0.67390645   -2.9847345    2592.9988  0.059658539  0.059327534            3 
 3623000   0.65824045   -3.0165648    2595.5266  0.059700217  0.059314519            5 
 3624000   0.68902202   -3.0110775    2590.0533  0.059557884   0.05930154            6 
 3625000   0.67689064   -3.0266114    2594.9933  0.059655019  0.059288572            6 
 3626000   0.67137849   -3.0158717    2588.1433  0.059481139  0.059275511            5 
 3627000   0.65727829   -3.0001769    2592.1294  0.059556322  0.059262476            7 
 3628000   0.67698432   -3.0316214     2604.227  0.059817783  0.059249572           13 
 3629000   0.67923702   -3.0300099    2601.1022  0.059729545  0.059236672            3 
 3630000   0.67491791   -3.0353215    2597.6665  0.059634217  0.059223774            5 
 3631000   0.67332323   -3.0168353    2591.8643  0.059484629  0.059210874            4 
 3632000   0.67626931   -3.0026067    2601.5711  0.059690966  0.059198047            6 
 3633000   0.68417954   -3.0087349    2593.1784  0.059482027   0.05918521            3 
 3634000   0.67193259    -3.005019    2602.3747  0.059676544  0.059172428           10 
 3635000   0.65864161    -3.010434    2602.2735  0.059657805  0.059159549            7 
 3636000   0.67559486   -3.0322237    2594.9677  0.059473958  0.059146643            3 
 3637000    0.6606536   -3.0110533    2597.6044  0.059518018  0.059133729            5 
 3638000   0.66546589   -3.0254108    2600.0213   0.05955702  0.059120877            4 
 3639000    0.6612599   -3.0093634    2597.2103  0.059476282  0.059107989            5 
 3640000   0.67025371   -3.0198714    2593.6449  0.059378316  0.059095078           17 
 3641000   0.66731507   -3.0061352    2598.1207  0.059464449  0.059082194            4 
 3642000   0.65715708   -3.0125486    2594.2251  0.059358985  0.059069249            6 
 3643000   0.66115666   -3.0194509    2594.1819  0.059341703  0.059056312            4 
 3644000   0.66109463   -3.0092179    2596.0931  0.059369125  0.059043407            5 
 3645000   0.67022824   -3.0038941    2593.8571  0.059301718  0.059030509            8 
 3646000   0.67381126   -3.0416034    2601.2068  0.059453437  0.059017583            6 
 3647000   0.66193498   -3.0318338    2607.5667  0.059582458   0.05900468            8 
 3648000   0.65669177   -3.0029012    2604.7064  0.059500785  0.058991832            4 
 3649000   0.66158267   -3.0094624    2590.5852  0.059161989   0.05897886            7 
 3650000   0.66644553   -3.0196126    2602.5351  0.059418609  0.058966103            6 
 3651000   0.66486376   -3.0323288    2593.8887  0.059204982  0.058953246            9 
 3652000   0.67621501   -3.0146827    2599.5141  0.059317135  0.058940481            5 
 3653000   0.65523884   -3.0077479    2602.4439  0.059367733  0.058927617            5 
 3654000   0.66057549   -3.0270057    2606.1842  0.059436787  0.058914809            6 
 3655000   0.67796027   -3.0162798    2614.5624  0.059611546  0.058902079            3 
 3656000    0.6783038   -2.9895399    2607.6461  0.059437592  0.058889327            4 
 3657000   0.67177597   -2.9987274     2603.487  0.059326566  0.058876592            5 
 3658000   0.66633468   -3.0194904    2607.2348  0.059395727  0.058863906            7 
 3659000   0.65448943   -3.0166412    2600.5484  0.059227211   0.05885111            4 
 3660000   0.66880212   -3.0220942    2613.4927  0.059505753  0.058838382           11 
 3661000   0.65886432   -3.0076523    2607.1162  0.059344355  0.058825703            9 
 3662000   0.67659811   -3.0148292    2606.8837  0.059322859  0.058813106            5 
 3663000   0.66720074   -3.0372096    2609.4159  0.059364271  0.058800498            7 
 3664000   0.66605915    -3.011766    2617.5942  0.059534074  0.058787895            4 
 3665000   0.67612154   -3.0220591    2609.2078  0.059327144  0.058775294            3 
 3666000   0.66774235   -3.0147587    2603.8543  0.059189268  0.058762602            5 
 3667000   0.66352152   -3.0222395    2604.2914   0.05918306  0.058749962            4 
 3668000   0.65389197    -3.030051    2617.3964  0.059464659   0.05873737            5 
 3669000   0.67485271   -3.0169887    2607.4552  0.059222659  0.058724755            8 
 3670000   0.67390913   -3.0132447    2608.4518  0.059229151  0.058712157            6 
 3671000   0.65994604   -3.0069435    2612.0148  0.059293898  0.058699578            5 
 3672000   0.67242775   -3.0234681     2603.695  0.059088939  0.058686926            5 
 3673000    0.6674094    -3.018006    2614.7217  0.059323026  0.058674259           11 
 3674000   0.65692036   -3.0005826    2613.4992  0.059279151  0.058661582            4 
 3675000   0.66661169   -3.0224226    2603.9799  0.059047164  0.058648996           12 
 3676000   0.65212846    -3.016364    2613.0476  0.059236661  0.058636412            4 
 3677000   0.68426679   -3.0050376    2609.9983  0.059151443  0.058623746           10 
 3678000   0.66448183   -3.0156279    2613.0009  0.059203391  0.058611189           11 
 3679000   0.65911457   -3.0210315    2619.3476  0.059331059  0.058598566            4 
 3680000   0.66725051   -3.0169011    2610.6006  0.059116862  0.058585935            5 
 3681000   0.66256846   -3.0448484    2604.3785   0.05895994  0.058573322            8 
 3682000   0.64248651   -3.0317495    2612.3806  0.059125036  0.058560732           14 
 3683000   0.66081245   -3.0434722    2608.3095  0.059016867  0.058548087            6 
 3684000   0.65166596   -3.0345176    2605.0648  0.058927451  0.058535438            4 
 3685000   0.65408448    -3.016895    2619.4822    0.0592375  0.058522808            8 
 3686000   0.68531512   -3.0156611    2620.6307  0.059247394   0.05851017            4 
 3687000   0.66227598   -3.0223657    2612.3482  0.059044123  0.058497571            8 
 3688000   0.66144246   -3.0365777      2610.96  0.058996745  0.058484898            6 
 3689000   0.65946225   -3.0327826    2613.4482  0.059036962  0.058472249            6 
 3690000   0.66623045   -3.0367765    2614.4742  0.059044132   0.05845968            5 
 3691000   0.67289634   -3.0133173    2613.4272  0.059004498  0.058447122            7 
 3692000   0.66829707   -3.0150438    2619.0504  0.059115438  0.058434524            6 
 3693000    0.6883164   -3.0216458    2615.4033  0.059017134  0.058422057            6 
 3694000   0.65646797   -3.0464819     2612.516  0.058936022  0.058409459            9 
 3695000   0.66641648     -3.04157    2608.3621   0.05882639  0.058396783           19 
 3696000   0.65796711   -3.0289726    2613.5064  0.058926461  0.058384224           10 
 3697000   0.66065926   -3.0352911    2611.8123  0.058872335  0.058371604            5 
 3698000   0.65027728   -3.0201766    2621.4601  0.059073827  0.058359075            3 
 3699000   0.65097973   -3.0195082    2619.9285   0.05902335  0.058346474            4 
 3700000   0.67895264   -3.0027845    2619.9467  0.059007809  0.058333906            7 
 3701000   0.64804982    -3.045905    2611.5774  0.058803418  0.058321433            8 
 3702000   0.66828057   -3.0318851    2620.8989  0.058997363  0.058308775           10 
 3703000   0.65975431   -3.0446084    2614.9167  0.058846808  0.058296315            7 
 3704000   0.66153999   -3.0322033    2618.5381  0.058912394  0.058283722            7 
 3705000   0.65960411   -3.0445999    2620.0313   0.05893008  0.058271192            4 
 3706000   0.66182202    -3.048333    2613.3235  0.058763346  0.058258633            6 
 3707000    0.6619265   -3.0308222    2609.8919   0.05867035     0.058246            5 
 3708000    0.6444305   -3.0423641    2616.5626  0.058804446  0.058233448           10 
 3709000   0.66837627   -3.0455613    2618.9099   0.05884133  0.058220883            5 
 3710000   0.66416346   -3.0447562     2613.487  0.058703661  0.058208329            5 
 3711000   0.65321463   -3.0276846    2620.5515  0.058846481  0.058195742            7 
 3712000   0.66104555    -3.017407    2614.8101  0.058701734  0.058183266            4 
 3713000   0.65258409   -3.0387513    2621.6753  0.058840005   0.05817079           10 
 3714000   0.66710364   -3.0307696    2625.5202  0.058910433  0.058158315            6 
 3715000   0.65819969   -3.0316867    2624.5887  0.058873682  0.058145774            3 
 3716000   0.65372852   -3.0279025    2618.2309   0.05871526  0.058133229            7 
 3717000    0.6688951   -3.0443633    2617.8825  0.058691653  0.058120658           11 
 3718000   0.66309751   -3.0259357    2612.8982  0.058564152  0.058108169            2 
 3719000   0.65202771   -3.0329867    2621.9289  0.058750759  0.058095686            5 
 3720000   0.65089653   -3.0274719      2630.62  0.058929659  0.058083263            6 
 3721000   0.65039119   -3.0335745    2626.5602  0.058822902  0.058070815            4 
 3722000   0.64594544   -3.0355923    2622.9444  0.058726141  0.058058372           11 
 3723000   0.65337436   -3.0207457    2625.8188  0.058774707  0.058045921            6 
 3724000   0.65355176   -3.0216806    2630.8022   0.05887044  0.058033447            3 
 3725000   0.66642254   -3.0415863    2621.2247  0.058640375  0.058020901            6 
 3726000   0.65360126   -3.0553291    2625.0633  0.058710487  0.058008356           21 
 3727000   0.66385657   -3.0308514    2619.3435  0.058566843  0.057995839            7 
 3728000   0.65193253   -3.0261306    2628.8274   0.05876313  0.057983399            7 
 3729000   0.65770677   -3.0432845    2619.6907  0.058543191   0.05797086            4 
 3730000   0.66237498   -3.0427288    2624.9319   0.05864459  0.057958301            4 
 3731000   0.66016987   -3.0252814     2619.968  0.058518003  0.057945845            4 
 3732000   0.66163014   -3.0404379     2626.183    0.0586411  0.057933266            3 
 3733000   0.66357726   -3.0297975    2630.3217  0.058717781  0.057920766            6 
 3734000   0.65291594   -3.0239128    2623.4196  0.058548019  0.057908289            3 
 3735000   0.64911181   -3.0173129    2623.7115  0.058538855  0.057895761            7 
 3736000   0.66322848   -3.0282178    2617.6274  0.058387478  0.057883292            5 
 3737000   0.64132437   -3.0515063    2621.8577  0.058466188  0.057870773            4 
 3738000   0.65895086   -3.0214716    2629.7601  0.058626719  0.057858184            6 
 3739000   0.65506966   -3.0539801    2620.8106  0.058411576  0.057845764            7 
 3740000   0.63577896    -3.056742    2626.9052  0.058531755  0.057833214            5 
 3741000   0.65104027   -3.0624046     2625.325  0.058480909  0.057820715            9 
 3742000    0.6374532   -3.0613326    2618.0393  0.058303031  0.057808209            3 
 3743000   0.67458888   -3.0327737    2621.0755  0.058355051  0.057795686            7 
 3744000   0.65428448   -3.0440661     2630.592  0.058551283   0.05778326            6 
 3745000   0.65426321   -3.0561948    2624.5744  0.058401745  0.057770886            8 
 3746000   0.65629913   -3.0420878    2620.2551  0.058290067  0.057758442            6 
 3747000   0.65716819   -3.0452811    2626.6763  0.058417317  0.057746023            5 
 3748000   0.64802373   -3.0570249     2629.476  0.058463982  0.057733652            3 
 3749000   0.63597446    -3.048227    2629.6748  0.058452806  0.057721144            6 
 3750000   0.65599932    -3.023364    2631.9209  0.058487131  0.057708776            4 
 3751000   0.65711102   -3.0553028    2632.6529  0.058487802  0.057696342            3 
 3752000   0.64518568   -3.0468509    2635.4904  0.058535235  0.057683872           10 
 3753000   0.65730451   -3.0387188    2619.9145  0.058173783  0.057671468           11 
 3754000   0.65883346   -3.0413308    2628.6955  0.058353212  0.057659047            7 
 3755000   0.66123873   -3.0617058    2632.8766  0.058430461  0.057646579            6 
 3756000   0.65738453   -3.0599359    2628.9007  0.058326694  0.057634215            4 
 3757000   0.63980761   -3.0368392    2631.0758  0.058359413  0.057621815            2 
 3758000    0.6423243   -3.0470235    2630.3094  0.058326889  0.057609396            6 
 3759000   0.65058905   -3.0370256    2630.3461  0.058312187  0.057596979            5 
 3760000   0.64487471   -3.0613479    2627.2595  0.058228268   0.05758458            5 
 3761000   0.65572485   -3.0480517    2629.1231   0.05825408  0.057572251            8 
 3762000   0.65145177    -3.039732    2632.2387   0.05830761  0.057559929            5 
 3763000   0.64653523   -3.0340498      2637.98  0.058419258  0.057547623            6 
 3764000   0.65098816   -3.0558992    2630.2727  0.058233102  0.057535359            3 
 3765000   0.64356382   -3.0778769    2629.6304  0.058203418  0.057523058            9 
 3766000   0.64569507   -3.0480566    2631.7376  0.058234591  0.057510704            4 
 3767000   0.64148459    -3.044867    2626.6791  0.058107228  0.057498311            5 
 3768000   0.63899233   -3.0335499    2631.5493  0.058199515   0.05748594            7 
 3769000   0.67247314   -3.0490628     2627.997  0.058105531  0.057473553            5 
 3770000   0.65632261    -3.056766    2639.5706  0.058345946  0.057461211            7 
 3771000   0.64310265   -3.0298042    2631.9292  0.058161611  0.057448808            4 
 3772000   0.64585455   -3.0523736    2629.3381  0.058088947  0.057436431            5 
 3773000   0.64978624   -3.0543547    2631.3488  0.058117961  0.057424047            5 
 3774000   0.65000784   -3.0392893    2635.8114  0.058201099  0.057411695            4 
 3775000   0.64265401   -3.0467104    2635.4767  0.058178293  0.057399331            3 
 3776000   0.64716609   -3.0415725    2628.3645  0.058005926  0.057387005            6 
 3777000   0.65639724   -3.0169565    2634.6461  0.058129161  0.057374599            4 
 3778000   0.63598237   -3.0308381    2637.3828   0.05817414   0.05736228            6 
 3779000    0.6547773   -3.0697415    2630.1447  0.057999132  0.057349906            8 
 3780000   0.63614109   -3.0467282    2636.8908  0.058132514   0.05733753            6 
 3781000   0.64038326    -3.057653    2637.2262   0.05812453  0.057325219            6 
 3782000   0.64590112   -3.0443618    2643.7781  0.058253528  0.057312906            6 
 3783000   0.63903967   -3.0611964    2631.3476  0.057964304  0.057300575            6 
 3784000   0.64519467    -3.052916    2632.4506  0.057973278  0.057288154           11 
 3785000   0.64971549   -3.0308233    2628.6881  0.057875123  0.057275826            5 
 3786000   0.65302006   -3.0515204    2638.0596  0.058066111  0.057263483            5 
 3787000    0.6607581   -3.0461293    2635.8347   0.05800182  0.057251148           14 
 3788000   0.65452669   -3.0526707    2626.4968  0.057781082  0.057238838           10 
 3789000    0.6469241    -3.054872    2642.0985  0.058108967  0.057226508           10 
 3790000   0.64162808   -3.0423231    2634.9163  0.057935716  0.057214198            6 
 3791000   0.63950101   -3.0401277    2642.3121  0.058083007  0.057201944            7 
 3792000   0.64325922   -3.0451325    2641.1127  0.058041331  0.057189717            4 
 3793000   0.63683231   -3.0736223    2632.0011  0.057825844  0.057177461            4 
 3794000   0.64999443   -3.0565683    2641.1674  0.058011935  0.057165136            9 
 3795000   0.65693923   -3.0516732    2635.8409  0.057879686  0.057152835            5 
 3796000   0.64136749   -3.0607164    2636.7289  0.057883932  0.057140515            6 
 3797000   0.64265235   -3.0325799    2632.7864  0.057782162  0.057128179            2 
 3798000   0.64060705   -3.0549802    2636.6182  0.057851023  0.057115939            5 
 3799000   0.63608142    -3.055461    2636.2018   0.05782666  0.057103591            7 
 3800000   0.64382541    -3.052411    2637.1827  0.057832954  0.057091182            6 
 3801000   0.64008728    -3.055997    2639.9796  0.057879059  0.057078825            4 
 3802000   0.64625909   -3.0533904    2636.1457  0.057779803  0.057066468            4 
 3803000   0.64855121   -3.0615266     2636.721  0.057777215  0.057054108            6 
 3804000   0.62702548   -3.0575063    2635.9735  0.057745652  0.057041699            9 
 3805000   0.64385622   -3.0542762    2636.1458   0.05773425  0.057029251           11 
 3806000   0.63101587   -3.0457397    2640.6236  0.057817122  0.057016924            3 
 3807000   0.63867844   -3.0685712     2638.605  0.057757748  0.057004643           14 
 3808000   0.65026608   -3.0747737     2627.018  0.057489015  0.056992307            4 
 3809000   0.62460795   -3.0383681    2634.8052   0.05764429  0.056979955            4 
 3810000   0.65073918   -3.0590998     2632.183  0.057571807  0.056967575            5 
 3811000   0.64331631   -3.0553359    2639.0788  0.057707487  0.056955213           16 
 3812000   0.63923859   -3.0793675    2635.1234  0.057605881  0.056942815            5 
 3813000   0.64506625   -3.0708112    2638.8572  0.057672374  0.056930437            4 
 3814000   0.63292685   -3.0737637    2640.0898  0.057684185  0.056918028            6 
 3815000   0.64340024   -3.0555894    2636.5547  0.057591845  0.056905682            8 
 3816000   0.64489922    -3.072058    2629.4547  0.057421704  0.056893294            6 
 3817000   0.63408452   -3.0590972    2640.8569  0.057655595  0.056880899            6 
 3818000   0.63235374   -3.0678957    2639.1973  0.057604272  0.056868669            4 
 3819000      0.64275   -3.0784124    2633.4787  0.057464404  0.056856257            7 
 3820000   0.64792382   -3.0714315    2636.9861  0.057525874  0.056843876            3 
 3821000   0.64222555   -3.0559745    2636.8638  0.057508152   0.05683139            5 
 3822000   0.64177739   -3.0623813     2641.861  0.057602062  0.056818997            5 
 3823000    0.6389323   -3.0564513    2639.3561  0.057532393  0.056806594            3 
 3824000   0.63184559   -3.0601494    2635.7369  0.057438479  0.056794311            5 
 3825000   0.63060335   -3.0493297    2642.8512  0.057578458  0.056781977            4 
 3826000   0.62376215   -3.0594905    2639.9912  0.057501116  0.056769762            6 
 3827000   0.64765761   -3.0700926    2644.7285  0.057589245  0.056757491            3 
 3828000   0.64976293   -3.0707769    2640.3319  0.057478489   0.05674522            6 
 3829000   0.63982239   -3.0708084    2647.0968  0.057610708  0.056733049           10 
 3830000   0.63413782   -3.0634055    2641.1319  0.057465882  0.056720852            6 
 3831000   0.64603729   -3.0673307    2641.1221  0.057450669  0.056708612           10 
 3832000     0.630587   -3.0469284    2649.8502  0.057625482  0.056696349            8 
 3833000   0.65449267   -3.0639603    2639.6369    0.0573884   0.05668417            8 
 3834000   0.62855905   -3.0602221    2641.0773  0.057404741  0.056671997           17 
 3835000   0.62467414   -3.0642976    2642.8264   0.05742778  0.056659805            4 
 3836000   0.64865958   -3.0698243    2639.6848  0.057344561  0.056647572            9 
 3837000   0.64335371   -3.0574633    2649.6403  0.057545833  0.056635336            8 
 3838000   0.63210064   -3.0614774    2644.2534  0.057413875   0.05662316            8 
 3839000   0.63282616   -3.0564442    2647.5383  0.057470225  0.056610995            4 
 3840000   0.63180256   -3.0708387    2637.7828  0.057243551  0.056598868            5 
 3841000   0.64498909   -3.0787781    2651.2402  0.057520614  0.056586613            3 
 3842000   0.65110073   -3.0848215    2639.0368  0.057240951   0.05657438            6 
 3843000   0.63580689   -3.0641942    2651.5001  0.057496316  0.056562231            6 
 3844000   0.62934581   -3.0354725    2645.6053  0.057353567  0.056550051            6 
 3845000   0.62425106   -3.0706035    2650.5565  0.057445958  0.056537905            6 
 3846000   0.63231856    -3.071111    2642.8456  0.057263946  0.056525773            5 
 3847000   0.64159776   -3.0577061    2646.9779  0.057338574  0.056513658           11 
 3848000    0.6458692   -3.0638914    2646.8678  0.057321289  0.056501556           10 
 3849000   0.64137228   -3.0735889    2645.2188  0.057270694   0.05648941            3 
 3850000   0.63813597   -3.0621838    2645.8396  0.057269256  0.056477225            6 
 3851000   0.64071919   -3.0629924    2646.1429  0.057260947  0.056465025           12 
 3852000   0.64206519   -3.0602153    2650.2036   0.05733393  0.056452791            3 
 3853000   0.64048017   -3.0691382    2642.0289  0.057142247  0.056440602            8 
 3854000   0.63177839   -3.0706625    2640.7669  0.057100131  0.056428312           11 
 3855000    0.6360706   -3.0764348    2651.1136  0.057308983  0.056416068            6 
 3856000   0.63091285   -3.0719171    2640.7374  0.057069879  0.056403848            4 
 3857000   0.62868191    -3.063143    2643.5943  0.057116807  0.056391652            5 
 3858000   0.63663859   -3.0692036    2647.2302  0.057180538  0.056379465           13 
 3859000   0.64103532   -3.0525072    2640.7095   0.05702491  0.056367311            4 
 3860000   0.64750237   -3.0735773    2646.7794  0.057141179  0.056355107            5 
 3861000   0.62378951   -3.0650017    2656.0529  0.057326533  0.056342859           12 
 3862000   0.64836886   -3.0793948    2642.8929  0.057027725  0.056330657            5 
 3863000   0.63734681   -3.0689945    2650.8289   0.05718416  0.056318422            2 
 3864000   0.61703099   -3.0535012    2652.5076  0.057205564  0.056306271           10 
 3865000   0.64369938   -3.0941405    2650.2029  0.057141072  0.056294114           10 
 3866000   0.63988317   -3.0739322    2655.9655  0.057250507   0.05628194            9 
 3867000   0.62919287    -3.085412    2655.1796  0.057218765  0.056269811            6 
 3868000   0.63624962   -3.0954915    2643.8336   0.05695953  0.056257636           11 
 3869000   0.62816324   -3.0801712    2640.9232  0.056882124  0.056245402            5 
 3870000   0.63076254   -3.0910344    2640.3378  0.056854819  0.056233158            4 
 3871000   0.63329804   -3.0649045    2650.1982  0.057052401   0.05622098            9 
 3872000   0.62512532   -3.0801445    2651.7483  0.057071028  0.056208822            4 
 3873000   0.62674164   -3.0956824    2642.1157  0.056849035  0.056196638           13 
 3874000   0.64896909   -3.0845965     2653.432  0.057077784   0.05618438           10 
 3875000   0.64190361   -3.0783926    2656.6611  0.057132496  0.056172193            5 
 3876000   0.62937778   -3.0684879    2651.8298  0.057013886  0.056160101            7 
 3877000   0.63275866   -3.0661756    2646.6831  0.056888555  0.056147955            2 
 3878000   0.63942483   -3.0702242    2654.8375  0.057049112  0.056135793            6 
 3879000   0.62746798   -3.0629308    2654.5146  0.057027469  0.056123637            5 
 3880000   0.64254479   -3.0834703    2650.8309  0.056933653  0.056111446           10 
 3881000   0.62997391   -3.0829326    2655.8957  0.057027735  0.056099279           11 
 3882000   0.62974681   -3.0891176    2640.7603   0.05668814  0.056087007            5 
 3883000   0.63253872   -3.0699668    2645.3195  0.056771387  0.056074824            5 
 3884000   0.62451746   -3.0729287    2651.3318  0.056885767  0.056062615            8 
 3885000   0.63645814   -3.0827978    2648.4317  0.056808916  0.056050442            6 
 3886000   0.61253859   -3.0856913    2650.8431  0.056846009  0.056038273            6 
 3887000   0.62469074   -3.0612837    2648.3103  0.056777083  0.056026064           12 
 3888000   0.62066671   -3.0646994    2650.2526  0.056804112  0.056013828            7 
 3889000   0.64100846    -3.071853    2649.4283  0.056771842  0.056001639            8 
 3890000   0.62024133   -3.0699754    2651.7254  0.056806456  0.055989398            8 
 3891000   0.63376811   -3.0851066    2657.6119  0.056917928  0.055977177            5 
 3892000   0.62984679   -3.0673182    2654.4082  0.056834708     0.055965            5 
 3893000   0.62742599   -3.0671508    2649.5956   0.05671709   0.05595288            7 
 3894000   0.63680489   -3.0778451    2649.8541  0.056708056  0.055940749            2 
 3895000   0.63065583   -3.0760576    2651.9263  0.056737833  0.055928567           13 
 3896000    0.6335451   -3.0773521    2654.7967  0.056784667  0.055916313            9 
 3897000   0.63795964   -3.0807732    2645.7997  0.056577703  0.055904134            4 
 3898000   0.61386716    -3.067739    2652.3642  0.056703528  0.055892006            5 
 3899000   0.62997651   -3.0924128    2655.4464  0.056754861  0.055879864            3 
 3900000   0.64029772   -3.0933062     2654.509  0.056720279  0.055867715            5 
 3901000   0.62795301   -3.0693505    2657.8826  0.056777805  0.055855543            7 
 3902000   0.63191441   -3.0839802    2662.2972  0.056857534  0.055843394           11 
 3903000   0.63439485   -3.0832529    2654.1828  0.056669715  0.055831277            8 
 3904000   0.63772348   -3.0827741    2650.6589   0.05657998  0.055819075            5 
 3905000   0.62472965   -3.0963114    2655.5218  0.056669266   0.05580685            6 
 3906000   0.61849208   -3.0741796    2642.2088   0.05637073  0.055794688            6 
 3907000   0.62922463   -3.0630959    2654.0827  0.056609563  0.055782506            5 
 3908000   0.63346878   -3.0729707    2657.6081  0.056670252  0.055770334           11 
 3909000   0.62837066   -3.0808007      2654.91  0.056598236  0.055758101           10 
 3910000   0.62973387   -3.0698563    2649.9995  0.056479104  0.055745836            5 
 3911000   0.62533714   -3.0458068    2656.4571  0.056602256  0.055733691            3 
 3912000   0.61603327   -3.0866623    2663.0692  0.056728638  0.055721541            5 
 3913000   0.61554087   -3.0853601    2657.0825  0.056586646  0.055709367           10 
 3914000   0.63168909   -3.0833571    2652.5242  0.056475136  0.055697156           18 
 3915000   0.61914471    -3.062366    2654.5098  0.056502975  0.055684983           10 
 3916000   0.62771471   -3.0773981    2657.6394  0.056555146  0.055672853            3 
 3917000   0.62515427   -3.0613608    2668.7379  0.056776825  0.055660776            8 
 3918000   0.63711715   -3.0758922    2655.8266   0.05648772  0.055648642            5 
 3919000   0.62672943   -3.1042895    2658.7049   0.05653451  0.055636531            7 
 3920000   0.61835814   -3.0927199    2659.0421  0.056527256  0.055624361            7 
 3921000   0.62957984   -3.0884384    2661.1197  0.056556995  0.055612187            5 
 3922000   0.60130868   -3.0848661    2653.9373  0.056389964  0.055599993            9 
 3923000   0.61989022   -3.0905855    2651.5301  0.056324455  0.055587829            6 
 3924000   0.62200436   -3.0777586    2656.4861  0.056415351  0.055575661            8 
 3925000   0.61489922   -3.0838751    2647.4757  0.056209674  0.055563442           10 
 3926000   0.61691874   -3.0848665    2651.8461  0.056288124  0.055551306            6 
 3927000   0.62602602    -3.101137    2656.2629  0.056367517  0.055539192            8 
 3928000   0.61417888   -3.0914944    2658.3888  0.056398269  0.055527065           11 
 3929000   0.62381659   -3.0753303    2659.6884  0.056411478  0.055514875            6 
 3930000   0.62459646    -3.094376    2657.5618  0.056352031  0.055502773           12 
 3931000   0.60920286   -3.0903916    2662.6642  0.056445863   0.05549063            8 
 3932000   0.63014678   -3.0901404    2658.4983  0.056343217  0.055478497            5 
 3933000   0.62249251   -3.1027504    2659.4992  0.056350098  0.055466421            5 
 3934000   0.61722452   -3.0935485      2655.04  0.056241314  0.055454297            5 
 3935000    0.6344202   -3.1051165    2660.6591  0.056346022  0.055442143            5 
 3936000   0.62501043   -3.0788735    2658.9139  0.056294757  0.055429918            5 
 3937000   0.61338777   -3.0768572    2658.4044  0.056269671  0.055417809            6 
 3938000    0.6207351   -3.0962781     2657.824  0.056243102   0.05540567            9 
 3939000   0.62080959   -3.1103367    2655.4946  0.056179541  0.055393503            7 
 3940000     0.609039   -3.0856097    2656.4278  0.056185021  0.055381267            8 
 3941000   0.62845039   -3.0942343    2650.6368  0.056048313  0.055369102            6 
 3942000   0.63188022   -3.0895983    2664.9036  0.056335693  0.055357019            5 
 3943000   0.61994618   -3.0755838     2662.399  0.056268471  0.055345012            5 
 3944000   0.61787957   -3.0893661    2660.7782  0.056219958  0.055332965           14 
 3945000   0.61802816    -3.095053    2647.0017  0.055914696  0.055320895            4 
 3946000   0.61048993   -3.0994017    2665.9963  0.056301662  0.055308744            8 
 3947000   0.62341473   -3.0969521    2662.4253  0.056212003   0.05529668            9 
 3948000   0.60961283   -3.0971639    2663.4262  0.056218891   0.05528465            5 
 3949000   0.63251436   -3.1023276    2664.2094  0.056221183  0.055272606            6 
 3950000   0.61791959   -3.0945456    2660.0496  0.056119191  0.055260529            5 
 3951000   0.60679358   -3.0980952     2653.879  0.055974838  0.055248364            7 
 3952000   0.61820044     -3.09207    2653.7571  0.055958104  0.055236301           13 
 3953000    0.6080605   -3.1013507    2656.3521  0.055998653  0.055224144            8 
 3954000   0.62093406   -3.0970275    2658.6369  0.056032644  0.055212006            6 
 3955000   0.61365607   -3.0869981    2656.3241  0.055969744  0.055199944            6 
 3956000   0.62449283   -3.0998734    2659.9626  0.056032242  0.055187802           10 
 3957000   0.61580751   -3.1212069    2656.1889  0.055938609    0.0551757            6 
 3958000   0.61164754   -3.1128429      2661.44  0.056035035  0.055163659            7 
 3959000   0.63696332   -3.1052194    2656.6604  0.055920275  0.055151471           17 
 3960000   0.60646507   -3.1079526    2662.6549  0.056032299  0.055139414            8 
 3961000   0.60754804    -3.102985    2658.5848  0.055932525  0.055127266           12 
 3962000   0.61892808   -3.1079345    2657.1438  0.055888099  0.055115096            4 
 3963000   0.62873399   -3.0703675    2666.3135  0.056066815  0.055103083           12 
 3964000   0.62257521   -3.1004496    2668.1269  0.056090795  0.055091041            5 
 3965000   0.61303893   -3.1022853    2650.4943  0.055706058   0.05507905            7 
 3966000   0.61931172   -3.0987421    2659.9598  0.055890901  0.055067106            7 
 3967000   0.60219033   -3.1004732     2668.436  0.056054869  0.055055038            8 
 3968000   0.62005609   -3.0966906    2665.3012  0.055974907  0.055042972            5 
 3969000   0.60551679   -3.0895602    2666.1315  0.055978238  0.055031026            9 
 3970000   0.61939383   -3.0836717    2666.5568  0.055973066   0.05501911            9 
 3971000   0.61355999   -3.0964408    2667.1124  0.055970629  0.055007175            9 
 3972000   0.62031887   -3.0944939    2665.9531  0.055932214  0.054995213            3 
 3973000   0.61834052   -3.1024194    2665.8121   0.05591518  0.054983201            4 
 3974000   0.62264946   -3.0841693    2663.9004  0.055861022  0.054971122            8 
 3975000   0.61563665   -3.0854947    2668.4514  0.055942377   0.05495904           17 
 3976000   0.61444975   -3.1120609    2661.6465  0.055785682  0.054946952            7 
 3977000   0.62146033   -3.1120673      2658.51  0.055705934  0.054934827            4 
 3978000   0.60873739   -3.0768961     2662.765  0.055781067  0.054922751            6 
 3979000   0.61193608   -3.0943294    2674.7557  0.056018173  0.054910737           10 
 3980000   0.60976352   -3.0961597    2664.5723  0.055790877  0.054898755            6 
 3981000   0.61555646   -3.0983786    2665.7975   0.05580251  0.054886789            7 
 3982000   0.61425546   -3.0983189    2664.7312  0.055766181  0.054874813            9 
 3983000   0.62261748   -3.1101611    2671.6033  0.055895959  0.054862773            8 
 3984000   0.62197192   -3.1086012     2662.504  0.055691601  0.054850716            6 
 3985000   0.62494899   -3.1151199    2665.3446  0.055737026  0.054838737            7 
 3986000   0.59786973   -3.0938303    2659.2389  0.055595395  0.054826718           11 
 3987000   0.59969802   -3.1172884    2667.3228  0.055750413  0.054814644            8 
 3988000    0.6093206   -3.0978818    2667.7984  0.055746371  0.054802613            6 
 3989000    0.6205698   -3.0849384    2668.3133  0.055743153  0.054790615            8 
 3990000   0.61513076   -3.1142953    2658.2888  0.055519816  0.054778609            5 
 3991000   0.60462801   -3.1093189    2663.1221  0.055606825  0.054766546           11 
 3992000   0.60637162   -3.1095939    2657.0506  0.055466154  0.054754477            7 
 3993000   0.60164114   -3.0863469    2670.5501  0.055733995  0.054742453            6 
 3994000   0.63319457   -3.1023338    2658.4167  0.055466882  0.054730464            4 
 3995000   0.61889566   -3.1008857    2662.3187   0.05553439  0.054718456            7 
 3996000   0.61904754   -3.1083399    2666.9886  0.055617881  0.054706528            7 
 3997000   0.61799077   -3.1184646    2659.2961  0.055443584  0.054694498           10 
 3998000   0.61917907   -3.0996064    2669.5922  0.055644326  0.054682436            5 
 3999000   0.62009869   -3.1204044    2662.0329  0.055472887  0.054670347            6 
 4000000   0.61582657    -3.119294    2667.8987  0.055581223  0.054658242            5 
 4001000   0.60183563    -3.125169    2663.0453  0.055466243   0.05464613            5 
 4002000   0.61021294   -3.0995449    2668.8865  0.055574016  0.054634126           10 
 4003000   0.63413455   -3.1049448    2669.0993  0.055564562   0.05462212            5 
 4004000   0.61051938   -3.1093683    2667.4033  0.055515386  0.054610038           15 
 4005000    0.6013064   -3.1062987    2666.8606  0.055490232  0.054598002            6 
 4006000   0.59617532   -3.1204791    2664.5185   0.05542766  0.054585934           20 
 4007000    0.6089974   -3.1005951     2673.467   0.05559993   0.05457384            8 
 4008000   0.61894885   -3.1288186     2663.108  0.055370675  0.054561777            8 
 4009000   0.59708314   -3.0994783    2663.7684   0.05537059  0.054549711            8 
 4010000   0.59900799   -3.1137958    2659.2992  0.055263906  0.054537622           10 
 4011000   0.61274188   -3.1092298    2665.3343  0.055375516  0.054525581            9 
 4012000   0.61171003   -3.1102467    2666.4483  0.055384852  0.054513567           11 
 4013000   0.60103005   -3.0904104    2655.5622  0.055144992  0.054501518            5 
 4014000   0.60767745   -3.1076241    2663.3516  0.055292966   0.05448946            4 
 4015000   0.61291973   -3.0982869    2673.6168  0.055492255  0.054477386           10 
 4016000   0.60536017   -3.1214861    2670.4657   0.05541305  0.054465378            4 
 4017000   0.61473731   -3.1149611    2663.7921  0.055260811   0.05445327            4 
 4018000   0.61394507   -3.1072743    2664.3461  0.055258547   0.05444117            8 
 4019000   0.62022952   -3.0886825    2667.0513  0.055300889  0.054429173            7 
 4020000   0.60156446    -3.108781     2667.665  0.055299856   0.05441723            6 
 4021000   0.60445212   -3.1306283    2653.8875  0.055000569  0.054405154            8 
 4022000   0.60262966   -3.1094432    2668.4393    0.0552884   0.05439307            9 
 4023000   0.60530261    -3.103626    2667.6734  0.055258791  0.054381118            4 
 4024000   0.61088751   -3.1074355    2664.2835  0.055174857  0.054369141           14 
 4025000   0.60718572   -3.1210516    2665.1251  0.055178573  0.054357227            5 
 4026000   0.59990525   -3.1018414     2669.613  0.055257762  0.054345202            6 
 4027000    0.6035985    -3.121073    2671.6002  0.055285163   0.05433324           11 
 4028000    0.5999209   -3.1144759     2669.816  0.055234525  0.054321218            7 
 4029000   0.61852492   -3.1032964    2669.2097  0.055208275  0.054309181            8 
 4030000   0.59998804   -3.1265718     2672.314  0.055258768  0.054297209           12 
 4031000   0.60041254    -3.128595    2672.2017  0.055242738  0.054285267            6 
 4032000   0.61433721    -3.104761    2679.4162  0.055378145  0.054273336            5 
 4033000   0.61402359   -3.1104428    2675.5587  0.055284708  0.054261421            4 
 4034000   0.62527532   -3.1169871    2669.9778  0.055155714   0.05424946            4 
 4035000   0.61145502   -3.1203007    2669.1195  0.055124318  0.054237463            6 
 4036000   0.60558644   -3.1245245    2662.9559  0.054983397  0.054225464            6 
 4037000   0.59538138   -3.1126611     2677.319  0.055266265  0.054213485           12 
 4038000   0.59901581   -3.1149013    2668.3541  0.055067569  0.054201543            7 
 4039000   0.62384141   -3.1146017    2668.1393  0.055049503   0.05418959            7 
 4040000   0.59985102   -3.1132461    2675.1465  0.055180415  0.054177661           13 
 4041000   0.60134934   -3.1138618    2673.5152  0.055133119  0.054165691            8 
 4042000   0.61095063   -3.0951611    2673.2037  0.055113056  0.054153768            5 
 4043000    0.6029537    -3.108632    2669.9218  0.055031778  0.054141867            7 
 4044000   0.60196961    -3.126196    2667.3063  0.054964275  0.054129824            9 
 4045000   0.61090325   -3.0951439    2669.7201  0.055000415  0.054117899           12 
 4046000   0.60355556   -3.1314103    2678.6585  0.055170921  0.054106062            8 
 4047000   0.61434747   -3.1133454    2670.8864   0.05499725  0.054094159           16 
 4048000   0.60899794   -3.1243135    2671.1811   0.05498973   0.05408224           10 
 4049000   0.59430586   -3.1058383    2675.6909  0.055068966  0.054070322            8 
 4050000   0.59732216   -3.1078632    2678.5063  0.055113299  0.054058449            9 
 4051000    0.6082108   -3.1150954    2671.5526  0.054956649  0.054046554            5 
 4052000   0.60153478   -3.1159773      2674.28  0.054999177  0.054034628           14 
 4053000    0.6073172    -3.123312    2673.6253  0.054972147  0.054022754            4 
 4054000   0.62059445    -3.105662    2687.2944  0.055239566  0.054010769            5 
 4055000   0.61628383   -3.1107232    2678.1321  0.055037652  0.053998869            7 
 4056000   0.62412932   -3.1231442     2674.146  0.054942184   0.05398699            6 
 4057000   0.59287005   -3.1217718    2672.7144  0.054899236  0.053975092            5 
 4058000    0.6050773   -3.1249301    2675.0248  0.054933152  0.053963191            9 
 4059000   0.59777288   -3.1108544    2679.3717  0.055008863  0.053951318            6 
 4060000     0.607503   -3.0949855    2677.2355  0.054951468  0.053939489            9 
 4061000   0.60828133   -3.1190153    2672.5318  0.054841414  0.053927661            8 
 4062000   0.59796415   -3.1223707    2678.2481  0.054945184  0.053915761            8 
 4063000   0.60178595   -3.1333055    2672.6342   0.05481652  0.053903837           10 
 4064000   0.59029867   -3.1125429    2682.7895  0.055011267  0.053891906            4 
 4065000    0.5917479   -3.1405767     2673.292  0.054803034  0.053880002           13 
 4066000   0.58270421   -3.1211648    2676.9131  0.054863771  0.053868091            3 
 4067000   0.59494367   -3.1209719    2671.7382  0.054744246  0.053856206           10 
 4068000   0.59727474   -3.1096848    2678.0683  0.054860462  0.053844371            9 
 4069000   0.59986526     -3.12486    2665.6217  0.054592073  0.053832452            6 
 4070000   0.62379399   -3.1100513    2683.7766  0.054950381  0.053820626            6 
 4071000   0.60219513   -3.1200419    2678.4064  0.054826954  0.053808683           13 
 4072000   0.60861342   -3.1020005    2683.1991  0.054911573  0.053796882            6 
 4073000   0.61042359   -3.1320106    2673.7099  0.054703943   0.05378501            7 
 4074000   0.59527468   -3.1129384    2684.0802  0.054902638  0.053773109            6 
 4075000   0.60216026   -3.1219024    2680.7645   0.05482136  0.053761247            5 
 4076000   0.59436937   -3.1385159    2679.9535  0.054791329  0.053749322            7 
 4077000   0.60471646   -3.1139525    2673.3103  0.054642103  0.053737475            7 
 4078000   0.59137082   -3.1359488    2678.9524     0.054744  0.053725537            3 
 4079000   0.59450699   -3.1209039    2668.0654  0.054508159  0.053713652           11 
 4080000     0.589235   -3.1344566    2674.9352  0.054635114  0.053701763            5 
 4081000   0.60014512   -3.1103887    2673.1538   0.05458535   0.05368986            9 
 4082000   0.58862939   -3.1230707    2670.1464  0.054510584  0.053678022            3 
 4083000   0.59216431   -3.1390244    2671.1852  0.054518435  0.053666111           13 
 4084000   0.60659255   -3.1405824    2673.1588  0.054545356  0.053654181            4 
 4085000   0.59820297   -3.1158171    2677.5791  0.054622176  0.053642299            6 
 4086000   0.59577026   -3.1177554    2679.9142  0.054656433  0.053630397           11 
 4087000    0.5956333   -3.1102353    2679.6349  0.054637365  0.053618546            4 
 4088000   0.59633369   -3.1041185     2676.439  0.054558851  0.053606707           17 
 4089000   0.61089853   -3.1430627    2684.6486  0.054712819  0.053594853            7 
 4090000   0.58124549   -3.1196072    2678.9419  0.054583169  0.053582938            7 
 4091000   0.60459766   -3.1191916    2683.9413  0.054671664  0.053571087           13 
 4092000   0.58993175   -3.1200088    2676.6164  0.054509132  0.053559327            6 
 4093000   0.60294112    -3.134447    2679.6615  0.054557812  0.053547483           14 
 4094000   0.59186425   -3.1297843    2677.2309  0.054495011   0.05353564           15 
 4095000   0.58519251   -3.1346408    2670.0195  0.054334951  0.053523835            6 
 4096000   0.60096535   -3.1246825    2681.5501  0.054556277  0.053511915            9 
 4097000   0.59363314   -3.1204592    2678.2608  0.054476055  0.053500119            6 
 4098000   0.61307978   -3.1314324    2676.4923    0.0544268   0.05348827            5 
 4099000   0.59505091   -3.1276522    2680.9162   0.05450346  0.053476435           10 
 4100000   0.61539896   -3.1426077    2679.4845  0.054461066  0.053464567           15 
 4101000   0.59372013    -3.138814    2680.8939  0.054476427  0.053452749            4 
 4102000    0.5834128   -3.1237273    2679.0865  0.054426428  0.053440912           10 
 4103000   0.61027464   -3.1143155    2681.5201  0.054462591  0.053429111            5 
 4104000   0.59653091   -3.1540093    2678.3288   0.05438452  0.053417358           12 
 4105000   0.60851232   -3.1315132    2677.8963  0.054362491  0.053405491            3 
 4106000   0.60327333   -3.1325206    2686.2628  0.054519053  0.053393665            5 
 4107000   0.60106635   -3.1163859    2679.8461  0.054375581  0.053381903            5 
 4108000   0.60891141   -3.1311007    2687.0127  0.054507723  0.053370063            4 
 4109000   0.58999836   -3.1157585    2674.1458  0.054233509  0.053358294           11 
 4110000   0.61163016   -3.1415099    2684.1593  0.054423343  0.053346511           13 
 4111000   0.58719014   -3.1381724    2685.5065  0.054437414  0.053334715            6 
 4112000   0.59874462   -3.1308271    2686.4269  0.054442828  0.053322966           14 
 4113000   0.58857741   -3.1357886    2685.3498  0.054407767  0.053311204            6 
 4114000   0.59164496   -3.1384895    2679.0862  0.054267666  0.053299423            8 
 4115000    0.5874311   -3.1218185     2679.737  0.054267659  0.053287649            4 
 4116000   0.60616697   -3.1306891    2675.0183  0.054158939  0.053275819            6 
 4117000   0.59516811   -3.1193554    2683.3362  0.054314148  0.053264048            9 
 4118000   0.58659722   -3.1098883    2682.3712  0.054281431  0.053252296           10 
 4119000   0.59541292   -3.1485675    2681.0057  0.054240626  0.053240515           15 
 4120000   0.58560033   -3.1184669    2687.0307  0.054349327  0.053228789           13 
 4121000   0.59402893   -3.1224498    2689.3879  0.054383804  0.053217051            8 
 4122000   0.58616944   -3.1344307    2683.9184  0.054260036  0.053205354            6 
 4123000   0.58277784   -3.1535197    2679.5318  0.054158213  0.053193591           12 
 4124000   0.58589708   -3.1359021    2691.2355  0.054381578  0.053181888            4 
 4125000   0.59549477   -3.1504889    2692.2764  0.054389421  0.053170237           19 
 4126000   0.58680829   -3.1306811    2687.4461  0.054278682  0.053158601           14 
 4127000   0.60351632   -3.1412698    2693.0079  0.054377835  0.053146936           15 
 4128000   0.58802873    -3.143057    2685.5996  0.054215109  0.053135262            5 
 4129000    0.5892665   -3.1497141    2684.3268   0.05417629  0.053123606           17 
 4130000   0.58679888   -3.1536628    2686.5306   0.05420764  0.053111868            5 
 4131000   0.59140933   -3.1355356    2690.9329  0.054283323  0.053100164            7 
 4132000   0.58278652   -3.1334219    2690.2875  0.054257171   0.05308851            8 
 4133000   0.58886029   -3.1428498    2681.7479  0.054071859   0.05307677           20 
 4134000   0.58190682   -3.1357867    2692.6559  0.054278663  0.053065072            4 
 4135000   0.58737461   -3.1396457    2691.1916  0.054236026  0.053053306            5 
 4136000   0.58601526   -3.1302246    2680.1761  0.054000969  0.053041602            6 
 4137000   0.57828873   -3.1385681    2691.2899  0.054211786  0.053029955            7 
 4138000   0.59363563   -3.1278544    2693.3936  0.054241049  0.053018275            8 
 4139000   0.58733825   -3.1333548    2683.1547    0.0540218  0.053006595            6 
 4140000   0.57774485   -3.1467431    2691.8117  0.054183006  0.052994906           10 
 4141000   0.57925124   -3.1274902    2686.3207   0.05405942  0.052983246            5 
 4142000   0.59197721   -3.1415932    2689.7853  0.054116073  0.052971601           10 
 4143000   0.58751017   -3.1367583    2687.2404  0.054051823  0.052959927           11 
 4144000   0.58316541   -3.1424566    2688.1301   0.05405667  0.052948253            9 
 4145000   0.58791411   -3.1354521    2685.3221  0.053987176  0.052936567            7 
 4146000   0.57122172   -3.1379031    2686.6935  0.054001718  0.052924927            6 
 4147000   0.59280201   -3.1581186     2686.707  0.053988969  0.052913251           20 
 4148000   0.57737735   -3.1319325    2680.5097  0.053851448   0.05290159            8 
 4149000   0.59548749   -3.1288444    2691.9808  0.054068868  0.052889945            7 
 4150000   0.58045149   -3.1232329    2687.2296  0.053960434  0.052878313            4 
 4151000    0.5868958   -3.1558108    2691.8577  0.054040346  0.052866752            7 
 4152000   0.58654599   -3.1458287    2699.0614  0.054171912  0.052855147            5 
 4153000   0.58965527   -3.1354009    2687.3339  0.053923548  0.052843535            8 
 4154000   0.58444155   -3.1614738    2677.8531  0.053720371   0.05283188            9 
 4155000   0.57788332   -3.1634772     2689.552  0.053942077  0.052820165           11 
 4156000   0.57749395   -3.1581031     2686.804  0.053873997  0.052808451            5 
 4157000   0.59061175   -3.1145047    2686.8811  0.053862583  0.052796788           11 
 4158000   0.58278075   -3.1544529      2690.87  0.053929574  0.052785114           11 
 4159000   0.57583393   -3.1506565     2691.287  0.053924962  0.052773446            9 
 4160000   0.58588577   -3.1425595    2683.7561  0.053761139  0.052761801            8 
 4161000   0.57638432   -3.1371625    2692.6629  0.053926599  0.052750132           12 
 4162000   0.57862601   -3.1305751    2689.4377  0.053849064  0.052738484            4 
 4163000   0.57684121   -3.1097176    2693.5791  0.053919031  0.052726899            8 
 4164000   0.57749811   -3.1617322    2689.2521  0.053819487  0.052715228           13 
 4165000   0.59358342   -3.1614893    2686.0081  0.053741659   0.05270351           20 
 4166000   0.59167393    -3.146879    2687.8518  0.053765638  0.052691766            4 
 4167000   0.59126812   -3.1753526    2674.4865  0.053485451  0.052680038            9 
 4168000   0.59507765   -3.1343288    2689.5804  0.053774399  0.052668239           12 
 4169000   0.58731666   -3.1503488    2685.0837  0.053671618  0.052656511           14 
 4170000   0.57599299   -3.1577769    2682.1398  0.053599916  0.052644735           11 
 4171000   0.57987617   -3.1342387    2687.8076  0.053700304  0.052633006           12 
 4172000   0.58276352   -3.1354612    2684.1372  0.053614118  0.052621303            6 
 4173000   0.58360943   -3.1430853     2687.512  0.053668663  0.052609528            4 
 4174000    0.5709812    -3.158756    2683.6714  0.053579129  0.052597778            5 
 4175000   0.58033588   -3.1404947    2686.0357  0.053613488  0.052586102           13 
 4176000   0.58842781   -3.1623036    2684.1139  0.053562298  0.052574387            8 
 4177000    0.5806802   -3.1344083    2688.8753  0.053644468   0.05256268           19 
 4178000   0.59068855   -3.1624276    2692.2401  0.053698742  0.052551008            8 
 4179000   0.57774385   -3.1465759    2696.1447  0.053763753  0.052539272            6 
 4180000   0.58510055   -3.1507293     2687.501  0.053578569  0.052527585           10 
 4181000   0.58004788   -3.1480962    2688.9659  0.053594952   0.05251586            6 
 4182000   0.58115915   -3.1563924    2688.3079  0.053569023   0.05250417           11 
 4183000   0.58176384   -3.1525816    2688.1645   0.05355336  0.052492518           14 
 4184000   0.58023434   -3.1405107    2692.3836  0.053624594  0.052480868            9 
 4185000   0.58184256   -3.1613084    2687.4833  0.053514203  0.052469237            5 
 4186000   0.58703415    -3.158637    2685.7853  0.053467616  0.052457588            7 
 4187000   0.59421504   -3.1585778     2689.411  0.053527007  0.052445872            8 
 4188000   0.59218426   -3.1455599    2697.3016  0.053671235  0.052434259            6 
 4189000   0.57891397   -3.1432676    2691.9372  0.053551708  0.052422676            4 
 4190000   0.57914513   -3.1664637    2691.8566  0.053537323  0.052411047            8 
 4191000    0.5980409   -3.1583391    2697.0642  0.053628096  0.052399385            6 
 4192000   0.58559228   -3.1477984    2693.5189  0.053544826  0.052387769            6 
 4193000   0.58662491    -3.150341    2693.3095  0.053527894  0.052376257            8 
 4194000   0.55804878   -3.1709847    2687.8094  0.053405845  0.052364617            8 
 4195000   0.58446191     -3.13487    2697.8362  0.053592297  0.052352975            6 
 4196000   0.59641916   -3.1533667    2700.2128  0.053626724  0.052341434           12 
 4197000   0.57890834   -3.1570283    2694.9104  0.053508665  0.052329855            8 
 4198000   0.58404829   -3.1510924    2697.1215   0.05353981  0.052318212            6 
 4199000   0.58583533   -3.1417362     2689.943  0.053384595  0.052306568           14 
 4200000   0.58090502   -3.1378856    2695.6265  0.053484653     0.052295            5 
 4201000   0.58458147   -3.1456507    2692.5797  0.053411484  0.052283457            8 
 4202000   0.57932177   -3.1540408    2696.0454  0.053467504  0.052271814            9 
 4203000   0.57476159   -3.1619854    2690.9934  0.053354615  0.052260216            4 
 4204000   0.58183749    -3.152387    2689.7878  0.053318026  0.052248644            6 
 4205000   0.57166072   -3.1461953    2699.7456  0.053502687  0.052237054            8 
 4206000    0.5749621   -3.1589343    2688.9424  0.053275924  0.052225467            6 
 4207000   0.58358908   -3.1663564    2697.5716  0.053434189  0.052213852            5 
 4208000   0.57668586   -3.1598184    2694.7855  0.053366316   0.05220223            6 
 4209000    0.5780812   -3.1517894    2689.2925  0.053244882   0.05219062            7 
 4210000   0.58431138   -3.1664485    2695.3353  0.053351847  0.052178977            6 
 4211000   0.59293019   -3.1511171    2695.9456  0.053351255  0.052167392           15 
 4212000    0.5725851   -3.1632272    2701.5909  0.053450279  0.052155794            5 
 4213000   0.57835161   -3.1688961    2699.1111  0.053388541  0.052144245           13 
 4214000   0.57579163    -3.160535    2695.2903  0.053300314  0.052132645            7 
 4215000   0.57763835   -3.1601299    2700.1304  0.053383361   0.05212108            9 
 4216000   0.57158439   -3.1516884    2694.2357  0.053254184  0.052109597            5 
 4217000   0.57846548   -3.1470027    2693.1874  0.053220841  0.052098079            9 
 4218000    0.5828734   -3.1574672    2698.6717  0.053316573  0.052086569            6 
 4219000   0.56687348   -3.1607207    2703.8636  0.053406486  0.052075053            6 
 4220000   0.58879387    -3.154235    2700.8629  0.053334575  0.052063594            8 
 4221000   0.58441838   -3.1500008    2697.2111  0.053249844  0.052052099           10 
 4222000   0.57709274   -3.1654051    2699.5225  0.053282853  0.052040582           11 
 4223000   0.57363873   -3.1332488    2705.4113  0.053386442  0.052029148           10 
 4224000   0.58421528   -3.1515639    2704.9758   0.05336521  0.052017763            9 
 4225000   0.57350399   -3.1753489    2704.0039   0.05333341  0.052006382            6 
 4226000   0.57815175   -3.1686737    2701.0011  0.053261578  0.051994959            5 
 4227000   0.57229408   -3.1735199    2698.1106  0.053191992  0.051983576            8 
 4228000   0.57848507   -3.1619997    2694.8121  0.053114398  0.051972144            5 
 4229000   0.56365133   -3.1708137    2700.2117  0.053208238  0.051960717            6 
 4230000   0.57377576   -3.1661221     2704.636  0.053282821  0.051949292            7 
 4231000   0.58129459   -3.1755931    2703.4322  0.053246518  0.051937892            5 
 4232000    0.5797917    -3.155088    2699.3994  0.053154525  0.051926453           10 
 4233000   0.56867023   -3.1486023    2694.9879  0.053055121  0.051915029            6 
 4234000   0.56866612   -3.1586247     2695.332  0.053049362  0.051903612            9 
 4235000   0.57309179   -3.1725051    2698.5861  0.053100868   0.05189217            8 
 4236000   0.55431342   -3.1583038    2704.3054  0.053200847  0.051880727            6 
 4237000   0.59128142   -3.1741343    2691.2757  0.052932022  0.051869337           11 
 4238000    0.5728525   -3.1582169    2698.4559  0.053060719   0.05185785            5 
 4239000   0.57262222   -3.1720877    2701.7634  0.053113222  0.051846309            4 
 4240000   0.56544699   -3.1564138    2693.0991  0.052930408  0.051834796           10 
 4241000   0.58817946   -3.1755405    2704.2027  0.053136106  0.051823309           13 
 4242000   0.57343904   -3.1667903     2693.652  0.052916314  0.051811829           16 
 4243000   0.57033682   -3.1758458    2697.2873   0.05297524   0.05180032           21 
 4244000   0.57518483   -3.1690372    2698.1922  0.052980525  0.051788822            8 
 4245000   0.56970341   -3.1642427    2694.6594  0.052898693  0.051777276           17 
 4246000   0.57401395   -3.1732484    2699.9879  0.052990812  0.051765745           14 
 4247000   0.56806374   -3.1751399    2705.7082  0.053090578   0.05175422            5 
 4248000   0.57402556   -3.1815211    2699.5835  0.052957931  0.051742697           10 
 4249000   0.57720872   -3.1744802    2701.1038  0.052975284  0.051731226           15 
 4250000   0.56825664   -3.1564723    2702.6322  0.052992789  0.051719836            8 
 4251000   0.56768543   -3.1615211    2699.1421  0.052911906  0.051708377            6 
 4252000   0.57160475   -3.1395754    2699.4011  0.052904537  0.051696964            6 
 4253000   0.56879613   -3.1693178    2700.3128  0.052909962  0.051685493            6 
 4254000    0.5661893   -3.1503676    2697.2074  0.052836691  0.051673997            7 
 4255000   0.57506248   -3.1694353    2701.1736  0.052901951  0.051662494            5 
 4256000    0.5847977   -3.1688984    2698.3662  0.052834552  0.051651017            8 
 4257000   0.57241817   -3.1638274    2707.3029  0.052997081  0.051639516            8 
 4258000   0.56408294   -3.1718212    2703.6531  0.052913205  0.051628041            8 
 4259000    0.5687742   -3.1735654    2704.6283  0.052919862  0.051616546            8 
 4260000   0.57298448   -3.1514386     2695.378  0.052726487  0.051605001            8 
 4261000   0.56184894   -3.1526466    2697.7393  0.052760293  0.051593531            6 
 4262000   0.57092487   -3.1639108    2697.5022  0.052743278  0.051582039           13 
 4263000   0.56757529   -3.1692958    2701.4741  0.052808548   0.05157056            7 
 4264000   0.55899808   -3.1691025     2705.594  0.052876681  0.051559079            8 
 4265000   0.56642812   -3.1725431    2697.7069  0.052710178  0.051547574            4 
 4266000   0.56975353   -3.1904833    2696.1377  0.052667169  0.051536084            8 
 4267000    0.5565437   -3.1671127    2703.2008  0.052792766  0.051524613            5 
 4268000   0.55647034   -3.1629255    2699.7471  0.052712963  0.051513192            7 
 4269000   0.56342002   -3.1595842    2702.6483  0.052757249  0.051501778            4 
 4270000   0.56992831   -3.1693895    2708.0044  0.052849422  0.051490431            8 
 4271000   0.55318257   -3.1728774    2701.4588  0.052709334  0.051478953           12 
 4272000   0.56946535   -3.1668316    2697.9336  0.052628231  0.051467511           11 
 4273000   0.55982662   -3.1822713    2705.2554  0.052758706  0.051456086           13 
 4274000   0.56758582   -3.1796981    2699.9247  0.052642424  0.051444564           11 
 4275000   0.57787148   -3.1850304    2700.8836  0.052648804  0.051433168            5 
 4276000   0.55754969    -3.168117    2701.2583  0.052643793  0.051421734           15 
 4277000   0.56574427   -3.1640608     2703.964  0.052684201  0.051410285           11 
 4278000   0.56539081   -3.1803597    2702.9577  0.052652286  0.051398886            9 
 4279000   0.56267005   -3.1849948    2697.8065  0.052539662  0.051387432            7 
 4280000    0.5571737   -3.1621272    2697.9163  0.052529524  0.051376049            8 
 4281000   0.56415312   -3.1742722    2697.9135  0.052517198  0.051364604            5 
 4282000   0.56747911   -3.1791674    2708.2589  0.052706268  0.051353227            9 
 4283000   0.56339286   -3.1820196    2714.4963  0.052815323   0.05134189           10 
 4284000   0.56239249   -3.1766637     2699.503  0.052511342  0.051330506           15 
 4285000   0.56455786    -3.190307    2702.1386  0.052550343  0.051319069           19 
 4286000   0.56095283   -3.1814964     2703.957  0.052573437  0.051307618            7 
 4287000   0.57013743   -3.1658018    2705.5036  0.052591237  0.051296211           22 
 4288000   0.57105264   -3.1910595    2690.8655  0.052294493  0.051284731           11 
 4289000   0.55684992   -3.1751676     2698.031  0.052421524  0.051273248            6 
 4290000   0.56237458   -3.1592657    2704.3022  0.052531123  0.051261786            9 
 4291000   0.56050667   -3.1900987    2696.1867  0.052361274  0.051250339            4 
 4292000   0.55574093   -3.1569727    2698.9159  0.052402064  0.051238817            9 
 4293000   0.55387286   -3.1877197    2701.4237  0.052438537  0.051227327            8 
 4294000   0.56236536   -3.1853798    2696.8788  0.052338123  0.051215839           26 
 4295000   0.57159044   -3.1848288    2702.4555  0.052434139  0.051204376            6 
 4296000   0.56709594   -3.1753059    2698.4134  0.052343525  0.051192879            9 
 4297000   0.55278019   -3.1768088    2698.3377  0.052329875  0.051181353            8 
 4298000   0.56116044   -3.1951101    2700.5019  0.052359661  0.051169825            9 
 4299000   0.55843635   -3.1925853    2701.3323  0.052363578   0.05115835            6 
 4300000   0.55288545    -3.172152    2700.1506    0.0523285  0.051146864           14 
 4301000   0.56857532   -3.2031157    2704.2167  0.052395115  0.051135402           10 
 4302000   0.58326133   -3.1747758    2701.4243  0.052328844  0.051123939            7 
 4303000   0.56797084   -3.1846379    2697.0838  0.052232624  0.051112482           15 
 4304000   0.56662038   -3.1903861     2706.064  0.052394362  0.051101008           10 
 4305000    0.5589963   -3.1994757    2702.5961  0.052315061  0.051089507           11 
 4306000   0.56456661   -3.1690255    2706.0155  0.052369088  0.051078055           23 
 4307000   0.55844186   -3.1767197    2711.1996  0.052457233  0.051066722           10 
 4308000   0.55797647   -3.1973184    2701.9369  0.052265879  0.051055234            4 
 4309000   0.56640908    -3.164393    2701.3126  0.052241677  0.051043779            7 
 4310000   0.56292783   -3.1888589     2704.872  0.052298375   0.05103235            9 
 4311000   0.55548054   -3.1902504    2702.7077  0.052244407   0.05102098           14 
 4312000   0.57022438   -3.1701029    2700.6407  0.052192345   0.05100954           10 
 4313000   0.55404549   -3.1921593    2698.9752  0.052148064   0.05099817            9 
 4314000   0.54587355   -3.1922193     2700.018   0.05215612  0.050986719            7 
 4315000   0.56007962   -3.1985816    2705.1058   0.05224229  0.050975286           20 
 4316000   0.56299507   -3.2047576    2697.9351  0.052091734  0.050963841            7 
 4317000   0.54840924   -3.1831769    2701.7295  0.052152912  0.050952424           10 
 4318000   0.55416918   -3.1727721     2702.731  0.052160162   0.05094099            8 
 4319000   0.55254531   -3.1756293    2702.2158  0.052138146  0.050929581           10 
 4320000   0.55152645   -3.1848385    2703.3283  0.052147536  0.050918157            8 
 4321000   0.56378445   -3.1968099    2699.9166  0.052069672   0.05090673            7 
 4322000   0.57064152   -3.1772596    2693.7777  0.051939258    0.0508953            8 
 4323000   0.55115731    -3.172681    2704.5157  0.052134238  0.050883913            6 
 4324000   0.56734747   -3.1823261    2706.6453  0.052163222  0.050872503           12 
 4325000   0.55102378   -3.2074816    2707.8598  0.052174563  0.050861105           10 
 4326000   0.56223419   -3.2030943    2698.7563  0.051987139  0.050849715           17 
 4327000   0.56372431   -3.1665424    2710.4623  0.052200569  0.050838362            9 
 4328000   0.55980696   -3.1949891    2710.5675  0.052190532  0.050827013           21 
 4329000   0.56733267    -3.184299    2705.5124  0.052081166  0.050815656           13 
 4330000   0.56426633   -3.2057025    2706.2249  0.052082851  0.050804267           11 
 4331000   0.55978582   -3.1954386    2705.5914  0.052058636  0.050792856            9 
 4332000   0.55234964   -3.2142628    2700.9535  0.051957401  0.050781483           21 
 4333000   0.55344851   -3.2035187    2704.4876  0.052013377  0.050770002           14 
 4334000   0.55825196   -3.1937031    2706.8045  0.052045925  0.050758609            7 
 4335000   0.55123183   -3.1948322     2697.683  0.051858573  0.050747211            4 
 4336000   0.57014515   -3.1882979    2708.6144  0.052056704  0.050735797            4 
 4337000   0.54629772   -3.1893303    2713.5128  0.052138821  0.050724371           11 
 4338000   0.55781938   -3.1853529    2706.9075  0.051999914  0.050712994           16 
 4339000    0.5655774   -3.1932078    2701.3635  0.051881454  0.050701652           30 
 4340000   0.56191407    -3.195583    2705.9465  0.051957499  0.050690245            6 
 4341000   0.55158649   -3.1868879    2709.5497  0.052014699  0.050678878           10 
 4342000   0.55891844   -3.1971528    2710.7635  0.052026016  0.050667478           14 
 4343000   0.55601366   -3.2043268    2707.1782  0.051945241   0.05065608           15 
 4344000   0.55858787   -3.1852475    2705.9323  0.051909383  0.050644726            9 
 4345000   0.55872412   -3.1956114    2703.5883  0.051852481  0.050633365           13 
 4346000   0.55559701   -3.1842976    2706.8261  0.051902633  0.050622022            4 
 4347000   0.55619455   -3.1968045    2710.3745  0.051958717  0.050610695           13 
 4348000   0.55384858   -3.1944591    2710.8021  0.051954962  0.050599408           18 
 4349000   0.56156108   -3.2153458    2709.7106    0.0519221  0.050588069            9 
 4350000     0.560935   -3.1913531     2714.171  0.051995613  0.050576788           17 
 4351000   0.54222303   -3.2049987    2713.1865  0.051964807  0.050565467            9 
 4352000   0.55463626   -3.1985468    2713.9717  0.051967902  0.050554138            6 
 4353000   0.54660412   -3.2094201    2708.5852  0.051852845  0.050542828            9 
 4354000   0.55556303   -3.1990954    2706.0314  0.051792057  0.050531474            6 
 4355000   0.55837599   -3.1912182    2703.2015  0.051726015  0.050520157           10 
 4356000   0.56745607   -3.1884936    2708.3901    0.0518134   0.05050884            7 
 4357000    0.5551179   -3.1943225    2705.5734  0.051747635  0.050497513            7 
 4358000    0.5618218   -3.2060207     2708.892   0.05179922  0.050486213           17 
 4359000   0.54936883   -3.1959728    2711.7245  0.051841487  0.050474952           10 
 4360000   0.54657287   -3.1897775    2708.5589  0.051769092  0.050463655            7 
 4361000   0.56091973   -3.2130238    2707.4875  0.051736749  0.050452377           12 
 4362000   0.55112089   -3.1953378    2713.2645  0.051835253  0.050441056           22 
 4363000   0.55588253   -3.1898419    2708.4634  0.051731672  0.050429764            7 
 4364000   0.54487416   -3.1853133    2701.8557   0.05159364  0.050418407            5 
 4365000   0.55780238   -3.2029758    2705.7554  0.051656269  0.050407145           13 
 4366000   0.56042788   -3.2145782      2701.65  0.051566079  0.050395773           11 
 4367000   0.54979572   -3.2021127    2708.2705  0.051680606  0.050384417           14 
 4368000   0.56319191   -3.2122475    2711.4036  0.051728549  0.050373056            7 
 4369000   0.53530618   -3.1913092    2715.2701  0.051790457  0.050361769            6 
 4370000   0.56376631   -3.2082837    2709.9128  0.051676446   0.05035048           10 
 4371000   0.55793548   -3.2030074    2707.4733  0.051618115  0.050339201            8 
 4372000   0.55096944   -3.1980941    2709.1921  0.051639069  0.050327963           14 
 4373000   0.54860606   -3.1804109    2712.1096  0.051682856  0.050316741            8 
 4374000   0.54674958   -3.1959742    2711.6761  0.051662782  0.050305491            6 
 4375000   0.55476538   -3.1974258    2713.5997  0.051687613  0.050294193            8 
 4376000   0.53853765   -3.1921166    2708.7362  0.051583184  0.050282888           11 
 4377000   0.54965209   -3.1942432    2710.9649  0.051613831  0.050271652            4 
 4378000   0.55808714   -3.2103692    2705.5584  0.051499132    0.0502604           10 
 4379000   0.54659583   -3.1998792    2713.6571  0.051641492  0.050249202           10 
 4380000   0.55436302   -3.1974854    2712.1463  0.051600956  0.050237996            6 
 4381000   0.55882302   -3.2160813     2710.415  0.051556247  0.050226813           22 
 4382000   0.55577497   -3.2226094    2715.0671   0.05163295   0.05021568            6 
 4383000   0.55164333   -3.2031766    2716.2189  0.051643069  0.050204455            9 
 4384000    0.5463913   -3.1915729    2713.1953  0.051573816  0.050193282            9 
 4385000   0.55720963   -3.2113986    2708.1445  0.051466068  0.050182065           15 
 4386000   0.54707942   -3.2038743    2714.3337  0.051571927  0.050170916           14 
 4387000   0.54248615   -3.2004659    2717.6737  0.051623616  0.050159782            8 
 4388000   0.55675976   -3.2123483    2715.1374  0.051563684  0.050148565            7 
 4389000   0.53943494   -3.2082489    2713.3985   0.05151892  0.050137317           10 
 4390000   0.55498517   -3.2076909    2710.0519  0.051443659  0.050126107           10 
 4391000   0.55684053   -3.2194284    2713.5869  0.051499031  0.050114923           12 
 4392000   0.54591633   -3.2043668    2713.1894  0.051479763  0.050103696            5 
 4393000   0.52671664    -3.205112    2721.5857  0.051627319  0.050092594            8 
 4394000   0.53679048   -3.2204077    2712.3261  0.051439958  0.050081422           15 
 4395000   0.55010203   -3.2059779    2713.3909  0.051448443  0.050070191           17 
 4396000   0.55337691   -3.2080823    2717.6839  0.051518121  0.050059038            6 
 4397000   0.54536005   -3.2223434    2715.6306  0.051467489   0.05004779           12 
 4398000   0.55045128   -3.2247518     2706.836  0.051289147  0.050036547           12 
 4399000   0.54401066   -3.1958326    2711.8705   0.05137286  0.050025351           10 
 4400000   0.54214358    -3.202517    2717.2896  0.051463818  0.050014164            8 
 4401000   0.54310262   -3.2243793    2715.6003  0.051420138  0.050002968            8 
 4402000   0.53973529   -3.2239303    2718.8033  0.051469091  0.049991767            5 
 4403000   0.53784382   -3.2293701    2712.5645  0.051339323  0.049980633           14 
 4404000   0.55675759   -3.2103527    2713.4008  0.051343492  0.049969373           14 
 4405000    0.5522817   -3.2101822    2711.9195  0.051303812  0.049958151            9 
 4406000   0.54193378   -3.1939028    2714.7482  0.051345669  0.049946947            6 
 4407000   0.54783949   -3.2018023    2711.3823  0.051270372  0.049935745           19 
 4408000   0.55438665    -3.216056    2713.2379  0.051293821  0.049924547           20 
 4409000   0.55542573   -3.2212751    2709.4269  0.051210154  0.049913349            8 
 4410000   0.54411649   -3.2166214    2713.1156  0.051268247  0.049902116           25 
 4411000   0.54305761    -3.227126    2708.5092  0.051169599  0.049890907            8 
 4412000   0.54143928   -3.1938027    2715.3097  0.051286447  0.049879696            5 
 4413000   0.54028746   -3.2060482    2711.3858  0.051200729  0.049868539            5 
 4414000   0.53994686   -3.1919867    2714.7076  0.051251842  0.049857337            7 
 4415000   0.54188511    -3.222568    2725.1078  0.051436538  0.049846199           14 
 4416000   0.54594876   -3.2204514    2711.5801  0.051169613  0.049834994           24 
 4417000   0.54204634   -3.2202681    2712.2322   0.05117033  0.049823745           17 
 4418000   0.54750272    -3.204569    2716.2733  0.051234973  0.049812517           13 
 4419000   0.54351587    -3.204776    2713.3878  0.051168964  0.049801349           14 
 4420000   0.54217355   -3.2141517    2711.9026  0.051129386  0.049790177           10 
 4421000   0.56189397   -3.2293609    2720.4886  0.051279661  0.049778989           14 
 4422000   0.55105935   -3.2208397    2713.7851  0.051141736  0.049767747           14 
 4423000   0.54312866   -3.2195901    2719.8503  0.051244447  0.049756568           10 
 4424000    0.5576485   -3.2276979    2717.6891  0.051192155  0.049745383           11 
 4425000   0.53698047   -3.2280232    2711.1488  0.051057416  0.049734189           27 
 4426000   0.54989576   -3.1910133    2711.6583  0.051055474  0.049722949           12 
 4427000   0.54336668   -3.2126552    2714.0909  0.051089732  0.049711788            7 
 4428000   0.54317171   -3.2122233      2718.18  0.051155148  0.049700636           10 
 4429000   0.54095379   -3.2328389    2713.2905  0.051051601  0.049689466           10 
 4430000   0.54803542   -3.2181171    2718.4832  0.051137757  0.049678305           10 
 4431000   0.55108806   -3.2144267    2710.4346  0.050974847  0.049667155            5 
 4432000   0.54291187     -3.22406    2716.9459  0.051085775  0.049656021           17 
 4433000   0.53622322   -3.1962096    2707.0716  0.050888631  0.049644841           15 
 4434000    0.5528838    -3.216607    2716.4301  0.051053038  0.049633696           14 
 4435000   0.53936509   -3.2088919    2713.8923  0.050993842  0.049622536           15 
 4436000   0.54450699    -3.225148    2711.5096  0.050937586  0.049611419           11 
 4437000   0.54711987   -3.2187699    2719.7544  0.051080956  0.049600284           10 
 4438000   0.54436769   -3.2178604    2715.6725  0.050992799  0.049589171           12 
 4439000   0.54966473   -3.2462546    2707.2644  0.050823467  0.049578019           12 
 4440000   0.53828673   -3.2038775    2716.2113  0.050979941  0.049566934           10 
 4441000   0.54917928    -3.221287    2724.5372  0.051124694  0.049555861           16 
 4442000   0.52616251   -3.2346509    2714.4338  0.050923642  0.049544756           10 
 4443000   0.55162006    -3.211038    2727.1249  0.051150216  0.049533647            8 
 4444000   0.53902708   -3.2362819    2713.8959  0.050890637  0.049522554           22 
 4445000   0.54211489   -3.2149629    2725.1289   0.05108978  0.049511443           14 
 4446000   0.53174016   -3.2166849    2714.2159  0.050873743  0.049500353           10 
 4447000   0.54188125   -3.2095446    2710.8216  0.050798696  0.049489244           16 
 4448000   0.54046934   -3.2157815    2712.7505  0.050823412  0.049478137            7 
 4449000   0.55261658   -3.2295746    2717.1552  0.050894492  0.049467014           24 
 4450000   0.54226786   -3.2371931    2714.5301  0.050833898  0.049455915           15 
 4451000   0.54174921   -3.2085586     2721.382  0.050950761  0.049444816           10 
 4452000   0.53321727    -3.224967    2713.0935  0.050784169   0.04943374            6 
 4453000   0.53893737   -3.2228104    2723.9762  0.050976425  0.049422641           20 
 4454000   0.54130055   -3.2211691    2720.8495   0.05090648  0.049411557           14 
 4455000     0.538507   -3.2134417    2713.7219  0.050761727  0.049400481           13 
 4456000   0.54787645   -3.2065576    2716.7804  0.050807533  0.049389403            9 
 4457000   0.53435323   -3.2326518    2718.0217  0.050819341   0.04937828           12 
 4458000   0.54315158   -3.2274508     2717.563  0.050799369  0.049367172           13 
 4459000   0.52836276    -3.212609    2713.5974  0.050713864   0.04935605           18 
 4460000   0.53159837   -3.2328945    2715.0144  0.050728969  0.049344933           12 
 4461000   0.54595498    -3.232728    2713.4355  0.050688103  0.049333801           11 
 4462000    0.5459292   -3.2263495    2717.1898  0.050746858  0.049322689           12 
 4463000   0.52916509   -3.2208376     2716.191  0.050716839  0.049311606            7 
 4464000   0.54346367   -3.2299051    2718.0749  0.050740646  0.049300575            7 
 4465000   0.53099491   -3.2289984    2723.4996  0.050830525  0.049289552           18 
 4466000   0.52875388   -3.2218794    2719.1555  0.050738086  0.049278455            9 
 4467000    0.5489665   -3.2239596    2706.7367  0.050495051  0.049267383            8 
 4468000   0.54437857   -3.2449832    2721.5714  0.050760434  0.049256312            9 
 4469000   0.54854655   -3.2412146    2714.0076  0.050608033  0.049245236            7 
 4470000   0.52967709   -3.2218733    2717.3655  0.050659313  0.049234115           10 
 4471000   0.54416342   -3.2296234    2718.5481  0.050670023  0.049223028            9 
 4472000   0.53636303    -3.226075    2721.3367  0.050710657  0.049212006            7 
 4473000   0.52274481   -3.2249153    2717.1097   0.05062057  0.049200954            9 
 4474000   0.54194734   -3.2293092    2718.0129  0.050626078  0.049189911           29 
 4475000   0.53224315   -3.2154565    2728.1323  0.050803209  0.049178874           13 
 4476000   0.54511088   -3.2344051    2713.7988  0.050525001  0.049167816            7 
 4477000   0.54211461   -3.2246208    2719.4993  0.050619823  0.049156707           11 
 4478000   0.53077736   -3.2181604    2723.8677  0.050689811  0.049145673           10 
 4479000   0.54017212   -3.2254821    2719.7418  0.050601729  0.049134613           10 
 4480000    0.5441019   -3.2153817    2723.6967     0.050664  0.049123538           24 
 4481000   0.54772742   -3.2496317    2715.7821  0.050505507  0.049112456           12 
 4482000   0.52814328   -3.2296388    2720.9471  0.050590269  0.049101374           12 
 4483000   0.53784121   -3.2464542    2728.9159  0.050727115  0.049090283           14 
 4484000   0.52547701   -3.2219177    2718.4441  0.050521188  0.049079179            9 
 4485000   0.53719567      -3.2286    2718.3049  0.050507338   0.04906812           23 
 4486000   0.54723402   -3.2495122    2713.5947   0.05040858     0.049057           42 
 4487000   0.52794484   -3.2400953    2720.5042  0.050525671  0.049045901            9 
 4488000   0.53739495   -3.2296407    2722.7355  0.050555844  0.049034867           10 
 4489000   0.53575841   -3.2172401    2724.2828  0.050573305  0.049023867            5 
 4490000   0.54104025   -3.2507709     2724.567  0.050567316  0.049012834           16 
 4491000   0.52954497   -3.2427361    2714.9873    0.0503783  0.049001785            8 
 4492000   0.53694776    -3.231192    2726.0445  0.050572211   0.04899074            4 
 4493000   0.53022975   -3.2400963    2717.1743  0.050396437  0.048979661           22 
 4494000    0.5260559   -3.2294753    2722.3763  0.050481685  0.048968567           11 
 4495000   0.54195622   -3.2218779    2717.4527  0.050379175  0.048957526           16 
 4496000   0.53114188   -3.2302308    2722.8025  0.050467128  0.048946495           18 
 4497000   0.53422184   -3.2305959    2722.2179  0.050445072  0.048935473            7 
 4498000    0.5158356   -3.2371723    2716.0322  0.050319256  0.048924444           16 
 4499000   0.54612429   -3.2410427    2713.9019  0.050268614   0.04891339            9 
 4500000   0.53260064   -3.2250829    2718.5373  0.050343284  0.048902357           12 
 4501000   0.53383523     -3.21011    2717.2998  0.050309188  0.048891375            7 
 4502000   0.52084122   -3.2329526    2719.9011  0.050346162  0.048880368           11 
 4503000   0.54295297   -3.2533687    2723.2875  0.050397651  0.048869316           17 
 4504000   0.53994554   -3.2594973    2724.2978  0.050405155  0.048858287           11 
 4505000   0.52307686   -3.2407429    2730.9466  0.050516956  0.048847268            7 
 4506000   0.53926743   -3.2374081    2714.0601  0.050193447  0.048836236           14 
 4507000   0.53147925   -3.2448878    2718.2616  0.050259995  0.048825213            6 
 4508000   0.53149208   -3.2364126    2720.8726  0.050297113  0.048814246           10 
 4509000   0.52498258   -3.2354702    2726.1289  0.050383103  0.048803252            8 
 4510000   0.53077555   -3.2336073    2724.7908  0.050347206  0.048792234           28 
 4511000   0.52718514   -3.2386082    2718.8944  0.050227119  0.048781187           14 
 4512000   0.52462264   -3.2343999    2718.2753  0.050204552  0.048770143           15 
 4513000   0.52907882   -3.2272051    2728.2069  0.050376817  0.048759131            9 
 4514000   0.52959098   -3.2453314    2718.7568  0.050191197  0.048748118           11 
 4515000   0.52936969    -3.232871    2720.7182  0.050216283  0.048737079           16 
 4516000   0.53489023   -3.2335632     2720.107  0.050193885  0.048726005            9 
 4517000   0.53674448   -3.2433025    2713.7416  0.050065338  0.048714971            7 
 4518000   0.53204963   -3.2263314    2717.8307  0.050129679  0.048703941            8 
 4519000   0.53077112   -3.2320639     2718.421  0.050129472  0.048692902           10 
 4520000   0.53130965   -3.2492433    2709.6741  0.049957119  0.048681838            9 
 4521000   0.53009078   -3.2417966     2719.196  0.050121581  0.048670779           13 
 4522000   0.52939903   -3.2370905    2710.1541  0.049943868  0.048659679           44 
 4523000   0.51245624   -3.2437568    2718.3841  0.050084458  0.048648593           19 
 4524000   0.53461257   -3.2131387    2711.4885  0.049946369  0.048637534           13 
 4525000   0.53724148   -3.2316092    2718.8918  0.050071673  0.048626497           20 
 4526000   0.51649056   -3.2297597    2720.6233  0.050092489  0.048615502            7 
 4527000   0.52917013    -3.241819    2717.5783  0.050025373  0.048604451           10 
 4528000     0.530093   -3.2489769    2717.2552  0.050008378  0.048593347           14 
 4529000   0.53334855   -3.2386438    2719.5284  0.050039162  0.048582346           16 
 4530000   0.52693864   -3.2381004    2716.3312  0.049969301  0.048571379           12 
 4531000   0.52334891   -3.2379341    2723.0679  0.050082173  0.048560395           11 
 4532000   0.51967515   -3.2323875    2722.0327  0.050052087  0.048549393           24 
 4533000   0.52902128   -3.2322271    2721.6261   0.05003357   0.04853834            8 
 4534000   0.52582565   -3.2330152    2725.9568  0.050102132  0.048527353           10 
 4535000   0.51791917   -3.2368273    2720.3961  0.049988903  0.048516377           30 
 4536000   0.52409165     -3.24328    2721.2162  0.049992949   0.04850537           15 
 4537000   0.52853571   -3.2497497    2715.4201   0.04987547  0.048494357           15 
 4538000   0.52722575    -3.245537    2716.0875  0.049876736   0.04848332           11 
 4539000   0.52099781   -3.2572837    2720.0589  0.049938659  0.048472253           17 
 4540000   0.52424809   -3.2489016    2721.6364  0.049956616    0.0484612           13 
 4541000   0.52654357   -3.2529503    2721.9709  0.049951752  0.048450157           11 
 4542000   0.52754142   -3.2491215    2719.1454  0.049888915   0.04843914           26 
 4543000   0.52704177   -3.2528648    2720.8472   0.04990915  0.048428175           28 
 4544000   0.52783578   -3.2302104    2720.2501  0.049887216  0.048417175           11 
 4545000   0.52714704    -3.227954    2719.9101  0.049870005  0.048406157           13 
 4546000   0.51746929   -3.2413098    2710.5802  0.049688008   0.04839513           12 
 4547000   0.52218041   -3.2486081    2722.0713  0.049887679  0.048384118            6 
 4548000   0.52743805   -3.2446381    2723.7267  0.049907041   0.04837312            9 
 4549000   0.52837425   -3.2416084    2723.0804  0.049884231  0.048362135           11 
 4550000   0.52046905   -3.2519887    2718.7641  0.049794214  0.048351144            8 
 4551000   0.52799373   -3.2534832    2720.0327  0.049806502  0.048340127            5 
 4552000    0.5247719   -3.2441848    2723.8593  0.049865614  0.048329119           13 
 4553000   0.50897262   -3.2577726    2719.1203  0.049767924  0.048318129           17 
 4554000   0.52249886   -3.2583015    2724.2782   0.04985138   0.04830712           15 
 4555000    0.5166373    -3.236103    2729.6054  0.049937896  0.048296132            7 
 4556000   0.51664751    -3.238489    2720.5653  0.049761584  0.048285144            8 
 4557000    0.5347559   -3.2459638    2721.4632  0.049767083  0.048274188           11 
 4558000   0.53885716   -3.2593752    2724.8189  0.049817516  0.048263213            9 
 4559000   0.52008385   -3.2709587     2718.561  0.049692202  0.048252227           12 
 4560000   0.52285146   -3.2581787    2720.8305   0.04972278  0.048241248           17 
 4561000   0.52684957    -3.257793    2716.6242  0.049635025  0.048230251           11 
 4562000   0.52544635   -3.2616677    2720.4201  0.049693484  0.048219279            8 
 4563000   0.52420109   -3.2589775    2720.3298  0.049680944  0.048208301            8 
 4564000   0.52735113   -3.2548854    2722.7444  0.049714148  0.048197341           16 
 4565000   0.51502067   -3.2460817    2725.4687  0.049752988  0.048186408            7 
 4566000   0.51163482   -3.2623304    2723.7353  0.049710456  0.048175448           11 
 4567000   0.52212994   -3.2452414    2723.5916  0.049696948  0.048164492           17 
 4568000   0.52082164   -3.2677563    2725.8668  0.049727576   0.04815357            6 
 4569000   0.51596934   -3.2456981    2722.4617  0.049654587   0.04814263           15 
 4570000   0.51519111   -3.2344009    2720.0658  0.049600032   0.04813176           10 
 4571000   0.51182438   -3.2555224    2717.0728  0.049534616  0.048120832           10 
 4572000   0.52406835   -3.2474736     2716.513   0.04951358  0.048109888            7 
 4573000   0.52025855   -3.2491446    2726.7002  0.049688391  0.048098915            6 
 4574000   0.51496197   -3.2464727    2721.1446  0.049576312  0.048087941           11 
 4575000   0.52076731   -3.2549128    2719.0883   0.04952802  0.048076987            7 
 4576000    0.5281376   -3.2354842    2725.9782  0.049642668  0.048065996            7 
 4577000   0.51371029   -3.2686486    2722.6199  0.049570678  0.048055037           12 
 4578000   0.51500499   -3.2484537    2727.2516   0.04964416  0.048044082           11 
 4579000   0.51833657   -3.2530716    2716.8596  0.049444195  0.048033128           11 
 4580000   0.51512545   -3.2437808    2726.9955  0.049617822  0.048022189            9 
 4581000   0.52199579   -3.2569025    2716.5226  0.049416478  0.048011224           15 
 4582000   0.51697151   -3.2454108    2719.4522  0.049458973  0.048000249           16 
 4583000   0.52320438   -3.2567202    2725.5978  0.049559928  0.047989282           14 
 4584000   0.52499296   -3.2528294    2716.0658  0.049375833  0.047978299            7 
 4585000   0.52738081    -3.260971    2724.6292  0.049520705  0.047967299           23 
 4586000   0.52028743   -3.2308442    2729.6074  0.049600366  0.047956346           12 
 4587000   0.51822151   -3.2674838    2721.7035  0.049445962  0.047945373           16 
 4588000   0.51963197   -3.2663378    2723.1275  0.049461049  0.047934423           14 
 4589000   0.51730169   -3.2487178    2729.0927  0.049558596  0.047923482           10 
 4590000   0.53130436   -3.2531058    2723.8652  0.049452891  0.047912552           11 
 4591000   0.50509553   -3.2685033    2723.6135  0.049437551  0.047901583           13 
 4592000   0.51763819   -3.2652558    2713.1146  0.049236256  0.047890597           16 
 4593000   0.52360076   -3.2606311    2714.7343  0.049254922  0.047879613           15 
 4594000   0.51713197    -3.262234    2720.8501  0.049355139  0.047868625           10 
 4595000   0.52290792   -3.2719085    2720.9959  0.049347043  0.047857703            9 
 4596000   0.52222348   -3.2577244    2724.4945  0.049399741  0.047846773           14 
 4597000   0.52325966   -3.2618844    2720.9212  0.049324219  0.047835787            8 
 4598000   0.52518056   -3.2598221     2721.637  0.049326464  0.047824834           12 
 4599000   0.50523101   -3.2594863    2719.5161  0.049277308  0.047813889           15 
 4600000   0.51051088   -3.2493416    2720.4653  0.049283791  0.047802937            8 
 4601000   0.51955199   -3.2608728    2723.3108  0.049324618  0.047792066            9 
 4602000   0.51807052   -3.2491374     2720.793  0.049268307  0.047781206           10 
 4603000   0.50744701   -3.2508935    2729.6045  0.049417128  0.047770334            8 
 4604000   0.52102679     -3.26225    2721.7323  0.049263907  0.047759395            5 
 4605000   0.51467069    -3.264528    2724.7474  0.049307771  0.047748521            9 
 4606000   0.51295224   -3.2660739    2721.6988  0.049241909  0.047737577           15 
 4607000   0.51314742   -3.2485982    2718.6017    0.0491752  0.047726616            5 
 4608000    0.5120559   -3.2743159    2724.0301  0.049262697  0.047715705            5 
 4609000   0.50819313   -3.2580949    2722.0659  0.049216495  0.047704761           10 
 4610000   0.50706398   -3.2560734    2719.5155  0.049159716  0.047693814           10 
 4611000   0.51768033   -3.2732768    2715.3978  0.049074636  0.047682895           38 
 4612000   0.52330056   -3.2600534    2719.9426  0.049146115  0.047671943           20 
 4613000   0.52378181   -3.2480505    2723.5293  0.049200255  0.047661039           11 
 4614000   0.50681198   -3.2616546    2728.8554  0.049285786  0.047650106           11 
 4615000   0.51350981   -3.2658398    2728.1829  0.049262963  0.047639256           12 
 4616000   0.52333297    -3.277528    2721.2883  0.049127822  0.047628341           16 
 4617000   0.50627371    -3.274325    2722.5868  0.049140617  0.047617413           11 
 4618000    0.5146664   -3.2714095    2723.9065  0.049153792  0.047606496            8 
 4619000   0.51660094   -3.2576462     2719.906  0.049070974  0.047595541           11 
 4620000    0.4966629   -3.2627437    2723.8571  0.049131621   0.04758458           17 
 4621000   0.50248137   -3.2620201    2721.8683  0.049085124  0.047573656           14 
 4622000   0.50718663    -3.267993    2716.2066  0.048972425  0.047562684           16 
 4623000   0.51744285   -3.2739169    2726.5482  0.049148248  0.047551745           10 
 4624000   0.50675934   -3.2766971    2714.2464  0.048915917  0.047540789           29 
 4625000   0.51714487   -3.2797873     2721.677  0.049039225  0.047529802           13 
 4626000   0.50748996   -3.2659398    2721.1523  0.049019172  0.047518866           19 
 4627000   0.50883735   -3.2738478    2719.5683  0.048980051  0.047507932           15 
 4628000   0.51179332   -3.2405569    2714.0229  0.048869615  0.047496962            9 
 4629000   0.50754363    -3.267791    2724.0671  0.049039878  0.047486027           47 
 4630000   0.51876622    -3.253479    2727.3194  0.049087823  0.047475138           13 
 4631000   0.53033349   -3.2836036     2720.212  0.048949327  0.047464236           13 
 4632000    0.5248941   -3.2775173    2720.5131  0.048944177  0.047453278           12 
 4633000   0.50503773   -3.2707201    2718.5647  0.048898567  0.047442293           12 
 4634000   0.50965732   -3.2700536    2731.7797   0.04912566  0.047431348           18 
 4635000    0.5130723   -3.2870515    2722.3537   0.04894559  0.047420396           16 
 4636000   0.50937479    -3.286189    2722.4804   0.04893731  0.047409463           16 
 4637000   0.51109589   -3.2656166    2713.2767  0.048761352  0.047398479           17 
 4638000   0.51056716   -3.2663128    2727.0818  0.048998882  0.047387536            9 
 4639000   0.51844791    -3.268694    2723.6918  0.048927424  0.047376579           14 
 4640000   0.51490787   -3.2737629    2722.2207  0.048890459  0.047365652           26 
 4641000   0.51035007    -3.278451    2716.9104  0.048784573  0.047354719           29 
 4642000   0.50179983   -3.2633017    2720.5234  0.048838924  0.047343753            7 
 4643000   0.51384216   -3.2731973    2720.5873  0.048829552  0.047332828           21 
 4644000   0.50441123   -3.2677104    2723.2919  0.048867569  0.047321897           15 
 4645000   0.51230746   -3.2831951     2713.667  0.048684374  0.047310947           18 
 4646000   0.50289697   -3.2862333    2716.6641  0.048727653  0.047299947           16 
 4647000   0.51113432   -3.2676567    2716.6043  0.048716094  0.047288937           13 
 4648000    0.5124622   -3.2691778    2718.4703  0.048739069   0.04727799           11 
 4649000   0.51558535   -3.2801622    2717.8113  0.048716772  0.047267047           11 
 4650000   0.50478275   -3.2902892    2717.4381  0.048699608  0.047256102            7 
 4651000   0.50248522   -3.2725856    2718.3665  0.048705771  0.047245085           40 
 4652000   0.51571197   -3.2668816    2717.9039  0.048687015  0.047234145           20 
 4653000   0.51426285   -3.2662446    2722.4452  0.048757885  0.047223253           23 
 4654000   0.49915172   -3.2623742    2714.8831  0.048612001  0.047212316           13 
 4655000   0.51228104    -3.290817    2718.4957  0.048666231  0.047201368           12 
 4656000   0.50801466   -3.2862583    2716.3109  0.048616675  0.047190469           10 
 4657000   0.52406353   -3.2811447    2728.2601  0.048820058  0.047179547           11 
 4658000   0.49353601   -3.2928599    2721.6288  0.048690941  0.047168616           11 
 4659000   0.49761459   -3.2880557    2717.0229  0.048598106  0.047157689           15 
 4660000   0.51535409   -3.2824887    2722.2698  0.048681505  0.047146755           18 
 4661000   0.51518721    -3.280645     2719.616  0.048623614  0.047135855           20 
 4662000   0.50352666   -3.2738808    2720.7111   0.04863276  0.047124998           18 
 4663000    0.4987963   -3.3096087    2717.6009  0.048566747  0.047114044           28 
 4664000   0.50335839   -3.2926072    2723.3027   0.04865821  0.047103178           13 
 4665000   0.50256779    -3.277546    2725.0193  0.048678443  0.047092319            9 
 4666000   0.48903801   -3.2874157    2724.5732  0.048660044  0.047081434            7 
 4667000   0.51240409   -3.2759651    2720.3484  0.048574181   0.04707054            7 
 4668000   0.50556212   -3.2871974    2727.6283  0.048693736  0.047059687           16 
 4669000   0.51135036   -3.3017572    2717.4886  0.048502331  0.047048779           20 
 4670000   0.49649484    -3.280218    2718.7662  0.048514743  0.047037867            9 
 4671000   0.50021196   -3.2912863    2717.9697  0.048490146  0.047026933           15 
 4672000    0.5029023   -3.2550812    2727.6289  0.048652057  0.047016067            9 
 4673000    0.5057452   -3.2860142    2724.5647  0.048587002  0.047005232            7 
 4674000   0.51272926   -3.2788045    2722.2113  0.048534647  0.046994374            8 
 4675000   0.49686803   -3.2737479    2721.6423  0.048514123  0.046983536            9 
 4676000   0.50734745   -3.2703886    2720.8691  0.048489969  0.046972658           17 
 4677000   0.49463725   -3.2765069    2725.3755  0.048559894    0.0469618           11 
 4678000   0.50947761   -3.2999756    2724.8787  0.048540664   0.04695094           28 
 4679000    0.5064335   -3.2874712    2722.0928  0.048480672  0.046940106           23 
 4680000   0.50558389   -3.2769928    2722.9458  0.048485502   0.04692924           16 
 4681000   0.49998705   -3.2926397    2715.5118  0.048342801  0.046918317           22 
 4682000   0.50584007   -3.2765612    2723.2877  0.048470876   0.04690744           16 
 4683000   0.50839133   -3.2915539    2726.3438  0.048514908  0.046896589           33 
 4684000   0.49332381   -3.2807182    2720.3601  0.048398094   0.04688567           26 
 4685000   0.50874932   -3.2971693    2720.8392  0.048396286  0.046874793           33 
 4686000   0.50092727   -3.2985842    2715.7282  0.048295067  0.046863847           17 
 4687000   0.50687551   -3.2869612    2718.8936  0.048341043  0.046852945           11 
 4688000    0.4965266   -3.2935837    2718.9216  0.048331228  0.046842036           19 
 4689000   0.50366101   -3.2831959    2721.2292  0.048361932  0.046831116           11 
 4690000   0.50094181    -3.302796    2712.2855  0.048192706  0.046820183           21 
 4691000   0.50809968   -3.3029636    2715.8586  0.048245908   0.04680923            5 
 4692000   0.50399485   -3.3007516    2722.5285  0.048354087   0.04679829            8 
 4693000   0.48735519   -3.2828502    2715.0637  0.048211231  0.046787384           49 
 4694000   0.50118908   -3.2786921    2718.9396  0.048269769  0.046776498           23 
 4695000   0.49962843   -3.2829754    2711.3875  0.048125443  0.046765586           42 
 4696000     0.508436   -3.2953539    2718.9772   0.04824988  0.046754652           15 
 4697000   0.50324288   -3.2887463    2719.6602  0.048251725  0.046743788           13 
 4698000   0.50645371   -3.2743759    2725.0698  0.048337409  0.046732969           14 
 4699000   0.49871286   -3.2777426    2722.7508  0.048285998  0.046722091            7 
 4700000   0.50079258    -3.296798    2717.7975    0.0481879  0.046711206           11 
 4701000   0.50484459   -3.3083556    2718.3718  0.048187828  0.046700308           13 
 4702000   0.49947989   -3.2935313    2716.6608  0.048147257  0.046689461           26 
 4703000   0.50114971   -3.2878989    2715.9986  0.048125286  0.046678635           13 
 4704000   0.49482841   -3.2910016    2721.6502  0.048215174  0.046667752            9 
 4705000   0.49238679   -3.2851437    2723.3941  0.048235815  0.046656883           17 
 4706000   0.49382848   -3.2817594    2716.3744  0.048101261  0.046646036           10 
 4707000   0.50898736   -3.2727744      2714.25  0.048053432  0.046635177           16 
 4708000   0.50323828   -3.2803646    2728.3916  0.048293537  0.046624347           21 
 4709000   0.49250448    -3.309112    2722.2752  0.048175041  0.046613491           24 
 4710000   0.49813208   -3.3007227    2720.7118  0.048137151  0.046602618           13 
 4711000   0.51116068   -3.2959999    2717.0055  0.048061372  0.046591742           24 
 4712000   0.49116578   -3.2954162    2718.0399  0.048069466  0.046580876           16 
 4713000   0.49923555   -3.2955724    2722.7197  0.048142014  0.046570014           17 
 4714000   0.49287722   -3.2789674    2720.3737  0.048090328  0.046559176           34 
 4715000   0.50193657   -3.2720305    2722.1142  0.048110891   0.04654844           23 
 4716000   0.49016356   -3.2939491    2722.5286  0.048108011  0.046537638           31 
 4717000     0.501882    -3.307355    2718.9595  0.048034759  0.046526795           23 
 4718000   0.49071326   -3.2968552    2721.5882  0.048071008  0.046515942           29 
 4719000   0.49471169   -3.2878375    2713.7469  0.047922352  0.046505124           12 
 4720000   0.50537769   -3.2949335    2726.0129  0.048128758  0.046494349           14 
 4721000   0.48951098   -3.2931005    2726.7968  0.048132401  0.046483564           17 
 4722000   0.50140815    -3.282282     2724.598  0.048083404  0.046472736           16 
 4723000   0.49646913   -3.2954902    2720.9453  0.048008774  0.046461922           27 
 4724000   0.49720702   -3.2926259     2721.478  0.048008009  0.046451104            8 
 4725000   0.50225559   -3.2945975     2720.599  0.047982346  0.046440266           27 
 4726000   0.50159666   -3.3027647    2716.7311   0.04790399  0.046429465           15 
 4727000   0.49608102   -3.2844118    2726.2393  0.048061479   0.04641866            6 
 4728000   0.49963212   -3.3106719    2723.1594  0.047997028  0.046407872           39 
 4729000   0.49980529   -3.3069937    2724.5241  0.048010927  0.046397055           23 
 4730000   0.47950273   -3.2978605    2724.5423  0.048001098  0.046386271           21 
 4731000   0.49968406   -3.3029457    2723.0076  0.047963918  0.046375489           21 
 4732000   0.50052737   -3.3073293    2723.0108   0.04795384  0.046364758           14 
 4733000   0.48020932   -3.2850412     2720.211  0.047894411   0.04635395           19 
 4734000   0.48826513   -3.3028452    2721.5983  0.047908716  0.046343134           14 
 4735000   0.49740074   -3.2813557    2726.5472  0.047985696  0.046332342           14 
 4736000   0.49554006   -3.3000718    2716.5609  0.047799847  0.046321565           15 
 4737000   0.49496741   -3.3011866     2721.902  0.047883716  0.046310792           12 
 4738000   0.49738927   -3.2777852     2720.589  0.047850517  0.046299958           12 
 4739000   0.49333708   -3.3054761    2723.8583   0.04789791  0.046289191           17 
 4740000   0.49657358   -3.2964572    2721.4469   0.04784541  0.046278396           22 
 4741000    0.4962254   -3.3101291    2722.5751  0.047855148   0.04626756           12 
 4742000   0.48479513   -3.3021488    2726.1606  0.047908067  0.046256717           13 
 4743000   0.49012959   -3.2846685    2722.2257   0.04782883  0.046245894           15 
 4744000   0.50410467   -3.3024689    2725.3256    0.0478732  0.046235161            9 
 4745000   0.49485775   -3.2978271    2728.5913  0.047920466   0.04622443           16 
 4746000   0.48542857   -3.3045794    2727.5449  0.047891995  0.046213644           15 
 4747000   0.50036625   -3.3136844    2721.7211   0.04777967  0.046202864           29 
 4748000   0.48874562   -3.3040435    2717.3514  0.047692913  0.046192067           16 
 4749000   0.49782128   -3.3102456    2724.8249  0.047814011  0.046181215            8 
 4750000   0.48567936   -3.2872251    2727.7047  0.047854469  0.046170429           26 
 4751000   0.48283025   -3.2958161    2723.4428  0.047769641  0.046159701           22 
 4752000   0.49445369   -3.2880507    2726.0631   0.04780554  0.046148978           43 
 4753000   0.48599856   -3.2878914     2719.557  0.047681412   0.04613821           17 
 4754000   0.49059242   -3.3171133    2722.7386  0.047727153  0.046127454           14 
 4755000    0.4913094   -3.2835568     2724.767  0.047752664  0.046116705           25 
 4756000   0.48717856   -3.2943202    2732.9138   0.04788537  0.046105976           14 
 4757000   0.48758738   -3.3034153    2718.6603   0.04762561  0.046095235           11 
 4758000   0.49156552   -3.3193293    2724.9997   0.04772663  0.046084455           19 
 4759000   0.49452365   -3.2988531     2725.729  0.047729373  0.046073706           15 
 4760000   0.48881721   -3.3076266     2716.634  0.047560119  0.046062949           13 
 4761000   0.48663668   -3.3109551    2724.6138  0.047689802  0.046052174           14 
 4762000   0.48356422   -3.3007555    2726.0303  0.047704576  0.046041377           11 
 4763000   0.48346185    -3.295681     2722.812  0.047638253  0.046030642           10 
 4764000    0.4901593   -3.3005151    2722.7361  0.047626926  0.046019874           17 
 4765000   0.49227995   -3.3017308    2725.2181  0.047660337  0.046009144           19 
 4766000   0.48528719   -3.3006335     2722.384  0.047600783  0.045998416           32 
 4767000   0.50035046   -3.2948838     2717.746   0.04750972  0.045987658           28 
 4768000   0.49809669   -3.3015359    2728.6239  0.047689874  0.045976929           11 
 4769000   0.48659077   -3.3133693    2722.6839   0.04757608  0.045966175           13 
 4770000   0.48809871   -3.3051531    2723.1516  0.047574277  0.045955433           14 
 4771000   0.48673175   -3.3170157    2718.5499  0.047483929   0.04594467           13 
 4772000   0.48435786   -3.3020138    2719.4217  0.047489202  0.045933958           14 
 4773000   0.49910395    -3.327836    2722.5321  0.047533558  0.045923244           10 
 4774000   0.48762295     -3.30449    2726.7707  0.047597589  0.045912587           17 
 4775000   0.49314515   -3.3263321    2724.7375  0.047552138  0.045901911            9 
 4776000   0.48774334   -3.3130869    2727.0942  0.047583302  0.045891196           22 
 4777000   0.49201192   -3.3159187    2725.1148  0.047538811   0.04588047           34 
 4778000   0.48109159   -3.3113073    2724.2628  0.047514002  0.045869765           16 
 4779000   0.48047923   -3.3176111    2724.5461     0.047509  0.045859067            8 
 4780000   0.48740478   -3.3109082    2724.8483  0.047504328  0.045848329           14 
 4781000   0.49089372   -3.3084217    2722.7295  0.047457462  0.045837623           15 
 4782000   0.48278952   -3.3083695    2718.8377  0.047379718  0.045826946           11 
 4783000   0.48549271   -3.3007421    2721.8215  0.047421798  0.045816259           12 
 4784000   0.48752966   -3.3134764    2725.4501  0.047475092  0.045805544           21 
 4785000   0.48636969   -3.3082575    2728.7606  0.047522825  0.045794869           34 
 4786000   0.49127743   -3.3235928    2722.6485  0.047406472  0.045784174           23 
 4787000   0.48972696     -3.32204    2720.2765  0.047355277  0.045773479           57 
 4788000   0.48581559   -3.3121529    2717.9571  0.047305018  0.045762755           30 
 4789000    0.4807054   -3.3282506    2723.9805  0.047399954   0.04575205           23 
 4790000   0.48757823   -3.3146629     2723.127  0.047375208  0.045741364           14 
 4791000   0.48890598   -3.3081433    2722.1269  0.047347924   0.04573062           11 
 4792000   0.49559238   -3.3210915    2729.8283  0.047471973  0.045719887           11 
 4793000   0.49737939   -3.3057789    2720.2123   0.04729488  0.045709205           39 
 4794000   0.48285063   -3.3280773    2724.1112  0.047352789  0.045698498           46 
 4795000   0.47771161   -3.2928443    2725.4985  0.047367024  0.045687836           16 
 4796000   0.48455324   -3.3134923    2721.3845  0.047285663  0.045677159           42 
 4797000   0.49596742   -3.3146139    2720.9625  0.047268475  0.045666443           29 
 4798000   0.48048467    -3.329785    2723.5283  0.047303187  0.045655725           15 
 4799000   0.48009647   -3.3199383    2720.0347  0.047232665  0.045644977           12 
 4800000   0.49127376   -3.3284207    2721.4421  0.047247259   0.04563427           27 
 4801000   0.47614905   -3.3283147    2720.5877  0.047222587  0.045623547           44 
 4802000    0.4873377   -3.3116137    2721.3863  0.047226612  0.045612849           15 
 4803000   0.48623222   -3.3213434    2722.2721  0.047232148  0.045602124           29 
 4804000   0.47846072   -3.3108841    2719.3746  0.047172055  0.045591394           11 
 4805000   0.48318601   -3.3193845     2726.405  0.047284165  0.045580679           11 
 4806000   0.48403178   -3.3087028    2715.0478    0.0470774  0.045569948           30 
 4807000   0.48051659   -3.3290917    2724.4915  0.047231321  0.045559197           31 
 4808000     0.482326   -3.3370271    2725.8993  0.047245897   0.04554847           28 
 4809000   0.47256117   -3.3202979    2718.1752  0.047102226  0.045537737           10 
 4810000   0.48887837   -3.3331747     2722.617  0.047169387  0.045527015           26 
 4811000   0.48456182   -3.3265533    2720.0294  0.047114761  0.045516274           21 
 4812000   0.48525637   -3.3158041    2721.1427   0.04712425  0.045505532           21 
 4813000   0.48171834   -3.3225416    2719.1563  0.047080067  0.045494843           35 
 4814000   0.47794298   -3.3410556    2720.4712  0.047093048  0.045484101           17 
 4815000   0.49044068   -3.3229252    2723.7593  0.047140175  0.045473346           23 
 4816000   0.47905281   -3.3194684    2718.8901  0.047046133  0.045462631           56 
 4817000   0.48584563   -3.3184642    2718.6328  0.047031914  0.045451868           20 
 4818000   0.48317065   -3.3099004    2723.5738  0.047107614   0.04544116           12 
 4819000   0.49250735   -3.3123208    2723.5053  0.047096655  0.045430468           22 
 4820000    0.4712381   -3.3045381    2720.7331  0.047038954  0.045419766           11 
 4821000   0.48302273   -3.3187853    2715.9809  0.046947053  0.045409012           16 
 4822000    0.4784609   -3.3380404    2718.3105  0.046977577  0.045398304            5 
 4823000   0.49146462   -3.3156174    2716.5043  0.046936629  0.045387576            8 
 4824000    0.4769414   -3.3336135    2718.4703  0.046960861  0.045376853           28 
 4825000   0.48078092   -3.2984184    2722.2464  0.047016346  0.045366121            9 
 4826000   0.49104913   -3.3170759    2720.2665  0.046972416  0.045355439           10 
 4827000    0.4941788   -3.3202904    2712.3246  0.046825574  0.045344705           20 
 4828000   0.47676451   -3.3185337    2720.3454  0.046954318  0.045333985           36 
 4829000   0.48446686   -3.3395121     2721.619  0.046966573  0.045323264           20 
 4830000   0.48514156   -3.3282723    2720.9155  0.046944711  0.045312533           14 
 4831000   0.47948682   -3.3249925    2718.1414  0.046887142  0.045301846            9 
 4832000   0.48371757   -3.3210101    2719.6572  0.046903581   0.04529114           13 
 4833000   0.47513151   -3.3213267    2717.8251  0.046862285  0.045280441           14 
 4834000   0.47476432   -3.3074973    2717.8033  0.046852216  0.045269748           15 
 4835000   0.47003158   -3.3303333    2715.5449    0.0468036  0.045259057           24 
 4836000   0.49088454   -3.3461479    2720.6867  0.046882526  0.045248321           12 
 4837000   0.47916693   -3.3235649     2717.293  0.046814364  0.045237561           24 
 4838000    0.4746322   -3.3302687    2720.7473  0.046864189  0.045226843           14 
 4839000   0.48545796   -3.3335993    2718.8708  0.046822188  0.045216133           10 
 4840000    0.4870177   -3.3227822    2717.7527  0.046793263  0.045205439           18 
 4841000   0.48704313   -3.3292459    2719.7934  0.046818725  0.045194703           14 
 4842000    0.4886274    -3.352856    2721.5109  0.046838616  0.045183954           22 
 4843000   0.47942376   -3.3400203    2717.8017  0.046765119  0.045173221           12 
 4844000   0.47634385   -3.3238449     2719.189  0.046779332  0.045162534           10 
 4845000   0.46945345    -3.322228    2719.3978  0.046773269  0.045151867           11 
 4846000    0.4780669    -3.337325    2714.3564  0.046676922  0.045141158           34 
 4847000   0.48491946    -3.316254    2716.6502  0.046706729  0.045130458           15 
 4848000   0.46560508   -3.3330609    2716.5179  0.046694821  0.045119763           21 
 4849000   0.47401759   -3.3354729    2723.9369  0.046812691  0.045109072           29 
 4850000   0.47264249    -3.326984    2722.1447  0.046772246  0.045098402           21 
 4851000   0.47500836   -3.3321232     2718.791  0.046704992   0.04508772           14 
 4852000    0.4676677   -3.3367894    2716.0847  0.046648886  0.045077044           22 
 4853000    0.4588335   -3.3370191    2723.4223   0.04676527  0.045066367           21 
 4854000   0.47633937   -3.3181998    2720.1648  0.046699711  0.045055703           17 
 4855000   0.46923188   -3.3255558    2718.4518  0.046660691  0.045045028           15 
 4856000   0.47974183   -3.3433144    2724.4695   0.04675435   0.04503433           32 
 4857000   0.48385735   -3.3382081    2720.8213   0.04668213  0.045023655           32 
 4858000   0.47471797   -3.3387086    2714.9779  0.046572284  0.045012988           18 
 4859000   0.47499917   -3.3493085     2722.675  0.046694707  0.045002303           48 
 4860000    0.4729382   -3.3467365    2724.1918  0.046711108  0.044991632           16 
 4861000    0.4839764   -3.3331706    2717.4477  0.046585882  0.044980925            7 
 4862000   0.47659711   -3.3267366    2721.2786  0.046641962  0.044970234           16 
 4863000   0.47928684   -3.3188498    2725.4628  0.046704072  0.044959565           10 
 4864000    0.4732038   -3.3401764    2717.1593  0.046552209  0.044948875           30 
 4865000   0.47310968   -3.3356168    2716.8025  0.046536529  0.044938183           15 
 4866000   0.47120532   -3.3489479    2718.6701  0.046558949  0.044927456           46 
 4867000   0.47790392   -3.3459504    2719.0169   0.04655532  0.044916733           92 
 4868000    0.4739915   -3.3278008    2719.4612  0.046553362  0.044906044           14 
 4869000   0.47494236   -3.3393234    2717.7718  0.046514887   0.04489538           13 
 4870000   0.46311991   -3.3266584    2717.8628  0.046506892  0.044884714           14 
 4871000   0.49288536    -3.329506    2719.5725  0.046526594  0.044874059           14 
 4872000   0.47455014   -3.3165694    2719.5761  0.046517106  0.044863405           10 
 4873000   0.48520527   -3.3230533    2721.2294  0.046535834  0.044852757            9 
 4874000   0.47016584   -3.3382183    2717.6162  0.046464509  0.044842128           10 
 4875000   0.47529376   -3.3321816    2718.5515  0.046470966  0.044831511           16 
 4876000    0.4661731   -3.3264355    2722.7727  0.046533579  0.044820864           14 
 4877000   0.47708436   -3.3329547    2718.1799  0.046445559  0.044810236           38 
 4878000   0.46746379   -3.3292415    2721.0723  0.046485451  0.044799624           12 
 4879000    0.4699247   -3.3413071    2724.2538  0.046530263  0.044788987           17 
 4880000     0.479218   -3.3454844    2715.8253  0.046376798  0.044778335           33 
 4881000   0.47976009   -3.3482653    2714.4703  0.046344163  0.044767651           60 
 4882000   0.47077525   -3.3368586    2718.4607  0.046402784  0.044757012           13 
 4883000   0.46520998   -3.3384616    2721.8422   0.04645099  0.044746359           26 
 4884000   0.46606207   -3.3506845    2727.6423  0.046540443  0.044735718           12 
 4885000   0.47250903   -3.3471905     2720.166  0.046403378  0.044725054           21 
 4886000   0.46886061   -3.3404543    2736.6443  0.046674926  0.044714448           13 
 4887000    0.4783774   -3.3448344    2716.7788  0.046326629    0.0447038           21 
 4888000   0.46956608   -3.3400494     2713.561  0.046262291  0.044693171           20 
 4889000   0.46660133    -3.326924    2720.7415  0.046375222  0.044682566           18 
 4890000   0.47936495   -3.3322794    2717.1098  0.046303847  0.044671939           28 
 4891000   0.46882663   -3.3403763    2720.7651  0.046356661  0.044661308           20 
 4892000   0.47928922   -3.3239342    2720.7651  0.046347184  0.044650701           21 
 4893000   0.46419206   -3.3379957    2723.3644  0.046381981  0.044640088           38 
 4894000   0.47210518   -3.3252254    2717.5077  0.046272779  0.044629507           14 
 4895000   0.46717627   -3.3545607    2720.1988  0.046309139  0.044618914           31 
 4896000   0.46561346   -3.3560579    2718.9004  0.046277581  0.044608282           21 
 4897000   0.46896315   -3.3350348    2723.6674  0.046349251  0.044597645           17 
 4898000   0.45951055   -3.3278835    2718.2566  0.046247731  0.044587053           29 
 4899000    0.4745131   -3.3480046    2722.6662  0.046313299  0.044576447           40 
 4900000   0.47035025   -3.3550542    2721.7113  0.046287608  0.044565808           13 
 4901000   0.47798848   -3.3360081    2722.5116   0.04629177  0.044555163            6 
 4902000   0.47226961   -3.3521592    2721.2131  0.046260252   0.04454456           16 
 4903000   0.46295852   -3.3450034    2712.3435  0.046100066  0.044533936           12 
 4904000   0.46502964   -3.3449433    2716.6931  0.046164578  0.044523323           21 
 4905000   0.46114038   -3.3447148    2723.8646  0.046277007  0.044512737           13 
 4906000    0.4581849   -3.3442696    2722.7496  0.046248635  0.044502149           11 
 4907000   0.47664254   -3.3473541    2715.3714  0.046113909  0.044491538           34 
 4908000   0.47185626   -3.3519395    2723.9519  0.046250203  0.044480917           20 
 4909000   0.47060612   -3.3427069    2718.4388  0.046147192  0.044470314           20 
 4910000   0.46693024   -3.3625429    2710.3206  0.046000009  0.044459693           11 
 4911000   0.45998592   -3.3396293    2717.8622  0.046118615  0.044449046           29 
 4912000   0.47613307   -3.3231334     2722.858  0.046193981  0.044438483           17 
 4913000   0.46376563   -3.3396778     2721.997  0.046169974  0.044427931           21 
 4914000   0.47472393   -3.3399844    2718.4948  0.046101188  0.044417349           16 
 4915000   0.46789966   -3.3348577    2726.4418  0.046226548  0.044406775           25 
 4916000   0.46879484   -3.3496949    2724.6189  0.046186245  0.044396196           26 
 4917000   0.46506564   -3.3435772    2718.3145  0.046070004  0.044385602           26 
 4918000   0.46338191    -3.345612    2711.2109   0.04594027  0.044374971           25 
 4919000   0.47650773   -3.3610227    2722.1819   0.04611679  0.044364357           17 
 4920000   0.45848974   -3.3517137    2718.2294   0.04604047  0.044353767           11 
 4921000   0.46180196   -3.3466859    2716.9299   0.04600911  0.044343176           20 
 4922000   0.46394387   -3.3513728    2726.8417  0.046167576  0.044332583           18 
 4923000   0.46825162   -3.3459336    2712.9368  0.045922825   0.04432199           17 
 4924000   0.46917271   -3.3484222    2718.9461    0.0460152  0.044311392           15 
 4925000   0.45793651   -3.3465102    2716.7276  0.045968318  0.044300816           22 
 4926000   0.46278153   -3.3469411    2720.4631  0.046022179  0.044290249           22 
 4927000   0.46318405   -3.3532229    2721.9934  0.046038722  0.044279679           27 
 4928000   0.45894518   -3.3562596    2717.2764  0.045949614  0.044269128           29 
 4929000   0.46074173    -3.335681    2720.2603  0.045990739  0.044258542           15 
 4930000   0.45075676    -3.331791    2721.2114  0.045997487  0.044248005           16 
 4931000   0.46217999   -3.3531171    2715.3554  0.045889194  0.044237429           21 
 4932000   0.46732956   -3.3397164    2717.7713   0.04592071  0.044226845           13 
 4933000   0.46835377   -3.3612666    2715.0001  0.045864587  0.044216265           27 
 4934000   0.45483029    -3.333851    2716.9776  0.045888692  0.044205705           57 
 4935000   0.46386182   -3.3742087    2717.5115  0.045888408  0.044195129           11 
 4936000   0.45852465   -3.3653861    2721.3891  0.045944575  0.044184534           13 
 4937000   0.46641214   -3.3536972    2719.4452  0.045902457  0.044173955           16 
 4938000   0.46590215   -3.3504344    2716.0819  0.045836402  0.044163375           19 
 4939000   0.47044999   -3.3629882    2723.5599  0.045953295  0.044152814           10 
 4940000   0.46148929   -3.3519624    2715.3086  0.045804801  0.044142275           17 
 4941000   0.46222705   -3.3398259    2720.1837  0.045877753  0.044131729           14 
 4942000   0.46093244   -3.3579777    2714.8998   0.04577937   0.04412117           14 
 4943000   0.45426218   -3.3508864    2716.1377  0.045790979  0.044110587           30 
 4944000    0.4617256   -3.3650433    2719.8286  0.045843928  0.044100002           21 
 4945000    0.4563499   -3.3341406    2717.1053  0.045788764  0.044089453           31 
 4946000   0.45852604   -3.3568973      2719.58  0.045821203  0.044078882           20 
 4947000   0.45946365   -3.3645788    2720.5264  0.045827882  0.044068343           13 
 4948000     0.456721   -3.3585581     2718.088  0.045777554  0.044057826           25 
 4949000    0.4441192   -3.3545716    2725.6708  0.045895986   0.04404735           15 
 4950000   0.46100447   -3.3548118    2721.8519  0.045822422  0.044036833           18 
 4951000   0.46096934   -3.3626587    2720.8807  0.045796821  0.044026335           16 
 4952000   0.46270128     -3.35733    2723.4697   0.04583114   0.04401582            9 
 4953000   0.45702557   -3.3525757    2718.6522  0.045740834  0.044005332           14 
 4954000   0.45148679   -3.3474415    2716.9541  0.045703036  0.043994823           17 
 4955000   0.46969604   -3.3349568    2712.9558  0.045626569  0.043984293           12 
 4956000   0.45807855    -3.363057    2720.1023  0.045737529   0.04397374           14 
 4957000   0.46193709   -3.3591373    2719.4595  0.045717495   0.04396322           48 
 4958000   0.45382565   -3.3555541    2717.3587  0.045672964   0.04395268           36 
 4959000   0.45791354   -3.3572619    2715.3844  0.045630578  0.043942137           30 
 4960000   0.44982442   -3.3711939    2712.9388  0.045580289  0.043931547           57 
 4961000   0.46185639    -3.339343    2715.5407  0.045614808  0.043920953           35 
 4962000    0.4705177   -3.3548987    2712.8037  0.045559649  0.043910398           33 
 4963000   0.46396521   -3.3645404    2719.9691  0.045670782  0.043899836           23 
 4964000   0.45679089    -3.370223    2711.4412  0.045518419  0.043889271           11 
 4965000   0.46349741   -3.3504473    2713.9826  0.045551906  0.043878718           11 
 4966000   0.45097292   -3.3546316    2715.3028  0.045564888  0.043868129           36 
 4967000   0.46093486   -3.3911242    2711.1319  0.045485737  0.043857538           36 
 4968000   0.45166239   -3.3671022    2713.2506  0.045512122  0.043846991           12 
 4969000   0.45474308   -3.3570013    2713.7922  0.045512044  0.043836449           12 
 4970000   0.46056793   -3.3664103    2714.0912    0.0455079  0.043825869           14 
 4971000   0.45631855   -3.3704713    2716.6019  0.045540835  0.043815313           49 
 4972000   0.45790132   -3.3729327    2718.8189  0.045568834  0.043804731           39 
 4973000    0.4620877   -3.3576985    2709.6088  0.045405335  0.043794167           14 
 4974000   0.45716132   -3.3696725     2711.586  0.045429332   0.04378361           34 
 4975000   0.46181199   -3.3574613    2712.3952  0.045433755  0.043773071           30 
 4976000   0.44552904   -3.3715021    2715.3204  0.045473614  0.043762514           32 
 4977000   0.45499303   -3.3680539    2712.6427  0.045419643  0.043751937           24 
 4978000   0.46046253   -3.3694126    2708.8153  0.045346447  0.043741381           20 
 4979000   0.45854338   -3.3587697    2716.8044  0.045471051  0.043730847           29 
 4980000   0.45464471    -3.361062    2717.4998  0.045473557  0.043720365           24 
 4981000   0.44645774   -3.3686858    2718.2565  0.045477089  0.043709875           48 
 4982000   0.45752623    -3.369956    2715.7073   0.04542532  0.043699344           49 
 4983000   0.45044066   -3.3844165    2713.7456  0.045383397   0.04368875           29 
 4984000   0.45453837   -3.3781838    2710.6054  0.045321786  0.043678181           53 
 4985000   0.45446144   -3.3812504    2715.3424  0.045391883  0.043667615           39 
 4986000   0.45397832   -3.3770385     2711.291  0.045315066  0.043657061           20 
 4987000   0.45526549   -3.3542492    2713.5326  0.045343437  0.043646533           27 
 4988000   0.44808246   -3.3720159    2713.7076   0.04533727  0.043636004           23 
 4989000   0.44445873   -3.3832021    2718.2861  0.045404658  0.043625475           19 
 4990000   0.45786481   -3.3781065    2721.7183  0.045452877  0.043614978           62 
 4991000   0.46005342   -3.3778209    2719.3063  0.045403498  0.043604494           49 
 4992000   0.45768645     -3.36404    2717.9085  0.045371068     0.043594           18 
 4993000   0.45384057   -3.3703053    2719.4648  0.045387956  0.043583505           31 
 4994000   0.44388483   -3.3487579    2718.1216  0.045356455  0.043573033           13 
 4995000    0.4580145   -3.3726257    2713.6844  0.045273347  0.043562545           18 
 4996000   0.45321843   -3.3555976    2720.3041  0.045374702  0.043552089           18 
 4997000   0.45316139   -3.3738492    2720.6029  0.045370603   0.04354163           32 
 4998000   0.43608031   -3.3725136    2716.9557  0.045300716  0.043531169           29 
 4999000   0.45761571   -3.3790265    2716.1561  0.045278324  0.043520687           25 
 5000000   0.45168103   -3.3745645    2715.1083  0.045251804  0.043510187           62 
 5001000   0.45996654   -3.3704098    2717.9567   0.04529022  0.043499709           49 
 5002000   0.44678919   -3.3849463    2719.6285  0.045309018  0.043489259           31 
 5003000   0.45131957    -3.372153    2718.3269  0.045278282  0.043478805          103 
 5004000   0.45278108    -3.370029    2710.9907  0.045147061  0.043468346           50 
 5005000   0.45547146   -3.3698333    2715.1084    0.0452066  0.043457898           37 
 5006000   0.46200412   -3.3534899    2714.0437  0.045179847  0.043447434           12 
 5007000   0.45162012   -3.3789851     2713.349  0.045159261  0.043436971           30 
 5008000   0.44966072   -3.3888473    2713.1636  0.045147158  0.043426457           35 
 5009000   0.44962391   -3.3716778    2714.0478  0.045152855  0.043415997           24 
 5010000   0.44702638   -3.3670371    2712.2917  0.045114632  0.043405533           18 
 5011000   0.45677634   -3.3729471    2719.2868  0.045221958  0.043395089           16 
 5012000   0.45310324   -3.3815405    2715.3861   0.04514808  0.043384633           36 
Loop time of 12296.3 on 48 procs for 5000000 steps with 4000 atoms

Performance: 70265.214 tau/day, 406.627 timesteps/s
99.4% CPU use with 48 MPI tasks x no OpenMP threads

MPI task timing breakdown:
Section |  min time  |  avg time  |  max time  |%varavg| %total
---------------------------------------------------------------
Pair    | 797.77     | 860.58     | 933.3      | 120.4 |  7.00
Neigh   | 80.88      | 84.806     | 89.734     |  24.6 |  0.69
Comm    | 746.87     | 822.92     | 889.5      | 122.7 |  6.69
Output  | 16.003     | 16.008     | 16.092     |   0.3 |  0.13
Modify  | 10382      | 10404      | 10426      |  11.3 | 84.61
Other   |            | 108.1      |            |       |  0.88

Nlocal:        83.3333 ave          89 max          78 min
Histogram: 6 6 4 2 6 7 3 6 3 5
Nghost:        2164.79 ave        2184 max        2152 min
Histogram: 5 5 8 6 10 5 3 2 2 2
Neighs:        14302.2 ave       15793 max       12588 min
Histogram: 1 3 3 5 7 12 5 7 3 2
FullNghs:      28603.8 ave       30602 max       26718 min
Histogram: 3 8 3 2 8 8 4 5 2 5

Total # of neighbors = 1372981
Ave neighs/atom = 343.24525
Neighbor list builds = 271616
Dangerous builds = 3

#clear
#
#next RN
#
#jump SELF
Total wall time: 3:24:59
