
units lj                  # Use reduced LJ style units
atom_style atomic         # Uncharged point particles
atom_modify map hash      # Needed for indexing of clusters etc
                          # Used to be able to find where atoms are in relation to each other.

lattice fcc 1.0 spacing 1 1 1
Lattice spacing in x,y,z = 1.5874011 1.5874011 1.5874011
region box block 0 10 0 10 0 10 units lattice
create_box 2 box
Created orthogonal box = (0.0000000 0.0000000 0.0000000) to (15.874011 15.874011 15.874011)
  3 by 4 by 4 MPI processor grid
create_atoms 1 box
Created 4000 atoms
  using lattice units in orthogonal box = (0.0000000 0.0000000 0.0000000) to (15.874011 15.874011 15.874011)
  create_atoms CPU = 0.003 seconds
set type 1 type/fraction 2 0.11 78393
Setting atom values ...
  470 settings made for type/fraction
mass 1 1.0
mass 2 1.0
pair_style lj/cut  3.5
pair_modify tail  yes
pair_coeff 1  1  1.0  1.0   # Intearaction between 1 and 1 set with epsilon = 1 and sigma = 1
pair_coeff 1  2  1.5  0.8
pair_coeff 2  2  0.5  0.88

write_data data.0
System init for write_data ...
Neighbor list info ...
  update every 1 steps, delay 10 steps, check yes
  max neighbors/atom: 2000, page size: 100000
  master list distance cutoff = 3.8
  ghost atom cutoff = 3.8
  binsize = 1.9, bins = 9 9 9
  1 neighbor lists, perpetual/occasional/extra = 1 0 0
  (1) pair lj/cut, perpetual
      attributes: half, newton on
      pair build: half/bin/atomonly/newton
      stencil: half/bin/3d
      bin: standard
WARNING: Not all mixed pair coeffs generated from mixing. Use write_data with 'pair ij' option to store all pair coeffs. (../write_data.cpp:312)


#############################
#   M E L T   S Y S T E M   #
#############################

velocity all create 2.4 6583654 mom yes dist gaussian # Assign velocities
                                                    # Temperature 2.4, random number seed, zero linear momentum
                                                                                # Gaussian distribution

timestep 0.002   # simulation timestep
thermo 1000       # output thermodynamic data every 1000 steps bf 100

# Define a fix  in this case with index 1 applied to all
# particles in the simulation. This fix is for simulations
# in the anisotropic NPT ensemble. Note that we use the MTK
# correction.
fix 1 all npt temp 2.4 2.4 0.1 iso 5.68 5.68 0.5 mtk yes tchain 5 pchain 5 # Use NPT ensemble
                                                                         # Set temperature and pressure and damping
                                                                         # Numbers of thermostats in chain and in barostat
run 10000          # run for 10000 steps
Per MPI rank memory allocation (min/avg/max) = 3.642 | 3.644 | 3.648 Mbytes
Step Temp E_pair E_mol TotEng Press Volume 
       0          2.4   -7.6169122            0   -4.0178122   -3.1065461         4000 
    1000    2.3883584    -4.664828            0    -1.083186    5.6366959    4780.3979 
    2000    2.4508553   -4.6628924            0  -0.98752845    5.3870818    4823.3313 
    3000    2.3995295   -4.6466671            0   -1.0482727    5.8629283    4768.6849 
    4000    2.4376243   -4.5736178            0  -0.91809554    6.0388438     4780.948 
    5000    2.3672557   -4.6610678            0    -1.111072    5.5615917    4793.2146 
    6000    2.4458845   -4.7100816            0    -1.042172    5.6159751    4766.5814 
    7000    2.4432632   -4.5987471            0  -0.93476849    5.9588634    4796.6615 
    8000    2.3753296   -4.6246301            0   -1.0625265    5.8222956    4776.1215 
    9000    2.3653326   -4.6059813            0   -1.0588694    5.7500257    4800.4603 
   10000    2.3996282   -4.6137066            0   -1.0151643    5.6363269    4826.5532 
Loop time of 2.16189 on 48 procs for 10000 steps with 4000 atoms

Performance: 799299.092 tau/day, 4625.573 timesteps/s
99.7% CPU use with 48 MPI tasks x no OpenMP threads

MPI task timing breakdown:
Section |  min time  |  avg time  |  max time  |%varavg| %total
---------------------------------------------------------------
Pair    | 0.90833    | 0.96864    | 1.0436     |   2.8 | 44.81
Neigh   | 0.18886    | 0.19787    | 0.20814    |   0.8 |  9.15
Comm    | 0.6628     | 0.746      | 0.8122     |   4.0 | 34.51
Output  | 0.00024256 | 0.0002466  | 0.0003086  |   0.0 |  0.01
Modify  | 0.20444    | 0.23474    | 0.26521    |   3.4 | 10.86
Other   |            | 0.0144     |            |       |  0.67

Nlocal:        83.3333 ave          96 max          73 min
Histogram: 2 3 3 11 11 10 5 1 0 2
Nghost:        1450.21 ave        1481 max        1413 min
Histogram: 1 0 4 3 11 10 12 2 3 2
Neighs:        7886.88 ave        9062 max        6687 min
Histogram: 2 2 3 7 8 14 4 4 1 3

Total # of neighbors = 378570
Ave neighs/atom = 94.642500
Neighbor list builds = 904
Dangerous builds = 178

# Equilibrate just above the melting temperature to avoid step fn in T

fix 1 all npt temp 1.25 1.25 0.1 iso 5.68 5.68 0.5 mtk yes tchain 5 pchain 5
run 2000
Per MPI rank memory allocation (min/avg/max) = 3.642 | 3.644 | 3.648 Mbytes
Step Temp E_pair E_mol TotEng Press Volume 
   10000    2.3996282   -4.6137066            0   -1.0151643    5.6363269    4826.5532 
   11000    1.2555389   -6.2640724            0   -4.3812348     5.547652    3949.0423 
   12000    1.2672452   -6.2448143            0   -4.3444218    6.0458027    3925.3352 
Loop time of 0.524296 on 48 procs for 2000 steps with 4000 atoms

Performance: 659169.889 tau/day, 3814.641 timesteps/s
99.4% CPU use with 48 MPI tasks x no OpenMP threads

MPI task timing breakdown:
Section |  min time  |  avg time  |  max time  |%varavg| %total
---------------------------------------------------------------
Pair    | 0.20726    | 0.22725    | 0.25199    |   1.9 | 43.34
Neigh   | 0.031421   | 0.0335     | 0.036156   |   0.6 |  6.39
Comm    | 0.13461    | 0.1627     | 0.18356    |   2.4 | 31.03
Output  | 5.1841e-05 | 5.5914e-05 | 0.00017841 |   0.0 |  0.01
Modify  | 0.089358   | 0.096243   | 0.10479    |   1.2 | 18.36
Other   |            | 0.004554   |            |       |  0.87

Nlocal:        83.3333 ave          93 max          78 min
Histogram: 5 6 11 7 8 2 5 1 1 2
Nghost:        1659.23 ave        1690 max        1632 min
Histogram: 3 1 6 13 7 3 5 6 2 2
Neighs:        9713.75 ave       10999 max        8886 min
Histogram: 4 4 14 7 6 5 3 2 0 3

Total # of neighbors = 466260
Ave neighs/atom = 116.56500
Neighbor list builds = 143
Dangerous builds = 8

#############################
# L I N E A R  Q U E N C H  #
#############################

# Define solid atoms. This closely follows ten Wolde  Ruiz-Montero and Frenkel  Faraday Discuss  1996  104  93-110
# Compute components of the per-atom q6 vector
compute q6 all orientorder/atom degrees 1 6 components 6 nnn NULL cutoff 1.3 # compute the Q6 parameter.
                                                                             # Use all neighbours within 1.3 unit cell.

# get number of connections
compute coord_number all coord/atom orientorder q6 0.5

# An atom is solid if it has 8 or more connections (of a possible 14)
variable is_solid atom c_coord_number>=8
group solid dynamic all var is_solid    # Must be dynamic to update
dynamic group solid defined

# do clustering
compute cluster solid cluster/atom 1.3 # Create a cluster where all atoms within are solid and max 1.3 units from another member

# define chunks one chunk per cluster
compute clus_chunks solid chunk/atom c_cluster nchunk every compress yes  # Says which atoms are in which chunk

# count the size of each chunk
compute size_chunks solid property/chunk clus_chunks count


# Find the maximum entry in the vector of chunk sizes
variable max_n equal max(c_size_chunks)


# Thermo style which includes this variable
# thermo_style custom step temp pe vol v_max_n

thermo ${N}  # Print the thermo information every 100 steps
thermo 1000  

# Reset the npt fix at a lower temperature (below freezing)
fix 1  all npt temp  ${temp} ${temp}  0.1  iso  5.68  5.68  0.5  mtk yes tchain  5  pchain  5
fix 1  all npt temp  0.45 ${temp}  0.1  iso  5.68  5.68  0.5  mtk yes tchain  5  pchain  5
fix 1  all npt temp  0.45 0.45  0.1  iso  5.68  5.68  0.5  mtk yes tchain  5  pchain  5

dump dmp2 all dcd ${N} traj.dcd
dump dmp2 all dcd 1000 traj.dcd


compute msd all msd com yes
variable twopoint equal c_msd[4]/6/(step*dt+1.0e-6)
fix 9 all vector 10 c_msd[4]
variable fit equal slope(f_9)/6/(10*dt)
thermo_style custom step temp pe c_msd[4] v_twopoint v_fit v_max_n

fix 1 all npt temp 1.25 ${temp} 0.1 iso 5.68 5.68 0.5 mtk yes tchain 5 pchain 5
fix 1 all npt temp 1.25 0.45 0.1 iso 5.68 5.68 0.5 mtk yes tchain 5 pchain 5
run 2000000 # 5000000  # Run for this many steps
Neighbor list info ...
  update every 1 steps, delay 10 steps, check yes
  max neighbors/atom: 2000, page size: 100000
  master list distance cutoff = 3.8
  ghost atom cutoff = 3.8
  binsize = 1.9, bins = 9 9 9
  4 neighbor lists, perpetual/occasional/extra = 1 3 0
  (1) pair lj/cut, perpetual
      attributes: half, newton on
      pair build: half/bin/atomonly/newton
      stencil: half/bin/3d
      bin: standard
  (2) compute orientorder/atom, occasional
      attributes: full, newton on
      pair build: full/bin/atomonly
      stencil: full/bin/3d
      bin: standard
  (3) compute coord/atom, occasional
      attributes: full, newton on
      pair build: full/bin/atomonly
      stencil: full/bin/3d
      bin: standard
  (4) compute cluster/atom, occasional
      attributes: full, newton on
      pair build: full/bin/atomonly
      stencil: full/bin/3d
      bin: standard
Per MPI rank memory allocation (min/avg/max) = 9.755 | 9.760 | 9.767 Mbytes
Step Temp PotEng c_msd[4] v_twopoint v_fit v_max_n 
   12000    1.2672452   -6.2448143 6.581861e-30 4.5707366e-32 8.3333333e+20            2 
   13000    1.2492012   -6.2528311    0.5271397 0.0033791005   0.04245481            5 
   14000    1.2583697   -6.2699528    1.0492269 0.0062453979  0.042994925            1 
   15000    1.2328595   -6.3210699    1.5167635 0.0084264639  0.041988534            2 
   16000    1.2483095    -6.210719    2.0746933  0.010805694   0.04228552            1 
   17000    1.2394729   -6.2758601    2.5912037  0.012701979  0.042763727            4 
   18000    1.2232921   -6.2289461    3.0664002  0.014196297  0.042690785            3 
   19000     1.246958   -6.2635015    3.6173203  0.015865439   0.04263231            4 
   20000    1.2501866   -6.2749547    4.1228251  0.017178438  0.042776055            4 
   21000    1.2370908   -6.2420045    4.7076361  0.018681095  0.043079544            4 
   22000    1.2273436   -6.2464589    5.2905427  0.020039934  0.043492382            3 
   23000    1.2302611   -6.2442178    5.7833002  0.020953986  0.043802494            2 
   24000    1.2457105   -6.2908593    6.3338475  0.021992525  0.044004613            5 
   25000    1.2543036   -6.2650365    6.8401663  0.022800554  0.044073024            2 
   26000    1.2443155   -6.2923523    7.3697486  0.023620989  0.044062483            4 
   27000    1.2104948   -6.2399135    8.0693317  0.024905344  0.044281289            2 
   28000    1.2221441   -6.2573289    8.6151869  0.025640437  0.044578706            7 
   29000     1.237594   -6.3046026    9.1629436  0.026330297  0.044785421            1 
   30000    1.2647508   -6.2361616    9.6955108  0.026931974  0.045012702            1 
   31000    1.2405063   -6.2534814    10.241634  0.027531274  0.045106133            2 
   32000    1.2251847   -6.2292356    10.828636  0.028199571   0.04520332            2 
   33000    1.2644164   -6.2956072    11.331078  0.028613833  0.045301701            3 
   34000    1.2558677   -6.2529009    11.918781  0.029212698  0.045361557            2 
   35000    1.2431013    -6.253582    12.604235  0.030010082  0.045507526            2 
   36000    1.2411464   -6.2590187    13.135327  0.030405848  0.045622498            2 
   37000    1.2440062   -6.2839476    13.650195  0.030743683  0.045748612            3 
   38000    1.2522978   -6.2626069    14.232034  0.031210601  0.045832239            3 
   39000    1.2309551   -6.2367644    14.760502  0.031539534  0.045900747            2 
   40000     1.258077   -6.2367649    15.318647  0.031913848  0.045935626            1 
   41000    1.2151986   -6.2922169    15.851848  0.032219202  0.045979524            3 
   42000    1.2193088   -6.2342191    16.476269   0.03269101  0.046027286            2 
   43000    1.2337725   -6.2533806    16.811313  0.032580064  0.046007146            5 
   44000    1.2311181   -6.2945251    17.322126  0.032807057  0.045934008            2 
   45000    1.2727985   -6.2693906    17.805599  0.032973331  0.045840224            1 
   46000    1.2255626    -6.266497    18.267166  0.033092692  0.045770605            2 
   47000    1.2061454   -6.2622931    18.807923  0.033347381  0.045682054            3 
   48000    1.2455958   -6.2400757    19.227483  0.033381047  0.045567592            2 
   49000    1.2712428   -6.3060123    19.732353  0.033558423  0.045460736            1 
   50000    1.2439719   -6.2540162    20.356428   0.03392738  0.045372425            3 
   51000    1.2590911   -6.2905152    20.926023  0.034192848  0.045290003            1 
   52000    1.2387239   -6.2424544    21.452317  0.034378712  0.045209335            4 
   53000    1.2217042   -6.3161903    21.871605  0.034389315   0.04515543            2 
   54000    1.2424232   -6.2593469     22.60578  0.034885462  0.045107799            4 
   55000    1.2612489   -6.2800737    23.059468  0.034938587  0.045078891            2 
   56000    1.2296359   -6.3299224    23.575625  0.035082775  0.045042591            3 
   57000    1.2238125   -6.3253678    24.072674  0.035193967  0.045007937            1 
   58000    1.2737598    -6.303087    24.593746  0.035335842  0.044970771            3 
   59000    1.2255345   -6.2858532    25.066519  0.035404687  0.044911409            3 
   60000    1.2323346   -6.3065949    25.475728  0.035382955  0.044857117            3 
   61000    1.2240204    -6.252169    25.996401  0.035514208  0.044787635            2 
   62000    1.2450515   -6.2820935     26.51501  0.035638454  0.044719446            2 
   63000    1.2168733   -6.2807714    27.007079   0.03572365   0.04466386            9 
   64000    1.2267235     -6.29137    27.711517  0.036082704   0.04461991            2 
   65000    1.2273325   -6.2443306    28.334861  0.036326744  0.044593581            2 
   66000    1.2017578   -6.3042065      28.6892  0.036223737  0.044567883            6 
   67000    1.2281654   -6.2927786    29.365645  0.036524434  0.044553638            5 
   68000    1.2278974   -6.3100332      29.9673  0.036724632  0.044535334            3 
   69000    1.2296454   -6.3061317    30.515486  0.036854452  0.044534695            8 
   70000    1.2210517   -6.3210834     31.03135  0.036942083  0.044524423            2 
   71000    1.2271521   -6.2852015    31.314514  0.036754124  0.044495636            5 
   72000    1.2239066   -6.2584726    31.777453  0.036779459  0.044448587            3 
   73000    1.1997275   -6.2850141    32.148382  0.036699066  0.044393727            3 
   74000    1.2111107   -6.3074521    32.562707  0.036669715  0.044324436            3 
   75000    1.2165663   -6.2770178    32.946217  0.036606908  0.044255186            2 
   76000    1.2001335   -6.2980043    33.713354  0.036966396   0.04420163            3 
   77000    1.2406026   -6.2686095    34.165323  0.036975458  0.044155143            2 
   78000     1.224233   -6.3171213     34.57644  0.036940641   0.04409281            2 
   79000    1.2067243   -6.3105424    34.897011  0.036811193  0.044023548            2 
   80000    1.2369819   -6.2963867    35.754902  0.037244689  0.043976681            2 
   81000    1.2223075   -6.2881332    36.383129  0.037431202  0.043942918            5 
   82000    1.2100984   -6.2440196    36.686896   0.03728343  0.043909086            4 
   83000    1.2418723   -6.2918737    37.261203  0.037410846  0.043874043            2 
   84000    1.1958292   -6.2856096    37.824444   0.03752425  0.043836691            2 
   85000    1.1946454   -6.3258746    38.239687  0.037489889  0.043811174            4 
   86000    1.1960419   -6.2764578    38.799733   0.03759664  0.043785594            3 
   87000    1.2301359   -6.3156734    39.446668  0.037784164  0.043765186            1 
   88000    1.2208476   -6.3088683    40.012248  0.037890386  0.043762095            5 
   89000    1.2027117   -6.3213491    40.683036   0.03809273  0.043750554            4 
   90000    1.2047646   -6.3074873    41.221819  0.038168351  0.043748732            1 
   91000    1.2115619   -6.3121891    41.754967  0.038237149  0.043753499            1 
   92000    1.2273757   -6.3038382    42.228344  0.038250311  0.043756405            4 
   93000    1.2095058   -6.2999919    42.928429  0.038466334   0.04376119            2 
   94000    1.2393486   -6.3060521    43.314724  0.038399578  0.043769865            3 
   95000    1.1963397   -6.2914926    43.826082  0.038443932  0.043772339            4 
   96000    1.2150396   -6.2950154    44.419331  0.038558447  0.043769069            1 
   97000    1.2315652    -6.307829    44.602873  0.038318619   0.04376316            2 
   98000    1.1957154   -6.2731867     45.12969  0.038375587  0.043744031            2 
   99000     1.206613   -6.3271591     45.56869  0.038357483  0.043721544            2 
  100000    1.2132206   -6.3300616    45.986582  0.038322151  0.043692826            3 
  101000    1.2005501   -6.3253328    46.396329  0.038280799  0.043662673            2 
  102000    1.1927776   -6.3134922    46.768146   0.03820927      0.04363            2 
  103000    1.2183127    -6.261862    47.037594  0.038056306  0.043586707            3 
  104000    1.1935221   -6.2892268    47.760407  0.038269557  0.043546854            6 
  105000    1.2074063    -6.344711    47.873534  0.037994868  0.043499891            1 
  106000    1.1886356   -6.3162832    48.494679  0.038124747  0.043451586            2 
  107000        1.199   -6.2896909    49.059887  0.038208635  0.043405633            1 
  108000    1.2192067   -6.3378126    49.633077  0.038297127  0.043366498            2 
  109000    1.2082201   -6.3242595    49.977636  0.038209202  0.043323449            3 
  110000    1.1859171   -6.3135469    50.537033  0.038285631  0.043278753            5 
  111000    1.2265793   -6.3149477    51.047608  0.038324029  0.043234807            2 
  112000    1.1911978   -6.3112175    51.712254   0.03847638  0.043193721            1 
  113000    1.1885835    -6.324795    52.109149  0.038428576  0.043162116            4 
  114000    1.1843934   -6.3114817    52.804615  0.038599864  0.043134483            3 
  115000    1.2121923    -6.307341    53.026692  0.038425139  0.043100406            4 
  116000    1.2048985   -6.3618002    53.373528  0.038343051  0.043067394            2 
  117000    1.2206384   -6.2748895    53.973281  0.038442507  0.043024579            4 
  118000    1.2202662   -6.3182883    54.204169   0.03827978    0.0429812            4 
  119000    1.1917835   -6.2734668    54.577858  0.038219788  0.042938234            3 
  120000    1.2169879   -6.3058124    55.371837  0.038452665  0.042901563            2 
  121000    1.2155557   -6.3306172    55.944547  0.038529302  0.042870451            3 
  122000    1.2058883   -6.3206241    56.529354  0.038612947   0.04283674            3 
  123000    1.2237755   -6.3318598    56.888184   0.03854213   0.04280479            3 
  124000    1.2293051    -6.320581    57.467576  0.038620683  0.042780828            2 
  125000    1.2006707   -6.3339075    58.009083  0.038672722  0.042755197            4 
  126000    1.2053546   -6.3148277    58.128001  0.038444445  0.042725083            1 
  127000    1.2143239   -6.3029119    58.798115   0.03858144  0.042687435            2 
  128000    1.1885919   -6.3293583     58.94565  0.038376074  0.042648909            4 
  129000    1.2045667   -6.3381977    59.536882  0.038460518  0.042611358            2 
  130000    1.1926461   -6.3354748    59.939543  0.038422784  0.042574166            2 
  131000    1.1659196   -6.3441533    60.283812  0.038348481  0.042538603            1 
  132000     1.183802   -6.3159944    60.717929  0.038332026   0.04250138            3 
  133000    1.2036683   -6.3252083    61.333977   0.03842981  0.042464703            2 
  134000    1.1998706   -6.3008864     62.14987  0.038650417  0.042433351            5 
  135000    1.2127433   -6.3438267    62.492096  0.038575368   0.04240582            3 
  136000    1.1975037   -6.3647829    62.861471  0.038518058  0.042375332            4 
  137000    1.1930472   -6.2792886    63.384052  0.038554776  0.042343615            2 
  138000    1.1983822   -6.3513745    63.695532  0.038463485  0.042310933            3 
  139000    1.1802451   -6.3288125    64.201991  0.038490402  0.042275087            2 
  140000    1.1922378   -6.3760917    64.635776  0.038473676  0.042240084            3 
  141000    1.1991728   -6.3690411    65.241789  0.038558977  0.042209974            3 
  142000    1.1722647   -6.3489275    65.738584  0.038578981  0.042179191            1 
  143000    1.1952454   -6.3347618    66.270796  0.038619345  0.042147024            2 
  144000    1.2095391   -6.3787087    66.553352  0.038514671  0.042114499            2 
  145000    1.1916848   -6.3577816    66.526132  0.038233409  0.042078693            2 
  146000    1.1866624   -6.3252541    67.045855  0.038268182  0.042036595            3 
  147000     1.190771   -6.3644326    67.836472   0.03845605  0.041999021            2 
  148000    1.1749661    -6.386862    68.173234   0.03838583  0.041963912            4 
  149000     1.175685   -6.3323132    69.054225  0.038620931  0.041936279            5 
  150000    1.1908376   -6.3760204    69.408912  0.038560506  0.041908261            2 
  151000    1.1744593   -6.3184517    69.950371  0.038603957  0.041881582            3 
  152000    1.1733174   -6.3381111    70.308614  0.038546389  0.041858236            4 
  153000    1.2020918   -6.3739212    71.177812  0.038767871  0.041833964            3 
  154000    1.2240835    -6.346656    71.564773  0.038725526  0.041813941            5 
  155000    1.1688554     -6.35292     72.35945   0.03890293  0.041798149            2 
  156000    1.1917639   -6.3489392    72.785497  0.038881141  0.041786858            3 
  157000    1.2042251   -6.3862326    73.638231   0.03908611  0.041781386            2 
  158000    1.2184475   -6.3678656    73.914804  0.038984601  0.041775073            2 
  159000    1.1719808   -6.3823542     74.31353  0.038948391  0.041763276            1 
  160000    1.1882748   -6.3327286    75.021559  0.039073729  0.041750459            5 
  161000    1.1861098   -6.3462246    75.581408  0.039120811  0.041743935            2 
  162000     1.202263    -6.365068    75.883917  0.039034937  0.041736658            3 
  163000    1.1795665   -6.3636094    76.574152  0.039148339  0.041728736            4 
  164000    1.1800172   -6.3467715    77.095522  0.039174554  0.041719942            6 
  165000     1.190771   -6.3561538     77.06208  0.038920242  0.041707803            3 
  166000    1.1644248   -6.3116297    77.479577   0.03889537  0.041691566            2 
  167000    1.2181993   -6.3751657    77.527828  0.038686541  0.041672488            1 
  168000    1.1796233   -6.3598157    78.298727  0.038838654  0.041654708            3 
  169000    1.2142704   -6.4011447    78.548032  0.038731771  0.041637491            5 
  170000    1.2092835   -6.3821205    79.238031  0.038842172  0.041616383            1 
  171000    1.1720392   -6.3405934    79.405512  0.038696643  0.041595232            4 
  172000    1.1826985   -6.3500567    79.824323  0.038674575  0.041571467            6 
  173000    1.1732024   -6.3417229    80.306802   0.03868343   0.04154597            2 
  174000    1.1851304    -6.402523    80.532905  0.038569399  0.041520555            3 
  175000    1.1809286   -6.3516456    81.332385  0.038729707  0.041495844            1 
  176000    1.1876058   -6.3569332    81.639333  0.038654987  0.041474223            5 
  177000    1.1831739    -6.356537    82.040869  0.038625644  0.041451748            3 
  178000    1.1817661   -6.3596853    82.604383  0.038672464  0.041428553            3 
  179000    1.2014116   -6.3629344    82.822456   0.03855794  0.041400752            3 
  180000    1.1740962   -6.3958338    83.357466   0.03859142  0.041376724            1 
  181000    1.1839983   -6.3713147     84.00607  0.038676828  0.041354759            2 
  182000    1.1953904    -6.347645    84.587857  0.038730703  0.041331807            2 
  183000     1.182312   -6.3601304    85.198083  0.038796941  0.041312195            4 
  184000    1.1875007    -6.366317    85.736851  0.038830095  0.041293647            2 
  185000    1.1920173   -6.3739688    85.994809    0.0387364  0.041274635            2 
  186000    1.1836503   -6.3450548    86.632282  0.038813746  0.041255599            3 
  187000    1.1760897   -6.3575107    86.755264  0.038660991  0.041237088            2 
  188000    1.1824039   -6.3851527    87.819976  0.038927294  0.041218423            2 
  189000     1.177312   -6.3806358    88.206166  0.038891607  0.041204381            2 
  190000    1.1876185     -6.37589    88.584606  0.038852897  0.041190383            3 
  191000    1.1630795     -6.36936    89.120703  0.038883378  0.041175082            1 
  192000    1.1593428   -6.3761687    89.144699  0.038691276  0.041159427            2 
  193000    1.1776958   -6.3625198    89.786289  0.038767828  0.041143252            2 
  194000    1.1935837   -6.4113823    90.234647  0.038760587  0.041125401            3 
  195000    1.1532218   -6.3630929     91.04473  0.038908004  0.041108282            3 
  196000    1.1397234   -6.3944293    91.092384  0.038729755  0.041093193            2 
  197000    1.1701106   -6.3759044     91.76798  0.038818942  0.041077637            2 
  198000    1.1648856   -6.3671379    92.163597  0.038789393  0.041062127            4 
  199000    1.1742151   -6.3698811    93.034592  0.038959209  0.041047166            3 
  200000    1.1700403   -6.3623215    93.440524  0.038933551  0.041034542            1 
  201000    1.1724925   -6.4073942    93.483742   0.03875777  0.041021311            1 
  202000    1.1810445   -6.3727652     94.26699  0.038889022  0.041008265            4 
  203000    1.1727156   -6.3958581    94.668188  0.038862146  0.040995827            2 
  204000     1.166817   -6.3891001    95.157571  0.038871557  0.040984153            2 
  205000     1.176104   -6.3908486    95.519107  0.038828905  0.040972085            2 
  206000    1.1661793   -6.3770921    96.167169  0.038902577  0.040961657            2 
  207000    1.1775099   -6.3925634     96.88685  0.039004368  0.040952493            3 
  208000    1.1955805   -6.4064669    97.297003  0.038981171  0.040941514            3 
  209000    1.1842954   -6.3912264    97.537012  0.038890356  0.040932367            3 
  210000    1.1769691   -6.4003072     97.98442  0.038882706  0.040922266            5 
  211000    1.1565753    -6.379145    98.502171  0.038902911  0.040911073            2 
  212000    1.1960368   -6.4149417    98.958981   0.03889897  0.040899432            3 
  213000    1.1914743   -6.3747187    99.357834  0.038872392  0.040887203            3 
  214000     1.166714   -6.3610893    99.727236  0.038834593  0.040873813            1 
  215000    1.1619409   -6.4230515    100.01897  0.038767041  0.040860561            2 
  216000    1.1629533   -6.3887172    100.30121  0.038696454  0.040846595            3 
  217000    1.1905423   -6.3863119    101.10246  0.038825829  0.040831911            2 
  218000    1.1783832   -6.4083047    101.47448  0.038789937  0.040814765            2 
  219000    1.1757809     -6.38105    101.68804  0.038694078  0.040796291            1 
  220000    1.1728722   -6.3940918    101.84352   0.03857709  0.040777162            1 
  221000    1.1771721   -6.3861026    102.36097   0.03859765  0.040758284            2 
  222000     1.146962   -6.3781243     102.9303  0.038637499  0.040739025            2 
  223000    1.1675476   -6.3826324    103.47654  0.038668364  0.040719944            3 
  224000    1.1364516   -6.4419178    103.30029  0.038430168  0.040699906            2 
  225000     1.146824   -6.4295363    104.06784  0.038543644  0.040676203            4 
  226000    1.1620462   -6.4059431    103.84825  0.038292126   0.04065395            3 
  227000    1.1576803   -6.4337217    104.19211  0.038249675  0.040628394            3 
  228000    1.1741862   -6.3956839    105.28871  0.038482714  0.040601731            6 
  229000    1.1986235    -6.433345    105.20018  0.038282452  0.040575418            5 
  230000    1.1513939   -6.4073973    105.59922  0.038260586  0.040550005            3 
  231000    1.1792298   -6.3890717    105.88716  0.038198832  0.040522798            2 
  232000    1.1657759   -6.3585136    106.18811  0.038142279  0.040496005            1 
  233000    1.1732303   -6.4191806    106.65551  0.038145749  0.040468674            2 
  234000    1.1529228   -6.3988195     107.1205  0.038148327  0.040441203            4 
  235000    1.1480662    -6.359404    107.82792  0.038236852  0.040416058            5 
  236000     1.159267   -6.4127087    108.09622   0.03816957  0.040388618            3 
  237000    1.1441865    -6.427208    108.35123  0.038098183  0.040363435            2 
  238000    1.1706694   -6.3768159    109.25808   0.03825563  0.040338963            3 
  239000    1.1776187   -6.4376402     109.3632  0.038132217   0.04031406            2 
  240000    1.1514775   -6.3959398    110.12295  0.038237134  0.040288715            2 
  241000    1.1401103   -6.3993739    110.44567  0.038190067  0.040262386            2 
  242000    1.1435852   -6.4198916    110.73707  0.038132599  0.040235402            1 
  243000    1.1543727   -6.3889073    110.76613   0.03798564  0.040210411            2 
  244000    1.1235108   -6.4064276     111.5617  0.038101675  0.040184845            4 
  245000    1.1535731   -6.4167054    112.18569  0.038158398  0.040159827            3 
  246000    1.1503458   -6.4235876    112.60118  0.038144031  0.040134638            2 
  247000    1.1753696   -6.4367797    112.68673  0.038018464  0.040108894            5 
  248000    1.1530802   -6.4414308    113.00863  0.037973329  0.040082451            3 
  249000    1.1607795   -6.4216147    113.60656  0.038020936  0.040056109            1 
  250000    1.1532791   -6.4216606    114.37835  0.038126116  0.040030647            2 
  251000    1.1416899   -6.3883519    114.17936  0.037908154  0.040004693            2 
  252000    1.1576378   -6.4252672    114.43867  0.037843475  0.039979414            3 
  253000    1.1485502   -6.4035888    115.39285  0.038008184  0.039953752            5 
  254000    1.1586997   -6.4402557    115.41727  0.037866559  0.039927911            4 
  255000    1.1470773   -6.4038401    116.33186  0.038016949  0.039903913            1 
  256000    1.1326325    -6.425133    116.63975   0.03796867  0.039880461            2 
  257000    1.1636481   -6.4401197    116.85316  0.037890129  0.039855813            2 
  258000     1.135175   -6.4339092    117.30292   0.03788854  0.039831778            3 
  259000    1.1516454   -6.4040968     118.1914  0.038028122    0.0398089            3 
  260000    1.1424185   -6.4079458    118.52871  0.037989972  0.039787641            2 
  261000    1.1653257   -6.3805291    119.52464  0.038162402  0.039765631            2 
  262000    1.1567605   -6.4740078     119.0324  0.037860178  0.039743202            3 
  263000    1.1377883   -6.4144653     119.8879  0.037987295  0.039720466            3 
  264000    1.1442872   -6.4437176    119.74026    0.0377968  0.039698032            2 
  265000    1.1627337   -6.4208848    120.38811  0.037857897  0.039675352            2 
  266000    1.1479342   -6.4217777    121.17332  0.037961566  0.039652655            2 
  267000    1.1364511   -6.4334821    121.70147  0.037984229   0.03962961            2 
  268000    1.1166828   -6.4188274    121.59835  0.037810431  0.039607463            2 
  269000    1.1621524   -6.4447783    122.35774  0.037905123  0.039585313            2 
  270000    1.1429612   -6.4799313    122.63363  0.037849886  0.039562284            5 
  271000    1.1282594   -6.4199211    123.03299  0.037833023  0.039540515            2 
  272000    1.1293457   -6.4299605    123.19412  0.037743295   0.03951938            4 
  273000    1.1591586   -6.4225479    124.20854  0.037914695  0.039497214            2 
  274000    1.1498551   -6.4750388    124.08543  0.037738877  0.039476529            1 
  275000    1.1613175   -6.4347664    124.47524  0.037719771  0.039454596            2 
  276000    1.1363271   -6.4357793    124.60355  0.037621846  0.039432308            3 
  277000    1.1431807   -6.4636889    124.96991  0.037596241  0.039408931            2 
  278000    1.1331735   -6.4483768    125.35438  0.037576254  0.039384745            3 
  279000    1.1570668   -6.4762856    125.57217  0.037506623  0.039361221            4 
  280000    1.1340801   -6.4441812    126.54845  0.037663231  0.039338337            2 
  281000    1.1494332    -6.476106    126.49783  0.037514183  0.039314595            4 
  282000    1.1306345   -6.4366371     127.0746  0.037551596  0.039290985            3 
  283000    1.1408659   -6.4200802    127.18899  0.037452589  0.039266172            7 
  284000    1.1310415   -6.4500833    127.45946  0.037400075  0.039239971            3 
  285000    1.1430499   -6.4590378    128.18172  0.037480034  0.039213961            7 
  286000    1.1696694    -6.467372    127.92491  0.037274159  0.039186963            3 
  287000    1.1607885   -6.4464066    128.19678  0.037223223  0.039159119           10 
  288000    1.1452848   -6.4465613     128.6598  0.037227952  0.039131297            3 
  289000    1.1215097   -6.4483259    129.10802   0.03722838  0.039105394            2 
  290000    1.1373104   -6.4491365    129.86312  0.037316988  0.039079697            4 
  291000    1.1209607   -6.4384388    130.42705  0.037350244  0.039055118            1 
  292000    1.1503603   -6.4385824    130.91785  0.037362399    0.0390314            2 
  293000    1.1176275   -6.4406613      131.362  0.037361206  0.039008797            3 
  294000    1.1252279   -6.4691066    131.53898  0.037284292  0.038984676            3 
  295000    1.1413921   -6.4668814    132.03025   0.03729668  0.038961343            4 
  296000    1.1376948    -6.451796    132.62215  0.037337316  0.038937092            3 
  297000    1.1288215   -6.4416867    132.78036  0.037255993  0.038913538            3 
  298000    1.1535106   -6.4651581    133.21242  0.037251795  0.038888156            5 
  299000    1.1160738   -6.4203329    133.25841  0.037140024  0.038863465            2 
  300000    1.1258437   -6.4700118    133.77603  0.037160008  0.038838484            2 
  301000    1.1305171   -6.5164971    134.01387    0.0371024  0.038813511            1 
  302000    1.1126695   -6.4650554    134.52393  0.037120291  0.038787957            2 
  303000    1.1351207   -6.4313653    135.11669  0.037160805   0.03876354            4 
  304000    1.1481682   -6.4603375    135.43359  0.037125436  0.038739144            2 
  305000    1.1411166   -6.4938552    135.59996  0.037049169  0.038714092            3 
  306000    1.1373595   -6.4647125    136.38212    0.0371411   0.03869145            2 
  307000    1.1103119   -6.4854936    137.22511  0.037248943  0.038669908            3 
  308000    1.1147732   -6.4969933    137.68583   0.03725266  0.038648538            7 
  309000    1.1485544   -6.4613455    138.06414  0.037234126  0.038627588            3 
  310000    1.1370494    -6.466704    138.29912  0.037177183  0.038605678            2 
  311000    1.1335391    -6.477029    138.63177  0.037146778   0.03858422            4 
  312000    1.1428512   -6.4464725     139.2474  0.037192147  0.038563088            5 
  313000    1.1260523   -6.5227012    139.33482  0.037096596  0.038541951            2 
  314000    1.1370344   -6.4778707    140.27045  0.037226766  0.038520174            2 
  315000    1.1323235   -6.4283406    140.42222  0.037148736   0.03849922            2 
  316000    1.1356578   -6.4636063    141.05467  0.037197962  0.038479213            3 
  317000    1.1227141   -6.4867112    141.01893  0.037071222  0.038458114            2 
  318000    1.1569403   -6.4199884    141.93057  0.037193546  0.038437746            2 
  319000    1.1283692   -6.4697284    141.97235  0.037087865  0.038418597            3 
  320000    1.1338894   -6.4871151     142.2978  0.037056718  0.038399597            5 
  321000    1.1026636   -6.4731129    143.24719  0.037187745  0.038380125            4 
  322000    1.1531561   -6.4863185     143.3895  0.037109085  0.038362184            2 
  323000    1.1342802    -6.464431    143.88547  0.037122155  0.038343688            4 
  324000     1.126791   -6.4564874    144.80442  0.037243936  0.038325439            3 
  325000     1.121168   -6.4547367    144.75898  0.037117687  0.038307598            2 
  326000    1.1265955   -6.4702023    145.24716  0.037128618  0.038289257            3 
  327000    1.1232559   -6.4789445    145.61212  0.037108084   0.03827276            5 
  328000    1.1200241   -6.4854814    146.14079  0.037129266  0.038255823            4 
  329000    1.1201127   -6.5055933    146.37979  0.037076949  0.038237651            1 
  330000    1.1247028   -6.4661429    147.06017  0.037136406  0.038219698            3 
  331000    1.1141816   -6.4665457    147.69916  0.037185085  0.038202649            3 
  332000    1.1269752     -6.48166     148.0839  0.037169653  0.038187025            8 
  333000    1.1379829   -6.4453076     148.8234  0.037243093  0.038171756            3 
  334000    1.1385841   -6.4707257    149.17148  0.037218433  0.038157164           10 
  335000    1.1223569   -6.4913664    149.22149  0.037119774  0.038142605            2 
  336000    1.1103462   -6.4733241    149.92667  0.037184194  0.038128146            3 
  337000    1.1352031    -6.494573    150.49655  0.037214775  0.038113574            3 
  338000    1.1310944   -6.4882923    150.43959  0.037090629  0.038098975            5 
  339000    1.1198692    -6.457232    150.88238  0.037090063  0.038084226            5 
  340000    1.1278153   -6.4874337    150.98366    0.0370058  0.038070023            2 
  341000    1.1214969   -6.4273445    152.21537  0.037198283  0.038055351            5 
  342000    1.1300136   -6.4900526    151.99814  0.037036584  0.038040119            2 
  343000    1.1287984   -6.5352448    152.13497  0.036961849  0.038024355            7 
  344000     1.108344   -6.5116451    152.09307  0.036844252  0.038008029            3 
  345000    1.1110109   -6.4401418    153.03828  0.036965767  0.037991125            2 
  346000    1.1092456   -6.5081287    153.67532   0.03701236  0.037974268            3 
  347000    1.1045731   -6.4793643    153.98816  0.036980826  0.037957892            2 
  348000     1.114771    -6.478787    154.40484  0.036974339  0.037941728            4 
  349000    1.0896015    -6.489573    154.93608  0.036995245  0.037925718            2 
  350000    1.1235624   -6.4818947    154.95913   0.03689503  0.037908667            6 
  351000     1.111672   -6.5284273    154.62929  0.036711608  0.037890596            5 
  352000    1.1220609   -6.4944797    154.59657  0.036599566  0.037871846            3 
  353000    1.1119849     -6.48112    155.87989  0.036798841  0.037852769            4 
  354000    1.1061837   -6.5071859    156.25291  0.036782701  0.037834841            3 
  355000    1.1098838   -6.4995943    156.47483   0.03673118  0.037816218            3 
  356000     1.101938   -6.5108995    156.24718  0.036574713  0.037797054            5 
  357000    1.1197333   -6.5182461    157.11621  0.036675119  0.037778674            2 
  358000    1.0831182   -6.4980427    158.15579  0.036814662  0.037760399            4 
  359000    1.0986171   -6.5300262    158.16668  0.036714642  0.037742858            4 
  360000    1.1033241   -6.5239816    158.18905  0.036617835  0.037723926            2 
  361000    1.1060255   -6.4785941    158.66062  0.036625259  0.037705041            2 
  362000    1.1077394   -6.4987089    158.68546  0.036529801  0.037685408            4 
  363000    1.1039065   -6.5336475    159.06732  0.036516832  0.037665466            2 
  364000    1.1066817   -6.4613227    159.58151  0.036534228  0.037647015            2 
  365000    1.1078185   -6.4942835    159.85077   0.03649561  0.037628775            2 
  366000    1.1229443   -6.4854308    160.60048  0.036566593  0.037609447            4 
  367000    1.0941079   -6.5422849     160.9544  0.036547321  0.037590702            3 
  368000    1.0867568   -6.4702425     161.2124  0.036506431   0.03757116            1 
  369000    1.1097678   -6.4985273    161.42579  0.036455689  0.037551603            1 
  370000    1.1144471   -6.4789154    161.74417  0.036428867  0.037531539            2 
  371000    1.1115875   -6.4911741    161.89697  0.036364998  0.037512141            4 
  372000    1.0928649    -6.477131    162.91156  0.036494524  0.037493893            2 
  373000    1.0977149   -6.5100529    162.99194  0.036414643  0.037475931            3 
  374000    1.0853445   -6.5035489    163.24751  0.036374222  0.037457228            3 
  375000    1.1119204   -6.5345847    163.89904   0.03642201  0.037438965            3 
  376000    1.0869644   -6.5175979    164.30966  0.036416147  0.037421466            3 
  377000     1.110249   -6.5485351    164.90273  0.036450648  0.037404505            2 
  378000    1.0914196   -6.5169471    164.77292    0.0363256  0.037387298            2 
  379000    1.0676707   -6.5325446    165.67573   0.03642826  0.037369096            3 
  380000     1.099946   -6.5327933    166.03793  0.036411826  0.037351814            4 
  381000    1.1153147   -6.5365486    166.41621  0.036398996   0.03733445            4 
  382000    1.0950147   -6.4963858    166.80426  0.036388364  0.037315951            3 
  383000    1.1060171   -6.5123107    167.17763  0.036374594  0.037298111            5 
  384000     1.092602   -6.5034273    167.18094  0.036280586  0.037279561            2 
  385000    1.0972387   -6.4967696    167.29867  0.036211834  0.037260636            4 
  386000    1.0927249   -6.5335008    167.58226  0.036179244  0.037242412            2 
  387000     1.105212   -6.5681397    168.17777  0.036213989  0.037223844            2 
  388000    1.0778731   -6.5002256    168.80029  0.036254357   0.03720607            3 
  389000    1.0995677   -6.5122664    169.40887  0.036291533   0.03718881            3 
  390000    1.1202045   -6.5029028    169.25286  0.036165141  0.037170702            3 
  391000    1.0958981   -6.4928295    170.25423  0.036286068  0.037153352            4 
  392000    1.1122239   -6.4980836     170.0969  0.036160056  0.037135006            2 
  393000    1.0937323   -6.5404533    169.99235  0.036045876   0.03711684            3 
  394000    1.0899247   -6.5035074    171.24709  0.036219774  0.037098335            7 
  395000    1.0869327   -6.5571947    170.72474  0.036017877  0.037079027            2 
  396000      1.10723   -6.5140205    171.63999  0.036119526  0.037060214            4 
  397000    1.0919466   -6.5448292    172.18613  0.036143185   0.03704266            2 
  398000    1.0818643   -6.5569869    172.21432  0.036058275  0.037023836            3 
  399000    1.0879817   -6.5175487    172.56652  0.036041463  0.037005522            4 
  400000    1.0832694   -6.5178604    172.71325  0.035981928  0.036986679            3 
  401000    1.0691276   -6.5645481    172.32786  0.035812107  0.036966961            5 
  402000    1.0898711   -6.5190776    173.69315  0.036006042  0.036947388            4 
  403000    1.0801472   -6.5239345    173.61298  0.035900119  0.036927544            2 
  404000    1.0921969   -6.5398247    173.61431  0.035811533  0.036907022            2 
  405000    1.0953549   -6.5312133    173.95603  0.035793423  0.036886627            3 
  406000    1.0903468   -6.4754097    174.46126  0.035808962   0.03686628            3 
  407000     1.093387   -6.5508854    174.89235  0.035809244  0.036846081            3 
  408000     1.088068   -6.5619509    175.30398  0.035805551  0.036825552            6 
  409000    1.0857594   -6.5317593    176.08349  0.035876832  0.036806131            2 
  410000     1.116843   -6.5883988     175.8853  0.035749044  0.036786733            3 
  411000    1.0859335   -6.5179366    176.66064  0.035819271  0.036767708            4 
  412000    1.0882277   -6.5666026    176.62966  0.035726063  0.036747751            3 
  413000    1.0858506   -6.5208907    177.29336  0.035773478  0.036727602            2 
  414000    1.0843899   -6.5425108    177.06462  0.035641027  0.036707444            3 
  415000     1.105093   -6.5285732    177.58895  0.035660432  0.036686612            2 
  416000    1.0917362   -6.5578126     177.6756  0.035592068  0.036666786            3 
  417000    1.1011912   -6.5272997    178.96892  0.035765173  0.036647144            1 
  418000    1.0934704   -6.5369574    178.79751  0.035645437  0.036627805            3 
  419000    1.0944823   -6.5488096    179.62849  0.035725635  0.036608208            3 
  420000    1.1053348   -6.5411882    180.32956  0.035779674  0.036589698            2 
  421000    1.0881544   -6.5100503    180.69927  0.035767868  0.036572092            2 
  422000    1.0980717   -6.5484418    181.78855  0.035898212   0.03655507            2 
  423000    1.0912824   -6.5112271    181.67567  0.035791109  0.036538098            1 
  424000     1.096164   -6.4685242    182.06847  0.035783898  0.036521037            3 
  425000    1.0855606   -6.5530143    182.20618  0.035726701  0.036503949            3 
  426000    1.0843331   -6.5072477    182.01733  0.035605894  0.036486206            5 
  427000    1.0782634   -6.5518311    182.64761  0.035645513  0.036467953            2 
  428000    1.0833612   -6.5148074     182.7159  0.035575526  0.036449866            6 
  429000    1.0617572   -6.5215131    183.08271  0.035563853  0.036431708            2 
  430000    1.0873441   -6.5596132    183.35996  0.035534875  0.036413396            2 
  431000    1.0588421   -6.5280471    183.83006  0.035543321  0.036394422            6 
  432000    1.0728204   -6.5180445    184.32752  0.035557007  0.036376407            2 
  433000    1.0977796   -6.5432098    184.72041  0.035550501  0.036358171            5 
  434000    1.0885365   -6.5104872     184.8787  0.035498983  0.036339834            4 
  435000    1.0822769   -6.5512046    185.02837  0.035446048  0.036321133            2 
  436000    1.0744701   -6.5793657    185.67907   0.03548912   0.03630318           11 
  437000    1.1161784   -6.5837705    186.03713  0.035476189  0.036285082            4 
  438000    1.0898558   -6.5427849     186.5668  0.035495967  0.036267215            3 
  439000    1.0735483    -6.539421    186.64149  0.035429288  0.036248936            4 
  440000     1.063066   -6.5480716    187.18739  0.035452156  0.036230628            2 
  441000     1.054508   -6.5520087    187.17455   0.03536934  0.036212628            3 
  442000    1.0938913   -6.5594841     187.2618  0.035305769  0.036194667            5 
  443000    1.0897873   -6.5539621    187.73359  0.035314821  0.036175417            3 
  444000    1.0933066   -6.5711349    187.77308  0.035242695  0.036156848            2 
  445000    1.0627361    -6.565713    188.04059  0.035213594   0.03613743            6 
  446000    1.1089158   -6.5610166     188.5528  0.035230345  0.036118956            3 
  447000     1.092387   -6.5763945    189.34506  0.035299228  0.036099902            3 
  448000    1.0839145   -6.5574353    189.18041  0.035189809  0.036080501            3 
  449000    1.0641075    -6.580973    189.58427  0.035186389    0.0360611            5 
  450000    1.0590739   -6.5416536     189.5363  0.035099314  0.036041959            4 
  451000     1.054927   -6.5770548    189.80009   0.03507023  0.036022309            3 
  452000    1.0829987    -6.561592    190.24659   0.03507496  0.036002586            6 
  453000    1.0705269   -6.5672329    190.61254  0.035064853  0.035982394            3 
  454000     1.093228   -6.5666502    190.34998  0.034939424  0.035962095            2 
  455000    1.0774737   -6.5614602    191.00613  0.034982808  0.035941471            4 
  456000    1.0605446   -6.5830925    191.89924  0.035069305  0.035921249            4 
  457000     1.089296   -6.5799245    191.74914  0.034965196  0.035901418            2 
  458000    1.0714826   -6.6086263    192.13321  0.034958735  0.035881653            3 
  459000    1.1122673   -6.5687555    192.31446  0.034915479  0.035861293            1 
  460000    1.0615966   -6.5631751    192.48867  0.034871136  0.035840664            2 
  461000     1.068395   -6.5658905    192.28448  0.034758583  0.035819852            5 
  462000    1.0747824   -6.5916537    193.09957  0.034830369  0.035798204            2 
  463000    1.0707627    -6.566528     193.0638  0.034748705  0.035776547            2 
  464000    1.0734953   -6.5953281    192.86584  0.034638261  0.035754503            5 
  465000    1.0756713   -6.5992317    193.96101  0.034760037  0.035732638            3 
  466000    1.0745266   -6.5756684    193.69804  0.034638419    0.0357101            6 
  467000    1.0785589   -6.5781349    193.98516  0.034615481  0.035688482            2 
  468000    1.0437754   -6.5871581    194.26188  0.034590791  0.035665923            4 
  469000     1.052587   -6.6178274    194.83392  0.034618678  0.035643979            2 
  470000    1.0785565   -6.5968157    194.70134  0.034521515  0.035622522            2 
  471000    1.0540898   -6.5918997    195.36266  0.034565227  0.035600581            2 
  472000    1.0639218   -6.5869417    195.69876  0.034551334  0.035578562            2 
  473000    1.0489991   -6.5749448    195.83765  0.034502757  0.035556256            4 
  474000    1.0786417   -6.6078061      196.934  0.034622715  0.035534834            4 
  475000    1.0657264   -6.5586974    197.22411  0.034600721  0.035513932            3 
  476000    1.0725419   -6.5797154    197.54268  0.034583802  0.035492418            3 
  477000    1.0685862   -6.5697813    197.59491  0.034520425  0.035471012            4 
  478000    1.0602498   -6.5919373    197.39205   0.03441284  0.035449426            4 
  479000    1.0800112    -6.587565    197.89198  0.034427971  0.035427894            3 
  480000       1.0584   -6.5853143    197.69111  0.034321374  0.035406589            3 
  481000    1.0470655   -6.5784912    198.47812  0.034386369  0.035384878            3 
  482000    1.0600638    -6.573988    198.75752  0.034363333  0.035362907            2 
  483000    1.0591519   -6.5609236    198.74793  0.034290533  0.035340809            2 
  484000    1.0490786   -6.5940971    199.52534  0.034353536  0.035318449            3 
  485000    1.0765121   -6.6019766    199.24619  0.034234741  0.035295763            4 
  486000    1.0438825   -6.5499563    199.62917  0.034229967  0.035273473            3 
  487000    1.0629039   -6.6126388    199.72215   0.03417559  0.035251112            4 
  488000    1.0489415   -6.6215749    200.23116   0.03419248  0.035228319            4 
  489000    1.0725469   -6.5915778    200.71746  0.034205429   0.03520509            4 
  490000     1.043962   -6.5732298    201.47873   0.03426509  0.035182729            5 
  491000    1.0757129   -6.5888751    201.69381  0.034231808  0.035160749            3 
  492000    1.0515318   -6.5922767    202.64608  0.034323523  0.035139971            1 
  493000    1.0678415   -6.6390677    202.24107  0.034185441   0.03511913            3 
  494000    1.0550858   -6.6339503    202.50417  0.034160622  0.035097877            3 
  495000    1.0565774   -6.5794414    203.41721  0.034245321  0.035076642            3 
  496000    1.0502198   -6.6046149    203.39649  0.034172797  0.035054898            3 
  497000    1.0670331   -6.5929167    203.63317  0.034143724  0.035033298            4 
  498000     1.056327   -6.6062138    203.35898  0.034029281  0.035011445            4 
  499000    1.0508844   -6.5983517     203.0643  0.033911873  0.034989364            3 
  500000     1.062547   -6.6223767    204.44771  0.034074618  0.034966996            2 
  501000    1.0241522   -6.5746411    204.91986  0.034085141  0.034945054            3 
  502000    1.0412757   -6.6596635    204.49951  0.033947462   0.03492324           12 
  503000    1.0863323   -6.6289511    205.79184  0.034094076  0.034901758            3 
  504000     1.058917   -6.5680514    206.71796  0.034179557   0.03488098            4 
  505000    1.0594074   -6.6089572    206.18756  0.034024349   0.03486132            2 
  506000    1.0486288   -6.5823556    207.25238  0.034132473  0.034841297            2 
  507000    1.0449229   -6.6136703    207.25627  0.034065791  0.034821406            4 
  508000    1.0643259   -6.6262095     207.0568   0.03396601  0.034801715            3 
  509000    1.0646879   -6.6329039    207.87585  0.034033374  0.034782081            4 
  510000    1.0649732   -6.6315126     207.8132  0.033956405  0.034762345            2 
  511000    1.0865494   -6.6002563     208.3926  0.033984442  0.034742241            2 
  512000    1.0394382   -6.5544164    208.67845  0.033964592   0.03472265            2 
  513000    1.0561822   -6.6076709    209.59341  0.034047013  0.034703201            5 
  514000    1.0542766   -6.6505357    209.44279  0.033956354   0.03468338            3 
  515000    1.0568617   -6.6014156    210.63756  0.034083747  0.034663955            3 
  516000    1.0619832   -6.6519279    210.04715  0.033922344  0.034644604            5 
  517000    1.0523787    -6.633825    210.49198   0.03392843  0.034625109            3 
  518000    1.0360303   -6.6146827    210.69764  0.033896017  0.034605757            4 
  519000     1.045188   -6.6064722    210.08741  0.033732724   0.03458615            4 
  520000    1.0603586   -6.6291382    211.44413  0.033885278  0.034566506            7 
  521000     1.051815   -6.6346074    210.76598  0.033711769  0.034546599            3 
  522000    1.0457768   -6.6202908    211.82276  0.033815893  0.034527076            3 
  523000    1.0337282   -6.6177549    212.87211  0.033918436  0.034507164            3 
  524000    1.0415459   -6.6584825    212.28587  0.033760475  0.034487725            4 
  525000    1.0397792   -6.6431896    213.57755  0.033901199   0.03446831            3 
  526000    1.0334697   -6.6138128     213.0782  0.033757637  0.034448867            4 
  527000    1.0445811   -6.6487302    213.34705  0.033736092  0.034429264            3 
  528000    1.0411834   -6.6321559    213.76749  0.033738556  0.034409886            4 
  529000    1.0524989    -6.626981    213.61783  0.033651202  0.034390596            6 
  530000     1.013617    -6.660682    214.42635  0.033714835   0.03437167            3 
  531000    1.0322656   -6.6479621    214.21639  0.033618391  0.034352263            5 
  532000    1.0363631   -6.6308603    214.94028   0.03366859  0.034332353            3 
  533000    1.0490599   -6.6204059     215.3931   0.03367622  0.034312754            4 
  534000    1.0299147   -6.6345528    215.09109  0.033566026  0.034293059            3 
  535000    1.0354132   -6.6638459    216.14886  0.033668047  0.034273637            5 
  536000    1.0339273   -6.6236937    216.16057  0.033607054  0.034254759            3 
  537000    1.0316158   -6.5957235    215.86193  0.033498126  0.034235489            4 
  538000    1.0331084   -6.6533935    217.26551   0.03365327  0.034216179            5 
  539000    1.0352248   -6.6319034    217.57941  0.033639364  0.034197467            4 
  540000    1.0683621   -6.6276466    218.21377  0.033674965  0.034178995            4 
  541000    1.0266087   -6.6365444     218.6193  0.033675185  0.034161189            3 
  542000    1.0061109   -6.6455264    217.89703  0.033502003  0.034143187            5 
  543000    1.0449172   -6.6448997    219.41033  0.033672548    0.0341253            3 
  544000    1.0364513   -6.6535959    219.61916   0.03364264  0.034107842            5 
  545000    1.0404671   -6.6106475    220.02474  0.033642927  0.034090348            2 
  546000    1.0331079   -6.6567135     220.3321  0.033628221  0.034073107            3 
  547000    1.0522591   -6.6550511    220.12679  0.033535464  0.034055383            2 
  548000    1.0377662   -6.6421027    219.75581  0.033417854  0.034037043            7 
  549000    1.0426527   -6.6457206    220.47596  0.033466296  0.034018851            2 
  550000    1.0592187   -6.6415067    220.36288  0.033388315  0.034000503            4 
  551000    1.0458397    -6.632843    220.71467  0.033380923  0.033982023            3 
  552000    1.0285026   -6.6461018    220.92781  0.033352628  0.033963813            5 
  553000    1.0177415   -6.6327837    221.54365   0.03338512  0.033945394            3 
  554000    1.0294677   -6.6429808    221.59022  0.033331862   0.03392677            2 
  555000    1.0261794   -6.6274278    222.02301  0.033336789  0.033907629            2 
  556000    1.0290957   -6.6385272    221.99716  0.033272956  0.033888229            2 
  557000    1.0496721    -6.671932    221.78083  0.033180855  0.033868674            4 
  558000    1.0543866    -6.653094    222.01858  0.033156897  0.033849083            2 
  559000    1.0065474   -6.6745537    222.64723  0.033191298  0.033829919            7 
  560000    1.0227278   -6.6704009     222.9458  0.033176458  0.033810385            4 
  561000    1.0345017   -6.6492659    223.61017  0.033216008  0.033790906            3 
  562000    1.0176545   -6.6284877    224.28424  0.033256857  0.033772007            2 
  563000    1.0299798     -6.61797    224.05836  0.033164351  0.033752918            4 
  564000    1.0088672   -6.6655144    223.83375  0.033072363  0.033733754            5 
  565000    1.0245098   -6.6599713    224.79808  0.033156059  0.033714426            5 
  566000    1.0189748   -6.6470504    224.44205   0.03304506  0.033695395            4 
  567000    1.0346143   -6.6386342    224.54499   0.03300191  0.033676011            5 
  568000    1.0105158   -6.6490314    225.47423   0.03308014   0.03365649            4 
  569000    1.0363957   -6.6631865     224.9304  0.032942355  0.033636822            7 
  570000    1.0485899   -6.6831135    225.02455  0.032898326  0.033617165           11 
  571000    1.0292904   -6.6627606    225.67418  0.032935519  0.033597772            2 
  572000    1.0396214   -6.6145658    226.03037  0.032929833  0.033578358            4 
  573000    1.0304342   -6.6455921    227.18919  0.033040895  0.033559049            2 
  574000    1.0318157   -6.6636193    226.18605  0.032837696  0.033539309            3 
  575000    1.0426873   -6.6734533    226.24868  0.032789664  0.033519015            2 
  576000    1.0230367    -6.653406    227.02116  0.032844496  0.033498734            4 
  577000    1.0015614   -6.6547045    226.97432  0.032780809   0.03347823            5 
  578000    1.0268237   -6.6490322    227.34479  0.032777507  0.033457952            4 
  579000    1.0358431   -6.6661101    227.08648  0.032683719  0.033437576            3 
  580000    1.0108188   -6.6894929    227.18726  0.032641848  0.033417039            4 
  581000    1.0299945   -6.6667145    227.21707  0.032589942  0.033395721            6 
  582000    1.0298875   -6.6577055    228.30321  0.032689463  0.033374081            2 
  583000    1.0168829   -6.6651383    227.52525  0.032522191  0.033352634            2 
  584000   0.99703694   -6.6617137    228.41041  0.032592809  0.033331057            4 
  585000    1.0174287   -6.6854613    228.36683  0.032530887  0.033309392            3 
  586000   0.99497179   -6.6790012    228.24336  0.032457816  0.033288055            2 
  587000    1.0054308   -6.6447888    229.03551  0.032514978  0.033266784            4 
  588000     1.024495   -6.6697707    228.54848  0.032390658  0.033245212            4 
  589000    1.0137173   -6.6784954     229.1464   0.03242026  0.033223728            6 
  590000    1.0376744   -6.7029631    229.36901  0.032396753  0.033202477            3 
  591000    1.0344038   -6.6314885    230.17995  0.032456282   0.03318127            4 
  592000    1.0332049   -6.6762674    230.65005  0.032467631  0.033160289            4 
  593000    1.0343935   -6.6778372     230.8104  0.032435412  0.033139464            5 
  594000    1.0263748   -6.7042779    230.15577  0.032288969  0.033118383            3 
  595000    1.0265585   -6.6821637    230.96566  0.032348131  0.033096681            3 
  596000    1.0270223    -6.665543    231.41351  0.032356475  0.033075063            6 
  597000    1.0095438   -6.6819165    231.08739  0.032256755  0.033053484            4 
  598000    1.0038801   -6.6919625    231.33299  0.032237039  0.033031695            1 
  599000    1.0118219   -6.6756443    231.65455  0.032227957  0.033010575            5 
  600000    1.0176275    -6.655507    232.91949  0.032349929  0.032989717            5 
  601000    1.0221904   -6.6733235    232.23252  0.032200848  0.032968861            3 
  602000   0.99991534   -6.6697295    232.76252  0.032220726  0.032947603            3 
  603000   0.99827667   -6.6963518    232.84274  0.032178377  0.032926401            6 
  604000     1.028172   -6.6996917    233.36954  0.032197784  0.032905319            6 
  605000    1.0237926   -6.6956051     232.8993  0.032079794  0.032884008            5 
  606000    1.0099816   -6.6722326    233.79117  0.032149501  0.032863039            3 
  607000    1.0080407   -6.6732235    234.68379  0.032219081  0.032842103            3 
  608000    1.0268708   -6.6536946     234.0941  0.032085266  0.032820622            6 
  609000    0.9857353   -6.7381295    234.21944  0.032049731  0.032799354            3 
  610000    1.0034184   -6.6716895    235.00383  0.032104348  0.032778236            3 
  611000   0.99622389   -6.7079177    234.82565  0.032027502   0.03275737           12 
  612000    1.0147957   -6.7021858    235.31867  0.032042302  0.032736502            5 
  613000    1.0281294   -6.6577696    236.20495  0.032110515   0.03271608            7 
  614000    0.9987691   -6.6586392    236.23136  0.032061803  0.032696099            4 
  615000     1.008535   -6.7248212    236.86404  0.032095398  0.032675666            4 
  616000     1.006245   -6.7199434    236.61751  0.032009944   0.03265515            6 
  617000    1.0071349   -6.7112803    236.28837   0.03191361  0.032634743            5 
  618000   0.98998239   -6.6860448    237.78793  0.032064176  0.032614628            2 
  619000    1.0062937   -6.7201333    237.27317  0.031943076  0.032594525            5 
  620000   0.99336103   -6.6941753    237.29994  0.031895153  0.032573784            4 
  621000    1.0037965   -6.7078537    237.66461  0.031892728  0.032553271            2 
  622000    1.0232058    -6.734268    238.00402  0.031886927  0.032532491            5 
  623000    1.0159038   -6.6684241    239.04194  0.031974578  0.032512031            7 
  624000    1.0094505   -6.7201946    238.09524  0.031796907  0.032491475            4 
  625000    1.0136895   -6.6855856    238.82529  0.031843372  0.032470536            3 
  626000   0.98927346   -6.7484637    238.32701  0.031726173  0.032449529            7 
  627000    1.0072072         -6.7    239.19535  0.031790982   0.03242874            3 
  628000    0.9966803   -6.7398955    238.95145  0.031707995  0.032408105            3 
  629000   0.97895891   -6.7176112    239.49737  0.031729912   0.03238726           15 
  630000    1.0076912   -6.7122324    239.81814  0.031721976  0.032366038            5 
  631000    1.0080359   -6.6782388    240.27853  0.031732506  0.032345479            4 
  632000   0.99149827   -6.6947254    240.32724  0.031688719  0.032325396            5 
  633000    1.0149402   -6.7183549    241.02272  0.031730216    0.0323051            6 
  634000    1.0289441   -6.7320441    240.60479  0.031625235  0.032284499            3 
  635000   0.99120574   -6.7239538    240.27868  0.031532636  0.032263417            2 
  636000   0.97974778   -6.7244892    241.71209  0.031670871  0.032242245            5 
  637000    1.0186849   -6.6946724    241.21893  0.031556637  0.032221215            6 
  638000    1.0095157   -6.7309552    241.51316  0.031545606  0.032200301            3 
  639000    0.9955622   -6.7110633    241.99413  0.031558963  0.032179427            5 
  640000    1.0184029   -6.6951907    242.82925  0.031618392  0.032158783            3 
  641000   0.97745045   -6.7034949     242.9363  0.031582982  0.032138081            5 
  642000   0.99848591   -6.7225807    242.06366  0.031420517  0.032117179            4 
  643000    1.0054253   -6.7222072     242.5253   0.03143148   0.03209632            5 
  644000     1.016784   -6.7344702    242.55581  0.031386622  0.032075399            3 
  645000   0.99211222   -6.7311606    242.14203    0.0312845  0.032054274            6 
  646000   0.97570861    -6.706219    243.18095  0.031370091  0.032033274            9 
  647000    1.0050019   -6.7212265    243.83698  0.031406102  0.032012654            3 
  648000   0.98756502   -6.7249823    243.81551  0.031354875  0.031992226            6 
  649000    0.9924786   -6.7566045    244.18248  0.031353682  0.031971643            7 
  650000   0.97909573   -6.7182842    244.76574  0.031380223  0.031951758            4 
  651000   0.99166451   -6.7315829    245.97488    0.0314868  0.031932258            6 
  652000     1.008529    -6.751947    245.26465  0.031347732   0.03191262            3 
  653000   0.96944544   -6.6944493    246.37418   0.03144132  0.031892422            9 
  654000    1.0135206    -6.730129    247.00238   0.03147329  0.031872767            3 
  655000    1.0012132   -6.7541662    246.85707  0.031406752   0.03185335            5 
  656000   0.97550543   -6.7641642    246.52023  0.031316087  0.031833714            3 
  657000     1.006139   -6.7281359     247.5487  0.031398871  0.031814298            5 
  658000   0.99902386   -6.7403668     247.3573  0.031326912   0.03179499           10 
  659000    1.0033007   -6.7469798    247.17173  0.031255909  0.031775777            6 
  660000   0.99896206   -6.7204692    247.69455  0.031274564  0.031756375            4 
  661000    1.0108174   -6.7335689    248.40634  0.031316987  0.031737065            4 
  662000   0.99051028   -6.7000151    249.31469  0.031384025  0.031717849            5 
  663000   0.98015708   -6.7372196    248.41001  0.031222978  0.031698526            4 
  664000   0.98620227   -6.7821359    248.14114  0.031142212  0.031678748            7 
  665000   0.99775332   -6.7334819     248.9544  0.031197294  0.031659089            8 
  666000   0.97848955   -6.7481455    248.59219  0.031105128  0.031639701            6 
  667000    0.9783214   -6.7504984    249.35054  0.031153241  0.031620367            3 
  668000   0.97287455   -6.7016448    250.14624  0.031205868   0.03160075            4 
  669000   0.97795263   -6.7418789    250.22085  0.031168517  0.031581176            4 
  670000    0.9920241   -6.7451898    249.54217  0.031037583  0.031561471            3 
  671000    1.0030571    -6.771144    249.86222  0.031031076  0.031541858            6 
  672000   0.99191952   -6.7479271    250.44744   0.03105747  0.031522132            5 
  673000   0.99220415   -6.7292335     250.6973  0.031042261  0.031502394            2 
  674000   0.97481427   -6.7555015    250.23796  0.030939411  0.031482347            5 
  675000   0.97002737   -6.7654488    251.16179  0.031007628   0.03146249            3 
  676000   0.99735677   -6.7347123    251.20286  0.030966822  0.031442911            2 
  677000   0.97928299   -6.7583571    250.48583  0.030832819   0.03142317            3 
  678000   0.99346124   -6.7622209     251.7139  0.030938287  0.031403522            4 
  679000   0.96472827   -6.7472751    251.63556  0.030883107  0.031383982            2 
  680000   0.96300528   -6.7769078    251.88739  0.030868553  0.031364213            8 
  681000   0.97789305   -6.7698933    251.64677   0.03079378  0.031344345            5 
  682000    1.0003459   -6.7627541    252.95307  0.030908244  0.031324301            4 
  683000   0.99256751   -6.7870382    252.68136  0.030829839  0.031304588            5 
  684000   0.97491451    -6.770697    252.68362  0.030785041  0.031284642            3 
  685000   0.98086697   -6.7235561    253.38617  0.030825568  0.031264912            3 
  686000   0.98281551   -6.7469125    254.80186  0.030952607  0.031245959            8 
  687000   0.98173129   -6.7416305    254.61499  0.030884885  0.031227054            5 
  688000    0.9868969   -6.7271819    254.28297  0.030799778  0.031208368            4 
  689000   0.96347492   -6.7638048    254.34955  0.030763129  0.031189395            5 
  690000   0.98480293   -6.7542269    254.69285  0.030760006  0.031170518            2 
  691000    1.0002581   -6.7295352    257.05491  0.031000351  0.031152128            4 
  692000   0.98186061   -6.7677161    255.53901  0.030773003  0.031134196            4 
  693000   0.98050993   -6.7412424    256.85946  0.030887381   0.03111645            4 
  694000   0.96252588   -6.7894865    256.22412  0.030766585  0.031098491            5 
  695000   0.97152115   -6.7489326    257.02194  0.030817979   0.03108038            5 
  696000   0.98892243   -6.7750155    256.42693  0.030702458  0.031062131            6 
  697000   0.97542759   -6.7788993    255.98062  0.030605047  0.031043551            5 
  698000   0.97657498   -6.7338222    257.57251  0.030751255  0.031025005            6 
  699000   0.98651485   -6.7738906     257.1994   0.03066278  0.031006606            3 
  700000   0.97472763   -6.7204908    258.11665  0.030728173  0.030988254            4 
  701000   0.97262849   -6.7296354    257.54628  0.030616534  0.030969962            5 
  702000   0.98112395   -6.7934628    257.50875  0.030568465  0.030951421            6 
  703000   0.96992561   -6.7951351    258.02981  0.030586749  0.030932901            3 
  704000   0.96702492   -6.7671786    259.09392  0.030669261  0.030914847            5 
  705000   0.98255279   -6.7619141      259.616   0.03068747  0.030896862            3 
  706000   0.95937532   -6.7486775     259.3972  0.030618177  0.030879123            4 
  707000   0.96761061   -6.7776996    259.74691   0.03061609  0.030861295            5 
  708000   0.97402815   -6.7955804    258.75025  0.030455538  0.030843364           17 
  709000   0.94789827   -6.7578823    259.06923  0.030450074  0.030825223            4 
  710000   0.97838798   -6.7443496    260.75485  0.030605029  0.030807444            4 
  711000   0.97153236   -6.8074413    259.90869  0.030462809  0.030789593            6 
  712000   0.96765397   -6.7863377     260.9389  0.030540602  0.030771476            8 
  713000   0.97140822   -6.7766309    261.01748  0.030506952  0.030753759            3 
  714000    0.9613002   -6.7633599    261.55536  0.030527003  0.030736105            9 
  715000   0.95930343   -6.7727178    261.34373  0.030459642   0.03071865            3 
  716000   0.97569176   -6.7680555    261.82726  0.030473377  0.030701172            3 
  717000   0.97294868   -6.7563892    262.69105  0.030531271  0.030683776            5 
  718000   0.97472884   -6.7971739    262.30412   0.03044384  0.030666591            6 
  719000   0.94911327   -6.8160779     261.9119  0.030356038  0.030649119            2 
  720000   0.96016865   -6.7684751    263.71309  0.030522348  0.030631718            6 
  721000   0.95814594   -6.7550801    263.79778  0.030489804  0.030614464            4 
  722000   0.96910616   -6.7778055    263.53107  0.030416791  0.030597618            3 
  723000   0.98100892   -6.8056323    264.51189   0.03048777   0.03058055            5 
  724000   0.95818543   -6.7916236    264.87313  0.030487239  0.030563708            3 
  725000   0.96033717   -6.7637588    264.38886  0.030389524  0.030547139            3 
  726000    0.9454737   -6.8097177    264.98872   0.03041652  0.030530321            5 
  727000    0.9550001   -6.7867202    264.66254  0.030337293  0.030513128            6 
  728000   0.98686729   -6.7708492    264.53779  0.030281341  0.030496049            4 
  729000   0.96046039   -6.7896211    265.00152  0.030292812  0.030479041            3 
  730000   0.95336731   -6.7829486    265.95398  0.030360043  0.030461952            4 
  731000   0.95371682   -6.7664372    265.83111  0.030304504  0.030444802            3 
  732000   0.95164804   -6.7802935    266.21836  0.030307191  0.030427677            4 
  733000   0.98793149   -6.7968705    266.05092  0.030246808  0.030410645            6 
  734000   0.96545843   -6.8127054    266.37145   0.03024199   0.03039339            3 
  735000   0.95723641   -6.7995715    265.93921  0.030151837  0.030376341            5 
  736000   0.96364418   -6.7884845    267.28797  0.030263583  0.030359422            5 
  737000   0.97844625   -6.7697591    266.83826  0.030171671  0.030342509            3 
  738000   0.94913394   -6.7891964    267.56071  0.030212366  0.030325493            5 
  739000   0.96498636   -6.8010087    267.17308  0.030127772  0.030307983            2 
  740000   0.97217106   -6.7958308    267.57596  0.030132428  0.030290745            3 
  741000   0.95657157   -6.8004541    267.73802  0.030109989   0.03027339            7 
  742000   0.94550409   -6.7903113    267.91879  0.030089711  0.030256118            4 
  743000   0.97257868   -6.8281247    268.16667  0.030077015  0.030238811            9 
  744000   0.94518593   -6.7978556    268.86618   0.03011494  0.030221542            4 
  745000   0.95124635   -6.8034246    268.05502  0.029983783   0.03020457           10 
  746000   0.95449763   -6.7791547     269.5723  0.030113081  0.030187797            4 
  747000   0.94829957   -6.7649108    270.03821  0.030124745  0.030170944            4 
  748000   0.97810744   -6.7850457      269.546  0.030029634   0.03015415            3 
  749000   0.96316844    -6.800272    270.67662  0.030115334  0.030137437            2 
  750000   0.93883481   -6.8341306    270.26669  0.030029632  0.030120533            5 
  751000   0.95297889   -6.8052708    270.08745  0.029969757  0.030103269            8 
  752000   0.94951594   -6.8065717    270.03162  0.029923717  0.030086228            7 
  753000    0.9498513   -6.8013154    270.81886    0.0299711  0.030069439            3 
  754000   0.95838075   -6.7676265    271.05745  0.029957719  0.030052866            7 
  755000     0.943153   -6.7927363    271.33367  0.029948529  0.030036164            4 
  756000   0.95112786   -6.7714698    271.40707  0.029917005  0.030019614            4 
  757000   0.95024561   -6.8113972    271.37168  0.029873589  0.030003071            5 
  758000    0.9561545   -6.7934685    271.86116   0.02988799  0.029985903            3 
  759000     0.957213   -6.7460774     271.9214  0.029855226  0.029968813            5 
  760000   0.92358516   -6.8235919    271.63318   0.02978434  0.029951627            6 
  761000   0.96068339   -6.8291881      271.315  0.029710359  0.029934144            4 
  762000   0.94110831    -6.841864    271.24784  0.029664025  0.029916437            4 
  763000   0.94129943   -6.8185189    271.65146  0.029669229  0.029898902            8 
  764000   0.92913822    -6.772715     272.0316  0.029671859  0.029881532            2 
  765000   0.96040938   -6.8298229    272.64645  0.029700049  0.029864014            3 
  766000   0.94196487   -6.7870608    272.25786  0.029619001   0.02984651            4 
  767000   0.94406489   -6.7983162    272.63943  0.029621842   0.02982871            4 
  768000   0.94056981   -6.8091244     272.3601  0.029552962  0.029810671            2 
  769000   0.95071383    -6.838612    272.61585  0.029542246  0.029792459            4 
  770000   0.92216894   -6.8161115    272.55672   0.02949748  0.029774505            3 
  771000   0.93852128   -6.8130334    273.77182  0.029590556   0.02975669            1 
  772000   0.93914623   -6.8472027    272.92541   0.02946086  0.029738765            2 
  773000    0.9673053   -6.8067198    273.85057  0.029522485  0.029720855            7 
  774000   0.95186558   -6.8036979    273.96257    0.0294964  0.029702748            4 
  775000   0.93876761   -6.8100075     273.7717  0.029437817  0.029684939            6 
  776000   0.93167108   -6.8099644    274.89687  0.029520712  0.029667216            5 
  777000    0.9347733   -6.8423168    274.54527   0.02944501  0.029649346            8 
  778000   0.93952925   -6.8268647    273.75025  0.029322006   0.02963155            5 
  779000   0.95240829   -6.7974309    274.94449  0.029412119  0.029613664            4 
  780000   0.96556687   -6.8123343      274.535  0.029330663  0.029596221            8 
  781000   0.94267961   -6.8243644     275.7909  0.029427112  0.029578691            5 
  782000   0.92747042    -6.826613    275.86964  0.029397873  0.029561105           13 
  783000   0.93360433   -6.7973695    276.48825  0.029426165  0.029543792            3 
  784000   0.95253331   -6.8386278    275.30758  0.029263136  0.029526114            5 
  785000    0.9466235   -6.8066719    277.53414  0.029462223  0.029508992            8 
  786000   0.94656838   -6.8358775    276.81448   0.02934844  0.029491701            5 
  787000   0.95254747   -6.8225678    276.84354  0.029314225  0.029474337            3 
  788000    0.9168379   -6.8176374    276.46767  0.029237274  0.029457151            5 
  789000   0.95134215   -6.8329759    276.24271  0.029176459  0.029439655            6 
  790000   0.93861258   -6.8335882     277.2052  0.029241055  0.029422033            2 
  791000   0.93776936   -6.8212477    276.52135  0.029132043  0.029404719            7 
  792000   0.93504055   -6.8451772    277.88234  0.029238462  0.029387438            5 
  793000   0.95284543   -6.8381312    277.96088  0.029209845  0.029370087           12 
  794000   0.93128851   -6.7931273    278.83761  0.029265073  0.029352847            5 
  795000   0.95209902   -6.8234437    278.86618  0.029231256  0.029335557            4 
  796000   0.95029921   -6.8165842    278.62342  0.029169119  0.029318037            2 
  797000   0.93950615   -6.8206845    278.89662  0.029161085   0.02930077            2 
  798000   0.91469526     -6.86556    278.63931  0.029097672  0.029283246            6 
  799000   0.93233737   -6.8542976    279.70711  0.029172623  0.029265881            5 
  800000   0.94241032   -6.8486778    278.49508  0.029009904  0.029248281            4 
  801000   0.96099821   -6.8453826    279.02154  0.029028458  0.029230792            5 
  802000   0.93655512    -6.854387    279.60162  0.029052537  0.029213391            4 
  803000   0.93647161   -6.8352783     279.3419  0.028989404  0.029195727           12 
  804000   0.92196105   -6.8210956    280.52045  0.029075502  0.029178116            5 
  805000   0.93517768   -6.8225448    280.58626  0.029046197    0.0291606            4 
  806000   0.93349362   -6.8243532    280.70914  0.029022864  0.029143366            3 
  807000   0.93454131   -6.8398835    280.39961  0.028954937  0.029126272            4 
  808000   0.91818892   -6.8579886    281.13077   0.02899451  0.029109084            3 
  809000   0.95150167   -6.8486208    281.28478  0.028974534  0.029091882            6 
  810000   0.94774472   -6.8911605    281.41028  0.028951675  0.029074811            5 
  811000   0.93084372   -6.8421733    281.41462  0.028916422  0.029057563            3 
  812000   0.91872264   -6.8438099    281.43112  0.028882504  0.029040058            5 
  813000   0.91955031    -6.843564    281.72431  0.028877031  0.029022654            6 
  814000   0.94256113   -6.8597381    282.37021  0.028907679  0.029005398            5 
  815000   0.92843232   -6.8415058    282.83079  0.028919304   0.02898803            3 
  816000   0.93644636   -6.8586506    281.96949  0.028795904  0.028970595            5 
  817000   0.93756244   -6.8615677    282.12022  0.028776033  0.028953134           10 
  818000   0.91982357   -6.8121236    282.97171  0.028827599  0.028935749            6 
  819000   0.92972228   -6.8763674    282.40664  0.028734904  0.028918314            8 
  820000   0.91860694   -6.8693669    282.35698  0.028694815  0.028900877            5 
  821000   0.93947519     -6.85131     282.2494  0.028648945  0.028883089            2 
  822000   0.91135534   -6.8734817    282.42015  0.028631402  0.028865397           21 
  823000   0.94566255   -6.8944004    282.50499  0.028605204  0.028847838            6 
  824000   0.93800226   -6.8450725    282.41715  0.028561605   0.02883023            4 
  825000   0.92401764   -6.8545087    283.83444  0.028670145  0.028812659            7 
  826000   0.90105922   -6.8589386    283.66183  0.028618021   0.02879506            7 
  827000   0.92953596   -6.8858386    283.46079  0.028563159  0.028777291            5 
  828000   0.93887277   -6.8722721    284.75834  0.028659253  0.028759594            6 
  829000   0.92173762   -6.8552591    284.24951  0.028573533  0.028742005            4 
  830000   0.92906286   -6.8156033     284.6367  0.028577982  0.028724504            6 
  831000   0.93776188   -6.8244068    284.34025  0.028513864  0.028706975            6 
  832000    0.9333804    -6.850383    284.62194  0.028507806  0.028689317            2 
  833000   0.93854469   -6.8280829    284.96624  0.028508027  0.028671479            7 
  834000   0.91303431   -6.8644602     285.0399  0.028481205  0.028653278            6 
  835000    0.9312483   -6.8515548    284.95958  0.028439079  0.028635178            3 
  836000   0.89830652   -6.8350147    284.20473  0.028329817  0.028616848            9 
  837000   0.91612455   -6.8772182    284.50363   0.02832573  0.028598437            5 
  838000   0.91156969   -6.8759303    284.19026  0.028260766  0.028579958            4 
  839000   0.92590626    -6.852451    284.36305  0.028244244  0.028561633            4 
  840000   0.91040807   -6.8927915    284.69615  0.028243666   0.02854312            5 
  841000   0.91455503   -6.8660759    284.82552  0.028222901   0.02852447            3 
  842000   0.95648597   -6.8861048     285.7117  0.028277088  0.028505888            2 
  843000   0.91432016   -6.8235048    286.09274  0.028281212   0.02848745            4 
  844000   0.90767183    -6.872592    285.37018  0.028176361  0.028469121            6 
  845000   0.92041453   -6.8692175     285.2314  0.028129329  0.028450559            8 
  846000   0.90134968   -6.8763059    286.32484  0.028203786  0.028432207            2 
  847000   0.93018743   -6.8497785    286.30561  0.028168596  0.028413938            3 
  848000   0.92268413    -6.895962    286.16114  0.028121181  0.028395643            4 
  849000   0.91209051   -6.8710192    286.37231  0.028108786  0.028377135            5 
  850000   0.92132016   -6.8742496    286.46836  0.028085133  0.028358563            3 
  851000   0.90583254   -6.8897443    286.71319  0.028076106  0.028340242            5 
  852000   0.92261076   -6.8656187    287.58329  0.028128256  0.028321964            6 
  853000   0.90702468   -6.8870358    288.12677  0.028148376  0.028304006            4 
  854000   0.93216143   -6.8499455    288.45973  0.028147905  0.028286406            4 
  855000   0.92530449    -6.896375    288.62458  0.028131051  0.028268831            4 
  856000   0.91493122   -6.8871952    287.85366  0.028023137  0.028250953            4 
  857000   0.91323645   -6.8941445    288.42162  0.028045665   0.02823333            3 
  858000    0.9167631   -6.9060372    288.59809  0.028030118   0.02821569            6 
  859000   0.90968696   -6.8268072    289.37174   0.02807254  0.028198022            3 
  860000   0.91059739   -6.8698169    289.38045  0.028040741  0.028180321            2 
  861000   0.89550839   -6.8997177     289.7139  0.028040447  0.028162715            6 
  862000    0.9037052   -6.8750729    290.93334  0.028125807   0.02814525            6 
  863000   0.90987134    -6.897199    289.73952  0.027977938  0.028127748            5 
  864000   0.91856781   -6.8707943    290.73539  0.028041608   0.02811045            3 
  865000   0.93665788   -6.8891382    289.36296  0.027876971   0.02809303            4 
  866000   0.90074822   -6.8998996    290.27987  0.027933013  0.028075539            6 
  867000   0.90463522   -6.8914778    290.50668  0.027922595  0.028057931            3 
  868000   0.91284774   -6.9248018    290.39942  0.027880128  0.028040227            6 
  869000   0.92207938    -6.920214    290.59333  0.027866641  0.028022612            3 
  870000   0.90422282   -6.8862685    290.04758  0.027782335  0.028004943            6 
  871000   0.90004274   -6.8846176    291.01753  0.027843239  0.027987356            8 
  872000   0.89489205   -6.8842956    291.26992  0.027835428  0.027969768            7 
  873000   0.90596434   -6.9202399    290.75994  0.027754862  0.027951926           12 
  874000    0.9073597   -6.8854362    290.97574  0.027743682  0.027934227            8 
  875000   0.91849407   -6.8980821    291.85421  0.027795639  0.027916449            3 
  876000   0.92232318   -6.9197572    291.55104  0.027735068  0.027898788            6 
  877000   0.90934191    -6.922288    291.22564  0.027672524  0.027881051            3 
  878000   0.90639605   -6.8795801     291.9218   0.02770708  0.027863298            7 
  879000   0.89906752   -6.9039451    292.81561  0.027760297  0.027845754            3 
  880000   0.88254457    -6.870189    291.83843  0.027636215  0.027827972            8 
  881000   0.90608402   -6.9070669    292.56246  0.027673332   0.02781018            3 
  882000   0.90099717   -6.9101732    292.72124  0.027656957  0.027792419            6 
  883000   0.90693364   -6.9247072    292.02709  0.027560125   0.02777464            3 
  884000   0.89597396    -6.885475    293.10038  0.027630126  0.027756678            7 
  885000   0.91370668   -6.9243366    292.08557  0.027503349  0.027738768            4 
  886000   0.89897145   -6.8934798    292.13959  0.027477388  0.027720864            6 
  887000    0.9021072   -6.9331524    293.69172  0.027592232  0.027702878            6 
  888000   0.88935004   -6.9240499    293.07589  0.027503368  0.027684901            8 
  889000   0.90442746   -6.9004458    293.22447  0.027486359   0.02766692           14 
  890000   0.90176659   -6.9469036    292.13043  0.027353036   0.02764872            8 
  891000   0.87122317   -6.9565459    292.83897  0.027388605  0.027630439            9 
  892000   0.88440004   -6.9170602    293.54458  0.027423821  0.027612288            3 
  893000    0.8861884   -6.9450504    293.48632  0.027387674  0.027594061            8 
  894000   0.91239496   -6.9252142    293.61294  0.027368843  0.027575716           13 
  895000   0.91697751   -6.9382429    293.37729  0.027316321  0.027557498           14 
  896000    0.8995787   -6.8860863      293.742  0.027319754  0.027539239            3 
  897000   0.88476331   -6.9268926    293.90849  0.027304765  0.027520844            3 
  898000    0.9012943   -6.9470747    293.54482  0.027240611  0.027502433            9 
  899000   0.89024941   -6.9229481    293.94254  0.027247176   0.02748409            3 
  900000   0.90240555   -6.8785388    294.22664  0.027243208  0.027465835            5 
  901000   0.89895829   -6.8814645    293.92838  0.027185385  0.027447624            6 
  902000   0.90004339   -6.9213027    294.66695   0.02722348  0.027429383            6 
  903000   0.88779169   -6.9305921    294.28538  0.027158119  0.027411086            9 
  904000   0.90102256   -6.9229559    294.01722  0.027103357  0.027392799            9 
  905000    0.8826505    -6.902986    294.57853  0.027125094  0.027374615            4 
  906000   0.89882521   -6.9253087    295.53095  0.027182759  0.027356486            4 
  907000   0.89023298   -6.9142592     295.1904    0.0271215  0.027338237           11 
  908000   0.89873028   -6.9510321    294.57784  0.027035412  0.027319981           11 
  909000   0.89298849   -6.9206791    295.60257  0.027099612  0.027301732            5 
  910000   0.89677829   -6.9289119    295.66233  0.027075305  0.027283324           10 
  911000   0.88892768   -6.9297362    295.53545  0.027033978  0.027264882            7 
  912000    0.8928997   -6.9237486    296.11402  0.027057202  0.027246585            8 
  913000   0.87079352   -6.9591569    296.19908  0.027035331  0.027228287            4 
  914000    0.8976371   -6.9346148    296.15778  0.027001986  0.027210139            6 
  915000   0.88316817    -6.928262     297.2968  0.027076211  0.027192153            3 
  916000   0.89480779   -6.9097572    296.53324  0.026977187  0.027174133            8 
  917000   0.89331419   -6.9083036    296.89245  0.026980412  0.027156177            7 
  918000   0.86089852   -6.9512441    296.17239  0.026885656  0.027138251            4 
  919000   0.91346695   -6.9425255    296.88149  0.026920701  0.027120212            5 
  920000   0.86023089   -6.9358536    297.50676  0.026948076  0.027102332            8 
  921000   0.88069874   -6.9418932    297.25884  0.026896384  0.027084313           10 
  922000   0.89504272   -6.9458309    297.53929  0.026892561  0.027066221            8 
  923000   0.87529236   -6.9119321     298.5387  0.026953657  0.027048268            4 
  924000   0.87523635   -6.9154704    298.56757   0.02692709  0.027030549            5 
  925000   0.85868147   -6.9602908    298.24049  0.026868513  0.027012979            7 
  926000   0.87660511   -6.9358143    298.50652  0.026863438  0.026995318            5 
  927000   0.88750194    -6.934273    299.27984  0.026903977  0.026977792            2 
  928000   0.89002808   -6.9271332    299.84857  0.026926057  0.026960312            5 
  929000   0.88966137   -6.9427176    299.09093  0.026829111  0.026942696            6 
  930000   0.87743289   -6.9477995    298.93499   0.02678629  0.026925105            5 
  931000   0.90297587   -6.9460196    298.41679  0.026711134  0.026907379            3 
  932000   0.87181348   -6.9428471    299.64972  0.026792715  0.026889831            6 
  933000   0.88081562    -6.951896    299.86654  0.026783364  0.026872522            3 
  934000   0.89074696   -6.9383416    300.38173  0.026800654  0.026855211            4 
  935000   0.87375021   -6.9300482    300.86533  0.026815092  0.026837824            5 
  936000   0.87333698   -6.9484246    300.48006  0.026752143  0.026820541            5 
  937000   0.89152319   -6.9743157    299.87656  0.026669918  0.026803256            5 
  938000   0.87424943   -6.9385649    300.13976  0.026664869  0.026785727            9 
  939000   0.86915572   -6.9602139    300.68234  0.026684624  0.026768228            5 
  940000   0.86252724   -6.9360021    301.27449  0.026708731  0.026750828            5 
  941000   0.86846622   -6.9375822    300.51667  0.026613237  0.026733268            9 
  942000   0.87982831   -6.9729457    300.23354  0.026559938   0.02671558            6 
  943000   0.88434239   -6.9742179    300.95955   0.02659593  0.026697758            5 
  944000   0.88152956   -6.9687949    301.04098  0.026574945  0.026680085            5 
  945000   0.85838216   -6.9714615    300.23426  0.026475685  0.026662159            5 
  946000   0.86918658   -6.9374903    300.59556  0.026479524  0.026644283           21 
  947000   0.86662731   -6.9389484    302.01146  0.026576158  0.026626714            9 
  948000   0.88545189   -6.9652026    301.36641  0.026491421  0.026609063            4 
  949000   0.87884333   -6.9364952    301.52564  0.026477489  0.026591315            8 
  950000   0.87434228   -6.9618588     301.3721   0.02643615  0.026573563            4 
  951000   0.87847483   -6.9521901      300.831  0.026360936  0.026555836            4 
  952000   0.88610529   -6.9846783    301.19616   0.02636521  0.026538083           12 
  953000   0.88137421   -6.9570987    301.65046   0.02637727  0.026520246            2 
  954000   0.87110596   -6.9824009    301.77648  0.026360629  0.026502378            7 
  955000   0.88273294   -6.9476904    302.00684  0.026353127  0.026484584            4 
  956000   0.86485431   -6.9719726    302.23063  0.026345069  0.026466902            4 
  957000   0.88869311   -6.9612255     302.0487  0.026301698  0.026449299            6 
  958000   0.85971725   -6.9607843    302.09702  0.026278446  0.026431548            9 
  959000   0.86745745   -6.9394451    302.71486  0.026304732  0.026413953            6 
  960000   0.87309185   -6.9643475    303.19036  0.026318608  0.026396269            5 
  961000   0.86830067    -7.001884     302.4093  0.026223491  0.026378638            4 
  962000    0.8746859   -6.9728256    303.29684  0.026273115  0.026361122           12 
  963000   0.85960153   -6.9791327    303.36597  0.026251814  0.026343461            6 
  964000   0.86381252   -7.0070128    302.87269  0.026181941  0.026325748            6 
  965000    0.8626864   -6.9788743    303.08507  0.026173149  0.026307961            5 
  966000   0.86476892   -6.9645218    303.40155  0.026173356  0.026290299            8 
  967000   0.87206219    -6.957055    304.02982  0.026200432  0.026272684            5 
  968000   0.86673271    -6.971883    304.48541  0.026212587  0.026255189           14 
  969000   0.86842013   -6.9646683    303.92936  0.026137716   0.02623767            6 
  970000   0.87228656   -6.9692702    303.99021  0.026115997  0.026220168            6 
  971000   0.84746122   -7.0137024    303.84297  0.026076465  0.026202454            8 
  972000    0.8572639   -6.9999849    303.68941  0.026036472  0.026184754            6 
  973000   0.86888231   -6.9625408    304.70598  0.026096778  0.026167025            6 
  974000   0.88488355   -6.9601726    304.28037  0.026033571  0.026149418            9 
  975000   0.87471935   -7.0016363    304.19518  0.025999588  0.026131856           10 
  976000   0.87594448   -6.9735975     304.6988  0.026015949  0.026114335            6 
  977000   0.86000871   -7.0069703    304.09617   0.02593792  0.026096576            4 
  978000   0.84824004   -7.0017026    304.44631  0.025941233  0.026078876            8 
  979000    0.8312961   -7.0244283    304.28791  0.025901252  0.026061012            3 
  980000   0.85601565   -6.9818928    304.23413  0.025870249  0.026043038            4 
  981000   0.85407002   -6.9762001    304.35972  0.025854546  0.026025062            2 
  982000   0.85441797   -6.9724219    305.01287  0.025883645  0.026007265            5 
  983000    0.8598497   -6.9747395    305.28965  0.025880777  0.025989558            5 
  984000   0.88149825   -6.9790081     305.4234  0.025865803  0.025971859            6 
  985000   0.87317011   -6.9856997    304.85167  0.025791173  0.025954104            4 
  986000    0.8605743   -6.9997953    303.65199  0.025663623  0.025936221           12 
  987000   0.86900981   -7.0025898     304.2757  0.025690282  0.025918233            7 
  988000   0.85772518   -6.9783002    304.94298  0.025720562  0.025900259           15 
  989000   0.85628409   -6.9853783    304.93733  0.025694079  0.025882227            6 
  990000   0.84600973   -6.9782093    305.70732   0.02573294  0.025864269            3 
  991000   0.88430176   -7.0165943    305.19386  0.025663795  0.025846349            9 
  992000   0.85700111   -7.0383085    306.08715  0.025712966  0.025828407            6 
  993000   0.85407961   -6.9893025    305.97001  0.025677242  0.025810446            4 
  994000   0.88204765    -6.985844    305.16297   0.02558375  0.025792529            3 
  995000   0.85584324   -7.0050727     306.0624  0.025633367  0.025774645           12 
  996000   0.84032999   -7.0358817    306.22935  0.025621599  0.025756621           17 
  997000   0.84068161   -7.0110008      306.209  0.025594199   0.02573854            8 
  998000   0.86404124   -7.0385899     306.0094  0.025551887  0.025720509           10 
  999000   0.84999212   -7.0020674    306.43066   0.02556145  0.025702599            8 
 1000000   0.85177098   -6.9835743    306.81696   0.02556808  0.025684709            4 
 1001000   0.83946042   -7.0012954    306.82743  0.025543409  0.025666841            7 
 1002000   0.83725658   -7.0056299    307.30519  0.025557651  0.025648884            6 
 1003000   0.84234104   -7.0291958    306.48456  0.025463988  0.025630957            4 
 1004000   0.84967552   -7.0128829    307.25843  0.025502858  0.025613073            7 
 1005000   0.85214593   -7.0040146    307.40343  0.025489505  0.025595218            5 
 1006000   0.84895744   -7.0042575    307.42686  0.025466108  0.025577479            8 
 1007000     0.853007   -7.0114033    306.63922  0.025375639  0.025559725            5 
 1008000   0.84195485   -7.0260402    307.29399  0.025404596  0.025541923            7 
 1009000   0.84483993   -7.0395526    307.71391  0.025414099  0.025524298            5 
 1010000   0.86394749   -7.0160551    308.88523   0.02548558  0.025506785            7 
 1011000    0.8566341   -7.0016204     308.9867  0.025468735  0.025489405            3 
 1012000   0.87221914    -7.021541    309.14949  0.025456974  0.025472051            7 
 1013000   0.85553918   -7.0193012    308.44911  0.025374228   0.02545474            5 
 1014000   0.85133313   -6.9986555    308.49657  0.025353104  0.025437423            7 
 1015000    0.8439576   -7.0108116    308.77018  0.025350589   0.02542004            5 
 1016000   0.82875661   -7.0050379    309.26892  0.025366545  0.025402601            3 
 1017000   0.84909209   -7.0098113    308.60933  0.025287556  0.025385186           11 
 1018000   0.83497187   -7.0271417    309.72982  0.025354438  0.025367848            4 
 1019000   0.83332473   -7.0302258    308.67919  0.025243636  0.025350338            7 
 1020000   0.84079244   -7.0202297      308.823  0.025230638  0.025332803            4 
 1021000   0.85230347   -7.0477857    308.73257  0.025198544  0.025315323            4 
 1022000    0.8330786   -7.0105975    310.45484  0.025314322  0.025297916           10 
 1023000   0.83286617   -7.0430149    309.44993  0.025207717  0.025280447            6 
 1024000   0.85267699   -7.0546002    309.69608  0.025203132  0.025262963            6 
 1025000   0.83052803   -7.0341781    309.29574  0.025145995  0.025245498            5 
 1026000   0.85203603    -7.063427    309.29065  0.025121073  0.025227912           11 
 1027000   0.82954395    -7.015963    309.95722  0.025150699  0.025210339            7 
 1028000    0.8424619   -7.0075992     310.5135  0.025171328  0.025192872            5 
 1029000   0.84137683   -7.0595453    309.78173  0.025087604  0.025175494            9 
 1030000   0.83261255   -7.0288447    309.94097   0.02507613  0.025158196            8 
 1031000   0.84444811   -7.0260651    310.20545  0.025073185  0.025140918            7 
 1032000   0.84027367   -7.0060364    311.18615  0.025128081  0.025123673            7 
 1033000   0.85984493   -7.0530036    310.63403  0.025059215  0.025106409            8 
 1034000   0.83550318   -7.0281049    310.92766  0.025058645  0.025089135            6 
 1035000   0.83722994   -7.0365578    310.60143  0.025008167  0.025071779            8 
 1036000   0.83401859   -7.0291645    311.43889   0.02505139  0.025054534            4 
 1037000   0.84252406   -7.0148304    311.11376  0.025001106  0.025037237            8 
 1038000   0.82263457   -7.0351815    311.57142  0.025013762  0.025019974            7 
 1039000   0.82901042   -7.0535892    311.77706  0.025006181  0.025002783            5 
 1040000   0.84685975   -7.0367931    311.42194  0.024953681  0.024985452            5 
 1041000   0.85142061   -7.0476463    311.82022  0.024961593  0.024968116            7 
 1042000   0.83835501   -7.0613096    311.79449   0.02493558  0.024950884            5 
 1043000   0.84068967   -7.0434704    312.01594  0.024929366  0.024933551            7 
 1044000   0.83840234   -7.0614065    311.27215  0.024846117  0.024916243            5 
 1045000   0.83496069   -7.0727385    311.81909  0.024865956  0.024898829            8 
 1046000   0.83672698   -7.0394273    311.53693  0.024819704   0.02488126            7 
 1047000   0.84333848   -7.0609888     311.6848  0.024807768  0.024863798           16 
 1048000   0.84347708   -7.0492883    311.33287  0.024756112    0.0248464            4 
 1049000   0.83584907   -7.0435768     312.3079   0.02480997  0.024829003            8 
 1050000   0.83926985   -7.0458425    311.63576  0.024732997  0.024811603           12 
 1051000   0.85422437   -7.0403353    311.78037   0.02472093  0.024794142            7 
 1052000   0.81405696   -7.0193775    311.92764  0.024709097   0.02477671            9 
 1053000   0.84834449   -7.0456843    312.21054   0.02470802  0.024759173           20 
 1054000    0.8312479   -7.0531101    312.46885  0.024705001  0.024741846            5 
 1055000   0.82846475    -7.050868     312.7063   0.02470034  0.024724549            8 
 1056000   0.83415611   -7.0776617      312.574  0.024666508  0.024707242            6 
 1057000   0.85047913   -7.0482263    312.53829  0.024640357   0.02468982            6 
 1058000   0.84308119    -7.047818    312.89869  0.024645454  0.024672554            8 
 1059000   0.83313729   -7.0481787      312.524  0.024592698  0.024655306            6 
 1060000   0.83224672   -7.0602827    313.31358  0.024631571   0.02463813           15 
 1061000   0.83020547   -7.0658576    313.11264  0.024592573  0.024620935            8 
 1062000   0.80796577   -7.0483203     313.1273  0.024570566  0.024603873            6 
 1063000   0.84472149   -7.0620214    313.07476  0.024543333  0.024586661            9 
 1064000   0.82823532   -7.0800204    312.88495    0.0245054   0.02456951           11 
 1065000   0.84891952   -7.0884816    313.23766  0.024509989  0.024552129            7 
 1066000   0.82833547    -7.045433    312.70971  0.024445724  0.024534802            8 
 1067000   0.82243634   -7.0555748    314.26036   0.02454392  0.024517571            5 
 1068000   0.83800643   -7.0581649    314.04027  0.024503766  0.024500486            8 
 1069000    0.8216347   -7.0457286    315.05029   0.02455958  0.024483484            6 
 1070000   0.83120171   -7.0650581    314.18566  0.024469288  0.024466444            6 
 1071000   0.82618338   -7.0547686    314.94437  0.024505476  0.024449394            8 
 1072000   0.82868378    -7.070239    314.80958  0.024472138  0.024432401            5 
 1073000   0.81827111   -7.0412835    315.46489  0.024500224  0.024415413            6 
 1074000   0.82183032   -7.0528491      315.592  0.024487275  0.024398493            4 
 1075000   0.82095963    -7.068604    313.89646  0.024333059  0.024381514            3 
 1076000   0.81762733   -7.0356643    314.57935  0.024363333  0.024364449            3 
 1077000   0.82782537    -7.093491    315.21874  0.024390184  0.024347377           13 
 1078000   0.82188065   -7.0903432    314.65384   0.02432389  0.024330266           16 
 1079000     0.832531   -7.0665649    314.42281  0.024283504  0.024313173           10 
 1080000   0.80184735    -7.050382    315.37038  0.024334134  0.024296181           16 
 1081000    0.8208288   -7.0430405    316.15081  0.024371786  0.024279224           12 
 1082000   0.83299817   -7.0822881     316.6674  0.024389048  0.024262373            4 
 1083000   0.81264044   -7.0436967    315.83191   0.02430224  0.024245538            6 
 1084000   0.83099275   -7.0542563    315.95401  0.024289207  0.024228716            9 
 1085000   0.80784912   -7.0794076    316.14089  0.024281175     0.024212            7 
 1086000   0.82157691   -7.0629481    315.99266  0.024247442  0.024195148            7 
 1087000   0.81513464   -7.0660311    316.60532  0.024272104  0.024178387            6 
 1088000   0.79700611   -7.0669188    316.55633  0.024246042  0.024161561            6 
 1089000   0.81731005   -7.1000188    315.93915  0.024176549  0.024144725           10 
 1090000   0.82259177   -7.1226495     315.8875  0.024150421  0.024127863           26 
 1091000   0.81731359   -7.0891048    316.78237  0.024196637   0.02411118            7 
 1092000   0.83623793   -7.0536903    316.95132  0.024187372  0.024094503           21 
 1093000    0.8208225    -7.086385      317.924  0.024239403  0.024077864            9 
 1094000   0.82797733   -7.1142548    316.75251   0.02412801   0.02406118            8 
 1095000    0.8133667   -7.0878047    317.49609  0.024162564  0.024044572            7 
 1096000   0.83892114   -7.0813461    316.87537  0.024093322  0.024027981            9 
 1097000   0.81565075   -7.0906557    317.51176  0.024119702  0.024011499           14 
 1098000   0.81756039   -7.0810133    317.63101  0.024106786  0.023994853            5 
 1099000   0.82553458    -7.073387    317.78265  0.024096349  0.023978373            8 
 1100000   0.82473852   -7.0912154    317.78947   0.02407496  0.023961758            6 
 1101000   0.81400864   -7.0838566    317.84734  0.024057473  0.023945138            6 
 1102000   0.80092822   -7.0839699    318.21126  0.024063162  0.023928454           11 
 1103000   0.82301547   -7.0823721    317.68822   0.02400183  0.023911842            4 
 1104000   0.83218728   -7.0840176    317.65511   0.02397759  0.023895346            7 
 1105000   0.81329426   -7.0979299    319.04057  0.024060375  0.023878936           15 
 1106000   0.81185465   -7.0819656    317.57301  0.023928045  0.023862337            6 
 1107000    0.8082621     -7.11815    318.17971  0.023952101  0.023845724            5 
 1108000   0.82759377   -7.0723787    318.25076  0.023935828  0.023829049            6 
 1109000   0.80068766   -7.0757196      318.874  0.023961076  0.023812508            4 
 1110000   0.80492383   -7.0848967    318.63125  0.023921265  0.023795958           11 
 1111000   0.80074086   -7.1066296     318.2447   0.02387074  0.023779472            8 
 1112000   0.82366112   -7.1205853    318.71282  0.023884354  0.023762977            6 
 1113000   0.80099801   -7.1108838    318.80962  0.023870142  0.023746483            7 
 1114000    0.8012233   -7.1096595    318.62438  0.023834858   0.02373002            6 
 1115000   0.80004331   -7.1186743     318.5225  0.023805867    0.0237135           11 
 1116000   0.81359136   -7.1010749    319.52549   0.02385943  0.023696918            8 
 1117000   0.80010324   -7.0743288    318.43858  0.023756981  0.023680469            7 
 1118000   0.81473376   -7.0785978     319.0906  0.023784332  0.023663949            4 
 1119000   0.80527524   -7.0931305    319.22651  0.023773198  0.023647486            3 
 1120000    0.8125838   -7.0960709    318.75215  0.023716678  0.023630963            9 
 1121000   0.80936875   -7.0966878     319.0381  0.023716778  0.023614395            8 
 1122000   0.80274205   -7.1109143    320.09878  0.023774419  0.023597801            6 
 1123000   0.78420546   -7.0961968    318.97421  0.023669799  0.023581282            8 
 1124000   0.80484174   -7.1050775    319.20868  0.023666124    0.0235647           11 
 1125000   0.79328516   -7.0953208    319.92892  0.023698439  0.023548169            7 
 1126000    0.8008522   -7.1012384    319.32723  0.023632862  0.023531619            4 
 1127000   0.81264808   -7.1017279    319.96516  0.023659062  0.023515117           11 
 1128000    0.8030521   -7.0762928    320.24124  0.023658484  0.023498673            6 
 1129000   0.80519461   -7.1185039    320.04534  0.023623069  0.023482289            8 
 1130000   0.78946779   -7.1313625    319.97278  0.023596813  0.023465864           10 
 1131000    0.8060991   -7.1223436    320.47845  0.023613208  0.023449423           10 
 1132000   0.78224981   -7.1234522     320.6905  0.023607958  0.023433113           10 
 1133000   0.80350669   -7.1181108    320.51402  0.023574141  0.023416801            7 
 1134000   0.79866254   -7.1109411    320.37232   0.02354294   0.02340039            7 
 1135000   0.82069806   -7.1096223    321.11818  0.023576959  0.023384075            8 
 1136000   0.81503965   -7.1155305    320.49844  0.023510742  0.023367867            6 
 1137000   0.79973487   -7.1045486    321.50335  0.023563717  0.023351728            7 
 1138000   0.81131173   -7.1119781    320.87479  0.023496982  0.023335492           13 
 1139000   0.80663644   -7.0916887    321.03396  0.023487998  0.023319297           14 
 1140000   0.78458662   -7.1139885    321.44457   0.02349741  0.023303156            6 
 1141000   0.81627301   -7.0928376    321.67424  0.023493591  0.023287042            5 
 1142000   0.79919472    -7.115322     321.5897  0.023466849  0.023270973            9 
 1143000   0.80299166   -7.1156384    322.44817  0.023508907  0.023254941            8 
 1144000   0.79640724   -7.1290104    321.84168  0.023444178  0.023238918            6 
 1145000   0.79510729   -7.1225763      321.876  0.023426201  0.023222981            8 
 1146000   0.77952464   -7.1086752    322.16102  0.023426485  0.023206877            7 
 1147000    0.7799352   -7.1177804    322.48471  0.023429578  0.023190816           12 
 1148000   0.79651042   -7.1223991    322.05553  0.023378015  0.023174787            6 
 1149000   0.78666205   -7.1065508    321.89174  0.023345789  0.023158686           12 
 1150000   0.79342988   -7.1221961    322.31931  0.023356471  0.023142567            9 
 1151000   0.80488898   -7.1467121    321.70886  0.023291982  0.023126488           10 
 1152000   0.78031551   -7.1087489    322.29943  0.023314484  0.023110372            4 
 1153000   0.79357897   -7.1439407    321.93391  0.023267845   0.02309425            8 
 1154000   0.78468958   -7.1376411    322.59669  0.023295544   0.02307829            3 
 1155000    0.7951172   -7.1322512    323.29979  0.023326103  0.023062373           11 
 1156000   0.79859597   -7.1406926    322.02329  0.023213905  0.023046457            6 
 1157000   0.79374502   -7.1172368    323.08766  0.023270502  0.023030496            5 
 1158000    0.8028229     -7.11982    322.51693  0.023209336  0.023014514            5 
 1159000   0.78118874   -7.1165283    322.56217  0.023192563  0.022998594           14 
 1160000   0.78381652   -7.1096579    323.25753  0.023222524  0.022982689            9 
 1161000   0.79093498    -7.129192    324.16816  0.023267884   0.02296677            5 
 1162000   0.78010849   -7.1547782    323.03277  0.023166435  0.022950858            5 
 1163000   0.79132545   -7.1076736    324.04605  0.023219121  0.022934976            6 
 1164000   0.78505467   -7.1291218    323.68724  0.023173485  0.022919013            7 
 1165000   0.80109223   -7.1436641    322.53902  0.023071461  0.022903015            7 
 1166000   0.79399512   -7.1265565    322.91326  0.023078421  0.022886985            5 
 1167000   0.78443738   -7.1551024    322.60449  0.023036596  0.022870937            8 
 1168000   0.80222345    -7.142778    323.35477  0.023070403  0.022854903            5 
 1169000   0.77062561   -7.1465743    323.24188   0.02304262  0.022838906           19 
 1170000   0.79997945   -7.1716171    323.74764  0.023058949  0.022822913           15 
 1171000   0.77211717   -7.1296337    323.94496  0.023053299  0.022806954            8 
 1172000    0.8078738   -7.1357651    323.51958  0.023003383  0.022791052            9 
 1173000   0.80308808   -7.1346833    323.73805  0.022999293   0.02277514           11 
 1174000    0.7900388   -7.1554589    322.82966  0.022915223    0.0227592           10 
 1175000   0.78789911   -7.1797787    323.95407  0.022975466  0.022743273            8 
 1176000   0.77308764   -7.1612082    323.42693  0.022918575  0.022727331            6 
 1177000   0.77859756   -7.1215649    324.59375  0.022981715  0.022711506            9 
 1178000   0.80243088   -7.1624885    323.82472  0.022907804  0.022695741            5 
 1179000   0.77233532   -7.1700384    324.61286  0.022944081  0.022679925            5 
 1180000   0.78398192   -7.1651872    325.13058  0.022961199  0.022664175            5 
 1181000    0.7766532    -7.174313    324.46757  0.022894974  0.022648406            8 
 1182000   0.78335687   -7.1457389    325.70969  0.022963176   0.02263267            5 
 1183000   0.79656927   -7.1527074    325.00912  0.022894415  0.022616988            4 
 1184000   0.78617714   -7.1512983    325.23998  0.022891327  0.022601387           11 
 1185000   0.77918675   -7.1250336    324.81256  0.022841952   0.02258584            7 
 1186000   0.77721693   -7.1424929    326.05739  0.022910159  0.022570363            6 
 1187000   0.78707859   -7.1540932    325.62125   0.02286024  0.022554907            8 
 1188000   0.76591791   -7.1551211    325.48726  0.022831598  0.022539465            6 
 1189000   0.78479123   -7.1514347    326.07354  0.022853486  0.022524032           12 
 1190000   0.78683743   -7.1896907    324.83501  0.022747549  0.022508496            8 
 1191000   0.79280887   -7.1735004    325.93098  0.022805134  0.022492995           16 
 1192000   0.78465541   -7.1429891    326.38737  0.022817909  0.022477503           16 
 1193000    0.7780567   -7.1555382    326.47656  0.022805013  0.022462045           11 
 1194000   0.78701823   -7.1544591    326.04697  0.022755931  0.022446556            9 
 1195000    0.7770905   -7.1567904    326.28236  0.022753302  0.022431093            3 
 1196000   0.76730555   -7.1641232    325.66344  0.022691154  0.022415648            5 
 1197000   0.77998389   -7.1619791    326.92866   0.02276028  0.022400159            8 
 1198000   0.76422162   -7.1851261    326.50184  0.022711591  0.022384765           12 
 1199000   0.75608871   -7.1873104     326.3209  0.022680074  0.022369321           10 
 1200000   0.76299886   -7.1935522     326.6582  0.022684597  0.022353946            9 
 1201000   0.76336511   -7.1532404     326.7914  0.022674952  0.022338642           10 
 1202000   0.79071925   -7.1840178    326.84576  0.022659856   0.02232332           11 
 1203000   0.78616449   -7.1617042    326.58018  0.022622622  0.022308052           13 
 1204000   0.76557132   -7.1633066    327.26983  0.022651566  0.022292705            7 
 1205000   0.78110696   -7.1753295    327.36316  0.022639223  0.022277321            8 
 1206000   0.77955041   -7.1548118    327.21779  0.022610405  0.022262055            9 
 1207000   0.75478551   -7.1892257    326.79739  0.022562648  0.022246767            6 
 1208000   0.78878367   -7.1692177    327.08295  0.022563669   0.02223149           13 
 1209000   0.77346813   -7.1472864    328.16541  0.022619617  0.022216222           20 
 1210000   0.77244315   -7.1914416    327.23187   0.02253663  0.022200854            9 
 1211000   0.75971572   -7.1873353    327.83053  0.022559216  0.022185465            7 
 1212000   0.76138043   -7.1700904    326.51099  0.022449875  0.022169951            5 
 1213000   0.77699266   -7.2031293    326.75594  0.022448196  0.022154385           13 
 1214000   0.75938664   -7.2140547    326.49827  0.022412017  0.022138736           13 
 1215000   0.78130081   -7.2086693    326.95401  0.022424829  0.022123145            6 
 1216000   0.76106118   -7.2157954    326.45911  0.022372472  0.022107525            6 
 1217000    0.7616066     -7.17107    327.13194   0.02240016   0.02209196            8 
 1218000   0.76944584    -7.196782    327.39613  0.022399844  0.022076377            5 
 1219000   0.78211763   -7.2148755       327.22  0.022369429  0.022060872            7 
 1220000   0.76456665   -7.2060734    327.84307  0.022393653   0.02204539           11 
 1221000   0.76627357    -7.175972    327.36335  0.022342571  0.022029962           14 
 1222000   0.75745084   -7.2049166    327.95388  0.022364558  0.022014617           20 
 1223000   0.76745871    -7.201762    327.90516  0.022342952  0.021999189            8 
 1224000   0.76077729   -7.2051199    328.10584  0.022338361  0.021983792           21 
 1225000   0.75284531   -7.2060112    327.50218   0.02227906  0.021968327            5 
 1226000   0.75989644   -7.1972158     327.9723  0.022292843  0.021952927           11 
 1227000   0.78290454   -7.2043577    327.73034  0.022258241  0.021937531           17 
 1228000   0.77459046   -7.1852482    327.81018  0.022245533  0.021922043           10 
 1229000   0.75941033   -7.2179375    327.73578  0.022222388  0.021906598           12 
 1230000   0.73315059   -7.1962665    328.00697  0.022222694  0.021891121           13 
 1231000   0.75007952   -7.2078301    327.97254  0.022202311  0.021875613            8 
 1232000    0.7670206   -7.2358374     327.8573  0.022176495  0.021860064           13 
 1233000   0.75992294   -7.2184486    327.88737  0.022160541  0.021844622            9 
 1234000   0.75806954    -7.195239    328.12666  0.022158743  0.021829199            8 
 1235000   0.76467642   -7.1859389    327.60044  0.022105293  0.021813754            9 
 1236000   0.76096181   -7.1899792    328.46631  0.022145787  0.021798389            8 
 1237000   0.75100145    -7.167276    327.95974  0.022093758  0.021782985           11 
 1238000   0.76144832   -7.2214331    328.32867  0.022100745  0.021767595           10 
 1239000   0.75475082   -7.2040306    327.91078  0.022054801  0.021752295            4 
 1240000   0.77163064   -7.2087191    328.84423  0.022099747  0.021737046           11 
 1241000   0.75359148   -7.2278764    328.82367  0.022080558   0.02172178           10 
 1242000   0.75262619   -7.1962811     329.3579  0.022098625  0.021706438           17 
 1243000   0.75252091   -7.2252155    329.39993  0.022083664  0.021691107            7 
 1244000   0.75115437   -7.1696155    329.20436  0.022052811  0.021675881           22 
 1245000   0.75777309   -7.2179394    328.10373  0.021961428  0.021660645            8 
 1246000   0.75876542   -7.2087984    328.61615  0.021978073  0.021645346            4 
 1247000   0.74841742   -7.2150918    328.77142  0.021970825  0.021630093            8 
 1248000   0.77151709   -7.2159472    328.95122  0.021965226  0.021614838           10 
 1249000   0.74955311   -7.2282003    329.28458  0.021969881  0.021599654           11 
 1250000   0.73784276   -7.2133268    329.69758  0.021979839  0.021584506           17 
 1251000   0.75428395    -7.227065     329.9316  0.021977858  0.021569282            7 
 1252000   0.73723084   -7.2248481    329.57892  0.021936829  0.021554082            9 
 1253000    0.7732945   -7.2614732    329.39865  0.021907332  0.021538882            7 
 1254000    0.7603401    -7.243873    328.28883   0.02181611  0.021523563            9 
 1255000    0.7538122   -7.2413323    329.28174  0.021864657  0.021508318           22 
 1256000   0.77388472   -7.2207826    329.49188  0.021861191  0.021493039           16 
 1257000   0.76302121   -7.1968181    329.98872  0.021876738  0.021477786           27 
 1258000   0.76610567   -7.2112265    329.46923  0.021824936  0.021462585            8 
 1259000   0.74618251   -7.2040453    329.88885  0.021835375  0.021447422            6 
 1260000   0.75749847   -7.2367986     330.2284  0.021840503  0.021432222           11 
 1261000    0.7447311   -7.2077105    329.88972  0.021800801   0.02141706            6 
 1262000   0.73827054   -7.1986181    330.06669  0.021795212  0.021401844            8 
 1263000   0.74901048    -7.233462    330.37869  0.021798541  0.021386663            6 
 1264000   0.73743796   -7.2304236    329.55655  0.021727093  0.021371569            6 
 1265000   0.72852303   -7.2606322    330.43798  0.021767983  0.021356474            7 
 1266000   0.76555121   -7.2383824    330.33553  0.021744045  0.021341416            9 
 1267000   0.73791326   -7.2074454    330.33374  0.021726765  0.021326342            6 
 1268000   0.75159791    -7.196523    330.64589  0.021730145  0.021311306           16 
 1269000   0.75768679   -7.2119508     330.9874  0.021735448  0.021296279           20 
 1270000   0.74546051   -7.2335684    330.08719  0.021659265  0.021281307            6 
 1271000    0.7562002   -7.2224648    330.70954  0.021683028  0.021266328            9 
 1272000   0.74684521   -7.2125405    331.26897  0.021702631  0.021251313           13 
 1273000   0.76268099   -7.2365061     331.2226  0.021682548   0.02123632           14 
 1274000    0.7416176   -7.2530989    330.49229  0.021617758  0.021221259           10 
 1275000   0.75923297    -7.226697    330.41123  0.021595505  0.021206213            6 
 1276000   0.75050809   -7.2227259    331.01657  0.021618114  0.021191204            7 
 1277000   0.75313105   -7.2247217    330.26309  0.021552016  0.021176216            8 
 1278000   0.74115961   -7.2445257     330.3547  0.021541125  0.021161223           10 
 1279000   0.73551538   -7.2322377    330.66341  0.021544397  0.021146163           13 
 1280000   0.73047887   -7.2418188    330.10509  0.021491217  0.021131082            6 
 1281000   0.74853928   -7.2558177     329.8693  0.021459101  0.021115996            4 
 1282000   0.71917202   -7.2404521    330.49602    0.0214831  0.021100867            7 
 1283000    0.7290349   -7.2371822    329.94069  0.021430286  0.021085759            9 
 1284000   0.74919374   -7.2394895    330.94728  0.021478926   0.02107072           45 
 1285000   0.74740964   -7.2403192    330.88455  0.021458142  0.021055725            8 
 1286000   0.74286837   -7.2573886    331.55924  0.021485177  0.021040833           10 
 1287000   0.74457235   -7.2299716    330.61333  0.021407234  0.021025883            5 
 1288000   0.72697986   -7.2491354    330.85662  0.021406355  0.021010929            8 
 1289000   0.75067624   -7.2217582    331.46663  0.021429185  0.020996053           12 
 1290000   0.73301765   -7.2401108    331.53759  0.021417157  0.020981242            7 
 1291000   0.72872685   -7.2338666    331.44568  0.021394635  0.020966458            6 
 1292000    0.7281988   -7.2468019    332.36305  0.021437245  0.020951762            5 
 1293000   0.71530443   -7.2473788      332.689  0.021441673  0.020937024            5 
 1294000    0.7428662   -7.3006147    331.22868  0.021331059  0.020922256            8 
 1295000   0.73632308   -7.2503937     331.5928  0.021338018  0.020907463           12 
 1296000   0.72405764    -7.270761     331.4146  0.021310095  0.020892605           13 
 1297000   0.73255739   -7.2764473    331.76209  0.021315992  0.020877803            8 
 1298000   0.74532132    -7.227411    331.22712  0.021265223  0.020862958           13 
 1299000   0.73736161   -7.2596817    331.96071  0.021295914  0.020848138            9 
 1300000   0.72380857   -7.2732955    331.73531  0.021265084  0.020833323           17 
 1301000    0.7299452   -7.2657521    332.26557  0.021282704   0.02081857           13 
 1302000   0.73834803   -7.2556832    331.95792  0.021246667   0.02080378           15 
 1303000   0.72995928    -7.253501     332.0957  0.021239172  0.020788986            9 
 1304000   0.73513146    -7.267088    332.15784  0.021226856   0.02077424           10 
 1305000   0.76140257    -7.269614    332.89578  0.021257713  0.020759545           12 
 1306000   0.72485491    -7.265672    332.52929   0.02121805   0.02074486           13 
 1307000   0.72917194   -7.2604315    332.01334   0.02116892  0.020730159           10 
 1308000   0.74111692    -7.263543    331.66691  0.021130664  0.020715412            4 
 1309000   0.73056653   -7.2894487    331.37049  0.021095651  0.020700669           11 
 1310000   0.73612652   -7.2908816    333.43595  0.021210939  0.020685949            4 
 1311000   0.73169042   -7.2671908    333.30628  0.021186516  0.020671266            5 
 1312000   0.73875555   -7.2723061    332.00238  0.021087549  0.020656601            6 
 1313000   0.72956883   -7.2543549    332.70095  0.021115826  0.020641989            9 
 1314000   0.72396854   -7.3042698    332.07736  0.021060208  0.020627335           12 
 1315000   0.72591532   -7.2753364    332.82115  0.021091327   0.02061277            7 
 1316000   0.72320997   -7.2826812    332.36131  0.021046182  0.020598193           11 
 1317000   0.74298218   -7.2696535    332.73251   0.02105369  0.020583587           20 
 1318000    0.7423371   -7.2587899    333.85897  0.021108938  0.020569053           13 
 1319000   0.74357238   -7.2606119    333.86713   0.02109345   0.02055457            8 
 1320000   0.71860643   -7.2592369    333.42276  0.021049417  0.020540036            6 
 1321000   0.73294493     -7.28412    333.47217  0.021036599  0.020525541           19 
 1322000   0.70302326   -7.2717368     333.8208  0.021042663  0.020511071           11 
 1323000     0.733296   -7.2607167    333.84425  0.021028235  0.020496673           13 
 1324000   0.72360139   -7.2570765    333.15298  0.020968843  0.020482229           10 
 1325000   0.72861233   -7.2597112    334.11078  0.021013257  0.020467733            7 
 1326000   0.72496763    -7.286433    333.60213  0.020965443  0.020453244           11 
 1327000   0.72886169   -7.2634108    333.90526   0.02096868  0.020438827           20 
 1328000   0.73160485   -7.2846632    333.29443   0.02091456  0.020424416           15 
 1329000   0.71192818   -7.2879548    333.19128  0.020892355  0.020409976           17 
 1330000   0.70942383   -7.2728507    333.70426  0.020908788  0.020395611            5 
 1331000   0.71929511   -7.2978605    333.64787  0.020889549  0.020381252           15 
 1332000   0.72672764   -7.2894551    334.38653  0.020920078  0.020366829           24 
 1333000   0.72301857   -7.2779881    334.33673  0.020901271  0.020352447           12 
 1334000   0.73150778   -7.2809585    333.57349  0.020837924  0.020338137            8 
 1335000       0.7245   -7.2829367     334.3551  0.020871105  0.020323817           10 
 1336000   0.71147032   -7.2741138    334.07317  0.020837898  0.020309525           14 
 1337000   0.70706499   -7.2890618     333.8295  0.020807124  0.020295194           19 
 1338000   0.71115502   -7.2901451    334.51128  0.020834036  0.020280909           10 
 1339000   0.71638326   -7.2693091    334.69006  0.020829603  0.020266621           10 
 1340000   0.71000571   -7.3036476    334.11985  0.020778597  0.020252331            8 
 1341000   0.71383049   -7.2967632    333.38539  0.020717462  0.020237935            7 
 1342000   0.72307617   -7.2903026    333.41139  0.020703638  0.020223523           13 
 1343000   0.71127831   -7.3070352    333.43616  0.020689759  0.020209066           14 
 1344000    0.7114386   -7.3109543    333.50776  0.020678804  0.020194633           10 
 1345000   0.71619203   -7.3179469    333.91078    0.0206884  0.020180216           10 
 1346000   0.71511923   -7.3040798    334.41804  0.020704436   0.02016582           15 
 1347000   0.71375492   -7.2933092    334.08744  0.020668611   0.02015146           14 
 1348000    0.7172738    -7.274199    334.32541   0.02066799  0.020137146           14 
 1349000    0.7004857   -7.2841991    335.07174  0.020698773  0.020122824           19 
 1350000   0.71499907   -7.3234382    334.14947  0.020626511  0.020108433           11 
 1351000   0.73359071   -7.3011725    334.03769  0.020604348  0.020094058            7 
 1352000   0.70999552   -7.3164518    334.04532  0.020589579  0.020079668            9 
 1353000   0.70952428   -7.3216504    333.76696  0.020557216  0.020065283           21 
 1354000   0.70754625   -7.2987004     334.0723  0.020560826    0.0200509            8 
 1355000   0.70209613   -7.2896457     334.1183  0.020548481  0.020036542           16 
 1356000   0.71148085   -7.2972224    334.81392  0.020576077  0.020022191           11 
 1357000   0.72358085   -7.3089549     334.0863  0.020516231  0.020007833            8 
 1358000   0.70783909   -7.3047777    334.77249  0.020543231  0.019993436           10 
 1359000   0.70469216   -7.3143743     333.9903  0.020480151  0.019979054           13 
 1360000   0.70126461   -7.3079092    334.76989  0.020512861  0.019964703            7 
 1361000   0.70700877    -7.302471    335.08835  0.020517288  0.019950355            6 
 1362000   0.69459863   -7.3263365    334.23445  0.020449979  0.019936026           16 
 1363000   0.71661484   -7.2940541     334.8442  0.020472255  0.019921721           11 
 1364000   0.70543462   -7.2948991    334.30286  0.020424173  0.019907425            6 
 1365000   0.70956361   -7.2922042    335.08002  0.020456656  0.019893158            9 
 1366000   0.73263569   -7.2933996     335.2015  0.020449091  0.019878988           12 
 1367000   0.70808488   -7.2955301    335.70514  0.020464834   0.01986488            8 
 1368000   0.70812737   -7.3079491    334.99216  0.020406443  0.019850724            9 
 1369000   0.69347176   -7.3053745    334.94276   0.02038853  0.019836549           13 
 1370000   0.70815671   -7.3067242    335.57871  0.020412331  0.019822408           21 
 1371000   0.71753815   -7.3066041    334.64822  0.020340884  0.019808235            9 
 1372000   0.69773318   -7.3497835    335.19479  0.020359256  0.019794061            9 
 1373000   0.71743257   -7.2945669    335.58352  0.020368021  0.019779902            5 
 1374000   0.70665938   -7.2895918    335.50474  0.020348419  0.019765731           13 
 1375000     0.702976   -7.3202895    335.70038  0.020345478  0.019751625           18 
 1376000   0.69834566   -7.3240866    335.14413  0.020297004  0.019737526            9 
 1377000   0.68753203   -7.3382393    335.55653  0.020307222  0.019723427            7 
 1378000    0.7056595   -7.3605645    335.13926  0.020267251  0.019709353            5 
 1379000   0.69431708   -7.3456064    336.00989  0.020305166  0.019695237            7 
 1380000   0.69891262   -7.3396077    335.30048  0.020247613  0.019681106            7 
 1381000   0.69210199   -7.3278772    335.41109  0.020239626   0.01966698            9 
 1382000   0.69519295   -7.2995165    335.76533  0.020246341  0.019652917            8 
 1383000    0.6965576   -7.3154062    335.89513  0.020239523  0.019638891            8 
 1384000    0.7031447   -7.3235331    335.82869  0.020220899  0.019624869           18 
 1385000   0.68737065   -7.3108819    335.64325  0.020195141  0.019610788           22 
 1386000   0.70457953   -7.3172407    335.58441  0.020177033  0.019596705            7 
 1387000   0.69463266   -7.3263746    335.32454  0.020146872  0.019582659           13 
 1388000   0.71308604    -7.339907     335.5446  0.020145569   0.01956858           20 
 1389000   0.70779805    -7.334445    335.07836  0.020103093  0.019554524           11 
 1390000   0.69275903   -7.3319488    335.25088  0.020098974   0.01954048           13 
 1391000   0.69803107   -7.3393833    335.15708  0.020078905  0.019526434            9 
 1392000   0.68954422   -7.3382503     336.1762  0.020125491   0.01951237            9 
 1393000   0.68658507   -7.3196678    335.58609  0.020075741  0.019498306            8 
 1394000   0.69885277   -7.3282277    336.64513  0.020124649  0.019484281            4 
 1395000   0.67779177   -7.3448853    335.16395  0.020021741  0.019470238           14 
 1396000   0.68136135   -7.3405452    335.45212  0.020024601  0.019456168           15 
 1397000   0.69684731   -7.3634813    335.64987  0.020022063  0.019442107           14 
 1398000   0.70038405   -7.3547575    336.18714  0.020039767  0.019428077           10 
 1399000   0.69118745   -7.3322147    335.28491    0.0199717  0.019414034           17 
 1400000   0.68289283   -7.3594636    334.81068  0.019929207  0.019399982           20 
 1401000   0.68486814   -7.3643074    335.49171   0.01995549  0.019385941           19 
 1402000   0.70211655   -7.3384936    335.73858  0.019955931  0.019371894            7 
 1403000    0.6912105   -7.3441885    335.73349  0.019941405  0.019357945           12 
 1404000   0.68653642   -7.3505656    336.27202  0.019959165  0.019343932           11 
 1405000   0.69211167     -7.36561     335.5478  0.019902005  0.019329895            8 
 1406000   0.70342049   -7.3542345    336.43837  0.019940633  0.019315909           12 
 1407000   0.70204321   -7.3423796    336.33789   0.01992051  0.019301966           15 
 1408000   0.69015896   -7.3547352    336.22414   0.01989963  0.019288067            9 
 1409000   0.69847623    -7.362783    336.10586  0.019878511  0.019274135            7 
 1410000   0.69936808   -7.3681945    336.27479  0.019874397  0.019260276           18 
 1411000   0.68613865   -7.3636276    335.71822   0.01982744  0.019246396           22 
 1412000   0.68691733   -7.3397031    335.74961  0.019815251   0.01923249           20 
 1413000   0.69738573   -7.3603465    335.76777  0.019802298  0.019218618           11 
 1414000   0.71523442   -7.3612425    336.06314  0.019805701  0.019204772           17 
 1415000   0.68762779   -7.3576064    336.51281  0.019818186  0.019190929           15 
 1416000   0.68511212    -7.363353    336.48718  0.019802682  0.019177105           18 
 1417000   0.69949632   -7.3660958     337.0927  0.019824318  0.019163293           19 
 1418000   0.69251821   -7.3546313    337.25192  0.019819694  0.019149493           33 
 1419000   0.68302513   -7.3522596    336.26718  0.019747897  0.019135665           24 
 1420000   0.68965492    -7.351674    336.33952  0.019738235  0.019121823           34 
 1421000   0.68879562   -7.3523091    336.76533  0.019749316  0.019108038           17 
 1422000   0.67841378   -7.3572764    336.27851  0.019706898  0.019094224           19 
 1423000   0.69317708   -7.3656009    337.05469  0.019738504  0.019080422           10 
 1424000   0.68886696   -7.3722446    336.50214  0.019692307  0.019066675           19 
 1425000   0.68686749    -7.355959    336.58563   0.01968337  0.019052959           23 
 1426000   0.69318372   -7.3463456    336.48787  0.019663854  0.019039224           24 
 1427000   0.69529617   -7.3459812    336.85461  0.019671491  0.019025573           13 
 1428000   0.67165743   -7.3541136    336.86497   0.01965832  0.019011916           10 
 1429000    0.6786702   -7.3796621    336.74822  0.019637755  0.018998243           13 
 1430000   0.66718757   -7.3687914      336.944  0.019635431  0.018984566           16 
 1431000   0.66563712   -7.3370533    337.23994  0.019638943  0.018970894           11 
 1432000   0.67456185   -7.3417151     337.0223  0.019612564  0.018957252           10 
 1433000   0.68723224   -7.3728607    337.53558  0.019628726  0.018943609           15 
 1434000   0.68430692   -7.3765367    336.93949  0.019580398  0.018929963           17 
 1435000   0.67708473   -7.3468704    337.68116  0.019609823  0.018916343           23 
 1436000   0.67950962   -7.3564097    337.12923  0.019564138  0.018902741           15 
 1437000   0.69897267   -7.3421953    337.12513  0.019550286  0.018889205           20 
 1438000   0.67116189   -7.3824675     336.8451  0.019520462  0.018875685           27 
 1439000    0.6757213   -7.3780895    337.49207  0.019544364  0.018862115           28 
 1440000   0.67161049   -7.3730125    337.63255  0.019538921   0.01884855           19 
 1441000   0.66708037   -7.3524538    337.54808  0.019520476   0.01883501           27 
 1442000   0.68900787   -7.3913644    337.10012  0.019481052  0.018821459           12 
 1443000   0.67016086   -7.3826554    337.07432  0.019466061  0.018807875           12 
 1444000   0.69434559   -7.3683624    337.42739  0.019472957  0.018794302           16 
 1445000   0.66077318    -7.380055    337.91407  0.019487547   0.01878076           17 
 1446000   0.67083422   -7.3812826    337.08683  0.019426396  0.018767201           24 
 1447000    0.6887579   -7.3623479     336.6715  0.019389052  0.018753661           16 
 1448000   0.67850143   -7.3729968    337.34637  0.019414501  0.018740089           16 
 1449000   0.67583743   -7.3522087    337.32137  0.019399665  0.018726547            9 
 1450000   0.67958314    -7.395659    337.08157  0.019372504  0.018713006           33 
 1451000   0.67313286   -7.3621163    337.25884  0.019369334  0.018699417           22 
 1452000   0.67839432   -7.3871716    336.94581  0.019338029  0.018685856           17 
 1453000   0.66752763   -7.3862883    337.35436  0.019348151  0.018672297           31 
 1454000   0.67199119   -7.3929681    336.79352    0.0193027  0.018658724           24 
 1455000   0.67354533   -7.3914712     336.6417  0.019280739  0.018645135           34 
 1456000   0.65991177   -7.4091161    337.66082  0.019325825  0.018631588            9 
 1457000   0.66125496   -7.4020088    337.14307  0.019282948  0.018618011           13 
 1458000   0.67681891    -7.415332      337.338  0.019280864   0.01860442           27 
 1459000    0.6620428   -7.3963924    337.87359   0.01929824  0.018590848            9 
 1460000    0.6768109   -7.4134019    337.44044  0.019260299   0.01857727           18 
 1461000   0.67400191   -7.3977319    337.03167  0.019223801  0.018563708           20 
 1462000   0.67487766   -7.4224615    337.69577  0.019248505  0.018550154            8 
 1463000   0.65280789   -7.3990672    337.49505  0.019223915   0.01853657           21 
 1464000   0.68020458   -7.4197255    336.97996  0.019181464  0.018522984            9 
 1465000   0.67451163   -7.4191796    336.91702  0.019164791  0.018509388           29 
 1466000   0.67098895   -7.3892061    337.18829  0.019167138  0.018495787           27 
 1467000   0.67408762   -7.4148506     337.1091  0.019149574  0.018482252           12 
 1468000   0.65727611   -7.4179113    337.06675  0.019134125  0.018468705            5 
 1469000   0.67459515   -7.4012131    336.45606  0.019086457  0.018455163           19 
 1470000   0.66689412   -7.4033153    336.97029  0.019102624  0.018441591           14 
 1471000   0.65652806   -7.4035846    337.23766  0.019104785  0.018428044           28 
 1472000   0.66270248   -7.4328845    337.72065  0.019119149  0.018414502           11 
 1473000   0.65777689   -7.4318094    337.18652  0.019075951  0.018400981           28 
 1474000   0.66784808   -7.4109689    336.83437  0.019043101   0.01838745           18 
 1475000   0.65168933    -7.408516    337.34337  0.019058947  0.018373919           21 
 1476000   0.66904071   -7.3876473    337.30316  0.019043765   0.01836044           25 
 1477000   0.66452083   -7.4347828    336.95237   0.01901108  0.018346984           11 
 1478000   0.67003049   -7.4240254    337.62868  0.019036349   0.01833355            7 
 1479000   0.66598414   -7.4054283    336.85508  0.018979889  0.018320145            7 
 1480000   0.66878353   -7.4001269    338.04985  0.019034339  0.018306746           22 
 1481000   0.66447736   -7.3967367    337.82008  0.019008557  0.018293373            9 
 1482000   0.66396151   -7.4207097    337.52534  0.018979157  0.018279999           12 
 1483000    0.6513719   -7.4190833    337.08139  0.018941413  0.018266578           19 
 1484000   0.66383319   -7.4038833    337.65439  0.018960826  0.018253225           12 
 1485000   0.66164525   -7.4258861    338.33242  0.018986106  0.018239848           16 
 1486000    0.6561015   -7.3911859    338.01326  0.018955432  0.018226494           13 
 1487000   0.65715964   -7.4311473    337.67672  0.018923824  0.018213104           10 
 1488000   0.66944418   -7.4158777     337.0325  0.018875028  0.018199716           23 
 1489000   0.67345306    -7.431219    337.75178  0.018902607  0.018186306           13 
 1490000   0.65353278   -7.4341365    337.64016  0.018883678  0.018172868            7 
 1491000   0.65408174   -7.4074205    336.68778  0.018817784  0.018159446            8 
 1492000    0.6693233   -7.4150884    337.51877  0.018851584  0.018146028           10 
 1493000    0.6548473   -7.4393713    337.61247  0.018844188  0.018132564           13 
 1494000   0.65644617   -7.4313092    337.23261  0.018810387  0.018119095            7 
 1495000   0.65271633   -7.4160135    337.62099  0.018819453  0.018105687           23 
 1496000    0.6544119   -7.4230475    336.83766  0.018763238  0.018092293           23 
 1497000   0.63949708    -7.428328    337.73442  0.018800624  0.018078876            8 
 1498000   0.66129785   -7.4263309    337.48147  0.018774002  0.018065494           35 
 1499000   0.65843711   -7.4280168    338.61785  0.018824653  0.018052087           23 
 1500000   0.64419667   -7.4249647    337.45799  0.018747666  0.018038666           21 
 1501000   0.64231477     -7.43638    337.61494  0.018743889  0.018025279           24 
 1502000   0.64104173   -7.4513147    337.09989  0.018702835  0.018011901            6 
 1503000    0.6391814   -7.4513259    337.61503  0.018718953  0.017998509           27 
 1504000   0.65147395   -7.4293822    337.16066  0.018681331  0.017985117           20 
 1505000   0.64681604   -7.4361335    337.33921  0.018678805  0.017971764           19 
 1506000   0.65942134    -7.427878    337.48197  0.018674301  0.017958385           23 
 1507000   0.66538014   -7.4376705    337.14892  0.018643492  0.017945035           19 
 1508000    0.6558932   -7.4386496    337.14102  0.018630693  0.017931624           24 
 1509000   0.65885425   -7.4277618    336.41404    0.0185782  0.017918212           18 
 1510000   0.65992959   -7.4242403    337.50209  0.018625943   0.01790484           21 
 1511000   0.64606552   -7.4445642    336.95385   0.01858338  0.017891489           18 
 1512000   0.64701693   -7.4375621    337.28967  0.018589598  0.017878094           21 
 1513000   0.65643506   -7.4681457    336.81229  0.018551019  0.017864695           21 
 1514000   0.65957464   -7.4636848    336.94434  0.018546033  0.017851271           22 
 1515000   0.65016125   -7.4533269    336.87191  0.018529808   0.01783785           38 
 1516000    0.6466733   -7.4470784    336.72836  0.018509694  0.017824484           20 
 1517000   0.64486037   -7.4486101    336.90848  0.018507387  0.017811091           14 
 1518000   0.63847123   -7.4470428    336.89861  0.018494654  0.017797689           13 
 1519000   0.64347485   -7.4606125    336.76418  0.018475103   0.01778426           34 
 1520000   0.65021542   -7.4836587    336.72542  0.018460823  0.017770839           13 
 1521000   0.63920485   -7.4516308    336.39897  0.018430801  0.017757422           13 
 1522000   0.65382039    -7.452855    336.80142  0.018440726  0.017744033           34 
 1523000   0.63683967   -7.4732219    336.19498  0.018395436  0.017730623           26 
 1524000   0.65365327   -7.4547898     336.6749  0.018409608  0.017717238           24 
 1525000   0.64468304   -7.4676232    336.11329  0.018366847  0.017703849           31 
 1526000   0.65770867   -7.4659563    336.55689  0.018379035   0.01769046           19 
 1527000   0.66059608   -7.4631862    337.28946  0.018406978   0.01767712           15 
 1528000   0.65055854   -7.4718299    337.23631  0.018392033  0.017663795           19 
 1529000   0.64959405   -7.4576465    337.14071  0.018374794  0.017650473           15 
 1530000   0.65251582   -7.4363687    337.10567  0.018360875  0.017637167           14 
 1531000   0.64636472    -7.463607    336.54437  0.018318331  0.017623906           24 
 1532000    0.6383434   -7.4444718    336.56949   0.01830774  0.017610638           15 
 1533000   0.63291661   -7.4659735    337.38617  0.018340192  0.017597373           17 
 1534000   0.63642505   -7.4643313    337.21862  0.018319134  0.017584122            8 
 1535000    0.6543577   -7.4601308      337.043  0.018297666  0.017570922           27 
 1536000   0.64557674   -7.4580945    337.16987  0.018292636  0.017557714           25 
 1537000    0.6440333   -7.4597882    337.59252   0.01830365  0.017544519           39 
 1538000   0.62944714   -7.4687384    337.20307  0.018270648  0.017531333           18 
 1539000   0.63513085   -7.4590152    336.92993  0.018243986  0.017518143           14 
 1540000   0.63385442   -7.4682288    336.45554  0.018206469  0.017504963           58 
 1541000   0.65648671   -7.4596486    336.85005  0.018215988  0.017491774           20 
 1542000   0.63775671   -7.4785742    337.60971  0.018245228  0.017478575           27 
 1543000    0.6263086   -7.4848072    337.05139  0.018203251  0.017465382           20 
 1544000   0.64000453   -7.4801227     336.4373  0.018158317  0.017452172           23 
 1545000   0.63046802   -7.4789679    337.07881  0.018181166  0.017439017           14 
 1546000   0.64813534   -7.4867474    336.80056  0.018154407  0.017425841           44 
 1547000   0.63874249   -7.4551391    336.68771  0.018136593  0.017412682           26 
 1548000   0.64684823    -7.465162    336.69129  0.018125069  0.017399494           19 
 1549000   0.63642972   -7.4792128    336.99009  0.018129443  0.017386292           37 
 1550000   0.62177856   -7.4655315    336.88633  0.018112169  0.017373132           35 
 1551000   0.64037325   -7.4831672    337.08178  0.018110992  0.017359996           23 
 1552000   0.62974828   -7.4904129    336.38818   0.01806208  0.017346845           26 
 1553000   0.62423347   -7.4840809    336.90898  0.018078395  0.017333669           15 
 1554000   0.62796792   -7.5013898    337.84138  0.018116762  0.017320544           24 
 1555000   0.63671679   -7.4864104    337.52823  0.018088329  0.017307404           32 
 1556000   0.63738963   -7.5265148    336.48036  0.018020585  0.017294266           25 
 1557000    0.6343642   -7.4979355    337.16302  0.018045548  0.017281139           27 
 1558000   0.62361408   -7.5042969    336.85956  0.018017734  0.017268046           33 
 1559000   0.62109116   -7.5001909    336.80016  0.018003002  0.017254945           18 
 1560000   0.62018756   -7.5090981     337.7022  0.018039648  0.017241859           26 
 1561000   0.63102341   -7.5006983    337.18837   0.01800066  0.017228794           36 
 1562000   0.64200709   -7.4813714    337.01484  0.017979879  0.017215751           18 
 1563000   0.63175463   -7.4900915    336.77455  0.017955564  0.017202729           32 
 1564000   0.63370847   -7.4802247    336.73002   0.01794171  0.017189729           16 
 1565000   0.61997353   -7.5035924    336.41951  0.017913712   0.01717668           34 
 1566000   0.64214368   -7.4935876    337.25982  0.017946989   0.01716366           27 
 1567000   0.63119394   -7.4771767    336.76856  0.017909411  0.017150658           47 
 1568000   0.61552759   -7.4963573    336.65235  0.017891813  0.017137626           46 
 1569000   0.62638266   -7.4890083    336.98912  0.017898296  0.017124627           51 
 1570000   0.62022548   -7.4985641    336.61367  0.017866968  0.017111636           85 
 1571000    0.6284691   -7.4992673    337.37577   0.01789602  0.017098662           53 
 1572000   0.61441777   -7.4742813    336.58528  0.017842731  0.017085685           74 
 1573000   0.64176528    -7.506862     336.5961  0.017831961  0.017072734           38 
 1574000   0.61285723   -7.5042625    337.09045  0.017846805  0.017059776           53 
 1575000   0.62310594   -7.4886531    337.24969  0.017843899  0.017046851           38 
 1576000   0.61921031   -7.4876992    336.79052  0.017808297  0.017033895           25 
 1577000   0.61314134     -7.48172    337.01471  0.017808852  0.017020964           40 
 1578000   0.62162859   -7.4968165    337.09928  0.017802032  0.017008031           39 
 1579000   0.61572251   -7.5006883    337.04437   0.01778786  0.016995119           73 
 1580000   0.63041011   -7.5142701    336.67777  0.017757266  0.016982204           25 
 1581000   0.61631419   -7.5036414    336.67061  0.017745657  0.016969314           38 
 1582000   0.62619811   -7.4983726    336.65441  0.017733587  0.016956425           34 
 1583000   0.62242446   -7.5140711    337.11532  0.017746648   0.01694355           35 
 1584000   0.63049743    -7.518706    336.77636  0.017717612  0.016930703           36 
 1585000   0.61960244   -7.5161721    336.82787  0.017709142  0.016917838           27 
 1586000   0.61507026   -7.5279763    336.42513  0.017676814  0.016904957           60 
 1587000     0.635307   -7.4991145    336.92812  0.017692088  0.016892119           27 
 1588000   0.63018582   -7.5059886    337.07255  0.017688526  0.016879283           41 
 1589000   0.62754027   -7.5137434    336.97215  0.017672129  0.016866481           25 
 1590000   0.62020654   -7.5295906    337.52598  0.017690041  0.016853694           34 
 1591000   0.62144898   -7.5211738    337.22708  0.017663266  0.016840893           33 
 1592000   0.62629092   -7.5054081    337.55642   0.01766941  0.016828129           37 
 1593000   0.62063792   -7.4878791    336.89322  0.017623625  0.016815369           23 
 1594000   0.62672922   -7.5035974     337.1302  0.017624958  0.016802616           27 
 1595000   0.61466626   -7.5281703    337.92708  0.017655542  0.016789855           20 
 1596000   0.61198065   -7.5160931    337.25431  0.017609352  0.016777104           32 
 1597000   0.61239408   -7.5140298    337.74511  0.017623936  0.016764371           20 
 1598000   0.60153311    -7.494593    336.85201  0.017566333  0.016751672           27 
 1599000   0.61235511   -7.5205909    337.56159  0.017592328  0.016738959           14 
 1600000   0.62009241   -7.4853906    337.67977  0.017587488   0.01672626           11 
 1601000   0.61834693   -7.5099824    337.68259  0.017576649  0.016713582           19 
 1602000   0.62454249   -7.5250255    337.27379  0.017544413  0.016700892           20 
 1603000   0.61027822   -7.5351179    337.28219  0.017533904  0.016688197           30 
 1604000   0.60645931   -7.5505458    336.39375  0.017476816  0.016675493           17 
 1605000   0.60445884   -7.5248637    336.82207  0.017488166  0.016662785           13 
 1606000   0.60029283   -7.5391394    336.62126  0.017466857  0.016650085           24 
 1607000   0.62349622   -7.5182522    336.89691  0.017470282   0.01663739           44 
 1608000    0.5972679   -7.5299591    336.60368   0.01744422  0.016624722           51 
 1609000   0.61796501   -7.5316044     337.4518  0.017477304  0.016612064           23 
 1610000   0.62188506   -7.5449962    337.09583  0.017448024  0.016599429           24 
 1611000   0.60353653   -7.5294212    337.09171  0.017436981  0.016586806           24 
 1612000   0.61462546   -7.5164386    337.28131  0.017435965    0.0165742           36 
 1613000   0.60517522   -7.5606292    337.13321  0.017417504  0.016561601           35 
 1614000     0.615748   -7.5303767    336.86475  0.017392851  0.016549004           27 
 1615000   0.60997018   -7.5256569     337.5369  0.017416765  0.016536399           36 
 1616000    0.6076465   -7.5271009    336.65319  0.017360416  0.016523803           48 
 1617000   0.61290164   -7.5500689    336.93604  0.017364257  0.016511193           27 
 1618000   0.61076883   -7.5301355    336.59101  0.017335755  0.016498613           25 
 1619000   0.60818989   -7.5579627    336.84123  0.017337926  0.016486043           52 
 1620000   0.60343045   -7.5209141    336.43315  0.017306232  0.016473431           38 
 1621000   0.60382371   -7.5330241    336.63498  0.017305932   0.01646085           39 
 1622000   0.60472992   -7.5326776    336.77946  0.017302685  0.016448252           28 
 1623000   0.61289969   -7.5488811    336.60085  0.017282853  0.016435645           23 
 1624000   0.60349904   -7.5673628    337.20154  0.017303035   0.01642303           36 
 1625000   0.59748937    -7.530427     336.4965  0.017256231  0.016410442           20 
 1626000   0.59890143   -7.5486575    337.03265  0.017273096  0.016397857           32 
 1627000   0.59514232   -7.5453283    336.58354  0.017239476  0.016385301           32 
 1628000   0.60511041   -7.5414386    336.09028  0.017203639  0.016372754           27 
 1629000   0.60468367   -7.5564531    336.51053  0.017214576  0.016360207           55 
 1630000    0.5997959   -7.5414788    337.21492  0.017240027   0.01634767           38 
 1631000   0.60618098   -7.5410325     336.8839  0.017212544  0.016335149           33 
 1632000   0.60471163   -7.5416777    336.55626  0.017185267  0.016322619           29 
 1633000   0.60722184   -7.5205064    336.94935  0.017194802  0.016310116           42 
 1634000   0.60284949   -7.5483394    336.77232  0.017175251  0.016297613           19 
 1635000   0.59448848   -7.5400171    336.55084  0.017153457  0.016285121           68 
 1636000    0.6014238   -7.5535858    337.20556  0.017176322  0.016272625           30 
 1637000   0.60503121   -7.5628747    336.74533  0.017142401  0.016260122           34 
 1638000   0.60837397   -7.5686183    336.99906  0.017144844   0.01624764           32 
 1639000   0.59872496   -7.5596023    336.42652  0.017105273  0.016235151           21 
 1640000    0.5948118   -7.5576586    336.02029  0.017074202  0.016222657           23 
 1641000   0.59887648   -7.5565537    335.79677  0.017052446  0.016210176           41 
 1642000    0.5989169   -7.5750882    336.37297  0.017071304    0.0161977           32 
 1643000   0.59721211   -7.5600199    336.37036  0.017060781  0.016185199           20 
 1644000   0.59424226   -7.5765901    336.20881  0.017042215  0.016172724           28 
 1645000   0.59571461   -7.5993258    335.76937  0.017009593  0.016160254           25 
 1646000    0.6067132   -7.5650947    336.16546  0.017019313  0.016147788           37 
 1647000   0.59626692   -7.5488714    336.46405  0.017024087  0.016135356           44 
 1648000   0.59362154   -7.5927419    336.04357  0.016992494  0.016122913           23 
 1649000    0.5994795   -7.5868318    336.46639  0.017003557  0.016110492           22 
 1650000   0.59573932   -7.5695242    336.48621  0.016994253  0.016098066           37 
 1651000   0.59937924   -7.5617415     335.8495  0.016951822  0.016085656           25 
 1652000   0.58165072   -7.5710077    336.50658  0.016974706   0.01607328           20 
 1653000   0.60303103   -7.5559325    336.90553   0.01698455  0.016060915           27 
 1654000   0.59013017   -7.5622744    336.61416  0.016959601   0.01604858           44 
 1655000    0.5949119   -7.5801223      336.326  0.016934844  0.016036223           34 
 1656000   0.59368355   -7.5595647    336.74442  0.016945673  0.016023869           58 
 1657000   0.58784784   -7.5717671    336.18375  0.016907249   0.01601151           29 
 1658000   0.58310168   -7.5849227    335.99641  0.016887636   0.01599916           19 
 1659000   0.57844499   -7.5715625    336.40809  0.016898136  0.015986809           48 
 1660000   0.57862451   -7.5724571    335.81919  0.016858393  0.015974456           49 
 1661000   0.58292051   -7.5498556    336.36064  0.016875408  0.015962137           59 
 1662000   0.58401762   -7.5564192    336.34194  0.016864317  0.015949844          107 
 1663000    0.6052448    -7.542442     336.3508   0.01685462  0.015937575           64 
 1664000   0.58428434    -7.556359    336.40039  0.016846975  0.015925292           85 
 1665000   0.58871648   -7.5643831    336.78381  0.016856047  0.015913022          128 
 1666000   0.58343099   -7.5651677    336.70943  0.016842208  0.015900767          119 
 1667000   0.57909706   -7.5756446    336.43053  0.016818163  0.015888518           72 
 1668000   0.59349714    -7.576969    336.31364   0.01680224   0.01587627           46 
 1669000   0.57119656   -7.5676884    335.75561   0.01676431  0.015864024          106 
 1670000   0.58418638   -7.5886642    336.86004  0.016809383   0.01585177           48 
 1671000   0.57823539   -7.5887943    335.82351  0.016747632  0.015839528           41 
 1672000   0.58666291   -7.5737623    336.00715  0.016746768  0.015827313           60 
 1673000   0.58456258   -7.5976844    336.26277  0.016749491  0.015815073           84 
 1674000   0.59600446   -7.5938586    336.27727  0.016740207  0.015802847           74 
 1675000   0.58404726   -7.6134624    335.86001  0.016709453  0.015790624           50 
 1676000   0.59687256   -7.6067629    336.52636  0.016732615  0.015778402           45 
 1677000   0.58528736   -7.5662803    335.89284  0.016691157  0.015766182           60 
 1678000   0.58260309   -7.5735566    335.95944  0.016684517  0.015753971           60 
 1679000   0.58808988    -7.594525    336.40586  0.016696737  0.015741761           92 
 1680000   0.59164659   -7.6081641    335.81855  0.016657666  0.015729579           80 
 1681000   0.58083244   -7.5984181    336.17619  0.016665486  0.015717407           84 
 1682000   0.58403098   -7.5934826     335.8308  0.016638466  0.015705221           43 
 1683000   0.56696986   -7.5881853    336.16293  0.016645025  0.015693051           46 
 1684000   0.58476218   -7.5958352    336.25342  0.016639619  0.015680912           72 
 1685000    0.5741574    -7.584118    336.33016  0.016633539  0.015668794           64 
 1686000   0.58435027   -7.5832194    335.92599  0.016603697  0.015656672           68 
 1687000   0.57448868   -7.5864983     335.6059  0.016578043  0.015644532           60 
 1688000   0.57575072   -7.5991119    335.65311  0.016570552  0.015632407           92 
 1689000   0.57751496   -7.5944686    335.90781  0.016573308  0.015620299           50 
 1690000   0.57839561    -7.601448    336.31919  0.016583787  0.015608199           71 
 1691000   0.57020417   -7.6065839    336.24371   0.01657026  0.015596103           53 
 1692000   0.56042781   -7.5939795    336.95717  0.016595605  0.015584021           35 
 1693000    0.5770667    -7.595361    336.00353  0.016538862  0.015571959           32 
 1694000   0.58781326   -7.6065866     335.8681  0.016522437  0.015559899           35 
 1695000   0.57610345   -7.5815029    336.45616  0.016541601   0.01554785           37 
 1696000   0.57760991   -7.6078346    336.03969  0.016511384   0.01553582           45 
 1697000   0.58250524   -7.5960895    335.83855  0.016491777  0.015523783           61 
 1698000    0.5708949   -7.6099122    336.11468  0.016495616   0.01551175           46 
 1699000   0.56636339   -7.5771856    335.97479  0.016479046  0.015499731           31 
 1700000   0.58642138   -7.5946294     336.0496   0.01647302  0.015487718           73 
 1701000   0.57641701   -7.6060059    336.40992  0.016480988  0.015475714           34 
 1702000   0.57161505   -7.6062589    335.97658  0.016450087   0.01546372           51 
 1703000   0.56284426   -7.6198829    335.41897  0.016413142  0.015451726           77 
 1704000   0.58076763   -7.6075618    335.76908  0.016420632  0.015439741           42 
 1705000   0.58248287   -7.5803792    335.60915  0.016403184  0.015427785           53 
 1706000   0.57627698   -7.6106458    335.31189  0.016379049  0.015415827           50 
 1707000   0.57536874   -7.6017943    336.14875  0.016410308  0.015403873           35 
 1708000   0.56151303   -7.6059693    336.15292  0.016400904  0.015391935           51 
 1709000   0.56851428    -7.601783    335.62716   0.01636567  0.015380023           67 
 1710000   0.57466805   -7.6046845    336.47923  0.016397623  0.015368109           37 
 1711000   0.56226418   -7.6072354    335.70148   0.01635016   0.01535622           45 
 1712000    0.5624208   -7.6089298     335.9464  0.016352531  0.015344338           43 
 1713000   0.57301003   -7.5829444     336.1733  0.016354023  0.015332476           16 
 1714000   0.57261112   -7.6154883    336.31258  0.016351253  0.015320628           36 
 1715000    0.5707584   -7.5923979    336.18708  0.016335621  0.015308775           29 
 1716000   0.57099776    -7.615429    336.04925  0.016319408  0.015296928           71 
 1717000   0.56985026   -7.6051775    336.19362   0.01631691  0.015285109           58 
 1718000   0.56621677   -7.6178694    335.84529  0.016290517  0.015273277           34 
 1719000   0.55791378   -7.6021542    335.72762  0.016275335  0.015261457           44 
 1720000    0.5635981   -7.6122537    334.87535  0.016224581  0.015249624           42 
 1721000   0.56354597   -7.6151239    335.66407  0.016253344  0.015237815           46 
 1722000   0.57432045   -7.6179018     336.0287  0.016261551  0.015226017           40 
 1723000   0.57854914   -7.6181399    335.65245  0.016233916  0.015214224           20 
 1724000   0.56334492   -7.6129303    335.94474  0.016238628  0.015202454           67 
 1725000   0.56219422   -7.6175108    335.07755  0.016187321  0.015190704           52 
 1726000   0.55625079   -7.6117173    335.23802   0.01618569  0.015178944           84 
 1727000   0.55399444   -7.6111609    336.26581  0.016225913  0.015167194           83 
 1728000    0.5516235   -7.6061603    335.94308  0.016200959  0.015155446           90 
 1729000   0.56261628   -7.6263599    335.74535  0.016182059  0.015143742           46 
 1730000   0.56268466   -7.6200848    335.97007  0.016183529  0.015132021           48 
 1731000   0.56671965   -7.6273736    336.59787  0.016204404  0.015120305           62 
 1732000   0.56408834   -7.6141683    336.12129  0.016172118  0.015108596           21 
 1733000   0.55375131   -7.6033972    336.30166  0.016171459    0.0150969           68 
 1734000   0.56700779    -7.647332    336.32184  0.016163103  0.015085217           46 
 1735000   0.56939399   -7.6268506     335.9518  0.016136014  0.015073546           51 
 1736000   0.55340141   -7.6399067    335.81773  0.016120283  0.015061865           40 
 1737000   0.55960633   -7.6170958    335.90203  0.016115047  0.015050197           62 
 1738000   0.55285149   -7.6135797    335.77798  0.016099826  0.015038551           40 
 1739000   0.55477723   -7.6295579     335.1215   0.01605911  0.015026903           74 
 1740000   0.56821871   -7.6247637    335.73999  0.016079501  0.015015264           53 
 1741000   0.55167798   -7.6125511    335.52896  0.016060165   0.01500363           87 
 1742000   0.55514875   -7.6266138    335.32812  0.016041338  0.014992018          141 
 1743000   0.56340804   -7.6244269    335.93839  0.016061312  0.014980407           64 
 1744000   0.56208659   -7.6444683    335.93394  0.016051889  0.014968816           95 
 1745000   0.55225391   -7.6145476    335.81565  0.016037042  0.014957219           95 
 1746000   0.55796174   -7.6430284    335.33174   0.01600476  0.014945628           39 
 1747000   0.55735307   -7.6449783    335.81076  0.016018449  0.014934053           69 
 1748000   0.53753873   -7.6439719    335.24088  0.015982117  0.014922483           38 
 1749000   0.56092562   -7.6444971    335.32089  0.015976791  0.014910921          117 
 1750000   0.55966658   -7.6374452    335.38304  0.015970621  0.014899375          123 
 1751000   0.54538429   -7.6506043    335.65942  0.015974653   0.01488783           65 
 1752000   0.53945795   -7.6460916    335.23315   0.01594526  0.014876282           64 
 1753000   0.55917659   -7.6383745    335.23904  0.015936444   0.01486475           84 
 1754000   0.54951187   -7.6514705    335.41403  0.015935672  0.014853234           56 
 1755000   0.55483912   -7.6428669    335.74904    0.0159425  0.014841728          129 
 1756000   0.55535889   -7.6326877    335.26083  0.015910252  0.014830226          111 
 1757000   0.56044178   -7.6516182     335.5832  0.015916487   0.01481875          130 
 1758000   0.55378883   -7.6428857    335.55979  0.015906323  0.014807284          119 
 1759000   0.54342932   -7.6804677    335.63156   0.01590068  0.014795803          116 
 1760000   0.54708693    -7.630234    335.23368  0.015872807  0.014784321           94 
 1761000   0.55790473   -7.6545476    335.03921   0.01585459  0.014772863           52 
 1762000   0.54975056   -7.6347628    335.57595  0.015870978  0.014761405          113 
 1763000   0.55126339   -7.6439257     335.5631  0.015861368  0.014749945          156 
 1764000   0.54068831   -7.6349103    335.49608   0.01584921  0.014738506           85 
 1765000   0.55324633   -7.6599989    335.51926  0.015841325  0.014727076           39 
 1766000   0.55514344   -7.6457106    335.47537  0.015830283   0.01471566           57 
 1767000   0.55005876   -7.6472644    335.50532  0.015822737  0.014704268           45 
 1768000   0.53954455   -7.6498897    335.55442  0.015816102  0.014692874           39 
 1769000   0.54991004    -7.621175     335.6398  0.015811183   0.01468149           42 
 1770000   0.56485934   -7.6518884    335.45895  0.015793736  0.014670128          105 
 1771000   0.55571354   -7.6564406    335.23843  0.015774441  0.014658773           82 
 1772000   0.54700341   -7.6319352    334.99955  0.015754306  0.014647422           31 
 1773000   0.55351381   -7.6329658    335.64285  0.015775656  0.014636099           66 
 1774000   0.53854471   -7.6486716    335.49741  0.015759931  0.014624776          119 
 1775000   0.54588381   -7.6625991     335.1971  0.015736953  0.014613455           75 
 1776000   0.54675083   -7.6533424    335.81639  0.015757151  0.014602134           70 
 1777000   0.55373433   -7.6594319    335.47142  0.015732106  0.014590832           80 
 1778000   0.55413355   -7.6723635    335.60054  0.015729309  0.014579532           49 
 1779000   0.53620527   -7.6454846    335.04964  0.015694662   0.01456825           71 
 1780000   0.55073758   -7.6732665    335.26385  0.015695873  0.014556967           52 
 1781000   0.53536791   -7.6638925    334.79223  0.015664993   0.01454568           82 
 1782000   0.54024578   -7.6485623    335.25252  0.015677727  0.014534392          102 
 1783000   0.54229963   -7.6594859    335.57786   0.01568414  0.014523125           55 
 1784000   0.53752648   -7.6579821    335.25033  0.015660049  0.014511881           82 
 1785000   0.53228288   -7.6597898      335.264  0.015651914  0.014500649          121 
 1786000   0.53692072   -7.6650254    335.43106  0.015650945   0.01448941           44 
 1787000   0.53130754    -7.683104    335.17363  0.015630182  0.014478182           41 
 1788000    0.5372528   -7.6743728    335.74844  0.015648231  0.014466956           72 
 1789000   0.54255475    -7.692396    335.17376  0.015612715  0.014455742          116 
 1790000   0.52994312   -7.6615185     334.8575  0.015589269  0.014444526           71 
 1791000   0.54431211   -7.6636697    335.35059  0.015603508   0.01443333           45 
 1792000   0.53533879   -7.6701817     335.9549  0.015622903  0.014422149           78 
 1793000   0.53361538   -7.6695608    335.09686   0.01557431  0.014410969           46 
 1794000   0.54226276   -7.6693311    335.27809  0.015574047  0.014399791           51 
 1795000   0.53956007   -7.6837814    334.56779  0.015532395  0.014388621           96 
 1796000   0.52413196   -7.6749503    334.93306  0.015540695  0.014377463           57 
 1797000   0.53778192    -7.675126    335.16335  0.015542726  0.014366303           73 
 1798000   0.52346447   -7.6678735    334.92112  0.015522855  0.014355153           70 
 1799000    0.5466825   -7.6829803    334.75547  0.015506553  0.014344034           71 
 1800000   0.52425757   -7.6604009    334.83961  0.015501834  0.014332912           83 
 1801000   0.52906211   -7.6823266    335.29579  0.015514334  0.014321805          105 
 1802000   0.54955571   -7.6701027    335.01232  0.015492615  0.014310695          126 
 1803000   0.53898813   -7.6784561    334.74952  0.015471876  0.014299601           61 
 1804000    0.5333239   -7.6695803    335.09008  0.015479032  0.014288525           87 
 1805000   0.53353588   -7.6761411    334.23373   0.01543092  0.014277449           34 
 1806000   0.53762834   -7.6631103    335.00392  0.015457914  0.014266373           48 
 1807000   0.51940686   -7.6688087    335.02687  0.015450418  0.014255305           76 
 1808000   0.53312088    -7.682806    335.08567  0.015444583   0.01424425           68 
 1809000   0.53371046   -7.6744003    334.95715  0.015430125  0.014233204           84 
 1810000   0.52850094   -7.6652596    334.43015  0.015397336   0.01422215           45 
 1811000   0.53995379   -7.6940467    335.38846  0.015432931   0.01421113           86 
 1812000   0.53559116   -7.6669475    334.08649  0.015364537  0.014200118           54 
 1813000   0.53811281   -7.6888959    334.98947  0.015397567  0.014189114           72 
 1814000   0.52009968   -7.6823947    334.89803  0.015384878  0.014178099           73 
 1815000   0.53031899   -7.6848296    334.70455  0.015367518  0.014167095           38 
 1816000   0.52824771   -7.6858848    335.00074  0.015372648  0.014156133           72 
 1817000   0.53360976   -7.6730298    335.07352  0.015367525  0.014145144          102 
 1818000   0.52066387   -7.6767055    335.08659  0.015359671  0.014134177           63 
 1819000   0.52836016   -7.7060397    334.94003  0.015344513  0.014123213           80 
 1820000    0.5289166   -7.7038411    334.50082  0.015315971  0.014112245           43 
 1821000   0.53301823   -7.6807731    334.90242  0.015325939  0.014101303           66 
 1822000   0.53704282   -7.6869884    334.58593  0.015303052   0.01409036           67 
 1823000   0.50757889   -7.6934196    334.83439  0.015306015  0.014079432           63 
 1824000   0.52640714   -7.7022737    334.83705  0.015297745  0.014068522           78 
 1825000    0.5254785   -7.6960937    334.97443  0.015295636  0.014057598           51 
 1826000   0.50519684   -7.6989734     334.7608   0.01527751  0.014046697           72 
 1827000   0.52538643   -7.6995416    334.62592  0.015262996  0.014035797           58 
 1828000   0.53361489    -7.697445    334.72553  0.015259187  0.014024913           73 
 1829000    0.5337755   -7.6780424    334.93315  0.015260304  0.014014057           66 
 1830000   0.54149811    -7.705036     334.9508  0.015252768  0.014003202           38 
 1831000   0.52682004   -7.7024579     334.4337  0.015220904   0.01399234           78 
 1832000   0.52507469   -7.7028609    334.77475  0.015228109  0.013981492           52 
 1833000   0.52566617   -7.7015145    334.10259  0.015189243  0.013970649           69 
 1834000   0.51593795   -7.7108411    334.69202  0.015207744  0.013959819           63 
 1835000   0.52781419   -7.7160319    335.09083  0.015217567  0.013948996           91 
 1836000    0.5291969   -7.7118653    334.88471  0.015199923  0.013938196           83 
 1837000    0.5180246   -7.7065711    334.71867  0.015184117    0.0139274           80 
 1838000   0.52325602    -7.684708    335.14079  0.015194994  0.013916619           89 
 1839000    0.5194581   -7.7069079    334.76795  0.015169837  0.013905853           62 
 1840000   0.51781918   -7.7066526     335.0531  0.015174506  0.013895072           49 
 1841000   0.51039599   -7.7201488    334.89828  0.015159256  0.013884313           70 
 1842000   0.51873629   -7.6985493    334.88073  0.015150232  0.013873556           74 
 1843000    0.5028133   -7.6915457    334.90167  0.015142959  0.013862813           73 
 1844000   0.52060036   -7.7159589    334.87854  0.015133701  0.013852097           89 
 1845000   0.51901312   -7.7099557    334.35379  0.015101797  0.013841387           55 
 1846000   0.52056829   -7.7148396    334.61686  0.015105492  0.013830679           64 
 1847000   0.52757049   -7.7108165    334.93896  0.015111846   0.01381998           48 
 1848000   0.51906779   -7.7174009    334.48891  0.015083374  0.013809298           72 
 1849000     0.515962   -7.7059766    334.75965  0.015087419  0.013798612           78 
 1850000   0.51206879   -7.7182028    334.98737  0.015089521  0.013787937           85 
 1851000   0.51880994   -7.7117957    334.33158  0.015051845  0.013777272           56 
 1852000   0.52077808   -7.7049588     335.0425  0.015075707  0.013766628           85 
 1853000   0.50445383   -7.7358834     334.9223  0.015062165   0.01375598           92 
 1854000   0.51471893   -7.7010143    334.53569  0.015036663  0.013745349           66 
 1855000   0.52329846   -7.7055808    334.92099  0.015045866  0.013734733           79 
 1856000   0.51834425   -7.7196183    334.31604  0.015010598  0.013724127           49 
 1857000    0.5101576   -7.6987114    334.27211  0.015000543  0.013713509           56 
 1858000   0.49870022   -7.7067162    334.58919  0.015006691  0.013702898           43 
 1859000   0.51162879   -7.7096618    334.15425  0.014979122  0.013692309           44 
 1860000   0.49567471   -7.7199846    334.02772    0.0149654  0.013681718           73 
 1861000   0.51394517    -7.722419    334.69907   0.01498742  0.013671133           56 
 1862000   0.51141303   -7.7216357    334.59563  0.014974742  0.013660569           44 
 1863000     0.499538   -7.7224205     334.0405  0.014941873  0.013650007           50 
 1864000   0.50550689   -7.7142823    334.11332  0.014937112  0.013639463           42 
 1865000   0.51476483   -7.7222459    334.48228  0.014945589  0.013628918           52 
 1866000   0.51858413   -7.7157014    334.97213  0.014959456  0.013618394           68 
 1867000   0.50691114     -7.72184     334.7888   0.01494326  0.013607882           45 
 1868000   0.50795426   -7.7278876    334.58084  0.014925983  0.013597379           86 
 1869000   0.50298994   -7.7148843    334.65074  0.014921114  0.013586877           51 
 1870000   0.50573356   -7.7015722    334.81206  0.014920324  0.013576397           88 
 1871000   0.50739518   -7.7137688     334.7068  0.014907661  0.013565933           98 
 1872000   0.50527864   -7.7143487    334.34874  0.014883758  0.013555469           65 
 1873000    0.5109583   -7.7382039    334.58443  0.014886298  0.013545008           50 
 1874000   0.51253715   -7.7244254    334.54603  0.014876647  0.013534555           54 
 1875000   0.49772365    -7.719357    334.76022  0.014878232  0.013524112           57 
 1876000   0.50246802   -7.7237432    334.81673  0.014872812  0.013513692           83 
 1877000   0.51014291   -7.7241847    334.37634  0.014845336  0.013503275           83 
 1878000    0.5013136   -7.7122023    334.19555  0.014829409   0.01349287           57 
 1879000   0.50574939   -7.7175307    334.44879  0.014832748  0.013482465           77 
 1880000   0.49878038   -7.7285469    334.28571  0.014817629  0.013472058          105 
 1881000   0.49459993    -7.731936    334.60236   0.01482378  0.013461669           95 
 1882000   0.50062059    -7.740349    334.45212  0.014809251  0.013451288           53 
 1883000   0.49680578   -7.7376296    334.47059  0.014802204  0.013440923           82 
 1884000   0.49455967   -7.7243105    333.80586  0.014764944  0.013430565           73 
 1885000   0.51187752   -7.7096944    334.42851  0.014784638  0.013420217          132 
 1886000   0.49752033   -7.7150005    334.27569  0.014770046  0.013409873          106 
 1887000   0.49837615   -7.7373475    334.26607  0.014761794   0.01339954          144 
 1888000   0.49572915     -7.73455     335.0638  0.014789186  0.013389219          120 
 1889000   0.49225247   -7.7497465    334.78208  0.014768929   0.01337891           48 
 1890000   0.48580151   -7.7431199    334.11991  0.014731918  0.013368612           76 
 1891000   0.50219455   -7.7425649    334.46957  0.014739537  0.013358322          108 
 1892000   0.49375498   -7.7281602    334.42793  0.014729912  0.013348029           96 
 1893000   0.49878537   -7.7407516    334.66597   0.01473261  0.013337744           60 
 1894000   0.49169835   -7.7389642    333.87354  0.014689966  0.013327477           69 
 1895000   0.49485819   -7.7322186    334.14201   0.01469402   0.01331721          111 
 1896000   0.49076822   -7.7376508    334.39189  0.014697253  0.013306948          253 
 1897000   0.50300538   -7.7406834    333.92021  0.014668785  0.013296698           80 
 1898000   0.49366846   -7.7372513    333.69241  0.014651054  0.013286461          109 
 1899000   0.50135632   -7.7426634    334.07683  0.014660209  0.013276235          111 
 1900000   0.49426032   -7.7415977    334.02839  0.014650368  0.013266022          100 
 1901000   0.48277375   -7.7432903    334.12064  0.014646705  0.013255812          232 
 1902000   0.49590852   -7.7271745    333.74235   0.01462243  0.013245595          152 
 1903000   0.48637204   -7.7455005    334.19588  0.014634607  0.013235395          132 
 1904000   0.47604688   -7.7507251    333.95847   0.01461653  0.013225197          208 
 1905000   0.48759859   -7.7482566    334.37793  0.014627206  0.013215002           91 
 1906000   0.50421527   -7.7306601    334.73888  0.014635313  0.013204836           98 
 1907000   0.49207149   -7.7549776    334.54398  0.014619121   0.01319467           82 
 1908000   0.48572207   -7.7399812    333.99141  0.014587326  0.013184504          138 
 1909000   0.49228379   -7.7552605    334.05704  0.014582549  0.013174359          144 
 1910000   0.48439495   -7.7486117     334.2906  0.014585105   0.01316422          120 
 1911000   0.48958602   -7.7531982     334.0004  0.014564818  0.013154087          116 
 1912000   0.48787494   -7.7503659    333.89527  0.014552618  0.013143968          229 
 1913000   0.49475021   -7.7562578    334.23581  0.014559845  0.013133841          134 
 1914000   0.48981204   -7.7406375    333.99316  0.014541674  0.013123728          197 
 1915000   0.49690397   -7.7681451    334.03786  0.014536025  0.013113621          117 
 1916000   0.48232948   -7.7491483    334.58706  0.014552325  0.013103525          122 
 1917000   0.48521544   -7.7474649    333.97902  0.014518302  0.013093443          156 
 1918000   0.49281181   -7.7544699    334.23349  0.014521789   0.01308336          144 
 1919000   0.49253613   -7.7494369    333.92157  0.014500676  0.013073292          157 
 1920000    0.4864203   -7.7578606    334.11196  0.014501387  0.013063228          119 
 1921000   0.48528777   -7.7550843    333.79443  0.014480064   0.01305319           90 
 1922000    0.4840012   -7.7649514    333.67528  0.014467364  0.013043147          128 
 1923000   0.49589278   -7.7666166    334.48685   0.01449501  0.013033118          235 
 1924000   0.49143065   -7.7497978    333.99545  0.014466193  0.013023101          164 
 1925000   0.49169285     -7.74492    333.77754  0.014449244  0.013013095          134 
 1926000   0.48608681   -7.7535392    333.56453  0.014432526  0.013003084          221 
 1927000   0.47974822   -7.7530814     333.9208  0.014440443  0.012993096          145 
 1928000   0.47715245    -7.781823    334.13118  0.014442046  0.012983109          138 
 1929000    0.4737503   -7.7521938    333.74131  0.014417717  0.012973135          160 
 1930000   0.48815427   -7.7627706    333.65423  0.014406487  0.012963169          192 
 1931000   0.47707704   -7.7611292    333.38688  0.014387488  0.012953215          125 
 1932000   0.48948861   -7.7611164    333.25367  0.014374296  0.012943263          132 
 1933000    0.4828566    -7.749896    334.00879  0.014399413  0.012933331          151 
 1934000    0.4895692   -7.7627129    333.73097  0.014379997  0.012923397          113 
 1935000   0.48848293   -7.7606177    333.30679  0.014354298  0.012913457          192 
 1936000   0.47765054   -7.7672205    333.73243  0.014365205  0.012903541          280 
 1937000   0.47368774    -7.766496    333.70987  0.014356818  0.012893631          152 
 1938000   0.47624538   -7.7597419    333.44077  0.014337839  0.012883728          207 
 1939000   0.48289405   -7.7554897    333.65247  0.014339542  0.012873837          271 
 1940000   0.48112398   -7.7672828    334.14647  0.014353371  0.012863961          224 
 1941000   0.49048121   -7.7715952    332.86445  0.014290935  0.012854088          214 
 1942000   0.47794139   -7.7654408    333.78885  0.014323243  0.012844221          194 
 1943000   0.48782575   -7.7722612    333.94914  0.014322746  0.012834362          150 
 1944000    0.4784422   -7.7751244    333.98536  0.014316931  0.012824512           89 
 1945000   0.47569812   -7.7863049    333.99024  0.014309779  0.012814683          222 
 1946000   0.47834595   -7.7641936    334.16984  0.014310117  0.012804859          134 
 1947000   0.47858294   -7.7698448    333.20454  0.014261451   0.01279505          181 
 1948000   0.46986307   -7.7711784    333.61852   0.01427184  0.012785237          252 
 1949000   0.48325103   -7.7668872    333.19385  0.014246359  0.012775445          128 
 1950000   0.47082736   -7.7554479    333.65395  0.014258716   0.01276566          217 
 1951000   0.48441603   -7.7680397    333.79056  0.014257242  0.012755886          255 
 1952000    0.4745269   -7.7828828    333.68882  0.014245595  0.012746116          309 
 1953000   0.46407425   -7.7755669    333.72132  0.014239688  0.012736356          164 
 1954000    0.4716983   -7.7803814    333.88279  0.014239287  0.012726598          120 
 1955000   0.46849378    -7.771834    333.28018  0.014206316  0.012716848          233 
 1956000   0.47667148   -7.7682689     333.4071  0.014204461  0.012707104          161 
 1957000   0.48021438   -7.7832931    333.31303  0.014193197  0.012697361          246 
 1958000   0.47775713   -7.7746469    333.65785  0.014200623  0.012687632          278 
 1959000   0.46600368   -7.7639778    333.56371   0.01418937  0.012677904          175 
 1960000   0.46593059   -7.7870063     333.4392  0.014176837  0.012668188          321 
 1961000   0.48177366   -7.7779424    333.33939  0.014165366  0.012658485          174 
 1962000   0.46729391   -7.7735017    333.16984  0.014150945   0.01264879           88 
 1963000   0.47428265   -7.7844718     333.3884  0.014153014  0.012639111          142 
 1964000   0.47893096   -7.7917322    333.74363  0.014160881  0.012629433          118 
 1965000   0.47318453   -7.7826459    333.20323  0.014130756   0.01261975           63 
 1966000   0.46743758   -7.7708602    333.90768  0.014153428  0.012610094           87 
 1967000   0.46644721   -7.7813026     333.5231   0.01412994  0.012600441          213 
 1968000   0.47172736    -7.775928     333.0476  0.014102625  0.012590792          206 
 1969000   0.47660763   -7.7771184    333.18509  0.014101282  0.012581159          220 
 1970000   0.46032508   -7.7824743    332.84218  0.014079619  0.012571531          124 
 1971000   0.46279313   -7.7877443    333.22322  0.014088585  0.012561918          185 
 1972000   0.46604288   -7.7797235    333.45195  0.014091107  0.012552315          223 
 1973000   0.46872577   -7.7787326    333.16646  0.014071907  0.012542717          117 
 1974000   0.46641134   -7.7951033    333.35745  0.014072841  0.012533125          120 
 1975000   0.45981127   -7.7852815    333.16094  0.014057424  0.012523542          173 
 1976000   0.46441946   -7.7859533    333.06975  0.014046464  0.012513967          120 
 1977000   0.46642881   -7.8098971     333.3023  0.014049161  0.012504395          252 
 1978000   0.46911817   -7.7841758     333.5031  0.014050518  0.012494841          197 
 1979000   0.46301211    -7.787557    333.44257   0.01404087  0.012485292          101 
 1980000    0.4548844   -7.7935656    333.50954  0.014036597  0.012475754           79 
 1981000   0.46380205   -7.7870762    333.48252  0.014028374  0.012466217           94 
 1982000   0.46793489   -7.8052388    333.33301  0.014015011  0.012456688          174 
 1983000   0.46192549   -7.8127692    332.87313  0.013988617  0.012447158          133 
 1984000   0.46681731   -7.7864675    333.40062  0.014003722  0.012437633          114 
 1985000    0.4638651   -7.8029259    333.16565  0.013986803  0.012428125          176 
 1986000    0.4609229   -7.7990453    333.60934  0.013998378  0.012418619          123 
 1987000   0.47133696   -7.7967611    333.21491  0.013974791  0.012409117           95 
 1988000   0.47227768   -7.8095882     333.3278  0.013972493  0.012399633          213 
 1989000   0.45271858   -7.7842291    332.73538  0.013940648  0.012390158          190 
 1990000   0.46005308    -7.792381    333.58403   0.01396918  0.012380685          234 
 1991000   0.46072377   -7.7950287    333.05732  0.013940119  0.012371233          145 
 1992000   0.46190244   -7.8069069    333.12803  0.013936079  0.012361786          280 
 1993000   0.45108703   -7.7963247    333.22419  0.013933107  0.012352351           89 
 1994000   0.46101512   -7.8021865    333.22488  0.013926148  0.012342912          234 
 1995000    0.4517995   -7.8055893    332.73261  0.013898605  0.012333483          297 
 1996000   0.45312441   -7.8115598    333.30677  0.013915613  0.012324071          178 
 1997000    0.4573196   -7.7841405    333.19922  0.013904157  0.012314661          198 
 1998000   0.46001908   -7.8071649    333.03337  0.013890281  0.012305263          299 
 1999000   0.45475835   -7.7924908    333.38695  0.013898072   0.01229586          155 
 2000000   0.45632605   -7.7916722    332.85339  0.013868891  0.012286466          296 
 2001000   0.45783103   -7.7890402    333.13564  0.013873715   0.01227709          248 
 2002000   0.45848306   -7.8048575    333.02974  0.013862377  0.012267726          249 
 2003000   0.44365335   -7.8167724    332.27507  0.013824058  0.012258359          190 
 2004000   0.44481754   -7.8173787    333.61355  0.013872819  0.012249005          291 
 2005000   0.44762664   -7.8144062    333.04731  0.013842365  0.012239664          173 
 2006000   0.44974959   -7.7952032    332.45489  0.013810855  0.012230336          284 
 2007000   0.45633004   -7.8061514    332.76547  0.013816869  0.012221003          343 
 2008000   0.45128481   -7.8093769    333.34493  0.013834036  0.012211675          340 
 2009000   0.45120022   -7.8099135    332.95496  0.013810974  0.012202359          195 
 2010000   0.45238428   -7.8154034    332.95104   0.01380394  0.012193048          146 
 2011000    0.4436977   -7.8020524     332.4233  0.013775207  0.012183747          297 
 2012000   0.44729786   -7.8066041    332.99705  0.013792124  0.012174457          116 
Loop time of 4387 on 48 procs for 2000000 steps with 4000 atoms

Performance: 78778.123 tau/day, 455.892 timesteps/s
99.4% CPU use with 48 MPI tasks x no OpenMP threads

MPI task timing breakdown:
Section |  min time  |  avg time  |  max time  |%varavg| %total
---------------------------------------------------------------
Pair    | 270.03     | 288.73     | 308.52     |  45.3 |  6.58
Neigh   | 27.06      | 28.029     | 30.345     |  10.7 |  0.64
Comm    | 234.87     | 260.19     | 277.69     |  53.7 |  5.93
Output  | 4.1159     | 4.1175     | 4.1486     |   0.2 |  0.09
Modify  | 3742.2     | 3756.9     | 3771.9     |  11.2 | 85.64
Other   |            | 49.07      |            |       |  1.12

Nlocal:        83.3333 ave          92 max          77 min
Histogram: 3 3 5 4 13 12 6 1 0 1
Nghost:        1822.46 ave        1846 max        1796 min
Histogram: 1 2 3 6 6 11 9 5 4 1
Neighs:        11255.1 ave       12948 max        9797 min
Histogram: 3 1 7 8 6 10 7 5 0 1
FullNghs:      22510.9 ave       25281 max       20318 min
Histogram: 2 4 5 6 11 13 5 1 0 1

Total # of neighbors = 1080522
Ave neighs/atom = 270.13050
Neighbor list builds = 107705
Dangerous builds = 1

#clear
#
#next RN
#
#jump SELF
Total wall time: 1:13:10
