
units lj                  # Use reduced LJ style units
atom_style atomic         # Uncharged point particles
atom_modify map hash      # Needed for indexing of clusters etc
                          # Used to be able to find where atoms are in relation to each other.

lattice fcc 1.0 spacing 1 1 1
Lattice spacing in x,y,z = 1.5874011 1.5874011 1.5874011
region box block 0 10 0 10 0 10 units lattice
create_box 2 box
Created orthogonal box = (0.0000000 0.0000000 0.0000000) to (15.874011 15.874011 15.874011)
  3 by 4 by 4 MPI processor grid
create_atoms 1 box
Created 4000 atoms
  using lattice units in orthogonal box = (0.0000000 0.0000000 0.0000000) to (15.874011 15.874011 15.874011)
  create_atoms CPU = 0.018 seconds
set type 1 type/fraction 2 0.8 78393
Setting atom values ...
  3188 settings made for type/fraction
mass 1 1.0
mass 2 1.0
pair_style lj/cut  3.5
pair_modify tail  yes
pair_coeff 1  1  1.0  1.0   # Intearaction between 1 and 1 set with epsilon = 1 and sigma = 1
pair_coeff 1  2  1.5  0.8
pair_coeff 2  2  0.5  0.88

write_data data.0
System init for write_data ...
Neighbor list info ...
  update every 1 steps, delay 10 steps, check yes
  max neighbors/atom: 2000, page size: 100000
  master list distance cutoff = 3.8
  ghost atom cutoff = 3.8
  binsize = 1.9, bins = 9 9 9
  1 neighbor lists, perpetual/occasional/extra = 1 0 0
  (1) pair lj/cut, perpetual
      attributes: half, newton on
      pair build: half/bin/atomonly/newton
      stencil: half/bin/3d
      bin: standard
WARNING: Not all mixed pair coeffs generated from mixing. Use write_data with 'pair ij' option to store all pair coeffs. (../write_data.cpp:312)


#############################
#   M E L T   S Y S T E M   #
#############################

velocity all create 2.4 9580093 mom yes dist gaussian # Assign velocities
                                                    # Temperature 2.4, random number seed, zero linear momentum
                                                                                # Gaussian distribution

timestep 0.002   # simulation timestep
thermo 1000       # output thermodynamic data every 1000 steps bf 100

# Define a fix  in this case with index 1 applied to all
# particles in the simulation. This fix is for simulations
# in the anisotropic NPT ensemble. Note that we use the MTK
# correction.
fix 1 all npt temp 2.4 2.4 0.1 iso 5.68 5.68 0.5 mtk yes tchain 5 pchain 5 # Use NPT ensemble
                                                                         # Set temperature and pressure and damping
                                                                         # Numbers of thermostats in chain and in barostat
run 10000          # run for 10000 steps
Per MPI rank memory allocation (min/avg/max) = 3.642 | 3.644 | 3.648 Mbytes
Step Temp E_pair E_mol TotEng Press Volume 
       0          2.4   -3.6981828            0 -0.099082777   -3.2752093         4000 
    1000    2.4129332   -3.0676486            0   0.55084637    5.5686039    3810.9036 
    2000    2.4053222   -3.0668592            0   0.54022199    5.9864792    3750.1838 
    3000     2.377106   -3.0181699            0   0.54659776    5.5306349     3832.722 
    4000    2.4163543   -3.0779744            0   0.54565096    5.8278167    3767.5005 
    5000    2.4557536   -3.0242739            0   0.65843558    5.9558835    3785.6307 
    6000    2.3898182   -3.0619317            0   0.52189937    5.7150367    3786.9351 
    7000    2.4078177   -3.0618286            0   0.54899501    5.8460372    3773.5373 
    8000    2.4257553    -3.067913            0   0.56981028    5.5496082    3807.7516 
    9000    2.3573896   -3.1412816            0   0.39391881    5.2178879    3781.3565 
   10000    2.4168406   -3.0249066            0   0.59944803    5.7763401    3810.0754 
Loop time of 2.59548 on 48 procs for 10000 steps with 4000 atoms

Performance: 665773.711 tau/day, 3852.857 timesteps/s
99.6% CPU use with 48 MPI tasks x no OpenMP threads

MPI task timing breakdown:
Section |  min time  |  avg time  |  max time  |%varavg| %total
---------------------------------------------------------------
Pair    | 1.1493     | 1.2255     | 1.3203     |   2.8 | 47.22
Neigh   | 0.21144    | 0.2223     | 0.23759    |   1.0 |  8.56
Comm    | 0.76632    | 0.88378    | 0.98317    |   3.6 | 34.05
Output  | 0.0002533  | 0.000258   | 0.00033002 |   0.0 |  0.01
Modify  | 0.22166    | 0.24816    | 0.26757    |   2.5 |  9.56
Other   |            | 0.01551    |            |       |  0.60

Nlocal:        83.3333 ave          90 max          76 min
Histogram: 2 3 4 8 3 11 2 9 2 4
Nghost:        1693.23 ave        1717 max        1672 min
Histogram: 2 3 5 6 12 7 6 2 4 1
Neighs:        10021.1 ave       11218 max        9133 min
Histogram: 5 5 9 6 5 5 6 2 3 2

Total # of neighbors = 481014
Ave neighs/atom = 120.25350
Neighbor list builds = 908
Dangerous builds = 212

# Equilibrate just above the melting temperature to avoid step fn in T

fix 1 all npt temp 1.25 1.25 0.1 iso 5.68 5.68 0.5 mtk yes tchain 5 pchain 5
run 2000
Per MPI rank memory allocation (min/avg/max) = 3.644 | 3.646 | 3.649 Mbytes
Step Temp E_pair E_mol TotEng Press Volume 
   10000    2.4168406   -3.0249066            0   0.59944803    5.7763401    3810.0754 
   11000    1.2294088    -4.515152            0   -2.6714998    5.5654022    2915.6493 
   12000    1.2343775   -4.5347577            0   -2.6836544    5.6166245     2908.584 
Loop time of 0.641593 on 48 procs for 2000 steps with 4000 atoms

Performance: 538659.200 tau/day, 3117.241 timesteps/s
99.6% CPU use with 48 MPI tasks x no OpenMP threads

MPI task timing breakdown:
Section |  min time  |  avg time  |  max time  |%varavg| %total
---------------------------------------------------------------
Pair    | 0.28968    | 0.31594    | 0.34544    |   2.3 | 49.24
Neigh   | 0.041712   | 0.044609   | 0.049088   |   0.7 |  6.95
Comm    | 0.19634    | 0.23159    | 0.26245    |   3.1 | 36.10
Output  | 5.2339e-05 | 5.4274e-05 | 6.9617e-05 |   0.0 |  0.01
Modify  | 0.042011   | 0.044505   | 0.047412   |   0.8 |  6.94
Other   |            | 0.004895   |            |       |  0.76

Nlocal:        83.3333 ave          92 max          75 min
Histogram: 1 3 7 6 10 5 6 6 3 1
Nghost:        2033.31 ave        2056 max        2006 min
Histogram: 1 0 3 6 8 9 14 2 4 1
Neighs:        13121.0 ave       14771 max       11280 min
Histogram: 1 3 6 6 6 7 8 4 6 1

Total # of neighbors = 629809
Ave neighs/atom = 157.45225
Neighbor list builds = 146
Dangerous builds = 14

#############################
# L I N E A R  Q U E N C H  #
#############################

# Define solid atoms. This closely follows ten Wolde  Ruiz-Montero and Frenkel  Faraday Discuss  1996  104  93-110
# Compute components of the per-atom q6 vector
compute q6 all orientorder/atom degrees 1 6 components 6 nnn NULL cutoff 1.3 # compute the Q6 parameter.
                                                                             # Use all neighbours within 1.3 unit cell.

# get number of connections
compute coord_number all coord/atom orientorder q6 0.5

# An atom is solid if it has 8 or more connections (of a possible 14)
variable is_solid atom c_coord_number>=8
group solid dynamic all var is_solid    # Must be dynamic to update
dynamic group solid defined

# do clustering
compute cluster solid cluster/atom 1.3 # Create a cluster where all atoms within are solid and max 1.3 units from another member

# define chunks one chunk per cluster
compute clus_chunks solid chunk/atom c_cluster nchunk every compress yes  # Says which atoms are in which chunk

# count the size of each chunk
compute size_chunks solid property/chunk clus_chunks count


# Find the maximum entry in the vector of chunk sizes
variable max_n equal max(c_size_chunks)


# Thermo style which includes this variable
# thermo_style custom step temp pe vol v_max_n

thermo ${N}  # Print the thermo information every 100 steps
thermo 1000  

# Reset the npt fix at a lower temperature (below freezing)
fix 1  all npt temp  ${temp} ${temp}  0.1  iso  5.68  5.68  0.5  mtk yes tchain  5  pchain  5
fix 1  all npt temp  0.45 ${temp}  0.1  iso  5.68  5.68  0.5  mtk yes tchain  5  pchain  5
fix 1  all npt temp  0.45 0.45  0.1  iso  5.68  5.68  0.5  mtk yes tchain  5  pchain  5

dump dmp2 all dcd ${N} traj.dcd
dump dmp2 all dcd 1000 traj.dcd


compute msd all msd com yes
variable twopoint equal c_msd[4]/6/(step*dt+1.0e-6)
fix 9 all vector 10 c_msd[4]
variable fit equal slope(f_9)/6/(10*dt)
thermo_style custom step temp pe c_msd[4] v_twopoint v_fit v_max_n

fix 1 all npt temp 1.25 ${temp} 0.1 iso 5.68 5.68 0.5 mtk yes tchain 5 pchain 5
fix 1 all npt temp 1.25 0.45 0.1 iso 5.68 5.68 0.5 mtk yes tchain 5 pchain 5
run 500000 # 5000000  # Run for this many steps
Neighbor list info ...
  update every 1 steps, delay 10 steps, check yes
  max neighbors/atom: 2000, page size: 100000
  master list distance cutoff = 3.8
  ghost atom cutoff = 3.8
  binsize = 1.9, bins = 8 8 8
  4 neighbor lists, perpetual/occasional/extra = 1 3 0
  (1) pair lj/cut, perpetual
      attributes: half, newton on
      pair build: half/bin/atomonly/newton
      stencil: half/bin/3d
      bin: standard
  (2) compute orientorder/atom, occasional
      attributes: full, newton on
      pair build: full/bin/atomonly
      stencil: full/bin/3d
      bin: standard
  (3) compute coord/atom, occasional
      attributes: full, newton on
      pair build: full/bin/atomonly
      stencil: full/bin/3d
      bin: standard
  (4) compute cluster/atom, occasional
      attributes: full, newton on
      pair build: full/bin/atomonly
      stencil: full/bin/3d
      bin: standard
Per MPI rank memory allocation (min/avg/max) = 9.836 | 9.840 | 9.843 Mbytes
Step Temp PotEng c_msd[4] v_twopoint v_fit v_max_n 
   12000    1.2343775   -4.5347577 1.8197049e-30 1.2636839e-32 8.3333333e+20            1 
   13000    1.2350265   -4.5492268   0.80697589 0.0051729222  0.068362422            4 
   14000    1.2407872     -4.52685    1.6415532 0.0097711497  0.068633944            1 
   15000    1.2545993   -4.5302356    2.5490381  0.014161322  0.070739813            2 
   16000    1.2726346   -4.5654337    3.3139265  0.017260033  0.070393377            2 
   17000    1.2562706   -4.5848299    4.1445411  0.020316377  0.069835272            2 
   18000     1.262847   -4.5785207     4.826082  0.022342971  0.068664199            4 
   19000    1.2352158   -4.5519247    5.6128437  0.024617735  0.067464617            4 
   20000    1.2221258   -4.5878632    6.4181882   0.02674245  0.066763966            6 
   21000    1.2222788   -4.5552676    7.2532608   0.02878278  0.066602719            7 
   22000     1.227184   -4.5576162    8.0868944  0.030632175  0.066678611            3 
   23000    1.2307837   -4.5886448     8.919502  0.032317036  0.066775703            1 
   24000    1.2359515   -4.5562455    9.6162493  0.033389754  0.066759695            4 
   25000    1.2284832   -4.5792752    10.477691  0.034925636  0.066730222            2 
   26000    1.2262226   -4.6105729    11.275016   0.03613787  0.066835349            2 
   27000    1.2364157   -4.5918567    12.188702   0.03761945  0.067052658            4 
   28000    1.2417119   -4.5692048     13.07305  0.038907888  0.067389072            2 
   29000    1.2184086   -4.6148091    13.782611  0.039605203  0.067470206            2 
   30000    1.2201922   -4.5666381    14.405507  0.040015296  0.067408336            4 
   31000    1.2273618   -4.5919595    15.311113  0.041158905   0.06724621            2 
   32000     1.205544   -4.5986347     15.97088  0.041590832  0.067084867            2 
   33000    1.2202367   -4.5551017      16.9482  0.042798485  0.066995747            2 
   34000     1.214285   -4.5735973    17.681891  0.043337966  0.066959715            3 
   35000    1.1942915   -4.6304277    18.437822  0.043899575  0.066951451            2 
   36000    1.2089227   -4.6020052     19.41918  0.044951804  0.066960427            2 
   37000    1.1891273    -4.627907    20.124098  0.045324544  0.067032796            2 
   38000    1.2270601   -4.5816273    21.047071  0.046155856  0.067065248            1 
   39000    1.1984304   -4.6314327    21.675881  0.046315984  0.067070889            3 
   40000    1.2131847   -4.5785688    22.623714  0.047132737  0.067060362            2 
   41000    1.2190065    -4.599663    23.493372  0.047750756  0.067128753            3 
   42000    1.1810177   -4.6215654    24.308897  0.048231938  0.067201385            7 
   43000    1.2031267   -4.6333112    24.932089  0.048318001  0.067201465            3 
   44000    1.1749509   -4.6415215    25.648354  0.048576428  0.067129382            8 
   45000    1.1908502   -4.6302072     26.58854  0.049238036   0.06712141            1 
   46000    1.2123746   -4.6384658    27.191375  0.049259737  0.067072226            2 
   47000    1.2028575    -4.613775    28.120274  0.049858641  0.067041212            2 
   48000    1.1991624   -4.6368441    28.865673  0.050114015  0.067024351            4 
   49000    1.1613585   -4.6431606     29.67036  0.050459796  0.066985633            1 
   50000    1.1902604   -4.6588395    30.329718   0.05054953  0.066902218            2 
   51000    1.1957822   -4.6638546    31.032159  0.050706141  0.066826196            2 
   52000     1.177885   -4.6898024    31.616838  0.050668009  0.066715351            1 
   53000    1.1971961   -4.6354129    32.510191  0.051116651  0.066607397            1 
   54000    1.1980565   -4.6384663     33.34028   0.05145105  0.066510819            3 
   55000     1.182363   -4.6796992    33.791466   0.05119919  0.066388322            3 
   56000    1.1910431   -4.6628283    34.557862   0.05142539  0.066238782            4 
   57000     1.178256   -4.6415828    35.399142  0.051753131  0.066083308            3 
   58000    1.2049795   -4.6450515     36.35027  0.052227399  0.065951096            2 
   59000    1.1662402   -4.6844537    36.782482  0.051952658   0.06581495            2 
   60000    1.1799262   -4.6595888    37.740305   0.05241709    0.0657321            2 
   61000    1.1468664   -4.6781322     38.41396  0.052478086  0.065636789            1 
   62000    1.1776644   -4.6513942    39.137095  0.052603621  0.065550062            1 
   63000    1.1733262    -4.682455    39.815243  0.052665665   0.06544143            2 
   64000     1.161403   -4.6714625    40.548023  0.052796905   0.06535107            2 
   65000    1.1621699   -4.6846908    41.356121  0.053020668  0.065264926            1 
   66000    1.1479865   -4.7016742    41.808107  0.052788013  0.065159724            1 
   67000    1.1728476   -4.6845217    42.525463  0.052892367  0.065037846            2 
   68000    1.1282061   -4.6622851    43.449769  0.053247266  0.064911435            2 
   69000    1.1555662   -4.7038761    44.155599  0.053328018  0.064789073            3 
   70000    1.1325827   -4.7119321    44.552176  0.053038304  0.064657143            2 
   71000    1.1307342   -4.7173858    45.179003  0.053026999  0.064524041            4 
   72000    1.1613176   -4.6917271    46.415832  0.053722027  0.064416086            4 
   73000    1.1573847   -4.6855307    47.442988  0.054158661    0.0643571            1 
   74000    1.1443867   -4.7189224    47.981264  0.054032955  0.064307372            3 
   75000    1.1671708   -4.7036715    48.707769  0.054119743  0.064265678            4 
   76000    1.1391457   -4.7544112    49.373879  0.054138025  0.064215679            2 
   77000    1.1685249   -4.7509299    50.273139  0.054408159   0.06417044            5 
   78000     1.147523    -4.710901    50.834687  0.054310562   0.06411504            2 
   79000    1.1475348   -4.6892726    51.812326  0.054654352  0.064074013            2 
   80000    1.1603987   -4.7363123    52.361075  0.054542786  0.064030339            3 
   81000    1.1589536   -4.7148383    53.132027  0.054662579  0.063958676            5 
   82000    1.1409859   -4.6943079    53.765614  0.054639852  0.063888823            2 
   83000    1.1348859   -4.7297147    54.176076   0.05439365  0.063815023            2 
   84000    1.1522556   -4.7589468    54.913298  0.054477478  0.063725789            2 
   85000    1.1434703   -4.7201679    55.828658  0.054733978  0.063643759            2 
   86000    1.1207942   -4.7087448    56.552288  0.054798728   0.06356883            2 
   87000    1.1176517   -4.7354751    57.219676  0.054808118  0.063499446            3 
   88000    1.1302733    -4.718946    57.997597  0.054921967  0.063425939            2 
   89000     1.129789   -4.7591168    58.374021  0.054657323  0.063350277            3 
   90000    1.1214326   -4.7248281    59.217645  0.054831152  0.063267913            2 
   91000    1.1033975   -4.7549079    59.738217  0.054705327  0.063188684            1 
   92000    1.1081916   -4.7340828    60.470598  0.054774092  0.063116304            3 
   93000    1.1078983   -4.7729855    61.128251  0.054774418  0.063037068            3 
   94000    1.1031981   -4.7521707    62.133819  0.055083173  0.062962695            1 
   95000    1.1081684   -4.7677881    62.600647  0.054912848  0.062885537            4 
   96000    1.1203595    -4.790083    63.054746  0.054735022  0.062802771            2 
   97000    1.1076933   -4.7460448    63.733955  0.054754256  0.062706886            3 
   98000    1.1244137   -4.7902465    64.074101  0.054484779  0.062599687            5 
   99000    1.1080117   -4.7615684    64.817691  0.054560346  0.062485401            3 
  100000    1.1005991   -4.7952803    65.060057  0.054216714  0.062353451            1 
  101000    1.1153122   -4.7537663    65.414597  0.053972439  0.062225203            4 
  102000     1.116259   -4.7767825     66.13889  0.054035041  0.062092438            2 
  103000    1.0772042   -4.8280757    66.518884  0.053817867  0.061951646            4 
  104000    1.1117606   -4.7844106    67.467726  0.054060678  0.061806028            4 
  105000    1.0830665   -4.8283545    68.003082    0.0539707  0.061666885            1 
  106000    1.0909481   -4.7658673    68.406978  0.053779071  0.061516815            2 
  107000     1.098711   -4.7585174    68.948964  0.053698569  0.061367241            2 
  108000    1.1141268   -4.7890704    69.013213  0.053250936  0.061210573            2 
  109000    1.1334714   -4.7818372    69.739739  0.053317843  0.061047892            3 
  110000    1.0975543   -4.8404844    70.155503  0.053148108  0.060889787            3 
  111000    1.1040143   -4.8016566    70.898391   0.05322702  0.060728972            1 
  112000    1.1111604   -4.8139078    71.364115    0.0530983  0.060569899            3 
  113000    1.1064745   -4.8018044    71.950004  0.053060475  0.060417795            1 
  114000    1.1201127   -4.8022276    72.923915  0.053306955  0.060274738            2 
  115000    1.0896788   -4.8519645    73.575786  0.053315787  0.060132204            2 
  116000    1.0748753   -4.8231491    74.113835  0.053242697  0.059997315            4 
  117000    1.0670036   -4.8032217     74.94189  0.053377414  0.059861046            3 
  118000     1.069607    -4.820776     74.98412  0.052954887  0.059723543            3 
  119000    1.0901515   -4.8420653    75.691276  0.053005095  0.059589562            5 
  120000    1.0874513   -4.8285749    76.387408  0.053046811   0.05945865            6 
  121000    1.1042647   -4.8375881    76.886106  0.052951864  0.059327903            2 
  122000    1.0899246   -4.8172019    77.476784    0.0529213  0.059206111            4 
  123000    1.0858297   -4.8255586    77.736922  0.052667291  0.059072338            6 
  124000     1.047629   -4.8908473    77.947092  0.052383798  0.058927251            4 
  125000    1.0611048   -4.8400614    78.728046  0.052485364  0.058778789            4 
  126000    1.0695165   -4.8463371    79.185705  0.052371498  0.058629813            3 
  127000    1.0558064   -4.8767245    79.634539  0.052253634  0.058489505            2 
  128000    1.0473941   -4.8632956     80.35284  0.052313047  0.058351707            2 
  129000    1.0877408   -4.8837048    80.827391  0.052214077  0.058214094            2 
  130000    1.0557476   -4.8110722    81.819788  0.052448582  0.058085869            2 
  131000     1.055262   -4.8703438    82.106622  0.052230675  0.057955204           12 
  132000    1.0536929   -4.9231353    82.373787  0.052003653  0.057826369            3 
  133000    1.0684053   -4.8993813    83.175432  0.052114932  0.057699207            3 
  134000    1.0430975    -4.888669     83.69973  0.052052071  0.057580012            3 
  135000    1.0631106   -4.8720404    84.387927  0.052091313  0.057461176            2 
  136000    1.0575037   -4.8858736    84.750294  0.051930327   0.05733859            2 
  137000    1.0688961   -4.9035565    85.355417  0.051919353  0.057214158            2 
  138000    1.0238493    -4.887631    85.947305  0.051900546  0.057087371            6 
  139000    1.0619978   -4.8716459    86.256966  0.051712809  0.056960077            2 
  140000    1.0267863   -4.8942959    86.572918  0.051531499  0.056835943            4 
  141000    1.0435538   -4.9114463    86.877683  0.051346148  0.056703694            2 
  142000    1.0173667   -4.9001321    87.017795  0.051066781  0.056566366            4 
  143000    1.0262729   -4.8904119    88.097696  0.051338984  0.056434276            5 
  144000    1.0363812   -4.9343958    88.600227  0.051273279  0.056304045            4 
  145000     1.034241   -4.9052499     88.83387  0.051053948  0.056173299            3 
  146000    1.0308434   -4.9437529     89.30833  0.050975074  0.056042213            4 
  147000    1.0367299   -4.9196699    90.002839  0.051022017  0.055909929            3 
  148000     1.039386    -4.944263     90.33925  0.050866694  0.055776566            4 
  149000    1.0498274   -4.9151193    90.974991  0.050880867  0.055648359            3 
  150000    1.0090335   -4.9295562    91.548226  0.050860125  0.055523751            6 
  151000      1.03147   -4.9466217    91.945834  0.050742734  0.055399679            6 
  152000    1.0372906   -4.9555497    92.441252  0.050680511  0.055278799            3 
  153000    1.0061903   -4.9081113    93.149972  0.050735278  0.055158963            5 
  154000   0.99808403    -4.954939    93.441026  0.050563326  0.055036469            3 
  155000    1.0270588   -4.9258357    93.668687  0.050359509  0.054913352            4 
  156000     1.038828   -4.9512726    94.413935  0.050434794  0.054791292            6 
  157000     1.022148   -4.9464393    94.669193  0.050249041  0.054671016            5 
  158000     1.022958   -4.9811498    94.852818  0.050027857  0.054547923            3 
  159000    1.0211555   -4.9440048    95.708668  0.050161776  0.054425403            3 
  160000    1.0130284   -4.9848058    95.939513  0.049968496  0.054310507            4 
  161000    1.0204494   -4.9737772    96.851462  0.050130156  0.054194409            2 
  162000    1.0103344   -4.9990186    96.864784  0.049827564  0.054075507            2 
  163000    1.0177105   -4.9965872    97.288117  0.049738301   0.05395409            7 
  164000    1.0073966   -4.9972798    97.929251  0.049760798  0.053832206            2 
  165000    1.0058823   -4.9811276     98.50458  0.049749787  0.053714258            4 
  166000   0.98161679   -4.9542061    99.215837  0.049807147  0.053599691            3 
  167000     1.021946   -5.0225295     99.13707  0.049469596  0.053489262            5 
  168000    1.0188763   -5.0051393    100.13158  0.049668441  0.053377178            3 
  169000    1.0109621   -5.0175598    100.23725  0.049426653  0.053268289            5 
  170000     1.004791    -4.957703     101.4682  0.049739316  0.053163257            2 
  171000   0.97337688   -4.9955999    101.59713  0.049511271  0.053057932            2 
  172000   0.97175688   -4.9729675    102.23976  0.049534765    0.0529537            3 
  173000   0.98469999   -4.9911054    102.98862  0.049609162  0.052850974            3 
  174000   0.99144629   -5.0138949    103.20593  0.049428129  0.052748758            2 
  175000   0.99370459   -5.0183456    103.41944   0.04924735  0.052645501            2 
  176000    1.0133717   -5.0064044    103.89896  0.049194581  0.052541766            5 
  177000    1.0072503   -5.0336791     104.1525  0.049036019  0.052438167            5 
  178000    0.9824569   -5.0217389    104.54337  0.048943525  0.052332459            5 
  179000    1.0124172   -5.0305491    104.86764   0.04882106  0.052221421            3 
  180000   0.96418927    -5.034538    105.15928  0.048684854  0.052113099            5 
  181000   0.99698817   -5.0196875     105.6197  0.048627857  0.052007509            5 
  182000   0.98230573   -5.0081809    106.11845  0.048589034  0.051899456            3 
  183000   0.97725852   -5.0439725    105.85968  0.048205685  0.051788518            4 
  184000   0.98838218   -5.0232463    106.57475  0.048267552  0.051674412            3 
  185000   0.95491224    -5.009752    107.14282   0.04826253  0.051558475            5 
  186000   0.97244679   -5.0439656    107.52587  0.048174674  0.051443828            3 
  187000   0.96372063   -5.0163163    108.04244  0.048147256  0.051333714            4 
  188000   0.95850727   -5.0728043    108.10748  0.047919982  0.051224639            4 
  189000   0.97720938   -5.0514752    108.65206  0.047906552  0.051113484           12 
  190000   0.97010001   -5.0514798    109.19495   0.04789252  0.051001943            2 
  191000   0.95909455   -5.0440615    109.23256  0.047658186  0.050887858            4 
  192000   0.95424377   -5.0406088    109.98358  0.047735928  0.050773678            4 
  193000   0.96759715   -5.0422665    109.93829  0.047469037   0.05065821            2 
  194000   0.97501417    -5.077153    109.93424  0.047222611  0.050539782            3 
  195000   0.96771314   -5.1067379    110.26784   0.04712301  0.050421233            2 
  196000   0.96175508   -5.0732342    110.89906  0.047150963  0.050307178            3 
  197000   0.94221447   -5.1061227    110.99755   0.04695328  0.050189024            8 
  198000   0.94135748    -5.068463     110.8148  0.046639224  0.050068184            4 
  199000   0.95443329   -5.1346414    111.12439  0.046534501  0.049946724            2 
  200000   0.96034338   -5.0703146     112.4595  0.046858126   0.04982771            4 
  201000   0.94696611   -5.1131743    112.35672  0.046582388  0.049711834           12 
  202000   0.94028014   -5.0988974    112.91014  0.046580089   0.04959687            4 
  203000   0.94715336   -5.1084852    113.37652  0.046542084  0.049482909            5 
  204000   0.95102296   -5.1158056    113.97415   0.04655807  0.049369577            6 
  205000   0.91336873   -5.1323459    114.24836  0.046442421  0.049256735            6 
  206000   0.94681696    -5.134939    114.13929  0.046172853  0.049146193            4 
  207000   0.94078414   -5.1005861    114.91283  0.046261204  0.049034757            5 
  208000   0.93986438   -5.1009998    114.50042  0.045873567  0.048920051            7 
  209000   0.94223965   -5.1348036    115.37668  0.046003462  0.048805701            3 
  210000   0.94885854   -5.0670715    115.76263  0.045937553  0.048693163            3 
  211000   0.92607577   -5.1464461    115.71942  0.045702772  0.048580607            2 
  212000   0.94189162   -5.1155512    115.91516  0.045564134  0.048463903            2 
  213000   0.92861741   -5.0963437    116.40335  0.045541218  0.048348784            4 
  214000   0.92156388   -5.1356745    116.83589  0.045496843  0.048235755            2 
  215000   0.92364925   -5.1558351    116.79927  0.045271036  0.048120538            4 
  216000   0.92349657   -5.1656953     117.5459  0.045349497   0.04800536            4 
  217000   0.93183733   -5.1565229    118.15251  0.045373469  0.047894896            2 
  218000   0.92205559   -5.1393012    118.87325  0.045440846  0.047785686            5 
  219000   0.91190398   -5.1591226    119.33274  0.045408196  0.047678454            4 
  220000   0.91793723   -5.1650493    119.33187  0.045201464  0.047572909            3 
  221000   0.91142427   -5.1246036    119.72661   0.04514578  0.047467045            3 
  222000   0.90881243   -5.2048639    119.50566  0.044859483  0.047359352            5 
  223000   0.90049721   -5.1770515      119.381  0.044611732  0.047247144            5 
  224000   0.89666271   -5.1932222    119.62415  0.044503033  0.047135541            2 
  225000   0.91428008   -5.1806528    120.14484  0.044498089   0.04702261           10 
  226000   0.91201065   -5.1809663    120.43839  0.044409437  0.046910864            6 
  227000   0.91513867    -5.192464    120.79398  0.044344338  0.046798007            4 
  228000   0.92243403   -5.1913208    120.79909  0.044151713  0.046683195            5 
  229000   0.89273836   -5.1636865    121.38601  0.044172492  0.046570423            5 
  230000   0.91190137   -5.1911827    121.86016  0.044152233   0.04646132            4 
  231000    0.9085439   -5.1638306    122.30371  0.044121109  0.046352907            3 
  232000   0.89651639   -5.1831204    122.62763   0.04404728  0.046246367            4 
  233000   0.90070946   -5.2367687    122.55276  0.043831458  0.046138045            5 
  234000   0.89628031   -5.2136196    123.06056  0.043824984  0.046031051            5 
  235000   0.88138069    -5.207039    123.37966  0.043751654  0.045923347            3 
  236000   0.88498713   -5.1853285    123.60997  0.043647589  0.045814917            3 
  237000   0.89827684   -5.1820522    123.69896  0.043494713   0.04570649            2 
  238000   0.88162628    -5.239096    123.84435  0.043362869  0.045598396            7 
  239000   0.89960368   -5.2098367    124.34532  0.043356109  0.045489616            7 
  240000   0.88912551   -5.1929406    124.20556   0.04312693  0.045381627            4 
  241000   0.87931994   -5.2211471    124.88908  0.043184328  0.045273766            8 
  242000   0.86581019   -5.2566442     124.8529  0.042993422  0.045166617            2 
  243000   0.90157448   -5.2126975    125.49126  0.043035413  0.045059539            4 
  244000   0.88829329   -5.2327081    125.65631  0.042915405  0.044953785            3 
  245000   0.87813908   -5.2600822    126.46687  0.043015942  0.044847597            6 
  246000   0.87071709   -5.2427569    126.59547  0.042884644  0.044743093            4 
  247000   0.86666819   -5.2523594    126.68004  0.042739554  0.044639388            3 
  248000   0.86974052   -5.2711788    126.73885  0.042586978  0.044535361            3 
  249000   0.86887667   -5.2465344    127.03635  0.042515512  0.044430053           14 
  250000   0.86730643   -5.2502916     127.5404  0.042513467   0.04432609            4 
  251000   0.86865552   -5.2965907    127.21863  0.042237262  0.044222296            3 
  252000   0.88379112    -5.262948    128.17624  0.042386322  0.044118002            3 
  253000   0.85454303   -5.2996088    127.91108  0.042131448  0.044014393            5 
  254000   0.85934818   -5.2635319    128.60897  0.042194544  0.043910576            4 
  255000   0.85132389   -5.2737394    128.31969   0.04193454  0.043808079            7 
  256000   0.86394227   -5.2879793    128.28175  0.041758383  0.043704103            5 
  257000   0.84507675   -5.2498863    129.01005  0.041832052  0.043599462            4 
  258000   0.83118212   -5.2764163    129.10873  0.041701787  0.043493435            5 
  259000   0.86489515    -5.268908    129.48166  0.041660766  0.043389485            4 
  260000    0.8572193   -5.2870062    129.21703  0.041415714  0.043283581            5 
  261000   0.83855666    -5.286636    129.74626  0.041426009  0.043178985            5 
  262000    0.8129336   -5.2784182    130.06344  0.041368778  0.043073484            3 
  263000   0.85701182   -5.2852234    130.37711  0.041310871  0.042968019            7 
  264000   0.84888447   -5.2730845     130.5171  0.041198581  0.042862141           18 
  265000   0.83802928   -5.2833963    130.46547  0.041026877  0.042755334            3 
  266000   0.85672973   -5.3064895    130.69326  0.040944005  0.042648041            5 
  267000   0.82929723   -5.2922066    130.87039  0.040845939  0.042542567            3 
  268000   0.85479828   -5.3277295     131.0506  0.040749565   0.04243665            6 
  269000   0.83727598   -5.3230069    131.08214   0.04060785    0.0423295            5 
  270000   0.85617917   -5.3035154    131.35897  0.040542892   0.04222299           11 
  271000   0.81722589    -5.338236    131.64232  0.040480418  0.042118521            4 
  272000   0.85161495   -5.3326525    132.47355   0.04058626  0.042015346            3 
  273000    0.8411521   -5.3285603    132.26911  0.040375186  0.041912225            3 
  274000   0.82769814   -5.3418941    132.03412  0.040156361    0.0418099           10 
  275000   0.81741538   -5.3249217    132.71451  0.040216517  0.041707386            3 
  276000    0.8176696   -5.3459171    132.71356   0.04007052  0.041605223            6 
  277000   0.84246025   -5.3111925    133.23852  0.040083791   0.04150394            7 
  278000   0.83420647   -5.3525964    133.69523  0.040076509  0.041402612            4 
  279000   0.82269615   -5.3531743    133.37422  0.039836983   0.04130043            5 
  280000    0.8246258   -5.3630901     133.2918  0.039670179  0.041197985            6 
  281000   0.81932951   -5.3714337    133.36901  0.039551901  0.041095131            5 
  282000   0.81710914    -5.337155    133.85511  0.039555293  0.040991903           12 
  283000   0.82263392   -5.3692739    133.52628  0.039318692  0.040886778            5 
  284000   0.80535073    -5.384872    133.80738  0.039262728   0.04078166            5 
  285000   0.81195985   -5.4171054     133.6379   0.03907541  0.040676113           12 
  286000   0.82402402   -5.3934126    134.44993  0.039175386  0.040570248            8 
  287000   0.80687161   -5.3689553    133.87911  0.038873144  0.040465407           10 
  288000   0.82280871   -5.3607642    134.09173   0.03879969  0.040359779            4 
  289000   0.80347214   -5.3762076    134.47459  0.038775833  0.040253879            3 
  290000   0.80632231   -5.3702415    134.15226  0.038549499  0.040148295            5 
  291000   0.79141979   -5.3948393    134.96368  0.038649391  0.040043339            7 
  292000   0.80385614   -5.4500335    134.47868  0.038378619  0.039938526           10 
  293000   0.81550527   -5.4266632    134.97812   0.03838968  0.039833267            6 
  294000   0.79316662   -5.3741522    135.77679  0.038485486  0.039729161            3 
  295000   0.78946319   -5.3958604    135.30665  0.038222218  0.039625094            6 
  296000      0.78671   -5.3980849    135.66001  0.038192569   0.03951965            9 
  297000   0.77924359   -5.4200496    135.62354  0.038053744  0.039414361            9 
  298000   0.80256289   -5.4256458    135.41509  0.037867754  0.039308483            5 
  299000   0.79559026   -5.4163043    135.66352  0.037810346  0.039202407            8 
  300000   0.78391136   -5.4272923    135.62244    0.0376729  0.039095608            7 
  301000   0.79434331   -5.4311792     135.5648  0.037531784  0.038989081            7 
  302000   0.78365925   -5.4278122    135.93456  0.037509537  0.038882843            7 
  303000   0.79938643   -5.4461174    135.93313  0.037385348  0.038776956           12 
  304000   0.78182538   -5.4346925    136.05871  0.037296795  0.038671021            6 
  305000    0.7633351   -5.4617395    136.17877  0.037207313  0.038565464            5 
  306000   0.76875433   -5.4148908    136.22147  0.037097349   0.03845968            8 
  307000   0.78283718    -5.413568    136.90023  0.037160758  0.038354798            3 
  308000   0.76362451   -5.4618222    136.52383  0.036938266  0.038251035            7 
  309000   0.79365324   -5.4414067    137.18538  0.036997135  0.038148831           12 
  310000   0.77957127   -5.4636184    136.72937  0.036755206  0.038045584            8 
  311000   0.76646252   -5.4695123      137.313  0.036793408  0.037942686            6 
  312000   0.79648327   -5.4791678    137.31406  0.036675764  0.037840059           14 
  313000   0.77441751   -5.4701216    137.63208   0.03664326  0.037737329            4 
  314000   0.76170425   -5.4704508    137.77134   0.03656352  0.037635183           10 
  315000   0.77136574   -5.4794642    137.98308   0.03650346  0.037533788            5 
  316000   0.77462961   -5.5187667    137.89607  0.036364998  0.037432848            4 
  317000   0.76442289   -5.4966169    138.18227  0.036325519  0.037332707            6 
  318000   0.74486757    -5.490218    138.25432  0.036230169  0.037231943            4 
  319000   0.74482336   -5.4710795     138.3415  0.036139368   0.03713234            7 
  320000   0.74689933   -5.4914499    138.40379  0.036042652   0.03703249            9 
  321000   0.75103457   -5.4748385    138.25478  0.035891688  0.036931404            4 
  322000   0.75936361   -5.5247447    138.37878  0.035812313  0.036829276            8 
  323000   0.73404786   -5.5063337    138.45241  0.035720435  0.036728005           10 
  324000   0.74814964   -5.4933386    138.95988  0.035740711  0.036626945           12 
  325000   0.75632742   -5.5027768     138.8899  0.035612795   0.03652689            9 
  326000   0.76262033   -5.5290168    138.99147  0.035529516  0.036427174            8 
  327000   0.76033225   -5.5109107    139.27823  0.035493942  0.036327282           12 
  328000   0.73397731   -5.5437772    139.08386  0.035336347  0.036228071            7 
  329000   0.74984841   -5.5274017    139.43789  0.035318613  0.036129386            8 
  330000   0.73182059   -5.5369345    139.65636  0.035266757  0.036031264            8 
  331000   0.73265188   -5.5429917    139.28723  0.035067279  0.035932891           12 
  332000   0.73749352   -5.5498807    139.70991  0.035067749  0.035835058            5 
  333000   0.73475523     -5.56925    139.68428  0.034956027  0.035738722            9 
  334000   0.72547218     -5.56885    140.03536  0.034938962  0.035642182            9 
  335000   0.72618617   -5.5738603    139.96626  0.034817477  0.035545796           17 
  336000   0.73208906   -5.5583621    140.21765  0.034776204    0.0354499            6 
  337000   0.71379828   -5.5550019    140.59973   0.03476749  0.035354191           11 
  338000   0.73196118     -5.55294    140.61831  0.034669209  0.035258301            7 
  339000   0.72795219   -5.5688727     140.2446  0.034475074  0.035162073            4 
  340000   0.72702387   -5.5878677    140.29717  0.034386562   0.03506626            6 
  341000   0.74574571   -5.5854716    140.45721   0.03432483  0.034970712            8 
  342000    0.7267067   -5.5600082     140.8636   0.03432349  0.034875544            7 
  343000   0.71178288   -5.5611489     141.0811  0.034276263  0.034780919           10 
  344000   0.71185522   -5.5656472    140.78043  0.034103787  0.034686008            9 
  345000   0.70727087    -5.587725    140.72584  0.033991748  0.034591177           13 
  346000   0.72619252    -5.601464    140.80806   0.03391331  0.034496529            6 
  347000   0.70594007    -5.569925    141.12847  0.033892524  0.034402442            9 
  348000   0.70842824   -5.5911252    141.28577  0.033832799  0.034309508           11 
  349000   0.71888188   -5.5970886    141.57444  0.033804786  0.034215712            8 
  350000   0.69256127   -5.6118507    141.44907   0.03367835  0.034122762            5 
  351000    0.7035602   -5.6218121    141.84321  0.033675976  0.034030285           17 
  352000   0.72468727   -5.6247358    141.70054   0.03354653  0.033938422            5 
  353000   0.69694847   -5.6021777     142.0489  0.033533733  0.033847089            4 
  354000   0.70845182   -5.6189458    142.20486  0.033475721  0.033755538           11 
  355000   0.70172929   -5.6287408    142.02793  0.033339891  0.033665006           18 
  356000   0.69547222    -5.646616    142.04223  0.033249586  0.033574082           10 
  357000   0.70465353   -5.6396844    142.43896  0.033249056  0.033483988            6 
  358000   0.67848952   -5.6640959    142.03608  0.033062402   0.03339365            8 
  359000   0.71301749   -5.6324013    142.63023  0.033108224  0.033303788            8 
  360000   0.70115897   -5.6127236    142.78964  0.033053158  0.033213993            9 
  361000   0.68489216   -5.6264905     142.9463   0.03299776  0.033124653           21 
  362000   0.70335805   -5.6577538    142.67761  0.032844755  0.033034839           10 
  363000   0.67892567   -5.6931126    142.53183  0.032720807  0.032944214            6 
  364000   0.67350844   -5.6618344    142.74914  0.032680664  0.032854131            6 
  365000   0.67303086    -5.656463    142.51917  0.032538624  0.032764202           17 
  366000   0.67930907   -5.6795255    143.04538  0.032569531  0.032674872            9 
  367000   0.66329321   -5.6564813    142.95658  0.032460621  0.032585745           10 
  368000   0.69108378   -5.6976185    142.71069  0.032316733  0.032496863            5 
  369000   0.66681631   -5.6808011     143.0161  0.032298126  0.032408017           16 
  370000   0.66636885   -5.6875718    142.96991   0.03220043  0.032319635           17 
  371000   0.69034291   -5.6835462    143.17491  0.032159683   0.03223091           17 
  372000   0.68143676   -5.6948267    142.98966  0.032031734  0.032142826            8 
  373000     0.672865   -5.6841561    143.52418  0.032065277  0.032054533            8 
  374000   0.65636922   -5.6757099    143.21132  0.031909831  0.031967555            8 
  375000   0.67435392   -5.6978746    143.71526  0.031936725  0.031880537            4 
  376000   0.66549136   -5.7047115    143.83845  0.031879088   0.03179373            9 
  377000   0.66639686   -5.7041879    143.24817  0.031664051  0.031706974            7 
  378000   0.64811876   -5.7090926    143.62713  0.031663829  0.031620237            5 
  379000   0.66543357    -5.692909    143.61128  0.031576798  0.031533714            4 
  380000   0.65934358   -5.7116477    143.60163  0.031491586  0.031447192            9 
  381000   0.66160039   -5.7139897    143.83723  0.031460461  0.031360915           11 
  382000   0.64873539   -5.7008644    143.41364  0.031285698  0.031274251           10 
  383000   0.66964201   -5.7351715    143.67794   0.03126152  0.031187755           17 
  384000   0.65669381   -5.7307709     143.5294  0.031147873  0.031101524           23 
  385000   0.65336658   -5.7297481    143.73846  0.031112222  0.031015412           15 
  386000    0.6394651   -5.7486489    143.42961  0.030964941  0.030928878            5 
  387000   0.66669185   -5.7504786    143.78207  0.030960826  0.030842873           15 
  388000   0.63602316   -5.7405041     143.6609  0.030855005   0.03075718           10 
  389000   0.62596623   -5.7663883    143.54695  0.030751274  0.030671058           14 
  390000    0.6382524    -5.740853    143.94565  0.030757617  0.030585447           16 
  391000   0.64914573   -5.7581771    143.93335  0.030676332  0.030500692           14 
  392000   0.65359198   -5.7661023    143.92506  0.030596313   0.03041574           23 
  393000   0.64805119   -5.7831851    143.56071  0.030441203  0.030330841            9 
  394000   0.62689163   -5.7609917    143.75718  0.030405496  0.030246645           13 
  395000   0.63240686   -5.7473731    144.02466   0.03038495  0.030162249           12 
  396000   0.63198053   -5.7596725    143.94643  0.030291758  0.030078432            5 
  397000   0.64571121   -5.7618021    144.30577  0.030290884   0.02999484            8 
  398000   0.62798314   -5.7678551    144.07023  0.030165458   0.02991163           12 
  399000   0.63199678   -5.7976084    143.93942  0.030062535  0.029828514           15 
  400000    0.6160922   -5.8103008    144.04525  0.030009426  0.029745166           12 
  401000   0.61846694   -5.8019762    144.02087  0.029929525  0.029661536           12 
  402000   0.64304591   -5.7961627     143.8592  0.029821558  0.029578442           28 
  403000   0.63051631   -5.8081696    144.27472  0.029833483  0.029495168           21 
  404000    0.6241828   -5.8109615    143.68436  0.029637864  0.029411919           15 
  405000   0.61065251    -5.807591    144.31261  0.029693953  0.029328903            9 
  406000   0.61462299   -5.8119258    144.09119  0.029575367  0.029245999           18 
  407000    0.6260532   -5.8082884    144.17286  0.029519423  0.029163679           13 
  408000   0.61592465    -5.798497    144.14432  0.029441243  0.029081623            8 
  409000   0.62126202    -5.836577    144.28441  0.029397801   0.02899951            7 
  410000     0.600529   -5.8322325    143.93284  0.029254643  0.028917323           17 
  411000   0.61457234   -5.8477668    144.09836  0.029217024  0.028835349           13 
  412000   0.59685516   -5.8308111    143.96014  0.029118152   0.02875361           25 
  413000   0.60247425   -5.8416202    144.24823  0.029105776  0.028671953           11 
  414000   0.59814294   -5.8431591    143.94035  0.028973501  0.028590425           15 
  415000   0.60432512   -5.8378868    144.15094  0.028945971  0.028508742           22 
  416000   0.61314139   -5.8333159     144.3281   0.02891188  0.028427532           18 
  417000   0.58940203   -5.8801682    144.11365  0.028799691  0.028346572           19 
  418000   0.60594365   -5.8568893    144.30689  0.028769316  0.028265887           24 
  419000   0.60338608   -5.8743537    143.97359  0.028634365  0.028185438           20 
  420000   0.60860865    -5.872159     144.1231  0.028595853  0.028105423           22 
  421000   0.59193811   -5.8773153    144.16795  0.028536808   0.02802522           14 
  422000   0.60743289   -5.8781341    144.30425  0.028496099  0.027945687           30 
  423000   0.58129972    -5.853669    144.44909  0.028457267  0.027866245           10 
  424000   0.59772045   -5.8653507    144.76351  0.028451948  0.027787455           22 
  425000   0.58662739   -5.8828997    144.49167    0.0283317  0.027708558           15 
  426000   0.57957655   -5.8853376    144.15008  0.028198373  0.027629526           17 
  427000   0.59028547   -5.8962374    144.37016  0.028175285   0.02755073            8 
  428000   0.58566837   -5.8966463    144.46413  0.028127751   0.02747232           26 
  429000   0.57178009   -5.8789267    144.32826  0.028035792  0.027394456           33 
  430000   0.56972078   -5.9056592    144.62134  0.028027391  0.027316604           14 
  431000   0.58811317   -5.8955741    144.35959  0.027911753  0.027239028           27 
  432000   0.57122396   -5.9030578    144.59426  0.027892411  0.027161212           21 
  433000   0.57037291   -5.9127698    143.85939  0.027686565  0.027083529           22 
  434000   0.57131902    -5.925301    144.47328  0.027740645  0.027005822           41 
  435000   0.56559264   -5.9366353    144.43254  0.027669069  0.026928066           30 
  436000    0.5644198   -5.9559862    144.38279  0.027596099  0.026850727           19 
  437000   0.57406994    -5.943931    144.38084  0.027532578  0.026773366           32 
  438000    0.5615256   -5.9385527    144.41744  0.027476682  0.026696464           24 
  439000    0.5515843   -5.9449548     144.2674  0.027385612  0.026619702           24 
  440000   0.55896429   -5.9383433    144.25558  0.027321133  0.026543124           18 
  441000   0.55880363   -5.9403479    144.43956  0.027293946  0.026466832           27 
  442000   0.57130281   -5.9300093    144.16469  0.027180371  0.026390683           36 
  443000   0.55862253   -5.9411812    144.23683  0.027132587   0.02631468           22 
  444000   0.56195333   -5.9632621    144.02653  0.027032006  0.026238769           24 
  445000   0.55789116   -5.9459371    144.38878  0.027039097  0.026163228           43 
  446000   0.55622659   -5.9626263    144.14451  0.026932831  0.026087663           16 
  447000   0.55061375   -5.9440939    144.25228  0.026892669   0.02601229           31 
  448000    0.5566608   -5.9782389    144.21888  0.026826429  0.025937217           25 
  449000   0.54494545   -5.9505955    144.18151  0.026759745  0.025862267           36 
  450000   0.55800185   -5.9550585    144.12202  0.026689262   0.02578761           24 
  451000   0.54115946   -5.9830539    144.49225  0.026698493  0.025713289           34 
  452000   0.55574756   -5.9693058     144.0945  0.026566094  0.025639106           26 
  453000   0.55476114   -5.9888774    144.46924  0.026576388  0.025565083           33 
  454000   0.53165471   -5.9801871    144.41661  0.026508188  0.025491122           15 
  455000    0.5511412   -5.9945042    144.12986  0.026397411  0.025417479           29 
  456000   0.53105608   -5.9849152    143.97113  0.026310514  0.025343952           33 
  457000   0.53894706   -5.9823348    144.46979  0.026343871  0.025270733           50 
  458000   0.53308079   -6.0091323    144.02593  0.026205591  0.025197649           42 
  459000   0.53815673   -6.0255738    144.02373  0.026148098  0.025124547           78 
  460000   0.52684947   -6.0219429    143.91974  0.026072416  0.025051754           99 
  461000   0.52957936   -6.0236565    143.84912  0.026003095   0.02497887           68 
  462000    0.5297134   -6.0204908    144.03752  0.025980794  0.024906124           66 
  463000   0.53238858   -6.0357456    143.67413  0.025859274  0.024833764          113 
  464000   0.52073692   -6.0226527    143.73936  0.025815259  0.024761371           75 
  465000   0.52688189   -6.0464312    143.49537  0.025716016  0.024689322           68 
  466000   0.51775986   -6.0379531    143.85067  0.025724368  0.024617302           74 
  467000   0.52139368   -6.0524382    143.73567  0.025648763  0.024545703          158 
  468000   0.51088533   -6.0582496    143.49346  0.025550829  0.024473985          129 
  469000   0.51863542   -6.0514942    143.55097  0.025506568  0.024402616           61 
  470000   0.51885852   -6.0626603    143.81463  0.025499049  0.024331454          145 
  471000   0.51594618   -6.0518229    143.92581   0.02546458  0.024260466           81 
  472000   0.51462476   -6.0632407    143.58414  0.025350306  0.024189667           57 
  473000   0.50413933   -6.0588543     143.3505  0.025255549  0.024118626           71 
  474000   0.49852806   -6.0781093    143.78872   0.02527931  0.024047765           97 
  475000   0.51285393   -6.0743531    143.46669  0.025169595  0.023977168           82 
  476000   0.51527745   -6.0731986    143.32838  0.025092504   0.02390695           57 
  477000   0.51325016   -6.0876054    143.68722  0.025102589  0.023837002          139 
  478000   0.50412133   -6.0955584    143.75969  0.025062708  0.023767163          206 
  479000   0.50589952   -6.0747061    143.26846  0.024924923  0.023697685          173 
  480000   0.50239176   -6.0843606    143.61153  0.024932557  0.023628476          199 
  481000   0.49562331    -6.088916    143.44435  0.024851759   0.02355945          161 
  482000     0.499611    -6.098212    143.47608  0.024805685  0.023490566          121 
  483000   0.50126685   -6.0966677    143.47159  0.024753553  0.023421884          241 
  484000   0.50620761   -6.0918744    143.57263  0.024719805  0.023353361          123 
  485000   0.49210129   -6.1029307    143.33186  0.024627467  0.023284846           66 
  486000   0.50215137   -6.1093072    143.43994  0.024595326  0.023216677          117 
  487000    0.4894416   -6.1174023    143.45318  0.024547088  0.023148751           61 
  488000   0.48643325   -6.1169213    143.31934  0.024473932  0.023080901           39 
  489000   0.48126791   -6.1245487    143.37857  0.024433976  0.023013241           31 
  490000   0.48454929   -6.1329925    143.36611  0.024381992  0.022945581           33 
  491000   0.47403269   -6.1248552    143.30118  0.024321313  0.022878186           50 
  492000   0.47271291   -6.1370462    142.94297  0.024211207  0.022810889           43 
  493000   0.47043961   -6.1354804    143.19359   0.02420446  0.022743788           28 
  494000   0.47379321   -6.1431658    143.02599  0.024127192  0.022677066           40 
  495000   0.47388856   -6.1645574    143.03495  0.024079957  0.022610609           54 
  496000   0.47121386    -6.140682    143.07934  0.024038868  0.022544213           72 
  497000   0.47043353   -6.1466234    143.09214  0.023992645  0.022477999          119 
  498000   0.47451261   -6.1551138    142.85561  0.023904889  0.022411986           61 
  499000   0.46629959   -6.1586311    143.22416   0.02391853  0.022346259           76 
  500000   0.46217699    -6.154137      143.045  0.023840834  0.022280759           54 
  501000   0.46205843   -6.1518942    142.99966  0.023785706  0.022215401           53 
  502000   0.46439069   -6.1522916    142.95021  0.023730114  0.022150167           58 
  503000    0.4651627   -6.1782888    142.79074  0.023656517  0.022085101           93 
  504000   0.46153771   -6.1635427    142.88141  0.023624572  0.022020294           62 
  505000   0.46866228   -6.1828712    142.84927  0.023572486  0.021955557           86 
  506000   0.45876742   -6.1727765    142.78855  0.023515901  0.021890954           90 
  507000   0.44875946   -6.1831258    142.65269  0.023447187  0.021826451          100 
  508000   0.45208237   -6.1859599    142.82563  0.023429402  0.021762226           71 
  509000   0.44946507   -6.1981244    142.67856  0.023359292   0.02169832           90 
  510000   0.44761083   -6.1924551    142.52971  0.023289169  0.021634497          173 
  511000   0.45118501   -6.1923219     142.6069   0.02325618  0.021570772          121 
  512000   0.45146158   -6.2062391    142.55399  0.023202146  0.021507413          121 
Loop time of 1267.64 on 48 procs for 500000 steps with 4000 atoms

Performance: 68158.411 tau/day, 394.435 timesteps/s
99.4% CPU use with 48 MPI tasks x no OpenMP threads

MPI task timing breakdown:
Section |  min time  |  avg time  |  max time  |%varavg| %total
---------------------------------------------------------------
Pair    | 88.151     | 93.973     | 98.421     |  29.8 |  7.41
Neigh   | 8.5472     | 8.958      | 9.5191     |   6.7 |  0.71
Comm    | 80.958     | 86.655     | 93.669     |  35.6 |  6.84
Output  | 0.89998    | 0.90077    | 0.92609    |   0.4 |  0.07
Modify  | 1062.6     | 1065.7     | 1068.5     |   4.0 | 84.07
Other   |            | 11.45      |            |       |  0.90

Nlocal:        83.3333 ave          89 max          78 min
Histogram: 3 5 7 6 5 6 3 6 2 5
Nghost:        2362.83 ave        2383 max        2344 min
Histogram: 2 1 11 7 5 5 5 7 3 2
Neighs:        16193.6 ave       18566 max       13967 min
Histogram: 4 2 7 9 6 4 3 3 8 2
FullNghs:      32387.2 ave       34705 max       30198 min
Histogram: 1 5 8 8 4 6 4 7 1 4

Total # of neighbors = 1554588
Ave neighs/atom = 388.64700
Neighbor list builds = 26862
Dangerous builds = 0

#clear
#
#next RN
#
#jump SELF
Total wall time: 0:21:11
