
units lj                  # Use reduced LJ style units
atom_style atomic         # Uncharged point particles
atom_modify map hash      # Needed for indexing of clusters etc
                          # Used to be able to find where atoms are in relation to each other.

lattice fcc 1.0 spacing 1 1 1
Lattice spacing in x,y,z = 1.5874011 1.5874011 1.5874011
region box block 0 10 0 10 0 10 units lattice
create_box 2 box
Created orthogonal box = (0.0000000 0.0000000 0.0000000) to (15.874011 15.874011 15.874011)
  3 by 4 by 4 MPI processor grid
create_atoms 1 box
Created 4000 atoms
  using lattice units in orthogonal box = (0.0000000 0.0000000 0.0000000) to (15.874011 15.874011 15.874011)
  create_atoms CPU = 0.003 seconds
set type 1 type/fraction 2 0.83 78393
Setting atom values ...
  3314 settings made for type/fraction
mass 1 1.0
mass 2 1.0
pair_style lj/cut  3.5
pair_modify tail  yes
pair_coeff 1  1  1.0  1.0   # Intearaction between 1 and 1 set with epsilon = 1 and sigma = 1
pair_coeff 1  2  1.5  0.8
pair_coeff 2  2  0.5  0.88

write_data data.0
System init for write_data ...
Neighbor list info ...
  update every 1 steps, delay 10 steps, check yes
  max neighbors/atom: 2000, page size: 100000
  master list distance cutoff = 3.8
  ghost atom cutoff = 3.8
  binsize = 1.9, bins = 9 9 9
  1 neighbor lists, perpetual/occasional/extra = 1 0 0
  (1) pair lj/cut, perpetual
      attributes: half, newton on
      pair build: half/bin/atomonly/newton
      stencil: half/bin/3d
      bin: standard
WARNING: Not all mixed pair coeffs generated from mixing. Use write_data with 'pair ij' option to store all pair coeffs. (../write_data.cpp:312)


#############################
#   M E L T   S Y S T E M   #
#############################

velocity all create 2.4 9622624 mom yes dist gaussian # Assign velocities
                                                    # Temperature 2.4, random number seed, zero linear momentum
                                                                                # Gaussian distribution

timestep 0.002   # simulation timestep
thermo 1000       # output thermodynamic data every 1000 steps bf 100

# Define a fix  in this case with index 1 applied to all
# particles in the simulation. This fix is for simulations
# in the anisotropic NPT ensemble. Note that we use the MTK
# correction.
fix 1 all npt temp 2.4 2.4 0.1 iso 5.68 5.68 0.5 mtk yes tchain 5 pchain 5 # Use NPT ensemble
                                                                         # Set temperature and pressure and damping
                                                                         # Numbers of thermostats in chain and in barostat
run 10000          # run for 10000 steps
Per MPI rank memory allocation (min/avg/max) = 3.642 | 3.644 | 3.648 Mbytes
Step Temp E_pair E_mol TotEng Press Volume 
       0          2.4   -3.5381599            0  0.060940148   -3.0801753         4000 
    1000    2.3758861   -2.7922484            0   0.77068978    5.9065995    3824.0506 
    2000    2.4278501   -2.7865645            0   0.85430008    5.5375712    3882.9032 
    3000    2.4506089    -2.787441            0   0.88755346    5.6151193    3869.7095 
    4000    2.3830484   -2.7958861            0   0.77779277    5.6062738    3864.3903 
    5000    2.3945218   -2.7979009            0    0.7929839    5.9231689    3839.3386 
    6000    2.3861897   -2.8039902            0   0.77439956    5.8313381     3831.194 
    7000    2.4307329   -2.8390887            0   0.80609914    5.9685686    3799.9416 
    8000    2.2936023   -2.7822934            0   0.65724985    5.8485589    3843.1586 
    9000    2.3701144   -2.8319871            0   0.72229562    5.5522038    3854.6039 
   10000    2.4385121   -2.8149923            0   0.84186142    5.8688643    3820.1203 
Loop time of 2.61524 on 48 procs for 10000 steps with 4000 atoms

Performance: 660743.250 tau/day, 3823.746 timesteps/s
99.6% CPU use with 48 MPI tasks x no OpenMP threads

MPI task timing breakdown:
Section |  min time  |  avg time  |  max time  |%varavg| %total
---------------------------------------------------------------
Pair    | 1.1305     | 1.2047     | 1.3671     |   4.6 | 46.07
Neigh   | 0.20968    | 0.22087    | 0.24919    |   1.6 |  8.45
Comm    | 0.75561    | 0.91674    | 1.0103     |   5.4 | 35.05
Output  | 0.00025218 | 0.00025819 | 0.00032468 |   0.0 |  0.01
Modify  | 0.22129    | 0.2573     | 0.31358    |   4.1 |  9.84
Other   |            | 0.01536    |            |       |  0.59

Nlocal:        83.3333 ave          94 max          73 min
Histogram: 1 3 4 9 6 12 7 2 2 2
Nghost:        1695.75 ave        1722 max        1659 min
Histogram: 1 1 4 5 6 5 12 6 4 4
Neighs:        9977.29 ave       11299 max        8788 min
Histogram: 2 3 8 9 5 7 4 5 2 3

Total # of neighbors = 478910
Ave neighs/atom = 119.72750
Neighbor list builds = 909
Dangerous builds = 240

# Equilibrate just above the melting temperature to avoid step fn in T

fix 1 all npt temp 1.25 1.25 0.1 iso 5.68 5.68 0.5 mtk yes tchain 5 pchain 5
run 2000
Per MPI rank memory allocation (min/avg/max) = 3.644 | 3.645 | 3.649 Mbytes
Step Temp E_pair E_mol TotEng Press Volume 
   10000    2.4385121   -2.8149923            0   0.84186142    5.8688643    3820.1203 
   11000     1.257425   -4.1333994            0   -2.2477333    5.7700021    2961.1654 
   12000    1.2406126   -4.1613373            0   -2.3008836    5.8461406    2949.7435 
Loop time of 0.638825 on 48 procs for 2000 steps with 4000 atoms

Performance: 540993.409 tau/day, 3130.749 timesteps/s
99.6% CPU use with 48 MPI tasks x no OpenMP threads

MPI task timing breakdown:
Section |  min time  |  avg time  |  max time  |%varavg| %total
---------------------------------------------------------------
Pair    | 0.27281    | 0.30728    | 0.35265    |   2.8 | 48.10
Neigh   | 0.039882   | 0.042901   | 0.048586   |   0.8 |  6.72
Comm    | 0.18994    | 0.23986    | 0.28001    |   3.6 | 37.55
Output  | 5.07e-05   | 5.2481e-05 | 6.8045e-05 |   0.0 |  0.01
Modify  | 0.03952    | 0.043856   | 0.047503   |   1.0 |  6.87
Other   |            | 0.004872   |            |       |  0.76

Nlocal:        83.3333 ave          93 max          73 min
Histogram: 1 0 2 8 8 16 4 4 4 1
Nghost:        2013.12 ave        2036 max        1989 min
Histogram: 2 1 5 7 7 10 5 6 4 1
Neighs:        12961.1 ave       14504 max       10938 min
Histogram: 2 1 4 4 6 8 10 4 4 5

Total # of neighbors = 622133
Ave neighs/atom = 155.53325
Neighbor list builds = 144
Dangerous builds = 13

#############################
# L I N E A R  Q U E N C H  #
#############################

# Define solid atoms. This closely follows ten Wolde  Ruiz-Montero and Frenkel  Faraday Discuss  1996  104  93-110
# Compute components of the per-atom q6 vector
compute q6 all orientorder/atom degrees 1 6 components 6 nnn NULL cutoff 1.3 # compute the Q6 parameter.
                                                                             # Use all neighbours within 1.3 unit cell.

# get number of connections
compute coord_number all coord/atom orientorder q6 0.5

# An atom is solid if it has 8 or more connections (of a possible 14)
variable is_solid atom c_coord_number>=8
group solid dynamic all var is_solid    # Must be dynamic to update
dynamic group solid defined

# do clustering
compute cluster solid cluster/atom 1.3 # Create a cluster where all atoms within are solid and max 1.3 units from another member

# define chunks one chunk per cluster
compute clus_chunks solid chunk/atom c_cluster nchunk every compress yes  # Says which atoms are in which chunk

# count the size of each chunk
compute size_chunks solid property/chunk clus_chunks count


# Find the maximum entry in the vector of chunk sizes
variable max_n equal max(c_size_chunks)


# Thermo style which includes this variable
# thermo_style custom step temp pe vol v_max_n

thermo ${N}  # Print the thermo information every 100 steps
thermo 1000  

# Reset the npt fix at a lower temperature (below freezing)
fix 1  all npt temp  ${temp} ${temp}  0.1  iso  5.68  5.68  0.5  mtk yes tchain  5  pchain  5
fix 1  all npt temp  0.45 ${temp}  0.1  iso  5.68  5.68  0.5  mtk yes tchain  5  pchain  5
fix 1  all npt temp  0.45 0.45  0.1  iso  5.68  5.68  0.5  mtk yes tchain  5  pchain  5

dump dmp2 all dcd ${N} traj.dcd
dump dmp2 all dcd 1000 traj.dcd


compute msd all msd com yes
variable twopoint equal c_msd[4]/6/(step*dt+1.0e-6)
fix 9 all vector 10 c_msd[4]
variable fit equal slope(f_9)/6/(10*dt)
thermo_style custom step temp pe c_msd[4] v_twopoint v_fit v_max_n

fix 1 all npt temp 1.25 ${temp} 0.1 iso 5.68 5.68 0.5 mtk yes tchain 5 pchain 5
fix 1 all npt temp 1.25 0.45 0.1 iso 5.68 5.68 0.5 mtk yes tchain 5 pchain 5
run 2000000 # 5000000  # Run for this many steps
Neighbor list info ...
  update every 1 steps, delay 10 steps, check yes
  max neighbors/atom: 2000, page size: 100000
  master list distance cutoff = 3.8
  ghost atom cutoff = 3.8
  binsize = 1.9, bins = 8 8 8
  4 neighbor lists, perpetual/occasional/extra = 1 3 0
  (1) pair lj/cut, perpetual
      attributes: half, newton on
      pair build: half/bin/atomonly/newton
      stencil: half/bin/3d
      bin: standard
  (2) compute orientorder/atom, occasional
      attributes: full, newton on
      pair build: full/bin/atomonly
      stencil: full/bin/3d
      bin: standard
  (3) compute coord/atom, occasional
      attributes: full, newton on
      pair build: full/bin/atomonly
      stencil: full/bin/3d
      bin: standard
  (4) compute cluster/atom, occasional
      attributes: full, newton on
      pair build: full/bin/atomonly
      stencil: full/bin/3d
      bin: standard
Per MPI rank memory allocation (min/avg/max) = 9.830 | 9.838 | 9.844 Mbytes
Step Temp PotEng c_msd[4] v_twopoint v_fit v_max_n 
   12000    1.2406126   -4.1613373 2.2224184e-30 1.543346e-32 8.3333333e+20            1 
   13000    1.2639952   -4.1368877   0.87850483  0.005631441  0.073615927            1 
   14000    1.2576515   -4.1434559    1.7653833  0.010508234  0.074748678            2 
   15000    1.2454826   -4.1439828    2.6827802  0.014904334  0.074598549            1 
   16000    1.2532868   -4.1594006    3.4422303  0.017928282  0.073334404            1 
   17000    1.2472096    -4.169444    4.2898276  0.021028566   0.07182919            2 
   18000    1.2933411   -4.1475977     5.167022  0.023921398  0.071314052            1 
   19000    1.2456446   -4.1394017    6.0505455   0.02653748  0.071320038            1 
   20000    1.2639291   -4.1509756    6.9805554  0.029085647  0.071641144            5 
   21000    1.2555718   -4.1773511    7.8901901  0.031310277  0.072288928            2 
   22000     1.245293   -4.1699377    8.7620207  0.033189472  0.072782016            5 
   23000    1.2543382   -4.1658065    9.6771594  0.035062171  0.073103636            1 
   24000    1.2359795   -4.1124641     10.71292  0.037197638  0.073597836            1 
   25000    1.2701514   -4.1523507    11.598634  0.038662113  0.073932394            3 
   26000    1.2480391   -4.1584526    12.391286   0.03971566  0.074089505            4 
   27000    1.2380186   -4.1642318    13.318888  0.041107677  0.074184629            4 
   28000    1.2746479    -4.164423    14.419974  0.042916588  0.074404951            6 
   29000     1.244269   -4.1798385    15.193349  0.043659049  0.074653456            1 
   30000    1.2429712    -4.171443    16.067714  0.044632538  0.074702378            1 
   31000    1.2659013   -4.2021951    16.941824  0.045542537  0.074776875            1 
   32000    1.2459015   -4.1582714    17.962778  0.046778066  0.074819073            2 
   33000    1.2372028   -4.1675592    18.750982  0.047350963  0.074902044            2 
   34000    1.2350899   -4.1608987    19.695132  0.048272381  0.074930439            1 
   35000    1.2493713   -4.1811671    20.424473  0.048629698  0.074908471            2 
   36000    1.2345618   -4.1994623     21.33782  0.049393101  0.074868521            2 
   37000    1.1962212   -4.2022956     22.22372  0.050053422  0.074795874            2 
   38000    1.2208233   -4.1727541    23.144755  0.050756041  0.074713255            4 
   39000    1.2249687   -4.1599029    24.014519  0.051313073  0.074663483            2 
   40000    1.2627448   -4.2068764    24.888148  0.051850308  0.074621959            2 
   41000    1.2405439    -4.151138    25.826493  0.052492871   0.07459502            1 
   42000    1.2397635   -4.1647997    26.773342  0.053121711  0.074595807            2 
   43000    1.2071053   -4.1686384    27.777907  0.053833153  0.074633885            4 
   44000    1.2494149   -4.2040792    28.976121  0.054879016  0.074784427            2 
   45000    1.2398039   -4.1405164    29.962354   0.05548584   0.07492207            1 
   46000    1.2531053   -4.1872379    30.691184   0.05559997  0.075053763            1 
   47000     1.258192   -4.1773585    31.836178  0.056447123  0.075201958            3 
   48000    1.2290302   -4.1854583    32.359456   0.05617961  0.075298937            1 
   49000    1.2220659   -4.1998121     33.18128  0.056430748  0.075329048            3 
   50000    1.2344965   -4.1857162     34.22485  0.057041416  0.075315763            1 
   51000    1.2313824   -4.1713528    35.208546  0.057530304  0.075302919            2 
   52000    1.2440812   -4.2040608    36.053628   0.05777825  0.075307012            1 
   53000    1.2624578   -4.1682489    37.181038  0.058460751  0.075318279            2 
   54000    1.2412478   -4.1897437    37.956803  0.058575313  0.075382563            1 
   55000    1.2472384   -4.1686202    38.879886  0.058908917  0.075440164            2 
   56000    1.2532022   -4.1784399    39.694772  0.059069601  0.075462764            1 
   57000    1.2509977    -4.211683    40.433718  0.059113622  0.075488153            5 
   58000    1.2783044   -4.1707977    41.621719  0.059801319  0.075491212            2 
   59000     1.210364   -4.2003417     42.35882  0.059828842  0.075499454            2 
   60000     1.200772   -4.1943753    43.175283   0.05996567  0.075499266            5 
   61000    1.2278877   -4.1990053    43.750577  0.059768548  0.075459161            2 
   62000    1.2357452    -4.193128    45.046867  0.060546864  0.075427409            2 
   63000    1.2539518   -4.1441964    45.998131  0.060844088  0.075429279            1 
   64000    1.2082085   -4.2101764    46.652789  0.060745818  0.075413173            5 
   65000    1.2251243   -4.1718084    47.940773  0.061462529  0.075408024            1 
   66000    1.1972882   -4.2032153    48.696332  0.061485268  0.075421189            2 
   67000    1.2289468   -4.2123829    49.350812  0.061381607  0.075421691            1 
   68000    1.2417956   -4.1994041    50.503822  0.061891938  0.075423162            1 
   69000    1.2552783   -4.1698802    51.236239  0.061879515  0.075410359            2 
   70000    1.2415321   -4.1728192     51.99754  0.061901833   0.07537621            2 
   71000    1.2291523   -4.1863491    53.019698  0.062229692  0.075342657            2 
   72000    1.2317342   -4.1836861    53.681348  0.062131189  0.075309087            2 
   73000    1.2192548   -4.1833105    54.641906  0.062376605  0.075271374            2 
   74000    1.1955933   -4.2046207    55.384002  0.062369371  0.075229011            3 
   75000    1.2021188   -4.2260469    56.156631  0.062396256  0.075177825            1 
   76000    1.2122948   -4.2093699    57.031892  0.062534969  0.075127877            1 
   77000    1.2082849   -4.1988736    57.839575  0.062596943  0.075058984            2 
   78000    1.2030146   -4.2121032    58.893717  0.062920638  0.074998481            2 
   79000    1.1787325   -4.1780748    59.749992  0.063027417  0.074959012            2 
   80000    1.2170077    -4.225891     60.47011  0.062989698  0.074904598            3 
   81000     1.202815   -4.2510874    61.538905   0.06331163  0.074870916            2 
   82000    1.1984368   -4.2190115    62.917317  0.063940362  0.074837209            2 
   83000    1.2256955   -4.1697407    63.784739  0.064040902  0.074812283            3 
   84000     1.235296   -4.2079185    64.285944  0.063775738  0.074790482            1 
   85000    1.2387321   -4.2021454    65.039911  0.063764619  0.074765226            3 
   86000    1.1912779   -4.2284054    65.516168  0.063484658  0.074722291            3 
   87000    1.2215914   -4.1556927    66.621282  0.063813488  0.074672772            1 
   88000    1.1885258   -4.1870359    67.254299  0.063687782   0.07460946            3 
   89000    1.2193045   -4.1807161    68.612687  0.064244088  0.074565047            2 
   90000    1.2147743   -4.2121931    69.422027  0.064279654  0.074527117            1 
   91000    1.2212418   -4.1941716    70.471406  0.064534254  0.074493752            1 
   92000    1.2504629   -4.1994907    71.228094  0.064518201  0.074460803            1 
   93000     1.212264   -4.2220156    72.132495  0.064634852  0.074432542            2 
   94000    1.2196608   -4.2083194    72.998955  0.064715386  0.074407286            3 
   95000      1.20999   -4.2079761    73.925908  0.064847287  0.074388497            3 
   96000    1.2148564   -4.2021977    74.845931  0.064970426  0.074375243            2 
   97000    1.2108755   -4.2486435     75.61639  0.064962534  0.074365456            5 
   98000    1.2206791   -4.2335205    76.196868  0.064793255  0.074351314            3 
   99000    1.2182912   -4.2301538    76.961423  0.064782342   0.07432906            2 
  100000    1.2181936   -4.1947798    78.431926  0.065359938  0.074302813            2 
  101000    1.2381055   -4.2248617    79.260088  0.065396112  0.074292615            2 
  102000    1.2121673   -4.2389306    80.094474  0.065436662  0.074282858            1 
  103000    1.2413365   -4.2350827    80.386275  0.065037439  0.074256548            2 
  104000    1.2286841   -4.1760236    81.872725  0.065603144  0.074233238            2 
  105000     1.196718    -4.228017    82.685332  0.065623279   0.07422551            1 
  106000    1.2037708   -4.2094287    84.245295  0.066230577  0.074231268            2 
  107000    1.2211946   -4.2116726     85.34138  0.066465249  0.074253517            4 
  108000      1.22657   -4.2115729    85.640884  0.066080929  0.074272891            2 
  109000    1.2203505   -4.2149541    86.563456  0.066180012  0.074280781            4 
  110000    1.2209182   -4.2145002    87.187727  0.066051308  0.074285234            6 
  111000    1.2237884   -4.2508109    87.794162  0.065911532  0.074274363            2 
  112000     1.221967    -4.248849    88.324999  0.065718005  0.074248535            2 
  113000    1.2187292   -4.2235589       88.883  0.065547934  0.074207458            2 
  114000    1.1973185    -4.188289    89.932846  0.065740384  0.074154803            6 
  115000    1.1995745    -4.184121    90.558051  0.065621776  0.074091839            2 
  116000     1.225432   -4.1878764    91.012557  0.065382584  0.074030759            2 
  117000    1.2044572    -4.214705    92.021952  0.065542701  0.073971481            3 
  118000     1.213474   -4.2489584    92.969154  0.065656182  0.073917024            5 
  119000     1.229987   -4.2233297    94.373314  0.066087754  0.073865024            2 
  120000    1.1869881   -4.2235652    95.264341  0.066155792  0.073803833            4 
  121000    1.2148546   -4.2172216    95.022818  0.065442712   0.07375103            2 
  122000    1.2265825   -4.2519522    96.012895  0.065582578  0.073690368            3 
  123000    1.1965923   -4.2123055    96.906409  0.065654748   0.07363419            1 
  124000    1.1867709   -4.2031426    97.951252  0.065827454  0.073575429            1 
  125000    1.2053705   -4.2451491    98.579025   0.06571935  0.073511342            1 
  126000     1.218311   -4.2437011    98.902059  0.065411415  0.073449587            2 
  127000    1.2250221   -4.2424769    99.853024  0.065520356  0.073390514            7 
  128000    1.2067985   -4.2210284    101.23409  0.065907612   0.07333266            2 
  129000    1.1905606   -4.2479059     102.0188  0.065903617  0.073280751            3 
  130000    1.1837567   -4.2481238    102.95042  0.065993859  0.073232318            1 
  131000    1.2192358   -4.2231589    103.19003   0.06564251  0.073179876            5 
  132000    1.1911634   -4.2264791     104.2033  0.065784911  0.073113957            2 
  133000    1.1729836    -4.214919    105.03432  0.065810979  0.073056241            3 
  134000    1.1797074   -4.2220723    106.47325  0.066214706  0.073007039            2 
  135000     1.220771   -4.2224689    107.56118  0.066395788  0.072968898            2 
  136000    1.1980582   -4.2525324    107.56769  0.065911576  0.072914916            2 
  137000    1.2068447   -4.2485878     108.1475  0.065783151  0.072863917            2 
  138000    1.1879022   -4.2113706    109.52846  0.066140373  0.072811104            2 
  139000    1.1962953   -4.2436646    110.42984  0.066204938  0.072765294            1 
  140000     1.190037   -4.2310661    111.67649  0.066474099  0.072722149            1 
  141000    1.1880666   -4.2677983    111.67295  0.066000561  0.072684032            3 
  142000    1.1970946   -4.2088184    113.35072  0.066520378  0.072650446            4 
  143000    1.1714388   -4.2273193      113.869  0.066357227  0.072622537            1 
  144000    1.1948482    -4.207512    114.92712   0.06650875  0.072595161            1 
  145000    1.2022092   -4.2102138    116.05294  0.066697095  0.072570906            2 
  146000    1.1822707   -4.2549603    115.83504  0.066115893   0.07253423            1 
  147000    1.1587072   -4.2295568     117.5891  0.066660485  0.072507275            5 
  148000    1.1858112   -4.2582754    118.36709  0.066648134  0.072479274            2 
  149000    1.2160506    -4.218902    118.77275   0.06642771  0.072449242            1 
  150000    1.2035883   -4.2399295    119.81039  0.066561326  0.072421782            3 
  151000    1.1775581   -4.2270697    120.46758  0.066483213  0.072393501            2 
  152000    1.1925889   -4.2500688    120.58675  0.066111154  0.072351256            3 
  153000    1.2265807   -4.2267531    121.76258  0.066319486  0.072304242            1 
  154000    1.2037336   -4.2624557    123.15601   0.06664286  0.072270724            3 
  155000      1.18728   -4.2520674    123.60296  0.066453206  0.072241055            4 
  156000    1.1768477   -4.2705858    123.75855  0.066110338  0.072201439            1 
  157000    1.2033715   -4.2600017    125.01618  0.066356784  0.072161326            3 
  158000    1.1698212   -4.2324812    126.05675  0.066485627  0.072117227            2 
  159000    1.1995823   -4.2318607    126.78511   0.06644922  0.072077694            5 
  160000    1.2054033   -4.2695161    127.66052  0.066489856  0.072038058            1 
  161000    1.1744658   -4.2356421    128.53682  0.066530444  0.071998795            2 
  162000    1.1997909   -4.2338208    128.96141  0.066338174  0.071963109            1 
  163000    1.1945315   -4.2362216    129.24759  0.066077499   0.07192094            2 
  164000    1.1749663   -4.2460913    130.37273  0.066246306  0.071872588            3 
  165000    1.2013372    -4.241833    131.76415  0.066547551  0.071825051            3 
  166000    1.2114153   -4.2441557    131.90133  0.066215526  0.071790299            2 
  167000    1.1735018   -4.2500663    133.46436  0.066598983  0.071756745            3 
  168000    1.1841354   -4.2540987    134.39816  0.066665753  0.071723793            2 
  169000    1.2126829   -4.2394167     135.5725  0.066850343  0.071700402            3 
  170000    1.1757431   -4.2939631    135.59707  0.066469152  0.071677823            2 
  171000    1.1818224   -4.2591946    136.67554  0.066606012  0.071647845            2 
  172000    1.1851654   -4.2240604    137.80519  0.066766078  0.071626206            2 
  173000    1.1716718   -4.2458238     138.8679  0.066892052  0.071603513            5 
  174000    1.1745753   -4.2398814    139.17817  0.066656212  0.071580424            5 
  175000     1.146572   -4.2465765    139.64657  0.066498368  0.071552081            1 
  176000    1.1900698   -4.2220448    140.63669  0.066589343  0.071515358            1 
  177000    1.1702095   -4.2809685    140.96967    0.0663699  0.071477934            2 
  178000    1.1704508   -4.2586881    141.90587  0.066435332  0.071436547            2 
  179000    1.1762047   -4.2534394    142.90126  0.066527587  0.071398978            2 
  180000    1.1871882   -4.2812462    143.61402  0.066487972  0.071364674            1 
  181000    1.1699271   -4.2258952    143.94984  0.066275248  0.071331462            2 
  182000    1.1812049   -4.2675794    144.53014  0.066176803  0.071291577            2 
  183000    1.1735226   -4.2741055    144.52481  0.065812753   0.07124493            4 
  184000    1.2149737   -4.2595219    145.31852  0.065814548  0.071195994            1 
  185000    1.1821118   -4.2662252     145.8996  0.065720542  0.071140012            2 
  186000    1.1766601   -4.3287266     146.4892  0.065631363  0.071082508            2 
  187000    1.1781665   -4.2277918    147.91974  0.065917886  0.071029831            1 
  188000     1.206181   -4.2600272    149.08823  0.066085209  0.070980179            3 
  189000     1.187457   -4.2602446    149.31293  0.065834625  0.070926099            5 
  190000    1.1836778   -4.2754117    149.83227  0.065715906  0.070869715            1 
  191000    1.1841015   -4.2756986    150.45188  0.065642183   0.07081762            4 
  192000     1.175952   -4.2554982    151.60364   0.06580019  0.070765871            3 
  193000    1.1752598   -4.2872262    152.32157  0.065769243  0.070716265            2 
  194000    1.1874794   -4.2932982    153.05902     0.065747  0.070664411            2 
  195000    1.1899842   -4.2869185    153.42086  0.065564469  0.070612177            2 
  196000     1.187836   -4.2677043    154.30067  0.065604024  0.070560372            2 
  197000    1.1715496   -4.2804745    155.38367  0.065729133  0.070509393            3 
  198000    1.1998471   -4.3205171     155.5029  0.065447348  0.070455047            2 
  199000    1.1828423    -4.284757     156.8395  0.065678181   0.07040473            3 
  200000      1.18927   -4.2663816    157.29191  0.065538297   0.07035609            3 
  201000    1.1606576    -4.271214    158.91924  0.065886915  0.070307766            1 
  202000    1.1800327   -4.2406343    159.27615  0.065707984   0.07025684            3 
  203000    1.1684663   -4.2689015    159.85402  0.065621519  0.070201339            4 
  204000    1.1754316   -4.2986664    160.54572    0.0655824  0.070148831            3 
  205000    1.1487328   -4.2786922    161.31291  0.065574355  0.070100702            3 
  206000    1.1542265   -4.2738492    161.73446   0.06542656  0.070049351            5 
  207000    1.1649202   -4.2760766    161.76384   0.06512232  0.069997218            1 
  208000    1.1905648   -4.2247174    164.19102  0.065781659  0.069946504            1 
  209000    1.1678077   -4.2931103    163.72562  0.065281347  0.069894828            1 
  210000    1.1971146   -4.2966831    163.73993  0.064976163  0.069836679            2 
  211000    1.1580387   -4.3205614    164.52314  0.064977543  0.069779181            2 
  212000    1.1725924   -4.2888969    165.92769  0.065223148  0.069721982            1 
  213000    1.1976848   -4.2767646    166.14455  0.065001782  0.069662479            3 
  214000    1.1523117   -4.2856334    167.36946  0.065175023  0.069602101            2 
  215000    1.1415676   -4.3066751    167.18585  0.064800719  0.069544871            2 
  216000    1.1737715   -4.2674944     169.2825  0.065309607  0.069492127            2 
  217000    1.1368286   -4.2949054    170.00066   0.06528443  0.069440864            3 
  218000    1.1638042   -4.2892291    170.10366  0.065024335  0.069391863            1 
  219000    1.1660265   -4.2655116    170.61514  0.064922047    0.0693406            2 
  220000    1.1774514   -4.2842985     171.8733  0.065103524  0.069290732            2 
  221000    1.1479819   -4.3058494    171.68566  0.064738183   0.06924004            3 
  222000    1.1839108   -4.2829014    172.71153  0.064831657  0.069182345            5 
  223000    1.1517427   -4.2586758    173.75806  0.064932009  0.069131376            2 
  224000    1.1588449    -4.327894    173.89912  0.064694613  0.069079368            1 
  225000    1.1553855   -4.2825422    175.06054  0.064837236  0.069028535            2 
  226000    1.1514604   -4.3071976    174.71167  0.064421706  0.068975926            4 
  227000    1.1600111   -4.3094575    176.05316  0.064630383  0.068922768            2 
  228000    1.1723296    -4.277333    176.87376  0.064646842  0.068867341            1 
  229000    1.1872531   -4.2857947    177.03571  0.064423475  0.068811033            2 
  230000    1.1616633   -4.2958933    178.68859  0.064742243  0.068755021            4 
  231000    1.1403211   -4.2844755    178.74611  0.064482723  0.068703693            2 
  232000    1.1300007   -4.3270595    179.67826  0.064539603    0.0686466            3 
  233000    1.1691223   -4.2929889    179.89689  0.064340804  0.068590648            2 
  234000    1.1810848   -4.2911006     180.5964  0.064314958  0.068531242            1 
  235000    1.1358157   -4.3029729    181.51611  0.064367416  0.068474249            2 
  236000    1.1730016   -4.3140066    182.01537  0.064270962   0.06841548            2 
  237000    1.1848045   -4.2796792     182.1677  0.064053341  0.068351597            2 
  238000    1.1485962    -4.318395    183.58893   0.06428184  0.068291838            2 
  239000    1.1857174   -4.2924858    184.14737   0.06420759  0.068235083            3 
  240000    1.1735352   -4.3048739    185.11779  0.064277011  0.068181617            3 
  241000     1.180312   -4.2727766    186.07726  0.064342069  0.068126477            4 
  242000     1.146949   -4.2943224    185.66738  0.063935049  0.068069112            1 
  243000    1.1608316   -4.3281158    186.14721  0.063836493  0.068010159            3 
  244000    1.1483278   -4.2768723    187.37776  0.063995135  0.067951473            3 
  245000    1.1461988   -4.2931026    187.64931  0.063826294  0.067890033            2 
  246000    1.1668075   -4.2893513     188.5431  0.063869615  0.067830191            2 
  247000    1.1845457   -4.3230418     189.1911  0.063829657  0.067772405            2 
  248000    1.1472326   -4.3105614    190.38093  0.063972086  0.067722063            3 
  249000    1.1680032    -4.330476    191.42341   0.06406406  0.067671893            4 
  250000    1.1383194   -4.3280451    192.48485  0.064161618  0.067621849            3 
  251000    1.1307172   -4.3058798    192.77661  0.064002858  0.067573394            1 
  252000    1.1565451   -4.2803983    194.09434  0.064184636    0.0675258            3 
  253000    1.1847008   -4.2987852    194.83178  0.064173839  0.067481239            2 
  254000     1.162533   -4.3002377    194.80125   0.06391117  0.067433937            2 
  255000    1.1393464   -4.2951128    195.60771  0.063924088  0.067386293            1 
  256000    1.1484723   -4.3154446       196.77  0.064052734  0.067336276            2 
  257000    1.1503272   -4.3053342     196.9516  0.063862386  0.067287917            1 
  258000    1.1432902   -4.3257191    197.71704  0.063862094   0.06723743            2 
  259000    1.1499837   -4.3054547    198.94956  0.064012086  0.067192902            2 
  260000    1.1564248   -4.3548798    200.02651  0.064111061    0.0671487            1 
  261000    1.1349596   -4.3678518    200.31878  0.063958743  0.067104304            2 
  262000    1.1513578   -4.3189632    201.28475  0.064021868  0.067058975            3 
  263000     1.141745   -4.2889823    201.36666  0.063804391  0.067017911            4 
  264000    1.1391984   -4.3399267    202.32031  0.063863735  0.066974588            1 
  265000    1.1609875   -4.2781695    203.58057  0.064019046   0.06693237            2 
  266000    1.1792666   -4.3252068    203.57105  0.063775392  0.066888679            2 
  267000     1.144364   -4.3089897    204.87551  0.063943669  0.066846231            2 
  268000    1.1572838   -4.3448705    204.12295  0.063471066  0.066801876            2 
  269000    1.1608022   -4.3285248    204.95042  0.063491457  0.066756583            3 
  270000    1.1458494   -4.2678984    206.61201   0.06376914  0.066713914            1 
  271000    1.1669611   -4.3039493    207.46799  0.063797044   0.06667309            4 
  272000    1.1533374   -4.3533641    206.71197  0.063330873  0.066629334            2 
  273000    1.1517101   -4.3125855    208.33346  0.063593851  0.066585929            2 
  274000    1.1304538   -4.3120458    209.09657  0.063593847  0.066545694            2 
  275000     1.127417   -4.3289016    209.02552  0.063341066  0.066505308            1 
  276000    1.1451215   -4.3140487    211.40037  0.063828614  0.066466951            8 
  277000    1.1493799   -4.3140976    212.10357  0.063809739  0.066429227            2 
  278000    1.1351509   -4.3228531     212.4211   0.06367539  0.066393068            2 
  279000    1.1722455   -4.3204076    212.67242  0.063522227  0.066353059            2 
  280000    1.1480886   -4.3400926    213.21096  0.063455643  0.066313531            2 
  281000    1.1305064   -4.3260526    215.01299  0.063764232  0.066271701            2 
  282000      1.13537   -4.3062741    215.69777  0.063740476  0.066233691            3 
  283000     1.146958   -4.3158489    215.96342  0.063593469  0.066199447            3 
  284000    1.1251539   -4.3164941    217.22716  0.063740363   0.06616181            1 
  285000    1.1574923   -4.3121118    216.62048  0.063339321  0.066125784            3 
  286000    1.1370567   -4.3771324    218.00021  0.063519874  0.066088597            2 
  287000     1.149137   -4.3313532    218.39836  0.063414158  0.066049791            3 
  288000    1.1489327   -4.3666535    218.82608  0.063317733  0.066010322            2 
  289000    1.1610379   -4.3206556    220.59107  0.063607575  0.065974237            1 
  290000     1.111502   -4.3604479    219.87715  0.063183089  0.065938489            3 
  291000    1.1403424   -4.3353717    221.20831  0.063347167  0.065903164            3 
  292000    1.1597771    -4.297036     222.9689  0.063632676  0.065869267            3 
  293000    1.1596438   -4.3116194    223.75732  0.063639738  0.065838518            2 
  294000    1.1476245   -4.3240653    223.82642  0.063442862  0.065804168            2 
  295000    1.1237048    -4.363421    224.36066  0.063378718  0.065767408            2 
  296000    1.1186938   -4.3563395    224.83451  0.063298004  0.065731457            2 
  297000    1.1238214    -4.340922    225.87521  0.063376882  0.065696398            2 
  298000    1.1203496    -4.347852    226.90571  0.063452379  0.065664091            2 
  299000    1.1175903   -4.3020517    226.79166  0.063208378  0.065628382            2 
  300000    1.1357308   -4.3569035    228.09798   0.06336055   0.06559584            2 
  301000    1.1216104   -4.3397696    228.49245  0.063259261  0.065560076            5 
  302000    1.1319631   -4.3632626     229.2099  0.063247766  0.065522169            3 
  303000    1.1304332   -4.3309271     229.3453  0.063076264  0.065484429            5 
  304000    1.1531755   -4.3553501    229.44216   0.06289533   0.06544688            2 
  305000    1.1178335   -4.3441721    229.78803  0.062783616  0.065408877            3 
  306000    1.1592949   -4.3273847    231.35355  0.063004778   0.06537489            5 
  307000    1.1512771     -4.33941    232.02207  0.062981019  0.065339165            2 
  308000    1.1440534   -4.3574254    232.61286  0.062936381  0.065304848            1 
  309000    1.1122846   -4.3592183    234.31697  0.063192278  0.065272104            3 
  310000    1.1904529   -4.3831562    235.01255  0.063175415  0.065237585            2 
  311000    1.1132955   -4.3439061    235.82241  0.063189283  0.065203552            5 
  312000    1.1378772   -4.3386572    236.22844  0.063095203  0.065171794            1 
  313000     1.106197   -4.3507257    235.94042  0.062816938  0.065139119            2 
  314000    1.1397371   -4.3781596    237.60744  0.063059298  0.065107663            2 
  315000    1.1137901   -4.3254104    239.07708  0.063247905  0.065080336            2 
  316000    1.1248348    -4.351819    239.76721   0.06322975  0.065052238            2 
  317000    1.1503071   -4.3733011    240.35402  0.063184549   0.06502666            2 
  318000    1.1263693   -4.3466157    241.99865  0.063416836  0.065000208            6 
  319000    1.1379079   -4.3409211    242.44494  0.063334623  0.064974075            3 
  320000    1.1355736   -4.3524759    242.03634  0.063030297  0.064946714            4 
  321000    1.1296558   -4.3753305    243.37709  0.063182008  0.064920102            3 
  322000    1.1250968   -4.3630682    243.54441  0.063029092  0.064894194            2 
  323000    1.1121966   -4.3559267    244.51373  0.063084037  0.064867331            5 
  324000    1.1029558   -4.3559335    246.16048  0.063312881  0.064841514            3 
  325000    1.1115736   -4.3786949    245.83631   0.06303495  0.064816805            7 
  326000     1.129048   -4.3482066     246.5431  0.063022265  0.064792631            2 
  327000    1.1482845   -4.3523126    247.50482  0.063074623  0.064767919            3 
  328000    1.1201996   -4.3534127    248.15447  0.063047375  0.064741571            2 
  329000    1.1155189   -4.3386194    248.71311  0.062997242  0.064717017            2 
  330000    1.1259287   -4.3758707     248.8499  0.062840883   0.06469044            2 
  331000    1.1110211   -4.3361524    250.85224  0.063155147   0.06466294            2 
  332000    1.0853638   -4.3561395    251.71368  0.063181144  0.064636239            4 
  333000     1.141655   -4.3408191    252.30291  0.063138867  0.064611798            2 
  334000    1.1330505   -4.3384127    252.81177   0.06307679  0.064585748            2 
  335000    1.1224288   -4.3852012    251.82685  0.062643496  0.064557326            2 
  336000     1.125256   -4.3957986    252.24755  0.062561395  0.064528464            3 
  337000    1.1377658   -4.3712752    253.42797  0.062667649  0.064499651            2 
  338000    1.1182161   -4.3773889    254.08471  0.062644159  0.064471653            2 
  339000    1.1385397   -4.3834876    254.48971  0.062558927  0.064442203            1 
  340000    1.1281272   -4.3371915    254.89495  0.062474251  0.064411426            2 
  341000     1.136971   -4.3636999    254.62331   0.06222466  0.064378545            2 
  342000    1.1399613   -4.3729127    256.92902  0.062604536  0.064346976            2 
  343000    1.1417199    -4.343926    257.03606  0.062448022  0.064314232            4 
  344000    1.1055843    -4.360582    257.29291  0.062328709  0.064281498            2 
  345000    1.0999507   -4.3667285     257.3326  0.062157634  0.064246482            2 
  346000    1.1269703   -4.3397626    258.89987  0.062355461  0.064213716            1 
  347000     1.122297   -4.3761684    257.87238  0.061929005  0.064178716            2 
  348000    1.1254473   -4.3412068    260.19868  0.062308114  0.064143706            2 
  349000    1.1261145   -4.3825388    259.64037  0.061996268  0.064106088            1 
  350000    1.1150126   -4.3770354    259.88703  0.061877865  0.064072392            2 
  351000    1.0993775    -4.365356    261.27468  0.062031026  0.064039573            3 
  352000    1.1430787   -4.3397607    262.33142  0.062104976  0.064006797            2 
  353000    1.1103895   -4.4021449    262.88191  0.062058997  0.063977117            3 
  354000    1.0766968    -4.369985    265.32328    0.0624584   0.06394772            2 
  355000    1.1145739   -4.3803527    266.25255  0.062500599  0.063920468            6 
  356000    1.0960297   -4.3753347    267.92856  0.062717359  0.063895292            3 
  357000    1.1043659   -4.3739751    267.14345  0.062358416  0.063871094            2 
  358000    1.1158414   -4.3812215    268.86661  0.062585338  0.063846631            4 
  359000    1.1065603   -4.3916725    268.91525  0.062422295  0.063822292            4 
  360000    1.0867219   -4.3658053    269.32873  0.062344613  0.063796978            3 
  361000    1.1157525   -4.3653026    270.35827  0.062409573  0.063771941            1 
  362000    1.1194585   -4.3841666    270.00761  0.062156447  0.063745192            1 
  363000    1.1113649   -4.3726159    272.41024  0.062536785  0.063720433            2 
  364000    1.1057243   -4.3677224    272.49062  0.062383383  0.063696308            2 
  365000      1.10572   -4.3862965    274.34272  0.062635325   0.06367428            3 
  366000    1.1111253   -4.3719306    275.00683  0.062615399  0.063654163            3 
  367000    1.0889976   -4.3633337    275.39398  0.062532692  0.063634127            2 
  368000    1.1177052   -4.4043059    274.31777  0.062119061  0.063611648            5 
  369000    1.0838579   -4.3936506    275.15963  0.062140838  0.063589279            3 
  370000    1.1118312   -4.3823374    276.87618  0.062359499  0.063567914            3 
  371000    1.1083166   -4.3673251    277.07082  0.062235135  0.063546474            2 
  372000    1.0948724   -4.3388865    280.10755  0.062748107  0.063525765            1 
  373000    1.1042823   -4.3711928    279.19805  0.062376686  0.063503659            2 
  374000    1.0802303   -4.3718138    279.58539  0.062296209  0.063481252            2 
  375000    1.1129225   -4.4025327    280.13768  0.062252818  0.063456913            2 
  376000    1.1119098   -4.4136778    280.25041  0.062112235  0.063431431            5 
  377000    1.0824894   -4.3746745    280.16239  0.061928027  0.063404803            1 
  378000    1.1117641    -4.418532    280.23928  0.061781146  0.063377617            3 
  379000    1.0893705   -4.3820791    282.07177  0.062021057  0.063351162            2 
  380000    1.1002206   -4.4114978     281.7146  0.061779517  0.063322553            3 
  381000    1.0729853   -4.3949209    283.04743  0.061908886  0.063295775            2 
  382000    1.1105963   -4.4040555    282.95596  0.061726867  0.063267955           10 
  383000    1.1043309   -4.4084029    284.85381  0.061978635  0.063241648            4 
  384000    1.1067604   -4.3861233    285.19258  0.061890751  0.063217156            2 
  385000     1.086323   -4.3903859    286.13416  0.061933801  0.063193528            1 
  386000    1.1065033   -4.3800385    285.66613  0.061672307  0.063169679            3 
  387000    1.1275485   -4.3518431     287.8865  0.061991064  0.063145271            2 
  388000    1.1065112   -4.3975936    288.06749  0.061870166  0.063120291            2 
  389000    1.1083472   -4.4200591     287.9612  0.061688346  0.063094047            3 
  390000    1.0826766   -4.3740065    288.86765  0.061723857  0.063067917            2 
  391000    1.0810126   -4.4268608    289.17562  0.061631632  0.063042847            2 
  392000      1.10663   -4.4165292    290.27778  0.061708711  0.063018765            4 
  393000    1.1164656   -4.3904289    290.15685  0.061526049  0.062992701            2 
  394000    1.0804465   -4.4124692    290.54493  0.061451973  0.062967617            3 
  395000     1.092682   -4.3834675    291.42815  0.061482732  0.062942052            2 
  396000    1.0882593   -4.3895359    292.22642  0.061495458    0.0629155            2 
  397000    1.0972101   -4.3788663    294.01885  0.061716803  0.062888743            3 
  398000    1.1038459   -4.3909318    292.86155  0.061319421  0.062861797            1 
  399000    1.0916121   -4.3798208     295.1536  0.061644445  0.062835523            1 
  400000    1.0913589   -4.4195512    293.91509   0.06123231  0.062807596            5 
  401000    1.0783899   -4.4366229    295.72486  0.061455706  0.062780762            2 
  402000    1.1042837   -4.4122522     296.0832  0.061377114  0.062753584            4 
  403000    1.1060953   -4.4078369    297.81275  0.061582455  0.062727875            7 
  404000    1.0742065    -4.404868    296.95562  0.061253222  0.062701917            2 
  405000      1.11193   -4.4051387    298.92831  0.061507883  0.062676209            5 
  406000    1.0802896    -4.413151    297.32043  0.061026361  0.062649755            3 
  407000    1.0905495    -4.378515    300.93312  0.061616117  0.062624244            3 
  408000    1.0916259   -4.4206984     300.6503  0.061407332  0.062599339            3 
  409000    1.1002914   -4.4599273    299.52945   0.06102882  0.062575053            1 
  410000     1.083108   -4.4159082    301.93088  0.061368065  0.062548685            7 
  411000    1.0896957   -4.3869202    303.33345  0.061503132  0.062523015            4 
  412000     1.055966   -4.3878962    304.08028  0.061504912  0.062499158            3 
  413000    1.1097721   -4.4021365    304.26361   0.06139298  0.062476369            2 
  414000    1.0864692   -4.4063135    303.79479   0.06115032  0.062452221            3 
  415000    1.0652331     -4.41077    304.70383  0.061185509   0.06242772            2 
  416000    1.1049855   -4.3823597    307.86859  0.061672393  0.062404042            9 
  417000    1.0768459   -4.4128894    308.34051  0.061618806  0.062382459            2 
  418000    1.0979166   -4.4005417    308.33344  0.061469984  0.062361964            1 
  419000    1.0786783   -4.3976573    308.56206  0.061368746  0.062340217            2 
  420000    1.0846317   -4.4057002    309.81321  0.061470874   0.06231878            3 
  421000     1.113869   -4.3965505    309.94237   0.06135043  0.062295776            2 
  422000    1.0742009   -4.4256532    310.83136    0.0613806  0.062273954            1 
  423000    1.0816469   -4.4708633     309.8407  0.061040328  0.062251961            2 
  424000    1.0656497   -4.4127771    312.56656  0.061432107  0.062230372            2 
  425000    1.0631938   -4.4139841    313.03828  0.061380055  0.062209929            2 
  426000    1.0887234   -4.4493875    311.92469  0.061018132  0.062188987            1 
  427000    1.1135426    -4.447956    313.39817  0.061162796  0.062167119            2 
  428000    1.0967853   -4.4192986    314.22001  0.061179909  0.062147303            2 
  429000    1.0510045   -4.4361057    315.33584  0.061254048  0.062126745            4 
  430000    1.0866627   -4.4288237    315.57105  0.061157179  0.062106218            3 
  431000    1.0863988   -4.4028851    316.43386  0.061182107  0.062084898            2 
  432000    1.0862586   -4.4584538    317.21532  0.061191226  0.062064557            3 
  433000    1.0587276   -4.4071303    318.58156  0.061312849  0.062045394            2 
  434000    1.0703785   -4.4105286    319.90417  0.061425532  0.062026482            2 
  435000    1.0956797   -4.4326753    319.48478   0.06120398  0.062006701            5 
  436000    1.0795332    -4.430607    318.53989  0.060883006  0.061985315            2 
  437000    1.0960751   -4.4140215    320.63482  0.061143177  0.061964882            3 
  438000    1.0575674   -4.4169328    320.76559  0.061028461  0.061944215            4 
  439000    1.0665164   -4.4345964    321.02191  0.060938099  0.061922418            4 
  440000    1.1014062    -4.450813     321.6982  0.060927689  0.061900097            4 
  441000    1.0783637   -4.4778297    321.96461  0.060839874  0.061876689            4 
  442000    1.0757843   -4.4399049    322.95907  0.060889719  0.061853103            8 
  443000    1.0727741   -4.4502922    321.94063   0.06056069  0.061829239            3 
  444000    1.0946702   -4.4145165    323.75131  0.060764135  0.061805375            1 
  445000    1.0648047   -4.4260041    324.63943  0.060793901  0.061781254            3 
  446000    1.0807685   -4.4420001     324.4764  0.060627129  0.061755755            6 
  447000    1.0854038   -4.4522648    323.85743  0.060376106  0.061731607            2 
  448000    1.0610698   -4.4374351    326.04515  0.060648278  0.061707525            1 
  449000      1.07503   -4.4322995    325.99408  0.060503727  0.061682713            3 
  450000    1.0725613   -4.4306478    327.17082  0.060587188  0.061659304            2 
  451000    1.0785666   -4.4225078    328.76944  0.060748234  0.061635872            3 
  452000    1.0706601   -4.4609938    327.78005  0.060431425  0.061610858            2 
  453000     1.070116   -4.4541734    330.07229  0.060719699  0.061585231            2 
  454000    1.0876785   -4.4715885    329.39663  0.060461936   0.06156069            2 
  455000    1.0426569   -4.4429391     328.5626    0.0601763   0.06153425            7 
  456000    1.0515964   -4.4127463     330.4623  0.060391502  0.061508553            2 
  457000    1.0634649   -4.4489599    331.76995  0.060497803  0.061483729            1 
  458000    1.0667656   -4.4313183    332.35853  0.060472804  0.061458817            3 
  459000    1.0742782    -4.435883    333.77729  0.060598636   0.06143474            7 
  460000    1.0647881   -4.4179947    333.51969  0.060420233  0.061410432            3 
  461000    1.0672126   -4.4427212    333.82992  0.060345249  0.061386812            6 
  462000    1.0538742   -4.4683905    334.76019   0.06038243  0.061362043            6 
  463000    1.0523957   -4.4691525    334.58265   0.06022006   0.06133756            8 
  464000    1.0582434   -4.4432834    334.68958   0.06010948  0.061311811            3 
  465000     1.076021   -4.4433246    335.03116  0.060041426  0.061283944            3 
  466000    1.0740788   -4.4566504    334.46386  0.059811134  0.061255735            2 
  467000     1.083022   -4.4564603    335.09206  0.059795157  0.061227681            1 
  468000    1.0711869   -4.4571711    338.28238  0.060235467  0.061199563            4 
  469000    1.0607957   -4.4386999    337.52257  0.059972027  0.061171478            3 
  470000    1.0706243   -4.4399607    337.99967  0.059929019  0.061142859            2 
  471000    1.0849023   -4.4440915     337.3158  0.059680785   0.06111274            6 
  472000    1.0518267   -4.4401245    337.19315  0.059532688    0.0610836            3 
  473000     1.080453   -4.4397664    339.69274  0.059847205  0.061053817            2 
  474000    1.0770281   -4.4631882    339.11239  0.059618915  0.061024279            3 
  475000    1.0706554   -4.4379545    339.27754  0.059522376  0.060994162            3 
  476000    1.0690881   -4.4161979    340.00376  0.059524468  0.060964849            1 
  477000    1.0736401   -4.5047326    339.64682  0.059337319  0.060933743            2 
  478000    1.0457153   -4.4610995    341.87318  0.059601321  0.060902471            2 
  479000    1.0790108   -4.4296961    342.74969  0.059629382  0.060871534            4 
  480000    1.0621637   -4.4547816    340.58838  0.059129927  0.060840143            7 
  481000    1.0809336   -4.4549551    341.17855  0.059109242  0.060807569            2 
  482000    1.0674559   -4.4660197    340.94611  0.058946423  0.060775749            3 
  483000    1.0690373   -4.4693203    343.54675  0.059273075  0.060744026            4 
  484000    1.0731928   -4.4463669     344.3741   0.05929306  0.060712096            4 
  485000    1.0590945   -4.4758724    344.67226  0.059222038  0.060681128            2 
  486000    1.0609592   -4.4594565    345.77046  0.059288487  0.060649339            3 
  487000    1.0688894   -4.4507465    347.35746  0.059438305  0.060618823            2 
  488000    1.0672638   -4.4842716    346.14175  0.059108905   0.06058725            1 
  489000    1.0599381   -4.4541196    346.18846  0.058995988  0.060556452            2 
  490000    1.0511391   -4.4598725    347.74359  0.059140066  0.060523756            4 
  491000    1.0324401   -4.4913679    347.18648  0.058925064   0.06049241            3 
  492000    1.0741195   -4.4775889    348.24828  0.058985142  0.060461319            3 
  493000    1.0769195   -4.4846353    349.62606  0.059098387  0.060430575            2 
  494000    1.0491019   -4.4872205    349.46925  0.058952303  0.060398956            6 
  495000    1.0572965   -4.4963106    350.11676  0.058942215   0.06036859            1 
  496000    1.0596431   -4.4461902    352.19846  0.059173128  0.060338154            3 
  497000    1.0593853   -4.4671014    350.74125  0.058809734   0.06030673            6 
  498000    1.0665745   -4.4758952    350.60198  0.058668337  0.060275612            4 
  499000    1.0329071   -4.4827014    352.41636  0.058853767  0.060243715            1 
  500000    1.0452385    -4.491809    352.98881  0.058831469  0.060212894            2 
  501000    1.0518909   -4.4560663    354.47652  0.058961498  0.060182773            2 
  502000    1.0676382   -4.4999441    353.40418  0.058666032  0.060152668            3 
  503000     1.048072    -4.435103    355.19899  0.058846751  0.060121937            3 
  504000    1.0299006   -4.4914286    355.17833  0.058726575  0.060091902            2 
  505000    1.0428951   -4.4630517    357.06209  0.058921136  0.060061589            5 
  506000    1.0289522   -4.4591118    356.18691  0.058660559   0.06003078            3 
  507000    1.0272919   -4.4514851    357.53827  0.058766974   0.06000011            4 
  508000    1.0582176   -4.4774607    356.95984  0.058556405  0.059969188            3 
  509000    1.0542751   -4.4587269    358.64872  0.058717866  0.059938966            4 
  510000    1.0584749   -4.4453528     359.4097  0.058727076  0.059908147            4 
  511000    1.0544047   -4.4801182    358.83202  0.058517942  0.059876294            1 
  512000    1.0632406   -4.4860425    359.35651  0.058489015  0.059845279            1 
  513000    1.0452924   -4.4553533     360.1696  0.058507082  0.059814472            4 
  514000    1.0795452   -4.4559701    359.11669   0.05822255  0.059783836            3 
  515000    1.0373652   -4.4721295    360.80023  0.058381915  0.059753335            3 
  516000    1.0310474   -4.4899947    361.43932  0.058371983   0.05972264            2 
  517000    1.0581564   -4.4962112    362.55838  0.058439456  0.059693264            5 
  518000      1.05076   -4.4532046    364.45163  0.058631214  0.059663461            2 
  519000    1.0481121   -4.4824929    364.29729  0.058493463  0.059634038            2 
  520000    1.0612257   -4.4529385    364.64234  0.058436273  0.059604587            3 
  521000    1.0621745   -4.4613137    366.16882   0.05856827  0.059576082            1 
  522000    1.0317278   -4.4739782    366.13037  0.058449931  0.059548101            3 
  523000     1.048195   -4.5004351    366.95393  0.058469397  0.059519614            2 
  524000    1.0616134   -4.4921695    367.79699  0.058491888  0.059492619            2 
  525000    1.0287778   -4.4822195    368.25612  0.058453353  0.059464885            3 
  526000    1.0281203    -4.497353    368.91137  0.058446034  0.059437275            1 
  527000    1.0401996   -4.5125892    367.32028  0.058083536  0.059408115            3 
  528000    1.0785673   -4.4920296     368.6706  0.058186648  0.059378561            2 
  529000    1.0511755   -4.4915081    369.39958   0.05819149  0.059348826            3 
  530000    1.0287148   -4.5247908    367.90391  0.057846526  0.059319223            3 
  531000     1.047714   -4.5322742    368.75961  0.057871879  0.059289596            4 
  532000    1.0333857   -4.5063658    372.21208  0.058303897  0.059260849            8 
  533000    1.0346192   -4.4635551     373.6195  0.058414555  0.059232824            4 
  534000    1.0384561   -4.5122156     371.6205  0.057993212  0.059204118            3 
  535000    1.0440789   -4.5292932    372.30956  0.057992143  0.059175682            2 
  536000    1.0191094   -4.5018526    373.99218  0.058145551  0.059146036            8 
  537000    1.0368556   -4.4979008    373.98257   0.05803578  0.059117526            3 
  538000     1.029729   -4.4824593    375.49243  0.058161777  0.059088569            4 
  539000    1.0321456   -4.5111101    376.44974  0.058201878  0.059058819            3 
  540000    1.0379627   -4.4775699    375.33178  0.057921572  0.059029592            2 
  541000    1.0117304   -4.5359962    374.79509  0.057731837  0.059000172            2 
  542000    1.0279898   -4.4932778    376.58284  0.057900191    0.0589715            3 
  543000    1.0256105   -4.5299631    376.86384  0.057836685  0.058942697            2 
  544000    1.0527232   -4.4970224    376.89953  0.057735835  0.058913669            3 
  545000    1.0637063   -4.5126559    378.85216  0.057928465  0.058884403            2 
  546000    1.0497147   -4.5082081    380.52923  0.058078331  0.058854918            2 
  547000    1.0527593   -4.5230017     378.8817   0.05772116  0.058826945            7 
  548000    1.0190332    -4.508356    378.94223  0.057625035  0.058798281            4 
  549000    1.0229118   -4.4828429    381.82474  0.057957611  0.058769814            2 
  550000    1.0492518   -4.5093611    380.94551  0.057719016   0.05874071            3 
  551000    1.0420826   -4.5371724    381.85731  0.057752164  0.058712275            5 
  552000    1.0084383   -4.4951429    382.58531  0.057757445  0.058683044            4 
  553000    1.0232948   -4.4880783      382.838  0.057691078  0.058655368            1 
  554000    1.0484035   -4.5277335    383.31364   0.05765849  0.058626931            5 
  555000    1.0247982   -4.5422948    383.36302  0.057562015  0.058597932            4 
  556000    1.0382046   -4.5115032    383.23389  0.057439132  0.058569044            3 
  557000    1.0261246   -4.5107659    384.87866  0.057582086  0.058540294            4 
  558000    1.0202232   -4.5045098    386.00501  0.057647104  0.058510753            2 
  559000    1.0468115   -4.5417735    385.26307  0.057433374  0.058481672            3 
  560000     1.037144   -4.5378854    384.44397  0.057208923  0.058452101            3 
  561000    1.0252759   -4.5595796     385.3393  0.057239943  0.058422224            2 
  562000    1.0666328   -4.5400571    386.23148  0.057270385  0.058392709            3 
  563000    1.0293436   -4.4995618     388.2951  0.057474111  0.058362754            3 
  564000    1.0204255   -4.5007826    388.13541  0.057348613  0.058333286            5 
  565000     1.028221   -4.4956382    387.38195  0.057135981  0.058303486            2 
  566000    1.0559117   -4.5151597    387.03988   0.05698467  0.058273034            7 
  567000   0.99499598   -4.5279637    387.95923  0.057019288  0.058242502            1 
  568000    1.0290478   -4.5356516    388.46836  0.056993598  0.058211399            2 
  569000    1.0343695   -4.4992894    390.41797  0.057178964  0.058180231            5 
  570000    1.0104096   -4.5547367    388.02793  0.056729229  0.058148882            2 
  571000    1.0201759   -4.5087504    390.80874  0.057035719  0.058117224            3 
  572000    1.0430584   -4.5127052    392.01633  0.057111937  0.058086007            4 
  573000    1.0366463   -4.5566476    390.95205  0.056857483  0.058054811            2 
  574000    1.0377804   -4.5439035    390.29265  0.056662697  0.058024372            8 
  575000    1.0191093   -4.5223622    392.37578  0.056866054  0.057993837            3 
  576000    1.0284813   -4.4793687    392.91708  0.056845642  0.057963114            2 
  577000    1.0263203   -4.5439859     391.8271  0.056589702   0.05793183            4 
  578000    1.0133349   -4.5490848    394.03707   0.05681042  0.057900711            2 
  579000    1.0041627   -4.5324017    392.59433  0.056504653  0.057868693            2 
  580000    1.0197525   -4.5507737    394.75103  0.056717102  0.057836846            4 
  581000   0.99162316   -4.5055413     394.6498  0.056604963  0.057805511            4 
  582000    1.0178666   -4.5200863    396.52178  0.056775742  0.057774809            7 
  583000   0.99628451   -4.5182443    395.68395  0.056558597  0.057744528            7 
  584000     1.056126   -4.5490613       397.08  0.056660958  0.057713389            3 
  585000    1.0093498   -4.5599073    397.10275  0.056567344  0.057682335            2 
  586000    1.0043167   -4.5313867    398.55176  0.056676871  0.057652493            3 
  587000    1.0153152   -4.5288437    398.55506  0.056580786  0.057622959            2 
  588000    1.0015854   -4.5654973    399.28123  0.056587476  0.057592801            2 
  589000    1.0362193   -4.4991405    400.16743  0.056616784  0.057563555            2 
  590000    1.0374069   -4.5667287     399.5733  0.056436907  0.057533995            3 
  591000   0.99149749   -4.5396243    400.23677  0.056434965  0.057503428            2 
  592000     1.024836   -4.5568387    399.76074  0.056272626  0.057472768            4 
  593000    1.0182247   -4.5783727    401.36976  0.056403844  0.057443637            3 
  594000    1.0213296   -4.5193172    401.67799  0.056352131  0.057414009            2 
  595000    1.0107379   -4.5204668     403.4478  0.056505294  0.057384327            4 
  596000   0.99475628   -4.5443188    403.18968  0.056374397  0.057353535            3 
  597000    1.0080911   -4.5438985    402.69049  0.056210286  0.057323902            3 
  598000    1.0149859   -4.5719972    403.95332  0.056292269   0.05729381            7 
  599000    1.0268489   -4.5389828    403.71248  0.056164786  0.057264092            2 
  600000    1.0093444   -4.5452827    404.55363  0.056188004  0.057234348            5 
  601000    1.0297492   -4.5507045    406.38199  0.056348029  0.057204562            2 
  602000    1.0253075   -4.5373969    404.56571  0.056003006  0.057174546            4 
  603000    1.0023053   -4.5558448    404.84881  0.055949255  0.057143565            2 
  604000   0.99685379    -4.566145    405.36535  0.055927891  0.057112424            2 
  605000    1.0032365   -4.5414337    406.79964  0.056033008  0.057082105            4 
  606000    1.0314849   -4.5526326    406.71682  0.055929155   0.05705161            3 
  607000   0.99278124   -4.5275604    407.83246  0.055990178  0.057020832            3 
  608000    1.0306908   -4.5390515    407.52663  0.055856172   0.05698942            2 
  609000    1.0112677   -4.5518904    407.69773  0.055787866  0.056958614            4 
  610000    1.0000077   -4.5564807     410.1687  0.056033976  0.056927452            2 
  611000     1.008807   -4.5842432    409.28942  0.055822343  0.056896702            2 
  612000     1.011799   -4.5681846     408.5461  0.055629916  0.056865282            2 
  613000    1.0080934   -4.5351669    409.72272  0.055699119  0.056834455            2 
  614000    1.0004148   -4.5574261    411.18372  0.055806694  0.056803635            3 
  615000   0.97946427   -4.5879062    411.22449  0.055721475  0.056772631            2 
  616000    1.0098144   -4.5506369    411.48695  0.055666525  0.056741531            2 
  617000   0.99745466   -4.5503692    412.89317  0.055766231  0.056710533            2 
  618000    1.0134857   -4.5486684    412.63501  0.055641183  0.056678157            4 
  619000    1.0148087   -4.5495035    412.35381  0.055513437  0.056646799            4 
  620000    1.0055862   -4.6040783    411.61001  0.055323926  0.056614596            5 
  621000    1.0096883   -4.5632388    412.75324   0.05538825   0.05658296            3 
  622000    1.0054594   -4.5836242    413.59603  0.055412116  0.056551848            7 
  623000    1.0263901   -4.5323079    413.59033   0.05532241  0.056520638            2 
  624000    0.9877541   -4.5798808    414.46605  0.055350702  0.056489336            3 
  625000    1.0233604   -4.5507458    416.38462  0.055517949  0.056456902            1 
  626000    1.0058511   -4.5415576    417.51792  0.055580128  0.056425621            4 
  627000    1.0140115   -4.5823508    415.66766  0.055245568   0.05639451            5 
  628000    1.0221761   -4.5663879    416.82305  0.055310914  0.056364155            3 
  629000    1.0266215   -4.6004979    415.60923  0.055062166  0.056333353            2 
  630000   0.99584977   -4.5630109    417.08776  0.055170339   0.05630228            5 
  631000   0.99690944   -4.5766152    417.61947  0.055153126    0.0562714            6 
  632000    0.9887574   -4.5817308    418.49165  0.055180861  0.056240066            3 
  633000    1.0002838   -4.5479462    421.02552  0.055427267  0.056209438            2 
  634000    1.0047946   -4.5610945    419.93768  0.055196856  0.056178929            5 
  635000   0.99938637    -4.553603    420.11567   0.05513329  0.056148093            2 
  636000   0.99259071   -4.5640685    419.98306  0.055029227  0.056116257            6 
  637000    1.0071968   -4.5658584    420.22172  0.054974061   0.05608373            3 
  638000    1.0004186   -4.5906966    420.42716  0.054914728  0.056053165            3 
  639000   0.98552916   -4.5585178    421.84004  0.055013046  0.056022324            4 
  640000    1.0143049   -4.6148667    420.28993  0.054725251  0.055990951            4 
  641000   0.99694755   -4.5365765    423.91545  0.055111213  0.055959928            2 
  642000   0.98794779   -4.5603984    423.72892  0.055001158   0.05592999            3 
  643000   0.99388747   -4.6090493    421.67309  0.054649182  0.055898863            2 
  644000   0.96554282   -4.6001201     422.7831  0.054707958  0.055867852            3 
  645000   0.97232707    -4.585903    424.72532  0.054874072  0.055838175            4 
  646000   0.99808209   -4.6008986    425.35114  0.054869858  0.055808217            5 
  647000    1.0012058   -4.5436254     427.4997  0.055061786   0.05577844            2 
  648000   0.98795223   -4.5541026     427.9555   0.05503543  0.055748237            4 
  649000    0.9780442    -4.586936    426.24631  0.054731165  0.055717936            5 
  650000    1.0043979   -4.5807346    427.46653  0.054803401  0.055688344            5 
  651000   0.97535763   -4.5813595     427.7443  0.054754774  0.055658957            4 
  652000   0.97924947   -4.6122036    427.75119  0.054671676  0.055628934            4 
  653000   0.98529408   -4.5583408    430.16535  0.054896038  0.055600109            7 
  654000    1.0018928   -4.5522026    431.38744  0.054967819  0.055572298            4 
  655000   0.98869649    -4.568607    430.51892    0.0547734  0.055544612            4 
  656000   0.99252683   -4.5763374    431.55577  0.054821617  0.055516454            3 
  657000   0.98618689   -4.5931669    432.81613  0.054898037  0.055489274            4 
  658000   0.99070546   -4.5800449    431.78467  0.054683975  0.055461893            2 
  659000    1.0133627   -4.5760526     433.4287   0.05480889  0.055433667            4 
  660000   0.97753109   -4.5848306    433.30602  0.054710356  0.055405487            8 
  661000   0.98264359   -4.6133212    434.00758  0.054716034  0.055378024            5 
  662000   0.98518446   -4.5920113    434.42706  0.054686186  0.055350528            6 
  663000   0.97413872    -4.579737    435.82685  0.054779645  0.055323003            5 
  664000   0.98964656    -4.586152    434.90954  0.054582021  0.055295726            6 
  665000   0.99520452   -4.6147793    436.60095  0.054711898  0.055267457            3 
  666000    0.9813091   -4.5876936    436.90892  0.054668283  0.055240488            3 
  667000   0.99514078   -4.5976734      437.365  0.054643303  0.055213218            2 
  668000   0.99327693   -4.5897122     435.4593  0.054323765  0.055185727            2 
  669000    1.0015937    -4.584792    438.42491  0.054611972  0.055158672            4 
  670000   0.99344682   -4.5961228    438.55603   0.05454677  0.055131442            4 
  671000   0.97072718   -4.5640671    438.26409  0.054429221  0.055104186            3 
  672000   0.98029889   -4.5730986    439.76392  0.054534216  0.055076653            5 
  673000    0.9880125    -4.605452    439.16947  0.054379578  0.055049565            4 
  674000    1.0004021   -4.5662547    440.61421  0.054477524  0.055021835            2 
  675000   0.97778925   -4.6154801    439.09136   0.05420881  0.054994312            3 
  676000   0.99803901   -4.6025184    440.65146  0.054320939  0.054965534            4 
  677000   0.99035822   -4.5845848     440.2174  0.054187273  0.054937551            3 
  678000   0.99410973   -4.5968731     441.7898  0.054300615  0.054909452            3 
  679000    0.9915432   -4.5937401    441.30464  0.054161099   0.05488053            2 
  680000   0.96656718   -4.5931096    442.59607  0.054239714  0.054852211            3 
  681000   0.97737925   -4.6195825    442.07909  0.054096805  0.054823671            3 
  682000   0.98976563   -4.5955714    441.31474  0.053924089  0.054794677            4 
  683000   0.97975042   -4.6156523    443.19102  0.054074063  0.054766821            5 
  684000    0.9920255    -4.611438    444.02315  0.054096387  0.054738831            3 
  685000   0.96704411   -4.5855498    445.76853  0.054229748  0.054710639            2 
  686000   0.97474555   -4.5973399    444.84853  0.054038937  0.054683161            4 
  687000   0.98486006   -4.6160624    442.07002  0.053623244  0.054655226            7 
  688000   0.98739677   -4.6104522     445.3259  0.053939668  0.054626867            3 
  689000   0.97634734   -4.5886328     445.5617    0.0538899  0.054598624            1 
  690000   0.98234302   -4.6237815    444.94351  0.053737139  0.054569962            3 
  691000   0.96785603   -4.6115053    446.02004  0.053789199  0.054541275            4 
  692000   0.98609307   -4.6057752    446.44963  0.053763202   0.05451265            2 
  693000   0.96790894   -4.6052693    447.27232  0.053784551   0.05448314            4 
  694000   0.97707424   -4.6362276    446.73213  0.053642187  0.054453891            2 
  695000   0.97020377   -4.6441999    446.67761  0.053558466  0.054424491            4 
  696000   0.96110137   -4.6290921    447.32582  0.053559126  0.054395851            2 
  697000   0.97579865   -4.6098682    449.41019  0.053731491  0.054367573            7 
  698000    0.9718463   -4.6564735    448.59599  0.053557306   0.05433932            7 
  699000   0.97019769   -4.6301148     449.9785  0.053645506   0.05431072            3 
  700000   0.97087038   -4.6046318    451.98893  0.053808206  0.054282152            7 
  701000   0.95818678   -4.6601886    450.27078  0.053527197  0.054253636            3 
  702000   0.97843249   -4.6114669    452.25103   0.05368602  0.054224592            7 
  703000    0.9672494   -4.6036571    451.93567   0.05357227  0.054195476            3 
  704000   0.98157686   -4.6345826     451.8417   0.05348505  0.054166602            4 
  705000   0.98144347    -4.624648    450.19149  0.053214124  0.054137749            2 
  706000   0.97557377   -4.6326851    451.18127  0.053255579  0.054108732            1 
  707000   0.98160882   -4.6317998    450.92779  0.053150376  0.054080052            2 
  708000   0.96714839   -4.5909585    453.76266  0.053408976  0.054051332            5 
  709000   0.96071495   -4.6021738    453.04157  0.053248892  0.054023221            8 
  710000   0.97541153   -4.6443047    455.96544   0.05351707   0.05399448            3 
  711000   0.96097818   -4.6518411    452.94475  0.053087757  0.053966146            3 
  712000   0.94438527   -4.6354961    455.75354   0.05334194   0.05393804           10 
  713000   0.97533627   -4.6282467    457.26015  0.053443215  0.053909787            2 
  714000   0.94496488   -4.6278398    456.24642  0.053250049  0.053881774            8 
  715000   0.95690531   -4.6038534    457.73875  0.053349505  0.053853379            2 
  716000   0.96645601   -4.6353027    456.91917  0.053179605  0.053825397            3 
  717000   0.95356754   -4.6486297    457.59101  0.053183521  0.053797287            4 
  718000   0.98615663   -4.6302513    459.49834   0.05333082  0.053769264            5 
  719000   0.97878201   -4.6677014     458.4016  0.053129531  0.053740823            5 
  720000   0.96909186   -4.6467493    458.29151  0.053042999  0.053711941            2 
  721000   0.95214133   -4.6197593     461.3393  0.053321695  0.053683404            3 
  722000   0.94712663   -4.6365225    458.78402  0.052952911  0.053654473            5 
  723000   0.96104075     -4.66604    457.53602  0.052735825  0.053625659            6 
  724000     0.986874   -4.6274718    460.75577  0.053033583  0.053597208            2 
  725000   0.99466256    -4.642022    460.86827  0.052973364  0.053569557            3 
  726000    0.9446385   -4.6276936    462.96777  0.053141388  0.053541719            3 
  727000   0.97771085   -4.6675898    460.30122  0.052762634  0.053513518            3 
  728000   0.97103663   -4.6717609    461.04058  0.052774792  0.053484672            2 
  729000   0.95233914   -4.6521699      463.364  0.052967992  0.053456328            4 
  730000   0.97854562   -4.6142826    460.71666  0.052593226  0.053427904            4 
  731000   0.97656065   -4.6577749    462.27242  0.052698635  0.053398816            4 
  732000   0.95846701   -4.6629249    461.97237  0.052592483  0.053370234            8 
  733000   0.96899051   -4.6312138     463.1814  0.052658186  0.053342491            4 
  734000   0.95275213   -4.6583898    462.86146   0.05255012  0.053314702            4 
  735000   0.96143029   -4.6541083    464.31763  0.052643723  0.053286771            4 
  736000   0.96840469   -4.6394982    465.50884  0.052707069  0.053258689            4 
  737000   0.94454366   -4.6165593    466.44138  0.052740997  0.053230943            3 
  738000   0.97368436   -4.6151151    466.08531  0.052629326   0.05320344            2 
  739000   0.94443641   -4.6811778    467.58313  0.052727011  0.053175984            3 
  740000   0.93826111   -4.6474312    465.51979    0.0524234  0.053148215            4 
  741000     0.964961   -4.6168262     468.5549  0.052693983  0.053120686            3 
  742000   0.94641189   -4.6344435    468.73457  0.052643146  0.053093755            6 
  743000   0.95170431   -4.6592081    469.40273  0.052647233  0.053066319            4 
  744000   0.96690249   -4.6460376    469.16241  0.052549553  0.053038364            4 
  745000   0.94476703   -4.6684752    468.83949  0.052442896  0.053011028            7 
  746000   0.95975047   -4.6441627    470.17642  0.052521941  0.052983448            4 
  747000   0.96245797   -4.6792335    469.98926  0.052430752  0.052956203            7 
  748000   0.94554757   -4.6733277    470.09543  0.052372485  0.052928796            4 
  749000   0.94520157   -4.6781374    468.75745  0.052153699  0.052901537            4 
  750000     0.950393   -4.6764129    470.21374  0.052245971  0.052873677            7 
  751000   0.95088223   -4.6752232    471.79019   0.05235133  0.052846321            2 
  752000   0.96717501   -4.7027551    472.22474   0.05232987  0.052819325            5 
  753000   0.95594218   -4.6632565    473.11396  0.052358783  0.052792537            6 
  754000    0.9546279   -4.6505827    474.54917  0.052447964  0.052765497            2 
  755000   0.93589907   -4.6563261    475.69185  0.052504619  0.052738725            4 
  756000   0.94870559   -4.6389251    475.76055  0.052442741  0.052712225            8 
  757000    0.9734764   -4.6491263    475.24379  0.052316578  0.052685087            7 
  758000   0.93389615    -4.671126    474.26782  0.052140262  0.052657954            2 
  759000    0.9357376   -4.6602172    474.34079  0.052079577  0.052630658            2 
  760000   0.93753607   -4.6786274    476.06468  0.052200074   0.05260348            7 
  761000   0.95137251    -4.663651    474.24033  0.051931705  0.052576683            3 
  762000   0.97730231   -4.6484969    475.76061  0.052029813  0.052549452            4 
  763000   0.93863751   -4.6704048    477.04207   0.05210158  0.052522259            3 
  764000   0.95694059   -4.6466916    478.99262  0.052246141  0.052495583            2 
  765000   0.94605863   -4.6584978    477.57946  0.052023906  0.052468815            4 
  766000   0.93819953    -4.678368      476.994  0.051892297  0.052441744            4 
  767000   0.96287756    -4.651811    478.64695  0.052004231  0.052414568            1 
  768000   0.95335044   -4.6696894     479.3542   0.05201326  0.052387877            5 
  769000   0.93476533   -4.6818466     480.2333  0.052040887  0.052361339            6 
  770000   0.94888317   -4.6866493     479.9439   0.05194198  0.052334272            5 
  771000   0.94452935    -4.662453    481.28944  0.052020044   0.05230814            9 
  772000   0.93805344    -4.702802    480.33731  0.051849883  0.052281328            7 
  773000   0.96160852   -4.6362665    482.81781  0.052050216  0.052254221            4 
  774000   0.94313965   -4.6369939    481.28457  0.051817891   0.05222727            3 
  775000    0.9672912   -4.7054075    480.57268  0.051674482  0.052200464            4 
  776000   0.94161326    -4.686839    482.36031  0.051799862  0.052173399            4 
  777000   0.94940576   -4.6917618    483.49405  0.051854789  0.052146004            2 
  778000   0.94838225   -4.6834999    481.12999  0.051534918  0.052118567            4 
  779000    0.9410225   -4.6659834    483.73512  0.051747446  0.052090833            3 
  780000   0.94512625   -4.6658465     483.6693  0.051674071  0.052063207            4 
  781000   0.95639814   -4.6788996    484.19907  0.051664434  0.052036153            4 
  782000   0.95672908   -4.6763315    483.51971  0.051525971  0.052008335            3 
  783000   0.95122621   -4.6912485    482.62147  0.051364567  0.051980213            4 
  784000   0.93724633   -4.6935395    483.48703  0.051391054  0.051952345            5 
  785000   0.96671591   -4.6837594    482.59824  0.051231236   0.05192452            6 
  786000    0.9344169    -4.659192     485.1447  0.051436037    0.0518962            2 
  787000   0.92217487    -4.679709    483.71108  0.051218878  0.051867995            4 
  788000   0.93519219    -4.674662    485.70507  0.051364749  0.051840259            7 
  789000   0.95836572    -4.665592    486.38195  0.051371139  0.051812574            3 
  790000   0.95274295   -4.6553058    487.16464  0.051388675  0.051785055            5 
  791000   0.92497861   -4.6855863    487.91653  0.051402921  0.051757521            4 
  792000   0.97364794   -4.6719871    485.71714  0.051106601   0.05172984            8 
  793000   0.93852677    -4.727003    485.11328  0.050978697  0.051701262            5 
  794000   0.92815364   -4.6912901    485.80999  0.050987615  0.051672302            4 
  795000    0.9195409   -4.7007741    486.45606  0.050991201  0.051643375            3 
  796000   0.95065972   -4.7098835    486.63624  0.050946005  0.051614626            3 
  797000   0.93992716   -4.6756844    487.29069  0.050950511  0.051584967            5 
  798000   0.95919842   -4.6927736    488.97587  0.051062643  0.051556251            6 
  799000    0.9324485   -4.6772818    487.04658  0.050797516  0.051526731            5 
  800000   0.95421945   -4.6785062     487.5617  0.050787677  0.051497207            3 
  801000   0.93389992   -4.7172598    487.00933  0.050666805  0.051467975            2 
  802000    0.9102838   -4.7193052    487.79721  0.050685496  0.051438672            6 
  803000   0.92995152   -4.6666737    488.28347  0.050672838  0.051408637            3 
  804000   0.92146604    -4.696745     487.8432  0.050564179  0.051378289            6 
  805000   0.93749253   -4.6964743    489.19402  0.050641203   0.05134742            4 
  806000   0.93979796   -4.6814627    489.55067  0.050615247   0.05131721            4 
  807000   0.92587445   -4.6905863    489.29402  0.050526025   0.05128706            3 
  808000    0.9313379   -4.7246712    490.18828  0.050555722  0.051257414            2 
  809000   0.92513656   -4.6755734    490.39797   0.05051483  0.051226782            1 
  810000   0.95175097   -4.7043484    490.23804  0.050436013  0.051197312           11 
  811000   0.93341428   -4.7204253      491.168  0.050469379  0.051167517            3 
  812000   0.94591954   -4.6692541    491.67572  0.050459331   0.05113717            3 
  813000   0.91759642   -4.7131693    490.81943  0.050309494  0.051107726            2 
  814000   0.95054859   -4.7152483    490.25964   0.05019038  0.051077993            3 
  815000   0.92092369   -4.6996975    492.72172  0.050380544  0.051048521            3 
  816000   0.93276524   -4.7177776    491.32662   0.05017633  0.051018984            4 
  817000   0.92730072   -4.6932436    492.51774  0.050236407  0.050989472            5 
  818000   0.94532176   -4.7062824     494.0876  0.050334923  0.050960065            3 
  819000    0.9273009   -4.7092309    494.45012   0.05031035  0.050931464            3 
  820000   0.92033829   -4.7179046     494.4602   0.05025002  0.050902274            7 
  821000   0.91780449   -4.7009342    495.02629  0.050246274  0.050872842            2 
  822000   0.93952035   -4.7267308    494.28345  0.050109838  0.050843911            3 
  823000   0.91555477   -4.7196907    495.48505  0.050170621  0.050815109            3 
  824000   0.91462209   -4.7300378    494.12836  0.049972528  0.050785967            4 
  825000   0.92809936   -4.7381045    496.67201   0.05016889  0.050757314            3 
  826000   0.90537752   -4.7210686     497.2103   0.05016246  0.050728707            2 
  827000   0.91466979   -4.6648203    498.59793   0.05024163  0.050699884            3 
  828000   0.93229239   -4.7001875     498.3765  0.050158665  0.050671664            5 
  829000   0.92538824    -4.714046    496.96692  0.049956466  0.050643244            4 
  830000   0.92715156   -4.7419398    497.66961  0.049966829  0.050614547            2 
  831000   0.92699629   -4.7390344    497.76256  0.049916021  0.050585548            6 
  832000    0.9285482   -4.6757545    499.85986  0.050066092  0.050556774            3 
  833000   0.92158087   -4.7093203    500.75328  0.050095366  0.050528235            7 
  834000   0.93070472   -4.7399455    500.12988   0.04997301  0.050499734            6 
  835000   0.92527223   -4.7158958     500.0846  0.049908642  0.050470944            5 
  836000   0.91788357   -4.7337554    501.50917  0.049990946  0.050442726            5 
  837000    0.9399351   -4.7021984    501.29864  0.049910258  0.050414586            4 
  838000   0.93245941   -4.7368432     500.1696  0.049738425  0.050386368            7 
  839000    0.9163716   -4.7099008    502.09271  0.049870154  0.050358235            4 
  840000   0.90479954   -4.7232322    502.91264  0.049892127  0.050330407            1 
  841000    0.9118133   -4.7277754    501.60166  0.049702899  0.050302161            5 
  842000   0.91297908   -4.7054417    503.15594  0.049797698  0.050273847            3 
  843000   0.92988866   -4.7167875    502.76278   0.04969976  0.050245491            3 
  844000   0.92004409   -4.7237525    502.71915  0.049636567  0.050216948            4 
  845000   0.92315231   -4.7493417    499.46473  0.049256877  0.050187824            3 
  846000    0.9184103   -4.7033204    503.87856  0.049633428   0.05015843            2 
  847000   0.92613651   -4.7344614     503.2339  0.049511403  0.050129086            6 
  848000   0.91804034   -4.6741568    503.81867  0.049510483  0.050099826            2 
  849000   0.92471193   -4.7498678    502.91512  0.049363478  0.050070526            6 
  850000    0.9150791   -4.7366582    504.56266  0.049466927  0.050041108            3 
  851000   0.92378196   -4.7572551     504.0976  0.049363259  0.050012268            3 
  852000   0.91097121   -4.7220573    507.48345  0.049636488   0.04998358            2 
  853000   0.93117209    -4.747331     503.3694  0.049176377  0.049955125            3 
  854000   0.90299264   -4.7432232    505.10713  0.049288361  0.049926187            4 
  855000   0.88894018   -4.7503041    505.96123   0.04931396  0.049897768           10 
  856000   0.90454303    -4.736517    508.23797  0.049477995  0.049869457            4 
  857000   0.89554738   -4.7091561    507.64283  0.049362391  0.049841446            3 
  858000   0.90373327   -4.7274646    509.21784  0.049457832  0.049813018            6 
  859000   0.91485664   -4.7344777    509.82101  0.049458771  0.049784836            8 
  860000   0.90162268   -4.7298087    508.70999  0.049293603  0.049756528            4 
  861000   0.92408664   -4.7217309    510.05618  0.049366645  0.049728483            4 
  862000   0.91533455    -4.734395    509.41492  0.049247382  0.049700188            6 
  863000   0.91458129   -4.7155299    509.64544  0.049212576  0.049672156            3 
  864000   0.92601894   -4.7492525    510.56032  0.049243858  0.049644638            6 
  865000   0.91608583   -4.7475492    509.27679  0.049063274  0.049616669            3 
  866000   0.89518611   -4.7346816    509.86546  0.049063266  0.049588987            6 
  867000   0.92468901   -4.7270225    513.16472   0.04932379  0.049560802            2 
  868000   0.87460497   -4.7425685    512.53124  0.049206148  0.049532652            8 
  869000   0.91641597   -4.7311182    512.36562  0.049133642  0.049504924           10 
  870000   0.90646796   -4.7745691    510.82446  0.048929546  0.049476468            4 
  871000   0.89768316   -4.7313514    511.32976  0.048921715  0.049448189            6 
  872000   0.92001383   -4.7388425    512.57675  0.048984781  0.049419919            2 
  873000   0.90220953   -4.7590268    514.01311   0.04906578  0.049391864            5 
  874000     0.910086   -4.7922536    512.17866  0.048834731  0.049363598            4 
  875000   0.91135197   -4.7527558    514.50645  0.049000614  0.049335608            7 
  876000   0.92520973   -4.7687268    513.58488  0.048857009  0.049307789            4 
  877000    0.8925625   -4.7165995    517.03465    0.0491291  0.049279884            5 
  878000   0.92169109   -4.7817355    513.98915  0.048784088  0.049252166            4 
  879000   0.88612418   -4.6990036    515.87396  0.048907277  0.049224407            6 
  880000   0.87695353   -4.7540719     515.9961  0.048863267  0.049196665            6 
  881000   0.90774758   -4.7492894    515.52211  0.048762969  0.049169023            2 
  882000   0.90216243   -4.7636801    516.95744  0.048843295  0.049141468            6 
  883000   0.91121744   -4.7546268    516.90777  0.048783293  0.049114054            5 
  884000   0.89902518   -4.7396534    516.40625  0.048680831  0.049086798            3 
  885000   0.92445543   -4.7575249    518.01895  0.048777679  0.049058949            5 
  886000   0.88915644   -4.7713136    517.04725  0.048631231  0.049031554           12 
  887000   0.87395298   -4.7618609    517.43786  0.048613102  0.049003884            6 
  888000   0.91631559   -4.7219827    519.60908  0.048762113  0.048976182            5 
  889000   0.90076512   -4.7764995    518.57677  0.048610496  0.048948566            4 
  890000   0.90232489   -4.7570255    518.26234  0.048526436  0.048920373            3 
  891000   0.90554512   -4.7751562    520.34673  0.048666922  0.048892706            5 
  892000   0.90139911   -4.7484037    520.74743  0.048649797  0.048865162            3 
  893000   0.90469592   -4.7266024    520.63071  0.048584426  0.048837227            6 
  894000   0.90073407   -4.7608954    519.59944  0.048433952  0.048809462            9 
  895000   0.88028935   -4.7738133    519.98908  0.048416116  0.048781909            5 
  896000   0.89795818   -4.7288975    522.18533  0.048566344  0.048754388            3 
  897000   0.88586967   -4.7887348    521.37053  0.048436504  0.048726944            3 
  898000   0.90378334   -4.7667633    520.57388  0.048308638   0.04869973            7 
  899000   0.89491951   -4.7830853    521.22932  0.048315658   0.04867217            5 
  900000   0.90077603   -4.7706639    522.94485  0.048420819  0.048645167            5 
  901000   0.89713571   -4.7830286    521.94883  0.048274956  0.048618443            2 
  902000   0.90159639   -4.7867873    523.49231  0.048364034  0.048591557            5 
  903000   0.87844482   -4.7600785    524.05076  0.048362012  0.048564202            8 
  904000   0.88957835   -4.7920982    522.79664  0.048192906  0.048536791            2 
  905000   0.90280875   -4.7909024    523.20119  0.048176905  0.048508912            4 
  906000   0.89913401   -4.7693779    523.91436  0.048189327  0.048481636            3 
  907000   0.87809341   -4.7595885    525.56783  0.048288114  0.048454826            2 
  908000   0.92136703   -4.7760589    525.71004  0.048247984  0.048427924            4 
  909000   0.90476733   -4.7579446    525.51575  0.048177095  0.048401041            5 
  910000   0.91152835   -4.7841959    525.80431  0.048150578  0.048374447            4 
  911000   0.91104535    -4.760857     526.2986  0.048142938  0.048347265            3 
  912000   0.90422152     -4.76977     527.8264  0.048229751  0.048320358            8 
  913000   0.87917837   -4.7831044     526.2577  0.048033744  0.048293499            5 
  914000   0.88298632   -4.7968764    525.85188   0.04794419  0.048266414            4 
  915000   0.90624591   -4.7659275    526.14171  0.047918188  0.048239373            3 
  916000   0.87259526   -4.7816527    528.11288  0.048045204  0.048211929            4 
  917000   0.89023419   -4.7695006    528.01718  0.047984113  0.048185322            2 
  918000   0.89355687   -4.8008819    526.90386  0.047830779  0.048158019            2 
  919000   0.89750729   -4.8037456    524.93981  0.047600635  0.048130834            3 
  920000   0.89363768   -4.8116696    528.54068  0.047875062  0.048103925            6 
  921000   0.88212671   -4.7723568    528.29616  0.047800955  0.048077091            2 
  922000    0.8806059   -4.8013389    527.76508   0.04770111  0.048050043            2 
  923000   0.88140451   -4.7896098    529.43005  0.047799751  0.048022957            4 
  924000   0.89977301   -4.8114221    527.23407  0.047549971  0.047995628            6 
  925000   0.85643071   -4.7960945    529.36976  0.047690969  0.047968145            6 
  926000    0.8811935   -4.7937424    527.55557  0.047476203  0.047940577            3 
  927000   0.87934832   -4.7673041    528.32711  0.047494346  0.047912597            3 
  928000   0.88427253   -4.8016219    530.31879  0.047622018  0.047885067            3 
  929000   0.89666052   -4.7767749    530.86581  0.047619825  0.047857579            6 
  930000   0.88582539   -4.8149404    529.72877  0.047466736  0.047829898            6 
  931000   0.89074917   -4.7847116    530.20735  0.047458588  0.047801782            2 
  932000   0.88262064   -4.8389359    528.06251   0.04721589  0.047773692            5 
  933000   0.89440861   -4.7735794    532.23557  0.047538011  0.047745811            8 
  934000   0.88437075   -4.7960635    532.20148  0.047484072  0.047718203            2 
  935000   0.88793734   -4.8033403    531.52904  0.047373354  0.047690615            3 
  936000    0.8897402   -4.8035261    531.80187  0.047347033  0.047663361            6 
  937000      0.88578   -4.7798299    532.68445  0.047374995  0.047635958            3 
  938000   0.89020775   -4.8129771    530.64562  0.047143356  0.047608518            5 
  939000   0.87461174   -4.7875289    531.53022  0.047171656  0.047580832            5 
  940000   0.88827234   -4.7905366    532.56008  0.047212773  0.047553424            3 
  941000   0.85831217   -4.8282898     532.5431  0.047161096  0.047526011            3 
  942000   0.89740614    -4.842198     531.4312  0.047012668  0.047498103            2 
  943000    0.8639963   -4.8217643    534.43246  0.047228036   0.04747073            5 
  944000   0.86846657   -4.7731989    535.61461  0.047282363  0.047443809            3 
  945000   0.89534262   -4.7897074    536.27713  0.047290752  0.047416387            3 
  946000   0.86041707   -4.8070534    535.25617  0.047150826  0.047389304            7 
  947000   0.87496994    -4.823293    534.47507  0.047032301  0.047362103            3 
  948000   0.88525449   -4.8287608    534.92506  0.047022245   0.04733493            5 
  949000   0.89713828   -4.8045124    537.27821   0.04717933  0.047307799            6 
  950000   0.86481971   -4.8002346    537.76959  0.047172771  0.047280701            2 
  951000   0.88214535   -4.7967352    537.43554  0.047093896  0.047253642            4 
  952000   0.87141265   -4.8187982     536.0666  0.046924598  0.047226454            5 
  953000   0.87090136   -4.7963959    537.34892  0.046987489  0.047198648            3 
  954000   0.85148271   -4.8250413    538.24918  0.047016875  0.047171101            4 
  955000   0.86220465   -4.7935583    538.03623   0.04694906  0.047143894            7 
  956000   0.86168215   -4.8033052    537.33698  0.046838997  0.047116959            3 
  957000   0.85800834   -4.7982002    537.82303  0.046832378  0.047089659            3 
  958000    0.8888187   -4.8266442    537.39153  0.046745957  0.047062442            9 
  959000   0.87550393    -4.784635     540.2025  0.046941475   0.04703551            6 
  960000   0.89496924   -4.8234333    538.39942  0.046736061  0.047008158            4 
  961000     0.884909   -4.8519726    538.31561   0.04668016  0.046981038            6 
  962000   0.85873933   -4.8188115    539.55286  0.046738813   0.04695411           10 
  963000   0.88297257   -4.8383735    538.11163  0.046565561  0.046926877            4 
  964000   0.87346174   -4.8164554    538.27869  0.046531699  0.046899779            6 
  965000   0.87883693   -4.8102722    540.80736  0.046701844  0.046872808            7 
  966000    0.8666651   -4.8204583    541.27256   0.04669363  0.046846018            3 
  967000   0.87360646   -4.8097352    540.36804  0.046567394  0.046819208            6 
  968000   0.85559359   -4.8066417    540.14674  0.046500236  0.046792097            5 
  969000   0.87938594   -4.8124062    543.33556  0.046726484  0.046764948            4 
  970000   0.86155964   -4.8307289    542.29879  0.046589243  0.046738282            4 
  971000   0.86697552   -4.8140946    542.13818  0.046527479  0.046711543            8 
  972000   0.86830524     -4.79895    543.00987  0.046554344  0.046684769            4 
  973000   0.88798343   -4.8370632    544.92948  0.046670905  0.046658406            3 
  974000   0.87216125   -4.8079399    542.57486  0.046421532  0.046631749           11 
  975000   0.86948305   -4.8188993    544.24154  0.046516371  0.046605268            3 
  976000   0.87779911   -4.8341687    544.20013  0.046465175  0.046578864            9 
  977000   0.86287197   -4.8239859    544.74279  0.046463902  0.046552365            9 
  978000   0.87446823   -4.8544397    543.97121  0.046350649  0.046526032            3 
  979000   0.87972768   -4.8323537    545.73257  0.046453232  0.046499734            4 
  980000   0.85963276   -4.7965258    547.90489  0.046590552  0.046473785           10 
  981000   0.85271013   -4.8124726    544.86614  0.046284925  0.046447692            3 
  982000    0.8582625   -4.7962303    547.33986  0.046447714  0.046421299            5 
  983000   0.86628821   -4.8362519    546.07845  0.046293527   0.04639534            2 
  984000   0.85900414   -4.8348979    547.55162  0.046371241  0.046369482           10 
  985000   0.85295575   -4.8470156    546.17759  0.046207918  0.046343281           11 
  986000   0.84661261   -4.8267722    547.48425  0.046271488  0.046317042            8 
  987000   0.85908452   -4.8538787    546.66691  0.046155598  0.046290901            5 
  988000    0.8383485   -4.8460747    547.83909   0.04620775  0.046264518            9 
  989000   0.85006872   -4.8421422    548.00247  0.046174795  0.046237906            4 
  990000   0.85375226   -4.8346057    549.12881  0.046222964  0.046211556            5 
  991000   0.86220859   -4.8599913    547.30926  0.046023315   0.04618526            5 
  992000   0.86556743   -4.8509469    547.84107  0.046021595  0.046158799            3 
  993000   0.84516095   -4.8712801    548.81182  0.046056715  0.046132311            4 
  994000   0.85165152   -4.8452766    548.13375  0.045953533  0.046105777            3 
  995000   0.84632865   -4.8534662    549.46049  0.046018467   0.04607946            7 
  996000   0.84259434   -4.8422902    549.98133  0.046015841  0.046053309            2 
  997000   0.84319561   -4.8545628    552.03187  0.046141079  0.046027246            7 
  998000   0.84028374    -4.841296    551.27259  0.046031445  0.046001579            9 
  999000   0.85431494   -4.8116774    553.23908  0.046149406  0.045976176            3 
 1000000   0.85437232   -4.8630151    552.36924   0.04603077  0.045950619            2 
 1001000   0.86315266   -4.8089366    552.73518  0.046015249  0.045925555            4 
 1002000   0.85124198   -4.8274662    553.48084  0.046031341  0.045900411            9 
 1003000   0.86393215   -4.8482815    552.68662   0.04591946  0.045874857            5 
 1004000   0.86290391   -4.8109782    554.71299  0.046041915  0.045849611            3 
 1005000   0.86204822   -4.8222372    553.54739  0.045899452  0.045824532            3 
 1006000   0.85700789   -4.8381969     556.1739  0.046071396  0.045799353            6 
 1007000   0.85274568   -4.8501183    554.13955  0.045857295  0.045774008            3 
 1008000   0.87055984   -4.8446081    553.49454  0.045758477  0.045748443            4 
 1009000   0.85526768   -4.8182412    555.90018  0.045911809  0.045723422           10 
 1010000   0.85078017   -4.8617975     554.8993   0.04578377  0.045698278            9 
 1011000   0.85640002   -4.8717239    555.50715  0.045788588  0.045673113            5 
 1012000   0.82990588   -4.8463507    555.47401  0.045740613  0.045648236            6 
 1013000   0.84596395   -4.8380584    557.78351  0.045885448  0.045623322            4 
 1014000   0.84729312   -4.8770521    555.50893  0.045653265  0.045598406            4 
 1015000   0.86342749   -4.8493361    557.46149  0.045768595  0.045573461            3 
 1016000   0.85368239   -4.8567491    556.84243  0.045672771  0.045548453            6 
 1017000   0.84565023   -4.8649649    555.78267  0.045541025  0.045523654            2 
 1018000   0.83244298   -4.8503664    557.47614  0.045634916  0.045498607            7 
 1019000   0.84058761   -4.8323081    558.22018   0.04565098  0.045473497            9 
 1020000   0.83707801   -4.8594369    556.88522  0.045497158  0.045448801            7 
 1021000   0.85478665    -4.852846    558.14742  0.045555617  0.045424259            6 
 1022000   0.85703062   -4.9065584    558.02092  0.045500727  0.045399489            5 
 1023000   0.84459985   -4.8494238     558.3925  0.045486518  0.045374847            7 
 1024000   0.84889717   -4.8775506     557.0478  0.045332666  0.045349713            3 
 1025000   0.86295472   -4.8592791    558.81935  0.045432468  0.045324747            3 
 1026000   0.83848959   -4.8697359    557.59429  0.045288685  0.045300044            2 
 1027000   0.83912897   -4.8453143    560.64616  0.045492223  0.045275313            4 
 1028000   0.83414946   -4.8731913     560.0927  0.045403105  0.045250201            8 
 1029000   0.82458798   -4.8840007    558.31489  0.045215005  0.045225034            4 
 1030000   0.85292237   -4.8392516    558.83369  0.045213082  0.045199618            4 
 1031000   0.84269351   -4.8586819    559.72286  0.045241098  0.045174561            7 
 1032000   0.83834514   -4.8881495    560.34613  0.045247588  0.045149309            8 
 1033000   0.83584208     -4.89847     559.8761  0.045165868   0.04512414            3 
 1034000   0.84937822   -4.8565814    560.90561  0.045205159  0.045099295            6 
 1035000   0.82796863   -4.9008092    562.37767  0.045280006  0.045074297            8 
 1036000   0.84483626   -4.8894624    561.39256  0.045157059  0.045049611            5 
 1037000   0.83449734    -4.920317    561.67316  0.045136062  0.045024665            3 
 1038000   0.85078804   -4.8762777    561.67063  0.045092375  0.044999639           10 
 1039000   0.83162011   -4.8300893     563.0183  0.045157066  0.044974689            7 
 1040000   0.83452974   -4.8558563    563.05689  0.045116738  0.044949888           10 
 1041000   0.82816649   -4.8594593    563.54558  0.045112518  0.044925024            3 
 1042000   0.84506412   -4.9010801    562.56125  0.044990503  0.044900068            6 
 1043000   0.83216947   -4.8812874    564.58946  0.045109417  0.044875275            3 
 1044000   0.83595821   -4.8749117    563.70201  0.044995372  0.044850472            5 
 1045000   0.85023696   -4.8711545    564.85969  0.045044633  0.044825538           10 
 1046000   0.83236723   -4.8698025    565.00023  0.045012765  0.044800899            3 
 1047000   0.83191166   -4.8654465    564.64128  0.044941203  0.044776465            6 
 1048000   0.83654591    -4.886369    565.40735  0.044959236   0.04475193            4 
 1049000   0.84245011   -4.8877212    565.82249  0.044949356   0.04472737            7 
 1050000   0.83852049   -4.8956669    565.83432  0.044907485   0.04470266            6 
 1051000   0.83754386   -4.9278356    565.69162  0.044853443  0.044677852            7 
 1052000   0.85970012   -4.8908345    565.93397  0.044830004  0.044653364            4 
 1053000   0.83456435   -4.9033832    567.66049  0.044924066  0.044628829            8 
 1054000   0.84834056   -4.9136944    564.79322  0.044654746  0.044604018            4 
 1055000   0.84090028   -4.9038254    565.88274  0.044698478  0.044579346            6 
 1056000   0.83408047   -4.8847291    567.12541  0.044754215  0.044554846            6 
 1057000   0.84027806   -4.9237885    567.23333  0.044720382  0.044530215            2 
 1058000   0.84503926    -4.898562    568.79671  0.044801253  0.044505904            3 
 1059000   0.84802079   -4.8785052     569.3959  0.044806099  0.044481765            3 
 1060000   0.83428839    -4.909825    570.49103  0.044849924    0.0444577            4 
 1061000     0.828582   -4.8700732    571.05436  0.044851898  0.044433427            5 
 1062000   0.83241688   -4.9207925    568.07672  0.044576014  0.044409295           10 
 1063000   0.84202071   -4.8982213    568.96126  0.044603423  0.044384813            6 
 1064000   0.82465702   -4.8938979    569.11766  0.044573752   0.04436007            3 
 1065000    0.8231547   -4.8987717    571.46826  0.044715826  0.044335291            6 
 1066000   0.82361655   -4.8826884    570.19712  0.044574509  0.044310868            5 
 1067000   0.81241938   -4.9077396    571.17136  0.044608822   0.04428621            5 
 1068000   0.84216973   -4.8913964     570.7225   0.04453203  0.044261636            2 
 1069000   0.82430442   -4.9146103    570.51323  0.044474059  0.044237215            8 
 1070000   0.84853246   -4.9017157    571.86889  0.044538076   0.04421299           10 
 1071000   0.84114538   -4.8848219    570.55837   0.04439452   0.04418872           10 
 1072000   0.82450473   -4.8770745     572.1614  0.044477721  0.044164624            7 
 1073000   0.83298355   -4.9440498    568.52742   0.04415404  0.044140371           10 
 1074000   0.81835678   -4.9162211    569.90584  0.044219882  0.044115819           11 
 1075000   0.82102068   -4.9044224     572.4863  0.044378783  0.044091207            4 
 1076000   0.83085419   -4.9089934    571.63916   0.04427193  0.044066878            4 
 1077000   0.82851917   -4.8826584    573.17538  0.044349689   0.04404242            5 
 1078000   0.81425027   -4.9020421     571.1283  0.044150302  0.044018037           11 
 1079000   0.83113205   -4.9170108    571.19284  0.044114368    0.0439936            5 
 1080000   0.82039401   -4.9154624    575.32278   0.04439219  0.043969299            4 
 1081000   0.82571125   -4.9027927    574.42006  0.044281534   0.04394486            5 
 1082000   0.80152049   -4.9019086    574.69893  0.044262087  0.043920962            4 
 1083000   0.79747251   -4.9039455    571.91233  0.044006797  0.043896522            7 
 1084000   0.83999734   -4.8973314    574.08265  0.044133045  0.043872436            5 
 1085000    0.8585474   -4.9274075    574.25048   0.04410526  0.043848419            4 
 1086000   0.81784427   -4.9470603    571.97304   0.04388989  0.043823892            4 
 1087000   0.78631532   -4.8968694    575.73379  0.044137825  0.043799243            4 
 1088000   0.81604348   -4.9054158    573.33798  0.043913755  0.043774777            7 
 1089000   0.82207053   -4.9162759    575.27255  0.044021468  0.043750412            3 
 1090000   0.81826393   -4.9198443    572.49893  0.043769031  0.043725627            6 
 1091000   0.83794299   -4.9176319    575.93465  0.043991342  0.043701051            2 
 1092000   0.82223464   -4.9351315     574.3825  0.043832608   0.04367636            7 
 1093000   0.83456968    -4.913696    575.92513   0.04391012  0.043651515            6 
 1094000   0.81575575   -4.9042722    575.40266  0.043830184  0.043626755            6 
 1095000   0.83030086   -4.9324958    575.78609  0.043819337  0.043602324            3 
 1096000   0.80385437   -4.9148134    577.10319    0.0438795  0.043577719            4 
 1097000   0.82180799   -4.9247426    576.83997  0.043819506  0.043553495           12 
 1098000   0.82824492   -4.9338752    575.60688  0.043686011  0.043529196           10 
 1099000    0.8253515   -4.9041899    579.22814  0.043920848  0.043504884            7 
 1100000   0.81005004   -4.9041943    574.93642  0.043555789  0.043480729            6 
 1101000   0.81658323   -4.9604152    575.53079  0.043561217  0.043456577            5 
 1102000   0.82996918   -4.9493468    575.59332  0.043526416   0.04343214            6 
 1103000   0.79529211   -4.9440821    577.14869  0.043604464  0.043407279            6 
 1104000   0.82112166   -4.9009505    578.92866  0.043699325  0.043382811            4 
 1105000   0.81680465   -4.9121195    579.48811  0.043701969  0.043358783            7 
 1106000    0.7958987   -4.9226993    579.28084  0.043646838  0.043334827            5 
 1107000   0.80724186   -4.9482683    578.09823  0.043518385  0.043310548            7 
 1108000   0.81027473   -4.9558309    578.07284  0.043477199  0.043286095            6 
 1109000   0.82403119   -4.9260837    578.24187  0.043450697  0.043261704            5 
 1110000   0.80891499   -4.9270856    578.30617  0.043416379  0.043237109            4 
 1111000   0.80519774   -4.9335742    578.03339   0.04335684  0.043212243           17 
 1112000   0.79722493    -4.925694    579.75322  0.043446734  0.043187456            7 
 1113000   0.80967194   -4.9099169    578.61268  0.043322303  0.043162897            3 
 1114000   0.80885744   -4.9533418    578.82041  0.043298953  0.043138145            7 
 1115000    0.8109335   -4.9525945    578.01783  0.043200137  0.043113281            8 
 1116000   0.82072416   -4.9483632    578.69689  0.043212134  0.043088682            5 
 1117000   0.79978539   -4.9153935    580.87836  0.043336195  0.043064171            4 
 1118000   0.80448561   -4.9519209    580.62668  0.043278674  0.043039671            6 
 1119000   0.80068701   -4.9378841     580.8285  0.043255027  0.043015486            9 
 1120000     0.783584   -4.9483222    581.13463  0.043239184  0.042991383            3 
 1121000   0.80217486   -4.9418286    581.71321  0.043243623  0.042967421            6 
 1122000   0.79203041   -4.9518626    583.51031  0.043338555  0.042943294            5 
 1123000   0.78911915   -4.9586582    580.52232  0.043078237  0.042919173            4 
 1124000   0.79410798   -4.9408465    582.29844  0.043171592  0.042895236            8 
 1125000   0.79774819   -4.9377214    583.41975  0.043216278  0.042871321            6 
 1126000   0.81510089   -4.9545146    585.03149   0.04329718  0.042847521            5 
 1127000   0.79475217   -4.9666184    582.59157  0.043078347  0.042823633           10 
 1128000   0.79898162    -4.959616    583.59358  0.043114183  0.042799717            3 
 1129000   0.79141602   -4.9363838    583.86498  0.043096028  0.042775783            9 
 1130000   0.79840397   -4.9418234     584.9658  0.043139071  0.042752101            6 
 1131000   0.81515219   -4.9590882    585.23267  0.043120592  0.042728295            4 
 1132000    0.8123476   -4.9735599    585.45782  0.043099074  0.042704654            8 
 1133000   0.81665187     -4.92523    585.83311  0.043088637  0.042680972            8 
 1134000   0.79331676   -4.9161871    587.45936  0.043170147  0.042657038            3 
 1135000   0.80299556    -4.952021    586.46224  0.043058901  0.042633125            7 
 1136000   0.81984495   -4.9212783    584.24315  0.042858212  0.042609089            4 
 1137000   0.79304965   -4.9531318    583.48488  0.042764943  0.042584976            7 
 1138000   0.79268747   -4.9824475     584.5157  0.042802849  0.042560798            5 
 1139000   0.82319084   -4.9426204    584.19275  0.042741641  0.042536464            6 
 1140000   0.80934168   -4.9377574    583.91445  0.042683805  0.042512086            7 
 1141000     0.787553   -4.9595946    587.44072  0.042903938  0.042487653            5 
 1142000   0.78665802   -4.9798732    585.67483   0.04273751  0.042463466            5 
 1143000   0.79003756   -4.9556042    586.58014  0.042766123  0.042439163            7 
 1144000   0.80055771    -4.948461    585.80124  0.042672002  0.042414757            2 
 1145000   0.79984396   -4.9471113     585.6484   0.04262361  0.042390642            8 
 1146000    0.8089875    -4.931361    587.33644  0.042709165  0.042366794           17 
 1147000   0.79003278    -4.972084    586.19539  0.042589029  0.042342803            5 
 1148000   0.80321886   -4.9715658    587.36312  0.042636695  0.042318701            6 
 1149000   0.79816291   -4.9446591    587.78759  0.042630373  0.042294334            3 
 1150000   0.81994939   -4.9726673    587.36353  0.042562574  0.042270097           10 
 1151000   0.79970528   -4.9709884    585.78991  0.042411665  0.042245801            7 
 1152000   0.77699578    -4.975791    587.20311  0.042477077  0.042221467            5 
 1153000   0.79395056   -4.9542058    587.78563  0.042482338   0.04219698            4 
 1154000   0.77887561   -4.9556044    586.88732  0.042380655   0.04217267            6 
 1155000   0.80649535   -4.9553403    590.45968  0.042601708  0.042148554            4 
 1156000   0.80127278   -4.9553947    588.25412  0.042405862  0.042124414            3 
 1157000   0.79709102   -4.9887657    587.65455  0.042326026  0.042100092            5 
 1158000   0.78955726   -4.9683655    589.28034  0.042406472  0.042075779            6 
 1159000   0.79058877   -4.9633383    589.08173  0.042355603  0.042051522           11 
 1160000   0.78154792   -4.9930037    586.16074  0.042109248  0.042027179            4 
 1161000   0.82339186   -4.9890314    586.49263  0.042096801  0.042002852            5 
 1162000   0.80633822   -4.9813152    588.33499  0.042192698  0.041978462           13 
 1163000   0.79978877   -4.9875094    590.12081   0.04228438  0.041954134            5 
 1164000    0.7901775   -4.9768221    590.23221  0.042256029  0.041929714            7 
 1165000   0.80229184   -4.9859041     589.7746  0.042187024  0.041905506            4 
 1166000   0.77085357    -4.980718    588.92599  0.042090193  0.041881347            6 
 1167000   0.77182709   -4.9840162    590.17046  0.042142992  0.041857081            4 
 1168000   0.80010051   -4.9780827    590.18732  0.042108113   0.04183285            6 
 1169000   0.78216013   -4.9935001    591.59574  0.042172494  0.041808623            8 
 1170000   0.79291911   -4.9844681    592.14959  0.042175896  0.041784326            7 
 1171000   0.78440111   -4.9617493     590.7438  0.042039838  0.041760269            4 
 1172000   0.80060029   -4.9786553    590.33798  0.041975112  0.041735983            3 
 1173000   0.77977609   -5.0246068    589.75421  0.041897855  0.041711722            5 
 1174000   0.75960034   -4.9928322    590.59833  0.041922085  0.041687395            7 
 1175000   0.78216534   -5.0116793    592.72151  0.042036987  0.041663068            9 
 1176000   0.80263652   -5.0040831    590.95999  0.041876416  0.041639122            6 
 1177000   0.78731186    -4.978622    590.77518  0.041827752  0.041614865           10 
 1178000   0.79043733   -4.9944869    592.32978   0.04190222  0.041590675            4 
 1179000   0.78732716   -5.0186882    592.45213  0.041875327  0.041566534            5 
 1180000   0.78108589   -5.0067879    591.35247   0.04176218  0.041542422            5 
 1181000   0.79025768   -4.9947007    591.88062  0.041764086  0.041518314            9 
 1182000   0.79328116    -4.985548    593.37393  0.041834033  0.041494076            5 
 1183000    0.7887135   -5.0004566    591.78525   0.04168676  0.041469845            3 
 1184000   0.79004807   -5.0002167    592.80641  0.041723424  0.041445669           11 
 1185000   0.79591022   -4.9971143     593.1749  0.041714128  0.041421481            5 
 1186000   0.76423223    -5.015355    591.20066  0.041540238  0.041397046            3 
 1187000    0.7858796   -4.9974449     593.7466  0.041683979  0.041372876            6 
 1188000   0.76642162    -4.997517    592.96263    0.0415939  0.041348768            6 
 1189000   0.78781789    -5.001069    593.14914  0.041571989  0.041324699            6 
 1190000   0.77680065   -4.9999471    593.84847  0.041586027  0.041300549            4 
 1191000    0.7894196   -5.0256845    593.32464  0.041514458  0.041276613           11 
 1192000   0.79135581   -4.9981003    596.64486  0.041711749  0.041252826            5 
 1193000   0.76685274   -4.9943074    596.15698  0.041642706  0.041228854            6 
 1194000    0.7631537   -5.0037065    595.13641    0.0415366   0.04120497            6 
 1195000   0.76365949   -4.9987875    594.27976  0.041442103  0.041181151            6 
 1196000   0.76181495   -5.0042919    595.59149   0.04149885  0.041157112           11 
 1197000   0.75549385    -5.016359    597.22682   0.04157803  0.041133289            4 
 1198000   0.77252236   -4.9953047    595.45943  0.041420383  0.041109352           11 
 1199000   0.79124478    -5.004591    596.49093  0.041457529   0.04108538            4 
 1200000   0.78563951   -5.0042481    596.69315  0.041437024  0.041061253           14 
 1201000   0.77362642   -4.9677581    597.44811  0.041454906  0.041037447            8 
 1202000   0.77265503   -5.0316469    594.37168  0.041207132  0.041013502            7 
 1203000   0.77701689   -5.0371678    594.31287  0.041168805  0.040989152            5 
 1204000   0.78008108   -5.0155101    595.08028  0.041187727  0.040965072            6 
 1205000   0.76416587   -5.0045911    595.07512  0.041153189  0.040940912            7 
 1206000   0.77391206   -5.0008993    598.07007  0.041326014  0.040916621            4 
 1207000   0.78097026    -5.025337    595.92558  0.041143716  0.040892623           12 
 1208000   0.76159451   -5.0217716    596.82724  0.041171857  0.040868694            5 
 1209000   0.77255638     -5.02531    595.42808  0.041041362  0.040844656            4 
 1210000   0.76520692   -5.0064302    597.75725  0.041167855  0.040820853            9 
 1211000   0.76163181   -5.0324458    596.85852  0.041072015  0.040796817            4 
 1212000   0.78281095   -4.9936535     597.4827  0.041081044   0.04077291           14 
 1213000   0.77161057   -5.0378419    599.34201  0.041174912  0.040749025            4 
 1214000   0.77552096   -5.0263793    598.78526  0.041102777  0.040725212            8 
 1215000   0.77266513   -5.0210308    599.24532  0.041100502  0.040701421            4 
 1216000   0.77238832   -5.0385259    599.06986  0.041054678  0.040677442            3 
 1217000   0.76387827   -5.0254962    597.43095   0.04090872  0.040653387            3 
 1218000   0.76337044   -5.0072051    600.34168  0.041074281   0.04062954            8 
 1219000   0.75723864   -5.0187157    599.84712  0.041006776  0.040605962            5 
 1220000   0.77426162   -5.0302987    598.10809  0.040854378  0.040582166            7 
 1221000   0.77157594   -5.0088202    598.95536  0.040878744  0.040558306           13 
 1222000   0.76721906   -5.0149427    597.82528  0.040768227  0.040534427            5 
 1223000   0.77035646    -5.023318    599.86274  0.040873722  0.040510409            4 
 1224000   0.75749776   -5.0173477    599.45684  0.040812693  0.040486496            8 
 1225000   0.75582983   -4.9951641     600.1211  0.040824565  0.040462653            7 
 1226000   0.74357216    -5.042983    598.84049   0.04070422  0.040438693            7 
 1227000   0.75190993   -5.0077218    600.15505  0.040760326  0.040414877            5 
 1228000    0.7575356   -5.0153883    599.26523   0.04066675  0.040391306           12 
 1229000   0.75094444   -5.0127146    600.62263    0.0407257  0.040367441            5 
 1230000   0.75554466   -5.0231617    602.99353   0.04085322  0.040343975            4 
 1231000   0.74571168   -5.0632449    600.87098  0.040676346   0.04032042            4 
 1232000   0.74764955   -4.9934472    601.16989  0.040663547  0.040296872           11 
 1233000   0.75787019   -5.0553793    601.08414  0.040624773   0.04027334            5 
 1234000   0.77619658   -5.0300008    600.73173  0.040568053  0.040249542            7 
 1235000   0.77935312    -5.048529    601.44446  0.040583297  0.040225898            7 
 1236000   0.75478095   -5.0240924     602.6293  0.040630347  0.040202289            4 
 1237000   0.75489298   -5.0329003    604.60681   0.04073072  0.040178876            4 
 1238000   0.76335662   -5.0373066    602.38623  0.040548346   0.04015526            7 
 1239000   0.75501261   -5.0251845    603.45644    0.0405876  0.040131746            3 
 1240000   0.75626313   -5.0361672    603.84764  0.040581159  0.040108204            6 
 1241000    0.7607573   -5.0541133    603.57802  0.040530353  0.040084761            5 
 1242000   0.74921203   -5.0511456    601.76558  0.040376112  0.040061147            6 
 1243000   0.75481445   -5.0373359    603.41771  0.040454392  0.040037622            9 
 1244000   0.75415428   -5.0727278    603.33989  0.040416659  0.040013929           11 
 1245000   0.75237691   -5.0404047    604.31556  0.040449502  0.039990254            6 
 1246000   0.75085095   -5.0311382    605.15145  0.040472943  0.039966776            7 
 1247000   0.75840804   -5.0199158    604.22491  0.040378569  0.039943254            5 
 1248000    0.7668556   -5.0451158    603.49159  0.040297249  0.039919836            4 
 1249000   0.74566279   -5.0369092    605.16281  0.040376489  0.039896164            9 
 1250000   0.77275948   -5.0534062     603.5747  0.040238314  0.039872688            8 
 1251000    0.7530668   -5.0377346    605.41885  0.040328993  0.039849284            3 
 1252000   0.75044301   -5.0641511    605.01758  0.040270073  0.039825951           12 
 1253000   0.73658268   -5.0526986    603.11523  0.040111415   0.03980231           10 
 1254000   0.74783278   -5.0703821    604.61513  0.040179102  0.039778675            3 
 1255000   0.74367858   -5.0749642     603.9382  0.040102138  0.039755142            9 
 1256000   0.75358827   -5.0573169    605.52574   0.04017554  0.039731593            7 
 1257000   0.73903666   -5.0396508    604.78748  0.040094635  0.039708213            8 
 1258000   0.75416902   -5.0750176    605.85913  0.040133752  0.039684811            5 
 1259000   0.75326537   -5.0578301    606.90092  0.040170831  0.039661548            5 
 1260000   0.76999284   -5.0678881    608.07841  0.040216826  0.039638392            5 
 1261000   0.75011401   -5.0575371    605.02499  0.039983148  0.039615383            9 
 1262000   0.75539668   -5.0302991    607.66285  0.040125651   0.03959224            4 
 1263000   0.74836608   -5.0714208    607.77179  0.040101068  0.039569128            6 
 1264000   0.73664172   -5.0706088    604.90729  0.039880491  0.039545833            5 
 1265000   0.74454005   -5.0536492    609.13668  0.040127581  0.039522663           12 
 1266000   0.72173629   -5.0862763    607.58286  0.039993606  0.039499198            4 
 1267000   0.74114891   -5.0573812    607.08821  0.039929506  0.039475901            5 
 1268000   0.76179532   -5.0787785    608.67994  0.040002625  0.039452544           13 
 1269000   0.75149093   -5.0335638    609.01029  0.039992796  0.039429336            6 
 1270000   0.74967473   -5.0528928    608.41245  0.039922077  0.039406328            5 
 1271000    0.7472768   -5.0317975    609.50488  0.039962292  0.039383436            4 
 1272000   0.73232578   -5.0638284     609.0033  0.039898015  0.039360452            3 
 1273000   0.75183458   -5.0230467    607.62537  0.039776471  0.039337444           10 
 1274000   0.74868563    -5.073696    609.46673  0.039865694  0.039314312            9 
 1275000   0.73795249   -5.0733388    606.80165  0.039660239  0.039291129            5 
 1276000   0.75650641   -5.0701739    607.19834  0.039655064  0.039267687            8 
 1277000   0.73815582   -5.0953517    609.24618  0.039757647  0.039244325            7 
 1278000   0.75846527   -5.0812027    608.52901  0.039679774  0.039221102            5 
 1279000   0.74079145   -5.0674167    609.06845  0.039683897  0.039197898           11 
 1280000   0.73776351   -5.0715218    609.81633  0.039701584  0.039174676            6 
 1281000   0.74090278   -5.0634673    610.45304  0.039712011  0.039151478           10 
 1282000   0.74347778   -5.0842251    608.87974  0.039578766  0.039128313            8 
 1283000   0.75780278   -5.0838309    607.99675  0.039490566  0.039104814            5 
 1284000   0.73283526   -5.0765788    609.38152  0.039549683  0.039081455            8 
 1285000   0.73148481   -5.0718272    609.92194  0.039553952  0.039057963            5 
 1286000       0.7334   -5.0991234    608.67054  0.039442103  0.039034507            3 
 1287000   0.72907411   -5.0740742    609.90913  0.039491655  0.039011291            7 
 1288000   0.74780079   -5.0878241     609.3864  0.039427174  0.038988094            4 
 1289000   0.73402079   -5.0541607    611.73576  0.039548472  0.038964823            7 
 1290000   0.72245765   -5.0730274    609.18082  0.039352766   0.03894171            5 
 1291000   0.74480699   -5.0976732     610.0068    0.0393756  0.038918647            6 
 1292000   0.74991523   -5.1040334    609.54426  0.039315291  0.038895418           11 
 1293000   0.72940667   -5.0624829    609.20993  0.039263336  0.038872104            6 
 1294000   0.73976909   -5.0625977    609.18471   0.03923137  0.038848909           10 
 1295000   0.74585527   -5.1015284    609.94933  0.039250279  0.038825475            8 
 1296000   0.74303776   -5.0892659    611.05862  0.039291321   0.03880242           15 
 1297000   0.73346241   -5.1162357    610.95808  0.039254567  0.038779372            9 
 1298000   0.72634454   -5.0601925    612.04479  0.039294093   0.03875638            5 
 1299000   0.72825807   -5.0961836    611.45102  0.039225752  0.038733541            8 
 1300000   0.73828685    -5.078419    611.72221  0.039212962  0.038710617            7 
 1301000   0.73822447   -5.0835876    611.67906  0.039180058  0.038687609            7 
 1302000   0.74294657   -5.0859923    610.94074   0.03910271  0.038664621            4 
 1303000   0.73999947    -5.096504    611.16667  0.039087149  0.038641363           13 
 1304000   0.73763539   -5.0945248    611.50645  0.039078889  0.038618206            7 
 1305000   0.72884925   -5.0784983    613.47651  0.039174745  0.038594986            5 
 1306000    0.7329331   -5.0921739    611.91628  0.039045194  0.038571963            7 
 1307000   0.74852316   -5.1096739    609.72564  0.038875647  0.038548691            8 
 1308000   0.73713355   -5.1167562    609.54458   0.03883439  0.038525213            7 
 1309000    0.7233612   -5.1018136    609.53236  0.038803944  0.038501676           13 
 1310000     0.737841   -5.1106178    612.25315  0.038947402  0.038478181           11 
 1311000   0.73147447   -5.1084362    611.71655  0.038883585  0.038454769           38 
 1312000   0.72785625   -5.1104746    612.81444  0.038923682  0.038431402            5 
 1313000   0.73638291   -5.1118667    612.09193  0.038848181   0.03840823           21 
 1314000   0.72079992   -5.0968467    613.41208  0.038902339  0.038384859            7 
 1315000   0.72006121   -5.1264713    612.63274  0.038823368  0.038361519            6 
 1316000    0.7250177   -5.1023773    612.13325  0.038762237  0.038338348            5 
 1317000   0.72508598   -5.1015527    611.51566  0.038693727  0.038315175            7 
 1318000   0.73879168   -5.1056575     612.8987  0.038751815  0.038292018            7 
 1319000   0.72235851   -5.1230082    611.27065  0.038619576   0.03826889            5 
 1320000   0.73521344   -5.1094484    613.84378  0.038752764  0.038245472           13 
 1321000   0.72227642   -5.1117295    612.28685  0.038625211  0.038222086           14 
 1322000   0.71896987   -5.0878072    613.87575  0.038696152  0.038198867           14 
 1323000   0.72890423    -5.088751    612.53956  0.038582738  0.038175716            7 
 1324000   0.71932489   -5.1100372    613.35452  0.038604892  0.038152458            4 
 1325000   0.71879367   -5.1201307    613.23865  0.038568468  0.038129272           10 
 1326000   0.71382148   -5.1041685    614.75132  0.038634447  0.038106085           10 
 1327000   0.73758993   -5.1129618    614.11003  0.038565061   0.03808307            6 
 1328000    0.7354799   -5.1101247    613.69633  0.038510061  0.038059916           10 
 1329000   0.73766675   -5.1165764    614.36371  0.038522931   0.03803667            6 
 1330000   0.70910648   -5.1235104    614.61622  0.038509788  0.038013565            7 
 1331000   0.72416902   -5.1057701    615.42458  0.038531467  0.037990389           16 
 1332000   0.72504769   -5.1469854    612.06525   0.03829237  0.037967238           10 
 1333000   0.70691587   -5.1320622    614.16916  0.038395171  0.037943921           13 
 1334000    0.7258487   -5.1429002    614.67752  0.038398146  0.037920801            5 
 1335000    0.7037445   -5.1492258    615.68491  0.038432266  0.037897836            5 
 1336000   0.71956589   -5.1438583    615.02095  0.038362085  0.037874725            8 
 1337000   0.71917544   -5.1225457    615.46879  0.038361306  0.037851777            6 
 1338000    0.7302055   -5.1282934    615.12473  0.038311207  0.037828715            6 
 1339000   0.71983676   -5.1105338    615.39087  0.038299158  0.037805677            4 
 1340000   0.71331396   -5.1185979    615.11038  0.038253133  0.037782664           26 
 1341000   0.71516394   -5.1290359    615.74719  0.038264181  0.037759629           12 
 1342000   0.70793318   -5.1353401    617.13314   0.03832173  0.037736566            5 
 1343000   0.72749634   -5.1083085    615.23114  0.038175176  0.037713646            8 
 1344000   0.70272827   -5.1154339    618.60765  0.038356129  0.037690809            5 
 1345000   0.70864835   -5.1154676     615.7241  0.038148953  0.037667943            6 
 1346000   0.72326585   -5.1283515    615.86183  0.038129138  0.037644897            5 
 1347000   0.71296457   -5.1277479    615.70386  0.038091058  0.037621796            5 
 1348000    0.7161337   -5.1348897    616.45681  0.038109348  0.037598825            4 
 1349000   0.70813248    -5.146788    616.30453  0.038071691    0.0375757           11 
 1350000   0.73182428   -5.1437373    614.96257  0.037960653  0.037552578           11 
 1351000   0.72233622   -5.1008667    617.80679  0.038107993  0.037529711           17 
 1352000   0.71657424   -5.1398591    615.70295  0.037950133  0.037506821            5 
 1353000   0.71386866   -5.1468999    616.87834  0.037994478  0.037483727            7 
 1354000   0.69047282   -5.1547797    615.21539  0.037864069  0.037460577            6 
 1355000   0.70673454   -5.1403459    617.59442  0.037982437   0.03743749            9 
 1356000   0.70559508   -5.1627167    614.84637  0.037785544   0.03741436            8 
 1357000   0.71409113   -5.1443132    616.23166   0.03784277  0.037391216           11 
 1358000   0.70620607   -5.1566351    615.60452  0.037776419  0.037368176           10 
 1359000   0.71630282   -5.1208449    617.25006  0.037849526  0.037344979           22 
 1360000   0.71552069   -5.1478597    615.81102  0.037733518  0.037321892            6 
 1361000   0.70852243    -5.114552    616.78727  0.037765569  0.037298813            6 
 1362000    0.7150424   -5.1553597     616.7405  0.037734979  0.037275554            9 
 1363000   0.70600833   -5.1502685     615.1397  0.037609421  0.037252471            6 
 1364000   0.70781503   -5.1559802    617.48887  0.037725371  0.037229438            7 
 1365000   0.69663399   -5.1212879    620.13196  0.037859094  0.037206545            9 
 1366000   0.71312639   -5.1622236    616.57595  0.037614443  0.037183799            6 
 1367000   0.69818295   -5.1414504    618.98852  0.037733999  0.037160846           16 
 1368000   0.70169927   -5.1528199    617.89055  0.037639531  0.037137816           13 
 1369000   0.71979125   -5.1445353    616.69926  0.037539521  0.037114763            7 
 1370000    0.6875356   -5.1578356    618.13228  0.037599287  0.037091752           19 
 1371000   0.70848831   -5.1565131    616.99642  0.037502822    0.0370686            8 
 1372000   0.70637503   -5.1443339    617.94422  0.037533055  0.037045459            5 
 1373000   0.71430831   -5.1532578    619.36926   0.03759221  0.037022458           10 
 1374000   0.70674485   -5.1580065    617.90215   0.03747587  0.036999579           13 
 1375000   0.70649126   -5.1640636    619.04065  0.037517615   0.03697696            4 
 1376000   0.69623012   -5.1536386    618.16202  0.037437138  0.036954162            8 
 1377000   0.70479247   -5.1616542    619.63587  0.037499145  0.036931395            5 
 1378000   0.69283933   -5.1461252     620.2088  0.037506579  0.036908618           10 
 1379000   0.70055742   -5.1650723    618.39667  0.037369874  0.036885857           17 
 1380000    0.6995406      -5.1823    619.46689  0.037407421  0.036863236            7 
 1381000   0.71870997   -5.1642506    621.19393  0.037484548  0.036840738            7 
 1382000    0.7084451   -5.1429412    618.91837  0.037320211  0.036818206           11 
 1383000   0.70164649   -5.1737933    621.17857  0.037429415  0.036795685            9 
 1384000   0.70467656   -5.1323049    622.56542  0.037485875  0.036773332            6 
 1385000   0.70560686   -5.1646725    621.84007  0.037415167  0.036750839            4 
 1386000   0.71074902   -5.1778935    620.07635  0.037282128  0.036728227            6 
 1387000   0.70577463   -5.1355967    622.82726  0.037420528  0.036705624            8 
 1388000   0.71435393   -5.1480429    620.34862  0.037244754  0.036682914            7 
 1389000   0.70035778    -5.153409    621.92582  0.037312564  0.036660297            6 
 1390000   0.70014143   -5.1765834    621.83012  0.037279983  0.036637605           16 
 1391000   0.70149026   -5.1854632    618.76421  0.037069507  0.036614907           27 
 1392000   0.71031708   -5.1455346    621.27827  0.037193383  0.036592265           12 
 1393000   0.69892633   -5.1772613    621.15937   0.03715957  0.036569696            6 
 1394000    0.6999466   -5.1810376     619.3375  0.037024002  0.036547012           15 
 1395000   0.71503471   -5.1585933    619.34981  0.036998196   0.03652441           11 
 1396000   0.70821077   -5.1659076    622.80965  0.037178227  0.036502005            5 
 1397000   0.68761684   -5.1870549    620.95465   0.03704096  0.036479517            6 
 1398000   0.70800242   -5.2042998    623.30491  0.037154561   0.03645696            6 
 1399000   0.70617304   -5.1463419    623.38735  0.037132914  0.036434466           12 
 1400000    0.7031614   -5.1502784    623.46579  0.037111059  0.036412272           18 
 1401000   0.70666756   -5.1579357    621.96823  0.036995493  0.036390048            6 
 1402000   0.68560997   -5.1813602     623.6606  0.037069698  0.036367795            9 
 1403000   0.69178828   -5.1722963    623.51089  0.037034384  0.036345745            8 
 1404000   0.69706312   -5.1781286    625.02045  0.037097605  0.036323691           11 
 1405000   0.68379758   -5.1781107    624.04838  0.037013546  0.036301738           15 
 1406000   0.70010197   -5.1779083    624.90804  0.037038172  0.036279655            9 
 1407000   0.69575666   -5.1682413    624.36914   0.03697993  0.036257631           31 
 1408000   0.69707163   -5.1908197    625.74319   0.03703499  0.036235692           18 
 1409000   0.69007883    -5.192731    624.01897  0.036906729  0.036213634           21 
 1410000   0.67424101   -5.1637594    623.15632   0.03682957  0.036191551            7 
 1411000   0.67551497   -5.1701353    625.92074  0.036966734  0.036169496           15 
 1412000   0.70075711   -5.1815388    624.24448  0.036841624  0.036147428            8 
 1413000   0.70156516   -5.1909608    624.17534  0.036811473   0.03612532           12 
 1414000   0.68786716   -5.2125191    623.91133   0.03676988  0.036103074           13 
 1415000   0.69327453   -5.1699961    623.58096  0.036724438  0.036080988           10 
 1416000   0.70470829   -5.2022908    624.93315  0.036778081  0.036058878           11 
 1417000   0.68567758   -5.1912195    623.31456  0.036656937  0.036036721           14 
 1418000   0.67242069   -5.1861786    624.76217   0.03671616  0.036014519           18 
 1419000   0.69051787   -5.2095389    622.92174  0.036582202  0.035992236            6 
 1420000   0.68780565   -5.2123981    623.54686  0.036593126  0.035970106            7 
 1421000   0.69997125   -5.2156276    625.04019  0.036654949  0.035948015           22 
 1422000   0.69153098   -5.1699915    625.93363   0.03668153  0.035925972            5 
 1423000   0.69177255   -5.1704547    624.16695  0.036552293   0.03590394            6 
 1424000    0.6756998   -5.2140931    625.08196  0.036580171  0.035881819           15 
 1425000   0.67553972   -5.2019179    623.93063  0.036487172  0.035859701            7 
 1426000   0.68332724   -5.1979255    626.49033  0.036611169  0.035837647           12 
 1427000   0.67912313   -5.1805035    625.61836  0.036534592  0.035815772            5 
 1428000   0.68576223   -5.2082433    627.75298  0.036633577  0.035793905            8 
 1429000   0.68286582    -5.205557    626.55396   0.03653802  0.035772033           17 
 1430000   0.68186715   -5.2196013    625.22378  0.036434952  0.035750076           14 
 1431000   0.67441618    -5.219704    625.15513  0.036405493  0.035728099           12 
 1432000   0.67914094   -5.2082318    625.11047  0.036377471  0.035706031           11 
 1433000   0.66748202   -5.1953292    627.00494  0.036462255   0.03568408           11 
 1434000   0.69128438   -5.2265357    626.44476  0.036404275  0.035662184            9 
 1435000   0.69093939   -5.2196032    625.73185  0.036337506  0.035640106            9 
 1436000   0.68009131   -5.2104875    625.23145  0.036283162  0.035618122            8 
 1437000   0.66688407   -5.2396633    626.35562  0.036323105  0.035596312            9 
 1438000   0.68350443   -5.1969695    627.30422  0.036352817  0.035574376            9 
 1439000     0.690795   -5.2222736    626.49504  0.036280695  0.035552687            6 
 1440000   0.66534185    -5.184958    627.12871  0.036292171  0.035530921            9 
 1441000   0.65432819   -5.2307596    628.14901   0.03632599  0.035509127           16 
 1442000   0.67516333   -5.2195979    626.75455  0.036220212  0.035487358            4 
 1443000   0.67944167   -5.1965873     627.4765  0.036236804  0.035465459            3 
 1444000   0.65985084   -5.2196992     627.4292   0.03620898  0.035443689            5 
 1445000   0.67720378    -5.236988    626.10926  0.036107801  0.035421702            9 
 1446000   0.68922179   -5.2401916    625.06993  0.036022933  0.035399729           10 
 1447000   0.67690316   -5.2120467    627.39497  0.036131938  0.035377859           13 
 1448000    0.6690607   -5.2275311    626.71951  0.036068112  0.035356002           15 
 1449000   0.68068779   -5.2271392    626.95526  0.036056778  0.035334208            7 
 1450000   0.68994016   -5.2179724     627.8204  0.036081632  0.035312342           22 
 1451000   0.67479387   -5.2068547    627.53081  0.036040134  0.035290687           12 
 1452000   0.68263551   -5.2057852    627.29742  0.036001918   0.03526895            8 
 1453000   0.68104097   -5.1983949     628.1891  0.036028281  0.035247125           19 
 1454000     0.656826   -5.2439557    627.99474  0.035992362  0.035225371           16 
 1455000   0.67657217    -5.211857    628.68785  0.036007323  0.035203496            8 
 1456000   0.67920292   -5.2315322    627.55915  0.035917991  0.035181752            9 
 1457000   0.67657156   -5.2328926    628.15866  0.035927629  0.035159991            7 
 1458000   0.67417149   -5.2456289    626.73144  0.035821413  0.035138351            5 
 1459000   0.67334106   -5.2163415    630.58343  0.036016874  0.035116764           10 
 1460000   0.67348326   -5.1890342    629.14849  0.035910302  0.035095184           10 
 1461000    0.6798674   -5.1939457    631.26933  0.036006692  0.035073692           10 
 1462000   0.66901615   -5.2058879    630.14639  0.035918057  0.035052215            8 
 1463000   0.66763506   -5.2198916    630.67388  0.035923552  0.035030704            7 
 1464000    0.6785354   -5.2395375     628.4748  0.035773839  0.035009204           18 
 1465000    0.6794262   -5.2398863    628.57129  0.035754908   0.03498762            7 
 1466000   0.66551238   -5.2414667    630.15536  0.035820564   0.03496612           12 
 1467000   0.66563174    -5.241165    630.18824  0.035798014  0.034944651           16 
 1468000   0.67096935    -5.227396    629.59413  0.035739903  0.034923206           10 
 1469000   0.67323861   -5.2477471    629.12051  0.035688706  0.034901884           11 
 1470000   0.67112736   -5.2464452    630.26444  0.035729277  0.034880598            6 
 1471000   0.67889935   -5.2336791     630.2779   0.03570575  0.034859234            6 
 1472000   0.67749057   -5.2354648    630.69717  0.035705229  0.034837914            9 
 1473000   0.66049196     -5.27238    629.61386  0.035619703  0.034816546            7 
 1474000   0.67440702   -5.2243922    629.98087  0.035616286   0.03479532           12 
 1475000   0.67010377    -5.256661    631.83837  0.035697083  0.034774077            8 
 1476000   0.66652792   -5.2548816    629.71534  0.035553034  0.034752689            8 
 1477000   0.65871502   -5.2709628    631.43347  0.035625901  0.034731329           12 
 1478000   0.65139977   -5.2596648    628.89452  0.035458644  0.034709963            6 
 1479000   0.65811767   -5.2679944     630.4127  0.035520211  0.034688608           11 
 1480000   0.66984582   -5.2299427    630.72445  0.035513764  0.034667385            6 
 1481000   0.65713543   -5.2583873    630.75556  0.035491535  0.034646221            6 
 1482000   0.66561294   -5.2411117    631.61681  0.035516015  0.034625044           18 
 1483000   0.67131742   -5.2573748    632.87007   0.03556249  0.034603852           11 
 1484000   0.66268148   -5.2532496    631.97772  0.035488417  0.034582647           10 
 1485000   0.66639552   -5.2590987    631.68267  0.035447961  0.034561501           14 
 1486000   0.64752686   -5.2558306    632.14053  0.035449783  0.034540257           15 
 1487000   0.66787271    -5.242832     632.9129  0.035469228  0.034519005           11 
 1488000   0.65739806   -5.2456738    630.94844  0.035335374   0.03449784           17 
 1489000   0.65541158    -5.262166    631.44321  0.035339333  0.034476695            8 
 1490000    0.6673148   -5.2351433     630.1551  0.035243574  0.034455477            9 
 1491000   0.65871812   -5.2609135    633.33426  0.035397622  0.034434238           13 
 1492000    0.6675541   -5.2450173    629.97016  0.035186001  0.034413125            9 
 1493000   0.64572821   -5.2512606    632.51973   0.03530474  0.034392034            7 
 1494000   0.66068763   -5.2372391    634.38949  0.035385402  0.034370857           17 
 1495000   0.65022735   -5.2581215    631.74161  0.035214136  0.034349928            4 
 1496000    0.6543137   -5.2559189    632.45125  0.035230128  0.034328996           11 
 1497000   0.65300252   -5.2551755    632.79369  0.035225656  0.034307996           46 
 1498000   0.65675278   -5.2576249    632.97515  0.035212236  0.034287094           13 
 1499000   0.63788582   -5.2921854    632.71394  0.035174224   0.03426616           37 
 1500000   0.64161957   -5.2731958    632.25873  0.035125485  0.034245039           12 
 1501000   0.65446382   -5.2569519    633.92314  0.035194489  0.034224142           18 
 1502000   0.64903034    -5.282419    633.39894  0.035141974  0.034203216           13 
 1503000   0.65590409   -5.2317533    634.67615  0.035189407  0.034182259            8 
 1504000    0.6686207   -5.2549101    632.18155   0.03502779  0.034161304           12 
 1505000   0.66174971   -5.2848887    633.05598  0.035052934  0.034140395           21 
 1506000   0.66188044   -5.2831319    634.11983  0.035088525  0.034119411           13 
 1507000    0.6600129   -5.2842145    634.21148  0.035070309  0.034098413            8 
 1508000   0.65143553   -5.2663983    634.77833  0.035078378  0.034077394           19 
 1509000   0.65256702   -5.2806047    634.10279  0.035017826  0.034056445            6 
 1510000   0.63840659   -5.2681496    632.28516  0.034894325  0.034035409            9 
 1511000   0.66168357   -5.3056744    633.83107   0.03495649  0.034014309           10 
 1512000   0.63648588   -5.2743432    634.50878  0.034970722  0.033993325            9 
 1513000   0.66307291   -5.2755912    634.01797  0.034920576  0.033972402           12 
 1514000   0.64799058   -5.2609169    633.73095  0.034881712  0.033951328           14 
 1515000   0.65069047   -5.2764992    632.87834   0.03481179  0.033930259            8 
 1516000   0.65634904   -5.2821772    633.33704  0.034814041  0.033909154           19 
 1517000   0.65639029   -5.2762651    633.13232  0.034779846  0.033888048           11 
 1518000   0.63745391   -5.2818266    632.83081  0.034740383  0.033866995           23 
 1519000   0.64860278   -5.2840587     633.5326  0.034756013  0.033845945            8 
 1520000   0.65109701    -5.277947    635.54702  0.034843587  0.033824893            8 
 1521000   0.62817687   -5.2621297    633.23627  0.034694076  0.033803745            5 
 1522000   0.62095214   -5.2949214    633.68769  0.034695997  0.033782613            7 
 1523000   0.64745716    -5.286205    631.61031  0.034559549  0.033761415           12 
 1524000   0.64391948   -5.3057988    631.38975  0.034524811  0.033740257           36 
 1525000    0.6531686   -5.2778374    634.25768  0.034658889  0.033719083            7 
 1526000   0.65689326   -5.2869494    633.05244   0.03457036  0.033698022           10 
 1527000   0.63839855   -5.2968113    633.71716  0.034583997  0.033676926            5 
 1528000   0.64489509   -5.3015828    634.23591  0.034589655  0.033655926           11 
 1529000   0.63693312   -5.2869623    634.45453  0.034578948   0.03363511            8 
 1530000   0.64106025   -5.2878408    634.04034  0.034533788  0.033614187            9 
 1531000   0.65776754   -5.2758074    633.64741  0.034489844  0.033593263           11 
 1532000   0.64111379   -5.2891782    634.33227  0.034504584  0.033572183           19 
 1533000   0.63604876   -5.2930624    633.72377  0.034448998  0.033551356           18 
 1534000   0.63042758   -5.2924401    634.36467  0.034461357  0.033530364           11 
 1535000   0.64759157   -5.3246465    632.25172  0.034324198  0.033509345           20 
 1536000   0.62900136   -5.2746268    633.62983  0.034376618  0.033488338           11 
 1537000   0.64407798     -5.29954     632.9837   0.03431922  0.033467353           18 
 1538000   0.64017954   -5.3093039     631.8465  0.034235289  0.033446274            8 
 1539000   0.63180728   -5.3128279    633.46037  0.034300431   0.03342521            8 
 1540000   0.63037123   -5.2867851    634.38942  0.034328432  0.033404144           12 
 1541000   0.64757737   -5.2941573    632.56883  0.034207702  0.033383109           18 
 1542000   0.63864858   -5.3033115    633.73577  0.034248582  0.033362151           21 
 1543000   0.63613126   -5.3169365    632.99017  0.034186119  0.033340986            7 
 1544000   0.63729689   -5.2836158    634.70576  0.034256572  0.033319906            8 
 1545000   0.63124953   -5.2967908    633.33682  0.034160562  0.033298826           23 
 1546000   0.63877661   -5.3265065    634.22288  0.034186227  0.033277838           20 
 1547000   0.64370708   -5.3246113    634.41917  0.034174702  0.033256912            7 
 1548000   0.62082742   -5.3027678    634.58891  0.034161763  0.033235995           19 
 1549000   0.63873234    -5.316259    636.04391  0.034217985  0.033215013           21 
 1550000   0.62772267   -5.3035265    634.00828  0.034086466  0.033194104           16 
 1551000   0.62439689    -5.294399    635.43035  0.034140896  0.033173158           34 
 1552000   0.63705135   -5.2772951    636.27811  0.034164417  0.033152317           10 
 1553000   0.64692081   -5.3035154    636.67762  0.034163856  0.033131541           16 
 1554000   0.63686226   -5.3265265    633.28329   0.03395985  0.033110662           15 
 1555000   0.63623723   -5.3322944    634.96868  0.034028332  0.033089782            7 
 1556000   0.62651156   -5.3163297    634.28096  0.033969632  0.033068955            9 
 1557000    0.6351337   -5.3170454    634.73257  0.033971985  0.033048204           13 
 1558000   0.63903725   -5.3133083    634.69534  0.033948189  0.033027546           11 
 1559000   0.62377274   -5.3228879    635.69753  0.033979984  0.033006827            5 
 1560000   0.63147418   -5.2996975    636.86537  0.034020586  0.032986231            9 
 1561000   0.63978597   -5.3222287    635.94294  0.033949549  0.032965572            7 
 1562000   0.63087916   -5.3045302    637.52353  0.034012139  0.032944938            6 
 1563000   0.63099644   -5.3205788    636.14067  0.033916649  0.032924272            7 
 1564000   0.63624377   -5.3311708    636.74729  0.033927285  0.032903632            7 
 1565000   0.63241369   -5.3230099    636.41201  0.033887753  0.032883009            7 
 1566000   0.62399339   -5.3345857    636.51632  0.033871665  0.032862376            6 
 1567000   0.61826114   -5.3322649    636.89505   0.03387019  0.032841661           12 
 1568000   0.62133144   -5.3285085    637.52241  0.033881931  0.032821122           14 
 1569000    0.6322384   -5.3194517    635.92618  0.033775557  0.032800602           11 
 1570000   0.63769111   -5.3308602    635.78845  0.033746733  0.032780088           16 
 1571000   0.61430519   -5.3367847    635.86076  0.033729088  0.032759575            8 
 1572000   0.61021508   -5.3235983    636.37219  0.033734743  0.032739122           24 
 1573000   0.63720871   -5.3406132    637.56986  0.033776746   0.03271862           12 
 1574000   0.61180615   -5.3332233     636.5794  0.033702849  0.032698121           22 
 1575000   0.62909333   -5.3167792    637.47286  0.033728723  0.032677692           38 
 1576000    0.6344787   -5.3474828    638.79661  0.033777316  0.032657308           21 
 1577000    0.6168916   -5.3212384    637.38799  0.033681462  0.032636843           15 
 1578000   0.62392407   -5.3293003    636.42838  0.033609441  0.032616382            9 
 1579000   0.61271263   -5.3252992    637.66684  0.033653517  0.032595887           10 
 1580000   0.62232492   -5.3562709    639.01815  0.033703489  0.032575448           21 
 1581000   0.62340493   -5.3437355    636.24835  0.033536177  0.032554969           17 
 1582000   0.62341723   -5.3482817    637.43393   0.03357743  0.032534415           14 
 1583000   0.61901661   -5.3515053    637.99623   0.03358582   0.03251404           20 
 1584000   0.63162872   -5.3261453    636.74505  0.033498793  0.032493633           18 
 1585000   0.62478467   -5.3331518    638.18255  0.033553236  0.032473194            9 
 1586000   0.62605794   -5.3337643    637.98713  0.033521812   0.03245293           12 
 1587000   0.60995578   -5.3222306    637.87808  0.033494963  0.032432727            8 
 1588000   0.62492945    -5.325774    639.32196  0.033549641  0.032412529            8 
 1589000   0.62182198   -5.3458877     639.4668  0.033536123   0.03239228           15 
 1590000   0.61477738   -5.3334687    639.05773  0.033493592  0.032372107           10 
 1591000   0.61191482   -5.3370734    640.17448  0.033531033  0.032351999           12 
 1592000   0.61397619   -5.3393353    638.49822  0.033422227  0.032331867           11 
 1593000   0.61272372   -5.3662171    637.85922  0.033367819  0.032311754           25 
 1594000   0.60681962   -5.3291455    637.92513  0.033350331  0.032291509           18 
 1595000   0.61621908   -5.3622847    637.56207  0.033310453  0.032271186           50 
 1596000   0.62112418   -5.3500736    638.76619  0.033352454  0.032250965           12 
 1597000   0.61351409   -5.3260397    638.74131  0.033330271   0.03223072           11 
 1598000   0.62316332    -5.364053    637.92633  0.033266913  0.032210417           14 
 1599000   0.61183908   -5.3488404    638.31055  0.033266133  0.032190205           13 
 1600000   0.62144968   -5.3406617    639.93863  0.033330137  0.032169992            6 
 1601000    0.6183189   -5.3799128    638.75984  0.033247962  0.032149829            7 
 1602000   0.62181981   -5.3532499    638.48982  0.033213162  0.032129699           15 
 1603000   0.62043379   -5.3454293    638.86916  0.033212163  0.032109502            9 
 1604000   0.60759652   -5.3503723    639.80309  0.033239977  0.032089345            8 
 1605000   0.61347115   -5.3535213    638.29073  0.033140744  0.032069215           10 
 1606000   0.61209049   -5.3693318    638.51979  0.033131994  0.032048973            9 
 1607000   0.60452527   -5.3600333    638.98223  0.033135357   0.03202875           10 
 1608000   0.62068216   -5.3758264    638.04615  0.033066239   0.03200856           13 
 1609000   0.60358709   -5.3727168    638.61097  0.033074941  0.031988284            6 
 1610000   0.61769898   -5.3541266    637.27326  0.032985158  0.031967905           28 
 1611000   0.60823035   -5.3755015    636.61558  0.032930663   0.03194757           22 
 1612000   0.61250229   -5.3870597    636.42707   0.03290049  0.031927228           34 
 1613000    0.6078426   -5.3747954    638.08713  0.032965857   0.03190689           20 
 1614000   0.61005996    -5.371862    640.26083  0.033057664  0.031886516           11 
 1615000   0.60818486   -5.3825257    638.08354  0.032924847  0.031866265           17 
 1616000   0.61707919   -5.3820973    637.21102  0.032859479  0.031846004           17 
 1617000   0.60853055   -5.3777513    637.67048  0.032862836  0.031825727           19 
 1618000   0.61270306   -5.3620727    639.70739  0.032947435  0.031805469           19 
 1619000   0.60950078   -5.3883589     637.6952  0.032823513  0.031785218           15 
 1620000   0.59169569   -5.3773755    637.99776  0.032818815  0.031764945           26 
 1621000   0.60508723   -5.3661593     638.3399  0.032816158  0.031744802           14 
 1622000   0.61887657   -5.3811033    639.05902  0.032832872  0.031724558           11 
 1623000   0.59931368   -5.3636007    637.43686  0.032729352  0.031704311           21 
 1624000   0.61376657   -5.3679668    637.89696  0.032732808  0.031684096           19 
 1625000   0.58967723   -5.3867956    636.69029  0.032650784  0.031663847           12 
 1626000   0.60161056   -5.3914181    637.42096  0.032668151  0.031643605            9 
 1627000   0.60542522   -5.3929952    637.70861  0.032662806  0.031623405           25 
 1628000   0.60364895   -5.3680666    639.07088  0.032712473  0.031603241           11 
 1629000   0.59833369   -5.3824505    638.48961  0.032662656  0.031583075           15 
 1630000   0.59990624   -5.3524996    639.38378  0.032688332  0.031562995           22 
 1631000   0.60781931   -5.3804003    639.01529  0.032649463  0.031542802           21 
 1632000    0.6022448   -5.3736626    638.51233  0.032603775  0.031522672            7 
 1633000    0.5919734   -5.3676365     638.3001  0.032572979  0.031502565           10 
 1634000   0.61120847   -5.3898269    638.74172  0.032575567  0.031482453           18 
 1635000   0.60026127   -5.3734304    637.96439  0.032516024   0.03146229           10 
 1636000   0.61116537   -5.3721185    639.71758  0.032585451  0.031442201           17 
 1637000   0.59858233   -5.3820332     639.7842  0.032568937  0.031422234            8 
 1638000   0.60300211   -5.3697249    638.45996  0.032481683  0.031402273           10 
 1639000   0.60840931   -5.3909683    639.43126   0.03251125  0.031382285           30 
 1640000   0.59036671   -5.3812997    640.39313  0.032540301  0.031362356           20 
 1641000   0.59470596   -5.3881769    640.86086  0.032544224  0.031342392            9 
 1642000    0.5883879   -5.3951506    640.36561   0.03249927  0.031322515            9 
 1643000   0.60808517   -5.3904845     639.3986  0.032430442  0.031302611           36 
 1644000   0.58681695   -5.4005726    639.38551  0.032410052  0.031282656           13 
 1645000   0.59876376   -5.3732148    638.73136  0.032357212  0.031262639           21 
 1646000   0.60836631   -5.4129274    639.31327  0.032367014  0.031242727           19 
 1647000   0.59660344   -5.3928523    639.72732  0.032368312   0.03122283           20 
 1648000   0.59545546   -5.3668028    638.60827  0.032292085  0.031203006           14 
 1649000   0.59073407   -5.4162965    640.05922  0.032345827  0.031183143           13 
 1650000   0.59507359   -5.3701932    641.17479  0.032382565  0.031163328           12 
 1651000   0.60312968   -5.3822502    640.30711  0.032319156  0.031143572           10 
 1652000   0.59584558   -5.4270809    639.12017  0.032239718   0.03112364           10 
 1653000   0.58730979   -5.4021724    639.17647  0.032223052  0.031103656            9 
 1654000   0.60784362    -5.419358    639.53039  0.032221402  0.031083746           13 
 1655000   0.59321756   -5.4160867    640.59767  0.032255673  0.031063864           11 
 1656000   0.58935703   -5.4048325     640.5787   0.03223524  0.031044025           23 
 1657000   0.58846199   -5.3844093    640.81352  0.032227596  0.031024281           31 
 1658000   0.58999268   -5.3977597    640.31035  0.032182868  0.031004651           22 
 1659000   0.61161846   -5.4023381    640.05966  0.032150877  0.030984966           14 
 1660000   0.58847441   -5.4200978     639.0972  0.032083193    0.0309652           42 
 1661000   0.58676337   -5.4073048    640.51108  0.032134812  0.030945384           46 
 1662000    0.5958286   -5.4058163     638.9357  0.032036487   0.03092558           23 
 1663000   0.59439147   -5.4143648     640.8812  0.032114712  0.030905819            9 
 1664000   0.59034023   -5.4201252    639.18561  0.032010497  0.030885981           22 
 1665000   0.58722273   -5.4124136    640.51947  0.032058031  0.030866252           24 
 1666000   0.59130749   -5.3979324    640.94083  0.032059866  0.030846446           56 
 1667000   0.59383026   -5.4314711    638.99637   0.03194343  0.030826701           11 
 1668000   0.57698041   -5.4270404    640.87728  0.032018249  0.030806916           25 
 1669000   0.59627966    -5.416572    640.83496  0.031996952  0.030787195           19 
 1670000   0.57864484   -5.4316553    639.58331  0.031915335   0.03076745           21 
 1671000   0.59138349   -5.4118893     639.7646  0.031905277  0.030747709           15 
 1672000   0.57922081   -5.4215692    639.79513  0.031887716  0.030727981           37 
 1673000   0.57896518   -5.4361069    639.35459  0.031846712    0.0307082           19 
 1674000   0.58313882    -5.427195    638.60688  0.031790466  0.030688432           15 
 1675000   0.59844407    -5.414784    639.79346   0.03183052  0.030668699            8 
 1676000   0.59049085   -5.4094705    641.15547   0.03187925  0.030649078           11 
 1677000   0.59220766   -5.4240558    640.46442    0.0318259  0.030629393           25 
 1678000   0.57357547   -5.4260842     639.1666  0.031742481  0.030609676           45 
 1679000   0.58625464    -5.404999    638.21956  0.031676571  0.030589861           16 
 1680000   0.57566251   -5.4378653     641.1736  0.031804246  0.030570046           14 
 1681000   0.58644786   -5.4198495    639.64964  0.031709778  0.030550276           12 
 1682000   0.57904338   -5.4150726    640.69369  0.031742652  0.030530517           13 
 1683000    0.5826803   -5.4212745    641.01155   0.03173953  0.030510734            7 
 1684000   0.58441443   -5.4242477    640.37821  0.031689341  0.030490997            8 
 1685000   0.58591278   -5.4275202    639.72729  0.031638342  0.030471203           19 
 1686000    0.5780693   -5.4401863    639.98139  0.031632137  0.030451397           24 
 1687000   0.58956391    -5.422675    640.24226  0.031626273  0.030431711           16 
 1688000   0.57979457   -5.4362398    640.50711  0.031620612  0.030412052           14 
 1689000   0.58032675   -5.4191091    640.26479  0.031589934  0.030392376            9 
 1690000   0.57720229   -5.4146105    641.13481  0.031614143  0.030372724           16 
 1691000   0.57646195   -5.4229286    640.23805  0.031551254  0.030353077           13 
 1692000   0.58184433   -5.4307619    639.30231   0.03148652  0.030333491           18 
 1693000   0.58079929    -5.422857    641.12807   0.03155779   0.03031398            8 
 1694000   0.56855458   -5.4318298    640.07812  0.031487511  0.030294418           14 
 1695000   0.56424457   -5.4361663    639.87298  0.031458848  0.030274889           15 
 1696000   0.57477148   -5.4316893    639.80054  0.031436741  0.030255264           16 
 1697000   0.57668448   -5.4492224     639.4392  0.031400471  0.030235687           21 
 1698000   0.55883454   -5.4616655    640.84691  0.031451065  0.030216194           15 
 1699000    0.5759937   -5.4418656    640.62975  0.031421903  0.030196691           14 
 1700000   0.57946975   -5.4353281    640.25588  0.031385092   0.03017728           20 
 1701000   0.56202084   -5.4413425    641.16414  0.031411138  0.030157881           17 
 1702000   0.57666781   -5.4264096    641.86745  0.031427117  0.030138528           20 
 1703000    0.5782704   -5.4231162    642.21601   0.03142572  0.030119208           17 
 1704000   0.56905888   -5.4505765    642.24633   0.03140876  0.030099884            8 
 1705000   0.56934977   -5.4609079    640.26512  0.031293506  0.030080557           12 
 1706000   0.57858666   -5.4323582    642.37293  0.031378123  0.030061289           38 
 1707000   0.57006471    -5.458773    642.36243  0.031359228  0.030041996           57 
 1708000   0.56339814   -5.4240044    642.25365   0.03133556  0.030022716           19 
 1709000   0.54814537    -5.443397     642.3901  0.031323878  0.030003504           20 
 1710000   0.57783994   -5.4492866    641.43052  0.031258797  0.029984173           13 
 1711000   0.57017656   -5.4643903    639.40778  0.031142012  0.029964769           17 
 1712000   0.54889336   -5.4498024    642.02326  0.031251132  0.029945436           12 
 1713000   0.57950976   -5.4291862    643.61416  0.031310282  0.029926214            6 
 1714000   0.57519641   -5.4349982    642.86616  0.031255647  0.029906963           17 
 1715000    0.5762689   -5.4553371    642.67834  0.031228296  0.029887666           33 
 1716000    0.5662586   -5.4535291    640.80481  0.031119114  0.029868392           18 
 1717000   0.56309087   -5.4456763    641.11251  0.031115924   0.02984912           13 
 1718000   0.55649212   -5.4715954    642.29836  0.031155334   0.02982985           12 
 1719000   0.56855639   -5.4645653    642.60342  0.031151998  0.029810591           17 
 1720000   0.56104023   -5.4659223    641.70759  0.031090484   0.02979131           23 
 1721000   0.56895623   -5.4611226    642.77678   0.03112419     0.029772           42 
 1722000   0.56969311   -5.4666804    641.88732  0.031063072  0.029752733           19 
 1723000   0.56637796   -5.4547495    641.29586  0.031016437  0.029733471           38 
 1724000   0.57294309   -5.4461785    641.34911   0.03100102  0.029714248           11 
 1725000   0.56510988   -5.4644245    640.56282  0.030945064  0.029694985           22 
 1726000   0.56161135   -5.4731057     639.4185  0.030871886  0.029675624           16 
 1727000   0.56211767   -5.4462532    641.35893  0.030947642  0.029656294           27 
 1728000   0.57596068   -5.4819926    639.69604  0.030849539  0.029637031           20 
 1729000   0.56368735   -5.4552492    641.44798  0.030916136  0.029617792           12 
 1730000   0.55048658   -5.4559182    643.26552  0.030985815  0.029598665           13 
 1731000   0.56843425   -5.4549869    642.27959   0.03092045  0.029579542           17 
 1732000   0.56876605   -5.4727358     640.0966  0.030797565  0.029560322           15 
 1733000   0.56562409   -5.4870061    643.51727  0.030944281  0.029541179           21 
 1734000    0.5637987   -5.5012224    640.90182  0.030800741  0.029521985           20 
 1735000   0.56964647   -5.4730292    641.15669   0.03079523  0.029502836           18 
 1736000   0.54931685   -5.4461902    642.07897  0.030821763  0.029483756           18 
 1737000   0.56133556    -5.479615    641.00937  0.030752704  0.029464619           26 
 1738000   0.55450508   -5.4615649    642.61914  0.030812195  0.029445534           24 
 1739000   0.56508391   -5.4768064    641.35153  0.030733732  0.029426472           24 
 1740000   0.57239673   -5.4682647    640.88546  0.030693748  0.029407416           20 
 1741000   0.54993286    -5.476469     642.0367  0.030731222  0.029388381           31 
 1742000   0.54829351   -5.4761692    641.68893  0.030696945  0.029369321           27 
 1743000   0.55020974   -5.4588452    642.28482  0.030707823  0.029350202           15 
 1744000   0.55814189   -5.4800681     641.0363  0.030630557  0.029331121           17 
 1745000   0.55754181   -5.4654886     640.3196  0.030578777  0.029312014           39 
 1746000   0.54908687   -5.4803236    640.78478  0.030583466  0.029292883           14 
 1747000   0.56180789   -5.4960205    640.23315  0.030539647  0.029273813           11 
 1748000   0.55429598   -5.4731912    641.09605  0.030563313  0.029254719           14 
 1749000   0.55105231   -5.5022012     640.3208    0.0305089  0.029235739           42 
 1750000   0.55374004   -5.4967222    641.46882  0.030546134  0.029216772           20 
 1751000   0.55824733   -5.4946859    642.72333  0.030588394   0.02919776           28 
 1752000   0.55662558   -5.4840651    641.81652  0.030527803  0.029178783           26 
 1753000   0.55322705   -5.4786196    641.34077  0.030487772  0.029159827           19 
 1754000   0.55510117   -5.4929593    642.91521  0.030545193  0.029140842            8 
 1755000   0.56261513   -5.4915338    639.96064  0.030387495  0.029121901           21 
 1756000   0.54737933   -5.4747435    641.07191  0.030422926  0.029102928           30 
 1757000   0.55566785   -5.5058523    640.67521  0.030386796   0.02908391           20 
 1758000    0.5569281   -5.4878349    639.57928  0.030317562  0.029064924           53 
 1759000   0.56356816   -5.4973593     640.3001  0.030334475  0.029045878           15 
 1760000   0.54007699   -5.5004227    640.49751  0.030326586  0.029026782           15 
 1761000   0.55831455   -5.4878985    641.61821  0.030362399  0.029007742           38 
 1762000    0.5516804   -5.4884846    641.94189  0.030360475  0.028988833           20 
 1763000   0.55346503   -5.4784947    640.89645  0.030293838  0.028969878           34 
 1764000   0.54166506   -5.5065502    641.51945  0.030306096  0.028950888           43 
 1765000   0.54839668   -5.5208047    640.78373  0.030254189  0.028931916           40 
 1766000   0.54833511   -5.4843568    641.18559  0.030256021  0.028912976           29 
 1767000   0.54129971   -5.5069755    641.26386  0.030242589  0.028894049           52 
 1768000   0.53626577   -5.4830603    641.03986  0.030214926  0.028875125           33 
 1769000   0.55333562   -5.4921295    641.77173  0.030232322  0.028856228           36 
 1770000   0.54265744   -5.4984229    640.81304  0.030170105  0.028837379           64 
 1771000   0.54992381   -5.5121387    641.81623  0.030200274  0.028818476           54 
 1772000   0.54658961   -5.5130212    639.39184  0.030069217  0.028799523           49 
 1773000   0.53455395   -5.5221485    639.75544  0.030069348  0.028780581           52 
 1774000   0.53422179   -5.4901521    640.88302  0.030105365  0.028761599           33 
 1775000   0.54416701   -5.5087742    640.13193  0.030053142  0.028742652           62 
 1776000   0.54561353   -5.5284105    641.95808  0.030121907  0.028723773           12 
 1777000   0.55018962   -5.5151558    640.18101  0.030021619  0.028704867           15 
 1778000   0.53068446   -5.5263652    640.83986  0.030035614  0.028686012           37 
 1779000   0.54604425   -5.5075335    640.91067  0.030022047  0.028667181           29 
 1780000   0.55225901   -5.5010725     641.1268    0.0300153  0.028648395           22 
 1781000   0.53121066   -5.5101218    642.43699  0.030059751  0.028629639           15 
 1782000   0.53712294    -5.501759    641.01402  0.029976338   0.02861086           21 
 1783000   0.54372918   -5.5047742    641.35041  0.029975248  0.028592109           17 
 1784000   0.54141103   -5.5338788    640.70195  0.029928155  0.028573355           13 
 1785000   0.53030609   -5.5075269    640.59741  0.029906509  0.028554546           25 
 1786000   0.52458172   -5.5211398    641.71194  0.029941766  0.028535787           16 
 1787000   0.52969766    -5.511045    639.61211   0.02982709  0.028517047           26 
 1788000   0.54031529   -5.5422124    640.40335  0.029847285  0.028498306           37 
 1789000   0.54561366   -5.5263291    641.19488  0.029867472  0.028479531           18 
 1790000   0.53656814   -5.5328604    641.02782  0.029843008  0.028460723           33 
 1791000   0.54163327    -5.524591    640.65703  0.029809093   0.02844189           33 
 1792000   0.53807691   -5.5171754    639.72506  0.029749119  0.028423103           15 
 1793000   0.53087608   -5.5086353    639.95512   0.02974322  0.028404318           30 
 1794000   0.53795832   -5.5329384    641.02419    0.0297763  0.028385587           43 
 1795000   0.53524242   -5.5308955    640.20425  0.029721646  0.028366843           55 
 1796000   0.53680173   -5.5286567    639.43093  0.029669216  0.028348118           74 
 1797000   0.54157597   -5.5372915    642.55981  0.029797803  0.028329363           18 
 1798000   0.53562739    -5.516718    640.86398  0.029702631  0.028310619           19 
 1799000     0.534716   -5.5281211    639.75714   0.02963485  0.028291915           24 
 1800000   0.54502142   -5.5152259    642.26943  0.029734696  0.028273213           15 
 1801000   0.53407114   -5.5254612    641.26127  0.029671537  0.028254631           19 
 1802000   0.52423706   -5.5362865    640.29722  0.029610489  0.028236048           38 
 1803000    0.5258033   -5.5265167    642.14294  0.029679374  0.028217469           22 
 1804000    0.5351388   -5.5451023    641.91625  0.029652451  0.028198869           28 
 1805000   0.53825038   -5.5280194    641.23721  0.029604672  0.028180262           17 
 1806000   0.53887465   -5.5200858    642.01068   0.02962397  0.028161708           18 
 1807000    0.5443981   -5.5374539    641.56186  0.029586878  0.028143175           22 
 1808000   0.53645489   -5.5363745    642.66692  0.029621447  0.028124646           45 
 1809000   0.53458429   -5.5442631    641.16477  0.029535875  0.028106103           38 
 1810000   0.51892388   -5.5605802    638.89434  0.029415025  0.028087405           16 
 1811000   0.52992741   -5.5366348    639.89716  0.029444927  0.028068704           10 
 1812000   0.52919777   -5.5463892    640.08199  0.029437178  0.028050049           10 
 1813000   0.51864225   -5.5432364     640.6146  0.029445422  0.028031393           12 
 1814000   0.51166316   -5.5610158    639.24581  0.029366309  0.028012758           15 
 1815000   0.51568589   -5.5512847    639.83078  0.029376987  0.027994048           14 
 1816000   0.52196806   -5.5441365    639.08802  0.029326726  0.027975365            8 
 1817000   0.51301927   -5.5686822    639.89506    0.0293476  0.027956739           21 
 1818000   0.53664063   -5.5599715    640.22773  0.029346706  0.027938126           21 
 1819000   0.51830548   -5.5616993    640.13539  0.029326342  0.027919539           40 
 1820000   0.53016501   -5.5715167    639.15773  0.029265464  0.027900891           52 
 1821000   0.52167518   -5.5580739    640.59667  0.029315242  0.027882283           26 
 1822000   0.51766543   -5.5413855    639.74082  0.029260008  0.027863659           55 
 1823000   0.52706342   -5.5617051    638.97704  0.029209044  0.027845026           30 
 1824000   0.52516554   -5.5779868    639.72224  0.029227076  0.027826453           18 
 1825000   0.53396916   -5.5759092    639.90638  0.029219469  0.027807892           14 
 1826000   0.52632119   -5.5580688    639.37054  0.029179014  0.027789351           26 
 1827000    0.5115942   -5.5804838    639.07471  0.029149549  0.027770776           17 
 1828000    0.5149569   -5.5768376     639.0716  0.029133461  0.027752229           15 
 1829000   0.53103734   -5.5569402    640.09589  0.029164201  0.027733669           26 
 1830000   0.52412968   -5.5838603    640.74694  0.029177912  0.027715107           16 
 1831000   0.51775689   -5.5627054    639.40565  0.029100931  0.027696572           22 
 1832000   0.51878944   -5.5751119    639.69454  0.029098187  0.027678101           19 
 1833000   0.51469326   -5.5557873    641.03638  0.029143316  0.027659617           21 
 1834000   0.53029069   -5.5573947    639.82672  0.029072461  0.027641192           10 
 1835000   0.51437584   -5.5621629    640.66613  0.029094738  0.027622809           22 
 1836000   0.52477585   -5.5605598    640.40899   0.02906722  0.027604352           24 
 1837000   0.52678608   -5.5584255    638.74054   0.02897571  0.027585921           26 
 1838000    0.5097221   -5.5941225    639.42255  0.028990866  0.027567452           30 
 1839000   0.51838217   -5.5660795      639.108  0.028960848  0.027548933           14 
 1840000   0.52939141   -5.5769787    639.90132  0.028981038  0.027530488           15 
 1841000   0.51363486   -5.5557858    641.83713  0.029052921  0.027512057           14 
 1842000   0.51672923   -5.5607233    638.91125   0.02890478  0.027493662           27 
 1843000    0.5042195   -5.5948844    639.31602  0.028907398  0.027475237           36 
 1844000   0.52158959   -5.5784334    639.90698  0.028918428  0.027456815           34 
 1845000   0.51479886   -5.5763442    639.79175   0.02889755  0.027438405           54 
 1846000   0.50673645   -5.5772284    639.20163  0.028855256  0.027419989           26 
 1847000   0.51037493   -5.5814927    640.18356  0.028883936  0.027401601           52 
 1848000   0.51041773   -5.5940585    639.07655  0.028818387  0.027383183           32 
 1849000    0.5251336   -5.6017624    637.69585  0.028740574  0.027364794           47 
 1850000   0.50939142   -5.5834568    638.20928  0.028748166  0.027346424           52 
 1851000   0.51324085   -5.5845775    638.77569  0.028758135  0.027328043           69 
 1852000   0.51160357   -5.5894252    639.36827  0.028769271  0.027309668          110 
 1853000   0.51495951   -5.5898588    639.38142  0.028754336  0.027291352           93 
 1854000   0.51208578   -5.5655501    638.85829  0.028715313   0.02727306           53 
 1855000   0.51024144   -5.5963132    639.29993  0.028719673  0.027254801           76 
 1856000    0.5038532   -5.5905128    639.61899  0.028718525  0.027236485           59 
 1857000   0.51624633   -5.5893261    639.72119  0.028707646  0.027218164           55 
 1858000    0.5062683   -5.5886408    641.47084  0.028770669  0.027199892           63 
 1859000   0.51624834   -5.5850938    638.94113  0.028641794  0.027181585           64 
 1860000   0.51386923   -5.6035547    638.43346   0.02860365  0.027163315          100 
 1861000   0.51751724   -5.6237691    639.10872  0.028618517  0.027144986           70 
 1862000   0.50356393   -5.5870678    639.53219    0.0286221  0.027126652           92 
 1863000    0.5234927   -5.5786071    639.97028  0.028626332  0.027108372           90 
 1864000   0.50381008   -5.6006601    638.32021  0.028537205  0.027090121           71 
 1865000   0.51214699   -5.5911712    639.50365  0.028574783  0.027071858           64 
 1866000   0.51895945   -5.6059225    638.52467   0.02851575  0.027053627           67 
 1867000   0.51385048   -5.5978935    639.27906  0.028534148  0.027035427           79 
 1868000   0.49955337   -5.5925538    638.64254  0.028490477   0.02701724           58 
 1869000     0.508793   -5.5993508    640.00036  0.028535775  0.026999057          106 
 1870000   0.50949244   -5.5986469    638.86212  0.028469791  0.026980919           53 
 1871000   0.50871298   -5.5847393    640.58963  0.028531517  0.026962762           45 
 1872000   0.51263412   -5.5951595    638.83714  0.028438263   0.02694462           74 
 1873000   0.49450872   -5.5930804    638.72185   0.02841795  0.026926523           67 
 1874000   0.50739724   -5.5911294    638.06206  0.028373446  0.026908391           46 
 1875000   0.51333071   -5.5875964    638.98966  0.028399541  0.026890254           50 
 1876000   0.51123082   -5.6106602    638.91039  0.028380881  0.026872124           81 
 1877000   0.50031883   -5.6042208    639.07515  0.028373075  0.026853999           78 
 1878000   0.50437459    -5.604348    638.03035  0.028311606  0.026835876           62 
 1879000   0.50281083   -5.5938812    638.80404  0.028330851  0.026817746           76 
 1880000   0.49783935   -5.6095818    637.88631  0.028275102  0.026799608           40 
 1881000   0.50612893   -5.6261449    637.61557  0.028248076   0.02678143           70 
 1882000   0.50686675   -5.6164167    639.61417  0.028321563  0.026763284           39 
 1883000   0.50621088   -5.6235564    639.05275  0.028281676  0.026745244          133 
 1884000    0.5016697   -5.6013643    637.35695  0.028191656  0.026727189           22 
 1885000   0.49446137   -5.6117513    640.61323  0.028320656  0.026709123           64 
 1886000   0.50331236   -5.6102325    639.44502  0.028254022  0.026691091          126 
 1887000   0.50290369   -5.6154671    638.63037  0.028203072  0.026673076          102 
 1888000   0.50491844   -5.6037413    637.93783  0.028157567  0.026655029           52 
 1889000   0.51250921   -5.6047244    639.29311  0.028202449   0.02663699           78 
 1890000   0.49754908   -5.6093283    638.19351  0.028139044  0.026619001          105 
 1891000   0.49269665   -5.6150387    637.24125  0.028082198  0.026601009           59 
 1892000   0.49898921   -5.5990573    639.47757  0.028165855  0.026583039          114 
 1893000   0.49737973   -5.6052909    638.28696  0.028098563  0.026565071          179 
 1894000   0.49063919   -5.6161801    640.31666  0.028173031  0.026547127          136 
 1895000   0.49652826   -5.6081338    638.37548  0.028072801  0.026529193           89 
 1896000   0.49889467   -5.6191033    639.41994    0.0281039  0.026511292           88 
 1897000   0.50540561   -5.6387872    638.71434  0.028058089  0.026493356          113 
 1898000   0.49086604   -5.6205126    638.11678   0.02801707  0.026475395          105 
 1899000   0.49466897   -5.6252591    637.90137  0.027992863  0.026457454           52 
 1900000   0.48843827    -5.615057    639.17697  0.028034078  0.026439539           51 
 1901000   0.50058104   -5.6249534    636.29076  0.027892809  0.026421593           59 
 1902000   0.47819605   -5.6310759    638.67693  0.027982691  0.026403658           96 
 1903000   0.48561271   -5.6351586    638.43063  0.027957201  0.026385727           54 
 1904000    0.4910399   -5.6252564    638.15086  0.027930272  0.026367814           59 
 1905000   0.49663808   -5.6286728    637.60467  0.027891718  0.026349902           59 
 1906000   0.50383838   -5.6407926    637.11562  0.027855702  0.026331969           49 
 1907000   0.49572787   -5.6255788    637.92624  0.027876518  0.026314029           50 
 1908000   0.49082806   -5.6432711    636.65994  0.027806601  0.026296098           84 
 1909000   0.48819553   -5.6615851    637.84913  0.027843947  0.026278166           47 
 1910000   0.47859115   -5.6498489    636.84885  0.027785726  0.026260199           86 
 1911000   0.48944338   -5.6391569    636.25434  0.027745262  0.026242272           56 
 1912000   0.48639525   -5.6448267    637.51268  0.027785595  0.026224363          124 
 1913000   0.48276694    -5.650649    638.07444  0.027795541  0.026206465          104 
 1914000   0.48583549   -5.6580532    636.79496  0.027725312  0.026188546          140 
 1915000   0.48158401   -5.6441371    637.93918  0.027760626  0.026170703           98 
 1916000   0.49317941   -5.6517753    637.36322  0.027721086  0.026152855          124 
 1917000   0.48500365   -5.6386628    637.94734  0.027732018  0.026135022           63 
 1918000   0.48393698   -5.6644072    638.18423  0.027727851  0.026117235          112 
 1919000    0.4881681   -5.6327173     636.9584   0.02766017  0.026099468          148 
 1920000   0.47803357    -5.638569    636.99409  0.027647313  0.026081712          110 
 1921000   0.48880329   -5.6441894     638.0868  0.027680323  0.026063975          111 
 1922000   0.49396487   -5.6699186    637.60448  0.027645009  0.026046248          109 
 1923000   0.47762061   -5.6343833    637.82183  0.027640052  0.026028524          127 
 1924000   0.49037015   -5.6476025    638.70356  0.027663876  0.026010842          169 
 1925000   0.47666298   -5.6651535    638.72954  0.027650629  0.025993147          193 
 1926000     0.490793   -5.6511499    638.06708   0.02760761  0.025975483          159 
 1927000   0.47795628   -5.6333117    638.20152  0.027599097  0.025957834          222 
 1928000    0.4733756    -5.659648    637.53062  0.027555784  0.025940203          243 
 1929000   0.47368334   -5.6437471    638.20187  0.027570497   0.02592257          164 
 1930000   0.48549279   -5.6525904    637.73756  0.027536164  0.025904974          200 
 1931000   0.47823614   -5.6544452    637.67695  0.027519288  0.025887386           90 
 1932000   0.50338785   -5.6447258    637.97117  0.027517735  0.025869825          134 
 1933000   0.48091066   -5.6632591    637.76796  0.027494739   0.02585225          158 
 1934000   0.48479136   -5.6512299    637.78975  0.027481461  0.025834701          222 
 1935000   0.48264118   -5.6672255    637.73983  0.027465109   0.02581719          113 
 1936000   0.47959383    -5.678753    638.14046  0.027468167   0.02579967          209 
 1937000   0.47726822   -5.6522878    638.20617  0.027456813   0.02578212          181 
 1938000   0.48786383   -5.6551001    638.12295  0.027439067  0.025764616          229 
 1939000   0.48599034   -5.6570943    638.81096  0.027454485  0.025747135          217 
 1940000   0.46787786   -5.6497299    637.83123  0.027398249  0.025729634          205 
 1941000   0.47410509   -5.6510583    636.78442   0.02733919  0.025712153          250 
 1942000   0.46851355   -5.6730878    638.27861   0.02738923  0.025694638          255 
 1943000   0.47528848    -5.681937    636.37724  0.027293586  0.025677106          257 
 1944000   0.47970698   -5.6667652    636.92058  0.027302837  0.025659594          280 
 1945000   0.47695003   -5.6692134    637.65122  0.027320104  0.025642108          308 
 1946000   0.47851658   -5.6522394    637.09281  0.027282152   0.02562465          200 
 1947000   0.46948302    -5.646595    637.73516  0.027295633  0.025607219          219 
 1948000   0.46907594   -5.6578374    637.70922  0.027280511  0.025589798          358 
 1949000   0.48300655   -5.6873389    636.64077   0.02722083  0.025572341          424 
 1950000   0.47438514   -5.6824477    636.61712   0.02720586  0.025554853          438 
 1951000   0.46370186   -5.6975707    636.85495  0.027202074  0.025537355          410 
 1952000   0.47586229   -5.6789102    635.78289  0.027142371   0.02551984          447 
 1953000   0.47079699   -5.6899515     636.1648  0.027144769  0.025502333          443 
 1954000   0.47465615   -5.7100584    636.72389  0.027154721   0.02548482          546 
 1955000   0.47029736    -5.674374    636.35335  0.027125036  0.025467328          394 
 1956000   0.47391452   -5.6906967    636.93453  0.027135929  0.025449864          444 
 1957000   0.47591274   -5.6999406    635.21545  0.027048861   0.02543235          407 
 1958000   0.47650277   -5.7058342    636.04621  0.027070404  0.025414856          443 
 1959000   0.46335941   -5.6894799    635.31756  0.027025589   0.02539734          516 
 1960000   0.46896851    -5.695642     635.5792  0.027022925  0.025379849          512 
 1961000     0.474804   -5.6855391    635.83633  0.027020072  0.025362372          537 
 1962000   0.47509515   -5.6883751    636.06368  0.027015957  0.025344933          456 
 1963000   0.45627787   -5.6903683    635.54194  0.026980045  0.025327476          455 
 1964000   0.46783712     -5.70671    635.26749  0.026954662   0.02531002          494 
 1965000   0.46925463    -5.704251     635.2897  0.026941887  0.025292592          305 
 1966000   0.47486894   -5.7023635    636.13576  0.026964046   0.02527518          379 
 1967000   0.47208719    -5.696447    634.86807  0.026896631  0.025257769          417 
 1968000    0.4736855   -5.7007637    636.89365  0.026968735  0.025240361          321 
 1969000   0.46136596   -5.7153551    635.23839  0.026884984  0.025222976          392 
 1970000   0.46398917   -5.6995839    635.43986  0.026879859  0.025205632          273 
 1971000   0.46682117   -5.6968481    636.74185  0.026921269  0.025188297          445 
 1972000   0.46778388   -5.7018824     636.4948  0.026897177  0.025170985          476 
 1973000   0.45971594   -5.7019034    634.99224  0.026820081  0.025153687          334 
 1974000   0.46718808   -5.6981723    635.21261  0.026815798  0.025136402          342 
 1975000   0.46591411   -5.7002583    635.75437  0.026825079  0.025119073          405 
 1976000   0.47135694   -5.7209212    635.58046  0.026804169  0.025101757          340 
 1977000    0.4694676   -5.6982391    635.20817  0.026774919   0.02508449          366 
 1978000   0.46257607   -5.6942872    636.31708  0.026808101  0.025067238          328 
 1979000   0.46951602    -5.715922    635.73695  0.026770126  0.025049981          374 
 1980000   0.47462944   -5.7079717    635.03912  0.026727236   0.02503273          368 
 1981000   0.46411288   -5.7076557      635.394  0.026728672  0.025015509          373 
 1982000   0.45971325   -5.7170046    634.72833  0.026687198  0.024998287          307 
 1983000   0.44981759   -5.7184689    635.44209  0.026703735  0.024981065          419 
 1984000   0.46950422    -5.702476    635.96143   0.02671209  0.024963861          295 
 1985000   0.46356202   -5.6985408    636.60668  0.026725721  0.024946669          368 
 1986000   0.46000549   -5.6943151    635.12883  0.026650253  0.024929483          420 
 1987000   0.45929153   -5.7127213    636.89916  0.026711087  0.024912318          357 
 1988000   0.46217661   -5.7122208    636.65503  0.026687417  0.024895155          355 
 1989000   0.45591816   -5.7098909    634.60857  0.026588259  0.024878012          323 
 1990000   0.45252484   -5.7056912    633.70736  0.026537159  0.024860838          531 
 1991000    0.4701875   -5.7193885     634.6286  0.026562389  0.024843708          538 
 1992000   0.45570955   -5.7269992     634.4191   0.02654029  0.024826568          467 
 1993000   0.46223553   -5.7132262    634.88628  0.026546508   0.02480944          446 
 1994000   0.45375698   -5.7292299    635.22502  0.026547351  0.024792302          506 
 1995000   0.46717725   -5.7229663    634.30431  0.026495585    0.0247752          450 
 1996000   0.45515234   -5.7274008    633.48662  0.026448172  0.024758112          435 
 1997000   0.46638425   -5.7234839    635.37908  0.026513899  0.024741021          551 
 1998000   0.45833044   -5.7304254    634.34678  0.026457573  0.024723933          427 
 1999000   0.45217063   -5.7242434    634.72544  0.026460123  0.024706843          522 
 2000000    0.4636553   -5.7175865    635.08184  0.026461743  0.024689781          582 
 2001000   0.45052989   -5.7308349    635.65664  0.026472457  0.024672743          517 
 2002000   0.45410564   -5.7286118    634.51618  0.026411762  0.024655691          461 
 2003000   0.45619378   -5.7179574    633.70468  0.026364814  0.024638643          516 
 2004000   0.46370471   -5.7260043    634.85045  0.026399304  0.024621609          441 
 2005000   0.44765152   -5.7396919    633.87278  0.026345502   0.02460459          478 
 2006000   0.44648236   -5.7313626    634.35268  0.026352305  0.024587573          507 
 2007000   0.45556491   -5.7093335    634.80476  0.026357945  0.024570602          446 
 2008000   0.45333596   -5.7346942    634.46121  0.026330562  0.024553605          398 
 2009000   0.45389628   -5.7297977    634.41855  0.026315685  0.024536659          488 
 2010000   0.45361494   -5.7244761    635.16855  0.026333688  0.024519699          534 
 2011000   0.45267867   -5.7322487    634.42892  0.026289944   0.02450274          621 
 2012000   0.45486456   -5.7509018    635.25523  0.026311101   0.02448583          488 
Loop time of 5037.89 on 48 procs for 2000000 steps with 4000 atoms

Performance: 68600.080 tau/day, 396.991 timesteps/s
99.4% CPU use with 48 MPI tasks x no OpenMP threads

MPI task timing breakdown:
Section |  min time  |  avg time  |  max time  |%varavg| %total
---------------------------------------------------------------
Pair    | 344.16     | 368.21     | 393.23     |  58.6 |  7.31
Neigh   | 34.383     | 35.582     | 37.753     |  12.3 |  0.71
Comm    | 315.63     | 346.6      | 371.23     |  70.4 |  6.88
Output  | 4.5996     | 4.6011     | 4.6325     |   0.2 |  0.09
Modify  | 4221.3     | 4235.5     | 4250.2     |   9.6 | 84.07
Other   |            | 47.37      |            |       |  0.94

Nlocal:        83.3333 ave          93 max          75 min
Histogram: 2 2 3 16 4 7 7 5 1 1
Nghost:        2330.19 ave        2351 max        2306 min
Histogram: 1 4 2 6 7 7 6 9 4 2
Neighs:        15879.9 ave       18725 max       14412 min
Histogram: 7 6 6 11 9 4 4 0 0 1
FullNghs:      31759.6 ave       35552 max       28189 min
Histogram: 2 2 2 11 9 9 7 4 1 1

Total # of neighbors = 1524460
Ave neighs/atom = 381.11500
Neighbor list builds = 107724
Dangerous builds = 0

#clear
#
#next RN
#
#jump SELF
Total wall time: 1:24:01
