
units lj                  # Use reduced LJ style units
atom_style atomic         # Uncharged point particles
atom_modify map hash      # Needed for indexing of clusters etc
                          # Used to be able to find where atoms are in relation to each other.

lattice fcc 1.0 spacing 1 1 1
Lattice spacing in x,y,z = 1.5874011 1.5874011 1.5874011
region box block 0 10 0 10 0 10 units lattice
create_box 2 box
Created orthogonal box = (0.0000000 0.0000000 0.0000000) to (15.874011 15.874011 15.874011)
  3 by 4 by 4 MPI processor grid
create_atoms 1 box
Created 4000 atoms
  using lattice units in orthogonal box = (0.0000000 0.0000000 0.0000000) to (15.874011 15.874011 15.874011)
  create_atoms CPU = 0.040 seconds
set type 1 type/fraction 2 0.93 78393
Setting atom values ...
  3709 settings made for type/fraction
mass 1 1.0
mass 2 1.0
pair_style lj/cut  3.5
pair_modify tail  yes
pair_coeff 1  1  1.0  1.0   # Intearaction between 1 and 1 set with epsilon = 1 and sigma = 1
pair_coeff 1  2  1.5  0.8
pair_coeff 2  2  0.5  0.88

write_data data.0
System init for write_data ...
Neighbor list info ...
  update every 1 steps, delay 10 steps, check yes
  max neighbors/atom: 2000, page size: 100000
  master list distance cutoff = 3.8
  ghost atom cutoff = 3.8
  binsize = 1.9, bins = 9 9 9
  1 neighbor lists, perpetual/occasional/extra = 1 0 0
  (1) pair lj/cut, perpetual
      attributes: half, newton on
      pair build: half/bin/atomonly/newton
      stencil: half/bin/3d
      bin: standard
WARNING: Not all mixed pair coeffs generated from mixing. Use write_data with 'pair ij' option to store all pair coeffs. (../write_data.cpp:312)


#############################
#   M E L T   S Y S T E M   #
#############################

velocity all create 2.4 6229865 mom yes dist gaussian # Assign velocities
                                                    # Temperature 2.4, random number seed, zero linear momentum
                                                                                # Gaussian distribution

timestep 0.002   # simulation timestep
thermo 1000       # output thermodynamic data every 1000 steps bf 100

# Define a fix  in this case with index 1 applied to all
# particles in the simulation. This fix is for simulations
# in the anisotropic NPT ensemble. Note that we use the MTK
# correction.
fix 1 all npt temp 2.4 2.4 0.1 iso 5.68 5.68 0.5 mtk yes tchain 5 pchain 5 # Use NPT ensemble
                                                                         # Set temperature and pressure and damping
                                                                         # Numbers of thermostats in chain and in barostat
run 10000          # run for 10000 steps
Per MPI rank memory allocation (min/avg/max) = 3.642 | 3.644 | 3.648 Mbytes
Step Temp E_pair E_mol TotEng Press Volume 
       0          2.4   -3.0493222            0   0.54977785   -2.3496824         4000 
    1000    2.4224214   -1.9991817            0     1.633542     5.697539    4074.9828 
    2000     2.387776   -2.0174639            0    1.5633047    5.7262993    4054.7565 
    3000    2.3747202   -1.9734896            0    1.5877002    5.7334883    4090.8374 
    4000     2.355409   -1.9598418            0    1.5723885    5.6987174    4098.0911 
    5000    2.3327209   -2.0105309            0    1.4876757    5.5300782    4099.8039 
    6000    2.3831805    -2.022312            0    1.5515651    5.5256525    4090.7785 
    7000    2.3828897    -2.000667            0    1.5727739    5.8162006    4040.0861 
    8000    2.4187084   -1.9954068            0    1.6317487    5.9902248    4030.8229 
    9000    2.3461228   -1.9818137            0    1.5364908     5.943031    4042.6264 
   10000    2.4331424   -2.0299119            0    1.6188894    5.7703375    4046.7884 
Loop time of 2.43145 on 48 procs for 10000 steps with 4000 atoms

Performance: 710688.017 tau/day, 4112.778 timesteps/s
99.6% CPU use with 48 MPI tasks x no OpenMP threads

MPI task timing breakdown:
Section |  min time  |  avg time  |  max time  |%varavg| %total
---------------------------------------------------------------
Pair    | 1.0588     | 1.132      | 1.2064     |   3.3 | 46.56
Neigh   | 0.20252    | 0.21329    | 0.2277     |   1.1 |  8.77
Comm    | 0.73467    | 0.83193    | 0.92056    |   4.8 | 34.22
Output  | 0.00024297 | 0.00024875 | 0.0003125  |   0.0 |  0.01
Modify  | 0.21516    | 0.23898    | 0.26484    |   3.0 |  9.83
Other   |            | 0.01498    |            |       |  0.62

Nlocal:        83.3333 ave          92 max          74 min
Histogram: 3 2 6 8 2 6 9 5 5 2
Nghost:        1631.23 ave        1654 max        1611 min
Histogram: 2 4 7 11 1 6 9 3 3 2
Neighs:        9433.65 ave       10624 max        8347 min
Histogram: 3 4 6 8 4 6 8 3 2 4

Total # of neighbors = 452815
Ave neighs/atom = 113.20375
Neighbor list builds = 907
Dangerous builds = 217

# Equilibrate just above the melting temperature to avoid step fn in T

fix 1 all npt temp 1.25 1.25 0.1 iso 5.68 5.68 0.5 mtk yes tchain 5 pchain 5
run 2000
Per MPI rank memory allocation (min/avg/max) = 3.643 | 3.645 | 3.649 Mbytes
Step Temp E_pair E_mol TotEng Press Volume 
   10000    2.4331424   -2.0299119            0    1.6188894    5.7703375    4046.7884 
   11000    1.2296217    -3.034194            0   -1.1902226    5.7877022    3144.5402 
   12000    1.2739088   -3.0299793            0   -1.1195938    5.6069295     3164.021 
Loop time of 0.591438 on 48 procs for 2000 steps with 4000 atoms

Performance: 584338.557 tau/day, 3381.589 timesteps/s
99.7% CPU use with 48 MPI tasks x no OpenMP threads

MPI task timing breakdown:
Section |  min time  |  avg time  |  max time  |%varavg| %total
---------------------------------------------------------------
Pair    | 0.26341    | 0.28611    | 0.30616    |   1.9 | 48.38
Neigh   | 0.038075   | 0.040663   | 0.043049   |   0.5 |  6.88
Comm    | 0.19415    | 0.21563    | 0.24277    |   2.6 | 36.46
Output  | 5.027e-05  | 5.1474e-05 | 6.6265e-05 |   0.0 |  0.01
Modify  | 0.039388   | 0.044183   | 0.048663   |   1.3 |  7.47
Other   |            | 0.004791   |            |       |  0.81

Nlocal:        83.3333 ave          90 max          74 min
Histogram: 2 1 1 7 2 10 12 3 6 4
Nghost:        1930.71 ave        1955 max        1907 min
Histogram: 3 3 5 6 5 4 11 8 1 2
Neighs:        12075.2 ave       14146 max       10144 min
Histogram: 2 1 3 9 13 9 4 5 1 1

Total # of neighbors = 579611
Ave neighs/atom = 144.90275
Neighbor list builds = 142
Dangerous builds = 17

#############################
# L I N E A R  Q U E N C H  #
#############################

# Define solid atoms. This closely follows ten Wolde  Ruiz-Montero and Frenkel  Faraday Discuss  1996  104  93-110
# Compute components of the per-atom q6 vector
compute q6 all orientorder/atom degrees 1 6 components 6 nnn NULL cutoff 1.3 # compute the Q6 parameter.
                                                                             # Use all neighbours within 1.3 unit cell.

# get number of connections
compute coord_number all coord/atom orientorder q6 0.5

# An atom is solid if it has 8 or more connections (of a possible 14)
variable is_solid atom c_coord_number>=8
group solid dynamic all var is_solid    # Must be dynamic to update
dynamic group solid defined

# do clustering
compute cluster solid cluster/atom 1.3 # Create a cluster where all atoms within are solid and max 1.3 units from another member

# define chunks one chunk per cluster
compute clus_chunks solid chunk/atom c_cluster nchunk every compress yes  # Says which atoms are in which chunk

# count the size of each chunk
compute size_chunks solid property/chunk clus_chunks count


# Find the maximum entry in the vector of chunk sizes
variable max_n equal max(c_size_chunks)


# Thermo style which includes this variable
# thermo_style custom step temp pe vol v_max_n

thermo ${N}  # Print the thermo information every 100 steps
thermo 1000  

# Reset the npt fix at a lower temperature (below freezing)
fix 1  all npt temp  ${temp} ${temp}  0.1  iso  5.68  5.68  0.5  mtk yes tchain  5  pchain  5
fix 1  all npt temp  0.45 ${temp}  0.1  iso  5.68  5.68  0.5  mtk yes tchain  5  pchain  5
fix 1  all npt temp  0.45 0.45  0.1  iso  5.68  5.68  0.5  mtk yes tchain  5  pchain  5

dump dmp2 all dcd ${N} traj.dcd
dump dmp2 all dcd 1000 traj.dcd


compute msd all msd com yes
variable twopoint equal c_msd[4]/6/(step*dt+1.0e-6)
fix 9 all vector 10 c_msd[4]
variable fit equal slope(f_9)/6/(10*dt)
thermo_style custom step temp pe c_msd[4] v_twopoint v_fit v_max_n

fix 1 all npt temp 1.25 ${temp} 0.1 iso 5.68 5.68 0.5 mtk yes tchain 5 pchain 5
fix 1 all npt temp 1.25 0.45 0.1 iso 5.68 5.68 0.5 mtk yes tchain 5 pchain 5
run 2000000 # 5000000  # Run for this many steps
Neighbor list info ...
  update every 1 steps, delay 10 steps, check yes
  max neighbors/atom: 2000, page size: 100000
  master list distance cutoff = 3.8
  ghost atom cutoff = 3.8
  binsize = 1.9, bins = 8 8 8
  4 neighbor lists, perpetual/occasional/extra = 1 3 0
  (1) pair lj/cut, perpetual
      attributes: half, newton on
      pair build: half/bin/atomonly/newton
      stencil: half/bin/3d
      bin: standard
  (2) compute orientorder/atom, occasional
      attributes: full, newton on
      pair build: full/bin/atomonly
      stencil: full/bin/3d
      bin: standard
  (3) compute coord/atom, occasional
      attributes: full, newton on
      pair build: full/bin/atomonly
      stencil: full/bin/3d
      bin: standard
  (4) compute cluster/atom, occasional
      attributes: full, newton on
      pair build: full/bin/atomonly
      stencil: full/bin/3d
      bin: standard
Per MPI rank memory allocation (min/avg/max) = 9.820 | 9.827 | 9.834 Mbytes
Step Temp PotEng c_msd[4] v_twopoint v_fit v_max_n 
   12000    1.2739088   -3.0299793 8.3382598e-31 5.7904579e-33 8.3333333e+20            1 
   13000    1.2452853   -2.9987789    1.0166012 0.0065166738  0.087028828            2 
   14000    1.2255541   -3.0166368    2.1326927  0.012694599  0.090002556            1 
   15000    1.2682349   -3.0299884    3.2985674  0.018325374  0.092974662            2 
   16000    1.2539456   -3.0264567    4.3959618  0.022895633  0.093313918            1 
   17000    1.2266688   -3.0153454    5.5342506  0.027128678  0.093640494            3 
   18000    1.2580891   -3.0065893    6.6743542  0.030899787  0.093689004            1 
   19000    1.2341631    -3.013378     7.830126  0.034342657  0.093919401            3 
   20000    1.2545113   -3.0340246    9.0132106  0.037555043   0.09409593            1 
   21000    1.2435852    -3.010631    10.254168  0.040691143  0.094936382            2 
   22000    1.2507602    -3.015774    11.268251  0.042682767  0.095236396            1 
   23000    1.2369729   -2.9774238    12.386999   0.04488043  0.095242437            2 
   24000    1.2274851   -3.0090958    13.561274  0.047087755  0.095073828            2 
   25000     1.250271   -3.0145202    14.596606  0.048655353  0.094937913            2 
   26000    1.2343053   -3.0152466    15.945817  0.051108386   0.09498749       -1e+20 
   27000     1.226022   -3.0131628    17.080474  0.052717511   0.09522441            1 
   28000    1.2763249   -3.0195086    18.162611  0.054055389  0.095212144            1 
   29000    1.2446786   -3.0280622    19.344627  0.055588009  0.095164258            2 
   30000    1.2763496   -3.0232874    20.532948  0.057035966  0.095243108            2 
   31000    1.2443701   -3.0116885    21.667649  0.058246368  0.095406779            1 
   32000    1.2283553   -2.9917597    22.808537  0.059397231  0.095435842            1 
   33000    1.2532421   -2.9985506    24.005494  0.060619934  0.095507049            1 
   34000    1.2355678    -3.000634    24.996995  0.061267145  0.095459606            1 
   35000    1.2427548   -3.0325506    26.134901  0.062225955  0.095447778            2 
   36000    1.2399859   -2.9994369    27.187646  0.062934364  0.095483683            2 
   37000    1.2516394   -3.0214327    28.503978  0.064198147    0.0954673            1 
   38000    1.2118803   -3.0128953     29.58227  0.064873399  0.095497601            3 
   39000    1.2332574   -3.0284193    30.803283   0.06581898  0.095526535            2 
   40000    1.2734242   -3.0147073    32.095257  0.066865117  0.095579773            3 
   41000    1.2225243   -3.0378689    33.193502  0.067466467   0.09561636            1 
   42000    1.2543503   -3.0067093    34.221652  0.067900102  0.095649006            2 
   43000    1.2112438    -3.034215    35.520143  0.068837486  0.095635581            2 
   44000    1.2423986   -3.0103341    36.514832  0.069156877  0.095580231            2 
   45000    1.2444852   -3.0542634    37.646141  0.069715076  0.095603312            3 
   46000    1.2030094   -2.9888229    39.143021  0.070911269  0.095617285            1 
   47000    1.2260537   -3.0249618    40.629509  0.072038136  0.095814185            3 
   48000     1.212947   -3.0480806    41.676387  0.072354838  0.095972664            2 
   49000    1.2518383   -3.0369286    42.937741  0.073023368  0.096158525            1 
   50000    1.2307528   -3.0051357     44.52154  0.074202566  0.096404312            1 
   51000    1.2143225   -3.0278755    45.875912  0.074960641   0.09672337            1 
   52000    1.2394175   -3.0257995    46.854721  0.075087693  0.097026238            1 
   53000    1.2368655   -3.0485469    48.549528  0.076335736  0.097330361            3 
   54000    1.2522233   -3.0122239    50.044276  0.077228821  0.097652621            2 
   55000    1.2243107   -3.0254931    51.232428   0.07762489  0.097982257            1 
   56000    1.2548865   -3.0122402    52.556677   0.07820934  0.098338052            2 
   57000    1.2202831   -3.0504987     53.79573  0.078648728  0.098658593            1 
   58000    1.2299008   -3.0585812    55.094051  0.079158119  0.098958594            3 
   59000    1.2189722   -3.0597151    56.097807   0.07923419   0.09919745            3 
   60000    1.2304895    -3.018587    57.293035  0.079573659  0.099381263            2 
   61000    1.2632397   -3.0630784    58.293152  0.079635453  0.099528796            2 
   62000    1.2501899   -3.0197066    59.444701  0.079898791  0.099660691            1 
   63000    1.2391926   -3.0562462    60.637495  0.080208326  0.099730558            1 
   64000    1.2413409    -3.043041    61.935268   0.08064488   0.09979398            2 
   65000     1.220283   -3.0301065    62.583145    0.0802348  0.099805749            3 
   66000    1.2144336   -3.0126335    63.180004  0.079772732  0.099753385            2 
   67000    1.2125773   -3.0445327    64.232208  0.079890806  0.099643244            1 
   68000    1.2071965   -3.0738031     65.57669   0.08036359  0.099562542            1 
   69000    1.2384872   -3.0193991    66.763321   0.08063203  0.099492641            2 
   70000    1.2153501   -3.0218798    68.528835  0.081581946  0.099443507            2 
   71000    1.2291729   -3.0028831     69.45396  0.081518732  0.099401168            3 
   72000    1.2389828   -3.0256042    70.306214  0.081372932    0.0993455            1 
   73000    1.2379305   -3.0042399    71.350298  0.081450111  0.099250221            1 
   74000    1.2373672   -3.0377607    71.901629  0.080970302  0.099128418            2 
   75000    1.2248535   -3.0452725    73.097608  0.081219564  0.098975872            2 
   76000    1.2284913   -3.0505511    74.219933  0.081381505  0.098843951            4 
   77000    1.2374113   -3.0435355    74.982853  0.081150273  0.098701485            4 
   78000    1.2056362   -3.0016076    76.709681  0.081954787  0.098583143            1 
   79000    1.2218356   -3.0217421    77.633393  0.081891764  0.098479639            1 
   80000    1.2290661   -3.0535725     79.41873  0.082727844  0.098394617            2 
   81000    1.2424914   -3.0569059    80.573786  0.082894841  0.098345612            1 
   82000    1.1864583    -3.030007    81.917256  0.083249243  0.098308796            3 
   83000    1.2214746   -3.0624796    83.212609  0.083546796  0.098263255            2 
   84000    1.1996043   -3.0243902    83.885887  0.083220126  0.098225907            2 
   85000    1.2245314   -3.0339582    84.681522  0.083021099  0.098203256            1 
   86000    1.2002369   -3.0155486    86.153953  0.083482512   0.09815528            2 
   87000    1.1992365   -3.0510502    87.137585  0.083465119  0.098099815            3 
   88000    1.2232541   -3.0717587    88.092824  0.083421234  0.098032115            1 
   89000    1.2314393   -3.0120691    89.361109   0.08367145  0.097972942            2 
   90000    1.1997096   -3.0631181    91.065672  0.084320067   0.09793326            1 
   91000    1.2206033   -3.0630404     92.07936  0.084321758  0.097889754            2 
   92000    1.2290567   -3.0541575    92.711632  0.083977927  0.097843838            2 
   93000    1.2333887   -3.0456629    94.239021  0.084443567  0.097799749            1 
   94000    1.2080449   -3.0204753    95.347297  0.084527745   0.09775206            2 
   95000    1.2252372   -3.0306927     96.21972  0.084403262  0.097700795            2 
   96000     1.219899   -3.0363791    97.064271  0.084257179  0.097618162            1 
   97000    1.2107208   -3.0176836    97.579898  0.083831527  0.097521581            1 
   98000    1.2137468   -3.0860343    98.829926  0.084039053  0.097431231            1 
   99000    1.2462354   -3.0475955    100.12635  0.084281438  0.097324438            1 
  100000    1.2128921   -3.0692427    100.76218  0.083968484  0.097207832            2 
  101000     1.196287   -3.0307923    102.37677  0.084469281  0.097108672            1 
  102000    1.2290301   -3.0652624     102.7254  0.083925977    0.0969971            2 
  103000    1.2241128   -3.0814533     102.9791  0.083316423   0.09686329            2 
  104000    1.2069788   -3.0641097    104.67736  0.083876086   0.09673056            1 
  105000    1.2107661   -3.0839562    105.27731  0.083553424  0.096603086            3 
  106000     1.213906   -3.0404882    106.98109  0.084104631   0.09647334            4 
  107000    1.2242489   -3.0503329    107.65994  0.083847303  0.096352247            3 
  108000    1.2268604    -3.056212     108.6287  0.083818439  0.096227307            2 
  109000    1.1968092   -3.0504124    110.40739  0.084409318  0.096128279            1 
  110000    1.2058795   -3.0443168    111.41018  0.084401653   0.09603314            2 
  111000    1.2260072   -3.0482879    113.15315  0.084949812  0.095958776            1 
  112000    1.2186207   -3.0523172    114.28721  0.085035126  0.095895418            1 
  113000    1.2086748   -3.0744306    115.18695  0.084946131  0.095830305            3 
  114000    1.2431728    -3.051995    116.67607  0.085289527  0.095763313            1 
  115000    1.2119095   -3.0286968    118.24998  0.085688392  0.095713757            2 
  116000    1.2266936   -3.0126997     120.2954  0.086419106  0.095686869            2 
  117000    1.2527089   -3.0904809     120.7277  0.085988389  0.095673805            3 
  118000    1.1889858   -3.0683463    121.29112  0.085657569  0.095650843            2 
  119000    1.2087059   -3.0541339    123.03516  0.086159075  0.095628485            3 
  120000    1.2235431   -3.0306714    124.72945  0.086617671  0.095606074            2 
  121000    1.2179557   -3.0728764    124.78483  0.085939963  0.095584056            1 
  122000    1.1928806   -3.0608043    126.02464  0.086082407  0.095557338            3 
  123000    1.2041982   -3.0373838    126.92433  0.085992094  0.095522582            2 
  124000    1.1795902   -3.0823671    127.32158  0.085565577  0.095488644            4 
  125000    1.2167268    -3.069069     129.0921  0.086061397  0.095450203            2 
  126000    1.1869679   -3.0772451    129.45873  0.085620853  0.095415396            2 
  127000    1.2179285   -3.0759655    131.35769   0.08619271  0.095383641            1 
  128000    1.2118466   -3.1015186    132.78991  0.086451766  0.095358391            1 
  129000    1.1890551   -3.0513897     133.4278  0.086193668  0.095324381            1 
  130000    1.1706104   -3.0652253    134.83762  0.086434375  0.095296347            1 
  131000    1.2015811   -3.0393237    135.68604  0.086314276  0.095269067            1 
  132000    1.2154986    -3.027614    136.82105  0.086376924  0.095238078            1 
  133000    1.1966227    -3.069747    137.71006    0.0862845  0.095215574            1 
  134000     1.220638   -3.0793693    139.47977  0.086741152  0.095194093            1 
  135000    1.1965347   -3.0559104    140.27476   0.08658936   0.09517059            2 
  136000    1.1913464   -3.0640719    140.81739  0.086285164  0.095138138            2 
  137000    1.2185921   -3.0867733    142.04066  0.086399427   0.09509618            2 
  138000    1.2340995   -3.1059375    142.23677  0.085891771   0.09506605            1 
  139000    1.1753159   -3.0937408    144.52842  0.086647735   0.09502716            1 
  140000    1.2137349   -3.0814708     145.0347  0.086330177  0.094982267            7 
  141000    1.2139629   -3.0807066    146.02436  0.086302814  0.094939055            2 
  142000      1.19779   -3.0712571    147.16319  0.086363375  0.094889429            2 
  143000    1.1977826   -3.0667767    148.42446  0.086494441   0.09484752            2 
  144000    1.1828548   -3.0576282    149.05996  0.086261548  0.094806275            2 
  145000    1.1859951   -3.0654693    149.98553  0.086198581  0.094748689            3 
  146000    1.2036001   -3.0903048    151.14252  0.086268563  0.094687971            1 
  147000    1.1906873   -3.0913888    151.94244  0.086135168  0.094623098            1 
  148000    1.1993154   -3.0791062    152.87347  0.086077402  0.094561699            1 
  149000    1.2203502   -3.0603978    154.59125  0.086460431  0.094495524            3 
  150000    1.1892003   -3.0510588    155.67768    0.0864876   0.09443783            3 
  151000    1.2154051   -3.1028068    157.05486  0.086674867   0.09439643            2 
  152000    1.1880024   -3.0880705     157.9671  0.086604769  0.094358741            2 
  153000    1.2089845   -3.0398511    158.78065  0.086481838  0.094324021            1 
  154000    1.2005794   -3.0857203    158.91162  0.085991134  0.094283451            1 
  155000    1.2006855   -3.0658644    161.65321  0.086910326  0.094237465            2 
  156000     1.213288   -3.1170774    161.97714   0.08652625  0.094196623            2 
  157000    1.1905086    -3.092141    163.56013  0.086815354  0.094148587            2 
  158000     1.178986   -3.1099086    163.86147  0.086424827   0.09409797            1 
  159000    1.2183356   -3.0866183    164.86065  0.086404955  0.094048459            3 
  160000      1.20151   -3.0752886    165.12813  0.086004234  0.093988805            3 
  161000     1.206956   -3.0858193    167.33121  0.086610356  0.093928999            3 
  162000      1.18782    -3.123048    166.90931    0.0858587  0.093864093            2 
  163000    1.1645041   -3.0897973     168.6589  0.086226433   0.09380352            1 
  164000    1.1827159   -3.0776461    170.42526  0.086598203  0.093748327            2 
  165000    1.1845664   -3.1073533    170.41316  0.086067254  0.093693633            2 
  166000     1.189462   -3.0665155    171.88625  0.086288277  0.093633944            2 
  167000     1.194044    -3.054081    173.02281  0.086338726  0.093583582            2 
  168000    1.2081672   -3.0995292    174.85731  0.086734779  0.093533858            2 
  169000    1.1846669   -3.0783714     175.2606  0.086420414  0.093490679            2 
  170000    1.1868836   -3.0923415    176.22097  0.086382828  0.093443175            2 
  171000    1.1792479   -3.0535372    177.54388  0.086522356   0.09339023            2 
  172000    1.1690667   -3.0886889     178.7746  0.086615599  0.093343535            4 
  173000    1.2017836   -3.0701939    180.16692  0.086785605  0.093291784            2 
  174000    1.1899514   -3.1084393    180.19801  0.086301728  0.093240261            2 
  175000    1.1695414    -3.061581    182.40046  0.086857362  0.093191037            2 
  176000    1.1803282    -3.061831    182.47408  0.086398714  0.093141253            3 
  177000    1.1884323   -3.1087391      184.185  0.086716102  0.093103731            1 
  178000    1.1886454   -3.0854439    185.14625  0.086678958  0.093070279            2 
  179000    1.1768401   -3.1165174    186.29687  0.086730388  0.093036351            1 
  180000    1.1844098   -3.0853821    188.84022  0.087426028  0.093000851            5 
  181000    1.1478311   -3.1297487    187.47886  0.086316234  0.092967327            1 
  182000    1.2051039   -3.1210212     188.4017  0.086264515  0.092924484            3 
  183000    1.1843431   -3.0893361    190.76969  0.086871442  0.092881655            2 
  184000    1.1713101   -3.0753957    191.08737  0.086543193  0.092837269            2 
  185000    1.1682944   -3.0878068    192.32837  0.086634402  0.092789592            2 
  186000    1.1954513   -3.1114131    192.89552  0.086422723    0.0927428            1 
  187000    1.1763508   -3.0753075    192.20971   0.08565495  0.092687235            2 
  188000    1.1685064   -3.1161496    194.11022  0.086041762  0.092632294            1 
  189000     1.179665    -3.086798     195.8888  0.086370722  0.092575355            2 
  190000    1.1943195   -3.1134331    196.14667  0.086029241   0.09252395            2 
  191000    1.1972459   -3.0865237    197.57025  0.086199933  0.092464335            5 
  192000    1.2224911   -3.1134521    198.62754  0.086209869  0.092409486            3 
  193000    1.1723885   -3.1217616    198.88857  0.085875893  0.092348382            2 
  194000    1.1769461   -3.0755708    199.84134  0.085842501  0.092287576            3 
  195000    1.1733738   -3.0766746    201.34782  0.086046077   0.09222679            1 
  196000    1.2068372   -3.0774531    201.87458  0.085831031  0.092169463            1 
  197000    1.1802708   -3.1311094     202.7143  0.085750551  0.092110373            2 
  198000    1.1923008   -3.0837042    204.29804  0.085984023  0.092047211            2 
  199000    1.1822812   -3.0891157    205.96449  0.086249788  0.091984573            2 
  200000    1.1871644   -3.0940131    205.41156   0.08558815  0.091923085            1 
  201000    1.1800653   -3.0875625    207.35734  0.085969047  0.091864129            3 
  202000    1.1746465   -3.1207117    207.06787  0.085424039  0.091800784            3 
  203000    1.1664668   -3.0965288     207.9117   0.08534963  0.091739887            1 
  204000     1.158751   -3.1042184    209.13042  0.085429093  0.091677286            2 
  205000     1.167253   -3.0838516      210.005  0.085367887  0.091605129            3 
  206000     1.196939   -3.1189648    210.37462     0.085103  0.091537508            3 
  207000    1.1769094   -3.0842244    213.27924  0.085861209  0.091480666            2 
  208000    1.1533528   -3.0972414    213.03101  0.085348963  0.091423117            4 
  209000    1.1574733   -3.1157974    214.27513  0.085436655  0.091365271            1 
  210000    1.1502133   -3.1290466    215.33969  0.085452256  0.091302852            2 
  211000    1.1394009   -3.0796261    216.19064  0.085383351  0.091249279            2 
  212000    1.1616431   -3.0976058    217.21327  0.085382574   0.09119135            1 
  213000    1.1785587   -3.1018147    217.98884  0.085285148  0.091131845            1 
  214000    1.1695918   -3.1090533    219.71496  0.085558784  0.091080176            1 
  215000    1.1581155   -3.1357644     219.6458  0.085134029  0.091029411            4 
  216000    1.1814816   -3.0965718    221.30886  0.085381506  0.090968263            3 
  217000    1.1666276   -3.1183229    221.33281  0.084997241   0.09090091            1 
  218000    1.1437881   -3.0837797    222.42382  0.085024395  0.090831185            3 
  219000    1.1661228   -3.0800536    223.27503  0.084960056  0.090762914            1 
  220000    1.1926595   -3.1100836    224.17777  0.084915823  0.090695208            2 
  221000    1.1751565   -3.1178791    224.41444  0.084620831  0.090621599            2 
  222000    1.1638482   -3.1175986    225.03459  0.084472444  0.090550674            2 
  223000    1.1694021   -3.1040517    227.48543  0.085009502  0.090480573            1 
  224000    1.1607307   -3.1010306    228.14196  0.084874239  0.090414799            2 
  225000    1.1747883   -3.1056286     227.4816  0.084252445  0.090343361            2 
  226000    1.1856474   -3.0950386    229.72513  0.084706908  0.090273041            1 
  227000    1.1599845    -3.126506    229.79768  0.084360383  0.090199386            5 
  228000    1.1753192   -3.1102296    230.94259   0.08440884  0.090127358            1 
  229000    1.1711853   -3.1008797    230.88088  0.084017788  0.090052752            1 
  230000    1.1764031   -3.1193219    231.82608  0.083994955  0.089978188            1 
  231000    1.1612189   -3.1131288    233.07891  0.084083302  0.089902523            1 
  232000    1.1724862   -3.1213786    233.48882  0.083868111   0.08982377            2 
  233000    1.1819599   -3.1344717    235.28103  0.084149152  0.089744971            1 
  234000    1.1766315   -3.1044138    236.17773  0.084108877  0.089670184            1 
  235000    1.1429889   -3.0904147    237.48425  0.084214273   0.08959434            3 
  236000    1.1444801   -3.1414323    237.01756  0.083692642  0.089518924            2 
  237000    1.1743433   -3.0897735     240.7702  0.084659002  0.089450791            2 
  238000    1.1703878   -3.1513215    241.33566  0.084501282  0.089387977            2 
  239000    1.1743441   -3.1082115    242.45271  0.084537205  0.089327019            2 
  240000    1.1677442   -3.1199303    243.31963  0.084485982  0.089261789            2 
  241000    1.1983703   -3.1603814    244.52942   0.08455374  0.089203063            5 
  242000    1.1698471   -3.1314474    246.33594  0.084826426  0.089147305            1 
  243000    1.1600877   -3.1324255    247.02103  0.084712286  0.089096745            1 
  244000    1.1827015   -3.1127938    247.86289  0.084652626  0.089047999            2 
  245000    1.1572342   -3.1233356    247.63157  0.084228426  0.088997938            5 
  246000    1.1589791   -3.1581749    248.78782  0.084277718  0.088946273            1 
  247000    1.1713188   -3.1184717    250.69669  0.084580531  0.088896101            3 
  248000    1.1602551   -3.1369512    252.24053  0.084758242  0.088845888            1 
  249000    1.1384197   -3.1512673    252.46825  0.084494061   0.08879564            2 
  250000    1.1556225   -3.1194488    252.82128  0.084273759  0.088746571            2 
  251000    1.1304687   -3.1245454     253.1996  0.084063612  0.088692665            3 
  252000    1.1562603    -3.124968    255.06848  0.084348041  0.088639089            2 
  253000    1.1732153   -3.1320454    255.89687  0.084287506  0.088591359            2 
  254000    1.1553578   -3.1331689    256.33554  0.084099588  0.088542607            2 
  255000    1.1627469    -3.119817    256.64076  0.083869529    0.0884925            1 
  256000    1.1575037   -3.0997932     258.2542  0.084067123  0.088443543            2 
  257000    1.1628537   -3.1306478    259.45086  0.084128034  0.088398084            2 
  258000    1.1501889   -3.1357447    260.27509  0.084068183  0.088355321            2 
  259000    1.1777345   -3.1287322    261.96731  0.084288066  0.088311417            1 
  260000    1.1374363   -3.1303799    263.69771  0.084518495  0.088270822            2 
  261000    1.1651206   -3.1506281     264.3845  0.084413953  0.088232988            1 
  262000    1.1334637   -3.1192413    266.04304  0.084619286  0.088194118            3 
  263000    1.1632264   -3.1701639     265.9077  0.084254656  0.088154345            4 
  264000    1.1539459   -3.1435441    265.99026  0.083961571  0.088114116            1 
  265000    1.1504747   -3.1044681     269.9385  0.084886319  0.088079292            1 
  266000    1.1302988    -3.150497    269.69477  0.084490842   0.08804696            1 
  267000    1.1274328     -3.14869    270.77077  0.084510227  0.088014594            2 
  268000    1.1352911   -3.1339982    272.51995   0.08473879  0.087983895            1 
  269000    1.1426912   -3.1286345    274.50056  0.085037347  0.087950461            2 
  270000    1.1621673   -3.1265773    274.52921  0.084731237  0.087918269            2 
  271000    1.1460225   -3.1068093    275.67086  0.084769636   0.08788551            1 
  272000    1.1580152   -3.1138919    275.96825  0.084549096  0.087850519            2 
  273000    1.0981934   -3.1490663    277.19246  0.084613084   0.08781851            1 
  274000    1.1329909   -3.1456741    276.88227  0.084209935  0.087785796            1 
  275000    1.1498152   -3.1650428    278.83455  0.084495319  0.087752281            2 
  276000    1.1220579   -3.1611867    280.94466  0.084826287  0.087721035            1 
  277000     1.141026   -3.1278497    280.51472  0.084390711  0.087689961            2 
  278000    1.1411882   -3.1297956    282.82071  0.084778389  0.087663283            2 
  279000    1.1407626    -3.154106    282.48087   0.08437302  0.087634532            5 
  280000    1.1250063   -3.1265958    284.07976  0.084547547  0.087605721            1 
  281000    1.1370224   -3.1892785    283.50681  0.084076753  0.087572634            3 
  282000    1.1498903   -3.1140765    286.87396  0.084773628  0.087540005            2 
  283000    1.1325168     -3.12249    286.52715  0.084371952  0.087509001            2 
  284000    1.1393472   -3.1247862    286.70886  0.084128185  0.087471543            1 
  285000    1.1376341   -3.1283945    287.95309  0.084196811  0.087436115       -1e+20 
  286000    1.1228097    -3.130263    289.13814  0.084247709  0.087400967            3 
  287000    1.1518506   -3.1146496    289.43269   0.08403969  0.087367175            1 
  288000    1.1566578   -3.1265889    290.40273  0.084028568  0.087331466            5 
  289000    1.1259552    -3.114854    292.99403  0.084485015  0.087299066            2 
  290000    1.1129476   -3.1192373    294.42965   0.08460622  0.087268258            2 
  291000    1.1650122   -3.1246085    294.06541   0.08421117  0.087236963            1 
  292000     1.139693   -3.1439349     294.2697  0.083981078  0.087201248            4 
  293000    1.1302167   -3.1536782    296.48149  0.084323517  0.087166091            3 
  294000    1.1481086   -3.1185409    297.34425  0.084281251  0.087130896            2 
  295000    1.1493343   -3.1494734     298.2456   0.08425017  0.087101694            1 
  296000    1.1306619   -3.1443892    298.79341  0.084119766  0.087069404            1 
  297000     1.118684   -3.1816114     299.0686  0.083913749  0.087038384            2 
  298000     1.142106   -3.1638306    300.73488   0.08409812  0.087007107            4 
  299000    1.1441691   -3.1351827     303.9153   0.08470326  0.086976661            1 
  300000    1.1530646   -3.1548716    301.88226  0.083856182  0.086946274            3 
  301000    1.1327348   -3.1541853    302.05108  0.083624329  0.086914393            2 
  302000     1.127493   -3.1909201    306.18162  0.084487202   0.08688636            1 
  303000    1.1194392   -3.1764936    304.97152  0.083875554   0.08685714            2 
  304000     1.140309   -3.1561129    305.44531  0.083729524  0.086826939            3 
  305000    1.1103171    -3.156607    306.94187  0.083863899  0.086795534            3 
  306000    1.1228225   -3.1407945    308.64653  0.084054067  0.086764112            2 
  307000    1.1537836   -3.1655739    306.97319  0.083326055  0.086729993            4 
  308000    1.1508681     -3.12636    309.64433  0.083778229  0.086695074            1 
  309000    1.1152543   -3.1454594    310.54959  0.083751237   0.08665927            3 
  310000    1.1449588   -3.1398003    311.26507  0.083673406  0.086625666            2 
  311000    1.1271048   -3.1871807    311.35054  0.083427261   0.08659077            2 
  312000    1.1311806   -3.1639754    314.49321  0.083999255  0.086560885            1 
  313000    1.1515019   -3.1318472     314.4643  0.083723191  0.086531154            4 
  314000    1.1468264   -3.1475833    315.49504  0.083730106  0.086499335            3 
  315000    1.1262099   -3.1627559    316.04281  0.083609209  0.086469074            2 
  316000    1.1565493   -3.1285412    318.12009  0.083892429  0.086437482            1 
  317000    1.1320616   -3.1523282    318.65967  0.083769628    0.0864086            2 
  318000    1.1250165   -3.1183612    318.53734  0.083474144  0.086375753            1 
  319000     1.116625    -3.111199    320.14004  0.083631149  0.086342862            2 
  320000    1.1069842   -3.1662605    320.75296  0.083529416  0.086309501            3 
  321000    1.1270647   -3.1790471    321.82381  0.083547198  0.086282461            3 
  322000    1.1107434   -3.1699885    323.93541  0.083834216  0.086255034            2 
  323000    1.1215868   -3.1607654    324.48992  0.083717731  0.086229409            3 
  324000    1.1331728   -3.1431593    326.76332  0.084044063  0.086203113            1 
  325000    1.1118412   -3.1541952     326.8306  0.083802718  0.086175696            2 
  326000    1.1240133   -3.1611395    328.15506  0.083884218  0.086148241            1 
  327000    1.1018716   -3.1946325    327.46792   0.08345258  0.086121098            3 
  328000    1.1330266   -3.1712666    328.21794  0.083388704  0.086092947            2 
  329000     1.146708   -3.1649048    328.99672  0.083332503  0.086064854            1 
  330000    1.1188453   -3.1772822    330.35354   0.08342261  0.086033592            2 
  331000    1.1121309    -3.189236    330.51025  0.083210033  0.086001929            1 
  332000     1.130632   -3.1981055    330.83235  0.083040248  0.085965426            3 
  333000    1.1338536   -3.1724535    331.33168  0.082915835  0.085927654            1 
  334000     1.099573   -3.1385666    334.03452  0.083341945  0.085891892            1 
  335000    1.1136515   -3.1638484    333.16166  0.082876035  0.085858365            2 
  336000    1.1182884   -3.1628204    335.70806  0.083260927  0.085828637            3 
  337000    1.1242037   -3.1497324    336.42868  0.083192058   0.08579798            2 
  338000    1.1113301   -3.1434463    337.25556  0.083149794  0.085765259            1 
  339000    1.1086512   -3.1463296    339.01589  0.083337238  0.085735018            3 
  340000    1.1133406   -3.1724863     339.3369  0.083170809  0.085704228            4 
  341000    1.1220669   -3.2020927    340.33782  0.083171509  0.085675779            2 
  342000     1.121576   -3.1783795    339.28363  0.082671448  0.085642209            2 
  343000    1.1226649   -3.1447405    342.92511  0.083315138  0.085608812            4 
  344000    1.1082718   -3.1683767    341.99363  0.082847294  0.085577745            9 
  345000    1.1140067   -3.1483334    344.17562  0.083134208  0.085543596            1 
  346000    1.1087871   -3.1599441    345.55303  0.083225682  0.085508799            2 
  347000    1.1165368   -3.2212617    345.16256  0.082892064  0.085476478            1 
  348000    1.1329976   -3.1977615     345.8805   0.08282579  0.085444269            4 
  349000    1.1469822    -3.163089    346.23293   0.08267262  0.085410412            3 
  350000    1.1178211   -3.1630981    347.76684  0.082801629  0.085377748            1 
  351000    1.0742051   -3.1714731    349.80523  0.083049675   0.08534372            3 
  352000    1.1041441   -3.2091613    349.95308   0.08284874  0.085309234            2 
  353000    1.1343935    -3.156971    351.95368  0.083086328  0.085277565            2 
  354000    1.0976254   -3.1818858    353.54888  0.083227138   0.08524759            1 
  355000    1.1337388   -3.1851469    352.37139  0.082716289   0.08521872            2 
  356000     1.116448   -3.2033722    353.24727  0.082688969  0.085188668            3 
  357000    1.1305844   -3.1936323    355.54048  0.082992643  0.085159794            2 
  358000    1.1082357   -3.2041509    358.07509  0.083350812   0.08513356            3 
  359000    1.0905231   -3.1637874    358.16169  0.083138739  0.085108866            2 
  360000    1.1211386   -3.1943699    359.15518  0.083137774  0.085086579            3 
  361000    1.1098401   -3.1975662    357.53169  0.082532708  0.085060004            3 
  362000    1.1203764   -3.1939023    360.13291  0.082903525  0.085029628            3 
  363000    1.0912311   -3.1830002    360.14019  0.082676812  0.084999758            2 
  364000    1.1241216   -3.1797043    359.62565  0.082331879  0.084968708            2 
  365000    1.1034745   -3.1740865    362.47704  0.082757316  0.084935562            2 
  366000    1.1428149   -3.1817894    364.03804  0.082886621  0.084906322            2 
  367000    1.1001572   -3.1752751    364.70315  0.082811797  0.084875504            2 
  368000    1.1306607   -3.1680019     364.5005  0.082540875   0.08484207            1 
  369000    1.0784301   -3.1863245    366.19669  0.082700245  0.084810981            2 
  370000    1.0891181    -3.168754    367.43261  0.082755091  0.084782716            3 
  371000     1.126641   -3.1737031     369.6265  0.083024821  0.084753649            1 
  372000    1.1184426   -3.1733664    368.68364  0.082590421   0.08472642            5 
  373000    1.1059793   -3.1684397    368.35533   0.08229565  0.084698176            3 
  374000    1.1153427   -3.2058586    370.05663  0.082454686   0.08467238            2 
  375000    1.1058095   -3.1848553    370.75635    0.0823903  0.084642358            2 
  376000    1.0956579   -3.1869514    372.13647  0.082477054  0.084609705            3 
  377000    1.0962952   -3.2055588    371.61816  0.082143714  0.084576214            2 
  378000    1.0623202   -3.1795362    373.89129  0.082427534  0.084542276            1 
  379000    1.1120928    -3.169239    374.12158  0.082260682  0.084507267            3 
  380000    1.1120345   -3.1835568    374.58284   0.08214536  0.084471906            1 
  381000    1.0866603   -3.2021226    373.74268  0.081745993    0.0844359            2 
  382000    1.0973835   -3.1686212     375.2104  0.081852181  0.084400937            2 
  383000    1.1045879   -3.1860881    376.53272  0.081926179  0.084364113            2 
  384000    1.0882187   -3.1584751    377.32446  0.081884647  0.084328596            2 
  385000    1.0784586   -3.1810709    377.99956  0.081818086  0.084291356            4 
  386000    1.0683737   -3.1961206    378.79659  0.081778193  0.084251948            4 
  387000    1.1176747   -3.1880548    378.47474  0.081497576  0.084212302            1 
  388000    1.0904113     -3.19301    378.27017  0.081243593  0.084170456            1 
  389000    1.0873526   -3.1653883    380.33609  0.081477311  0.084131522            2 
  390000    1.0994639   -3.2070393    379.24583  0.081035433  0.084092386            2 
  391000    1.1139428   -3.1972283    383.38277  0.081709883  0.084054243            1 
  392000    1.1035998   -3.2110021    382.89877  0.081398548  0.084018978            2 
  393000    1.1004328    -3.216654    385.23174  0.081686119  0.083981721            3 
  394000    1.0974496    -3.186852    386.29423  0.081703518  0.083947467            1 
  395000    1.1025377   -3.1849845    384.56061  0.081130931  0.083910052            3 
  396000    1.0930549   -3.1942357    388.26855  0.081706344  0.083871368            2 
  397000    1.0973805   -3.2223016     387.5705  0.081354008  0.083834942            3 
  398000    1.0976533   -3.1965875     388.6352  0.081372528  0.083797103            4 
  399000     1.102146   -3.1890696    387.71933  0.080977304  0.083758371            1 
  400000     1.089257   -3.2156487    390.02809  0.081255852  0.083721926            2 
  401000    1.1076812    -3.191395    392.16176  0.081496626  0.083683657            3 
  402000    1.1073347   -3.2123927    391.98221  0.081256677  0.083645104            1 
  403000     1.077069    -3.193626    392.27801  0.081116214  0.083607325            3 
  404000    1.0936844   -3.1997267    394.35195  0.081343225  0.083566377            2 
  405000    1.1020996   -3.1995917     394.0985  0.081090226  0.083526289            1 
  406000    1.1054592   -3.2491119    393.62134  0.080792557  0.083487768            5 
  407000    1.0699583   -3.1916646    396.02059  0.081085297  0.083448145            2 
  408000    1.0905442   -3.2011509    396.56433  0.080997617  0.083409717            3 
  409000    1.0717754   -3.2328336    396.15693  0.080716571  0.083369414            1 
  410000     1.112619   -3.1988484    397.29712  0.080751448  0.083328629            5 
  411000    1.1005061   -3.2012746     397.3659  0.080568918    0.0832898            2 
  412000    1.1080849    -3.176549    399.21499  0.080747369  0.083250605            3 
  413000     1.094575   -3.2009211    402.33286  0.081180963  0.083210991            2 
  414000    1.0701981   -3.2088673    401.01775   0.08072016  0.083173126            3 
  415000    1.0964085   -3.2021509     402.5167  0.080826647  0.083134286            2 
  416000    1.0937133   -3.2209527    402.62112  0.080653269  0.083098127            2 
  417000    1.0880887   -3.2089856    404.08474  0.080752347  0.083058909            1 
  418000    1.0993336   -3.1968077    403.20414    0.0803836  0.083019273            2 
  419000    1.1106456   -3.2389522    404.88831  0.080526712  0.082979949            2 
  420000    1.0960176   -3.2304949    406.31801  0.080618652  0.082939775            4 
  421000    1.1100893   -3.2388557    405.70803  0.080306419  0.082901001            4 
  422000    1.1176271   -3.2081505    407.79989  0.080529204  0.082860919            2 
  423000    1.0899466   -3.2102469     407.3604  0.080252245  0.082821656            5 
  424000    1.0915708   -3.2324277    408.24588  0.080237004   0.08278248            3 
  425000    1.0851439   -3.2034795    409.70417  0.080334151  0.082742016            2 
  426000    1.0892429   -3.1972796    409.52606  0.080110732  0.082700996            1 
  427000    1.1013593   -3.2104373    410.50994  0.080115133  0.082660415            4 
  428000    1.0863974   -3.2329852    412.22617  0.080262105  0.082619038            2 
  429000    1.1039854   -3.2287186    412.85266   0.08019671  0.082578005            5 
  430000    1.0763863   -3.2467541    412.19679  0.079883099  0.082539012            5 
  431000    1.0770308   -3.2238115    415.81795  0.080397903  0.082500312            1 
  432000    1.0855093   -3.1989727    414.76659  0.080008986  0.082460748            1 
  433000    1.0860718   -3.2211948    415.73939   0.08001143  0.082421151            2 
  434000    1.0920053   -3.2177023    416.67739  0.080007178  0.082380673            2 
  435000    1.0892112   -3.2084466    415.73543  0.079642803   0.08233829            1 
  436000    1.0694879   -3.2411208    416.01302  0.079513191  0.082295853            2 
  437000    1.0683815   -3.2227567    419.22766  0.079944253  0.082254427            5 
  438000    1.0826436   -3.2417805    419.13039  0.079743224  0.082212198            1 
  439000    1.0828014   -3.1971177    420.96952  0.079910692  0.082169905            2 
  440000    1.0747583   -3.2196518    419.85955  0.079518855   0.08212888            2 
  441000    1.0935946   -3.2392751    422.23428  0.079787279  0.082087094            1 
  442000     1.078392   -3.2276663    422.33421  0.079625606  0.082045576            3 
  443000    1.0797031   -3.2176322    423.89676  0.079739798  0.082003171            3 
  444000    1.0985247   -3.2177162    425.21426  0.079807482  0.081961108            2 
  445000    1.0889234   -3.2559066    423.76523  0.079356785  0.081918199            2 
  446000    1.1108446   -3.2106177    426.52268  0.079694073   0.08187434            2 
  447000    1.0989633   -3.2344842    425.88551     0.079397  0.081830083            3 
  448000    1.0734978   -3.2147249    427.04964  0.079436316  0.081784305            1 
  449000    1.0757236    -3.244002    426.21634  0.079104739  0.081737509            2 
  450000    1.0767478   -3.2463554    426.59805  0.078999639  0.081690321            4 
  451000    1.0846406   -3.2447408    426.98418  0.078895821  0.081645285            1 
  452000    1.0707405   -3.2329187    428.17402  0.078940638  0.081600974            3 
  453000    1.0669588   -3.2213581    429.13015  0.078942264  0.081555223            2 
  454000    1.0818832   -3.2430364    430.55319  0.079029587   0.08151101            5 
  455000    1.0598734   -3.2213804    429.61829  0.078684668    0.0814658            2 
  456000    1.0809557   -3.2220758    432.69254  0.079073929  0.081420757            2 
  457000     1.101384   -3.2230307    432.75794  0.078912827  0.081375017            2 
  458000    1.0435073   -3.2716566    431.89136  0.078582853  0.081329248            2 
  459000    1.0851826   -3.2426437    430.88508  0.078228955  0.081283339            3 
  460000    1.0621487   -3.2349351     433.7865  0.078584511  0.081236807            7 
  461000    1.0619642     -3.23727    433.00202  0.078272238   0.08118947            2 
  462000    1.1029613   -3.2280228    436.06484  0.078655275  0.081141627            3 
  463000    1.0486066   -3.2314144    435.48647  0.078381294  0.081092191            1 
  464000    1.0855991    -3.278798    434.83057  0.078094571  0.081042741            2 
  465000    1.0637493   -3.2247319     437.0195  0.078318907  0.080995581            1 
  466000    1.0747425   -3.2473502    438.08618  0.078341591  0.080948462            2 
  467000    1.0822983   -3.2439262    439.54609  0.078434349  0.080900899            2 
  468000    1.0587154   -3.2505384     440.3803  0.078415295    0.0808543            4 
  469000    1.0850562   -3.2462437    439.84764  0.078153454  0.080809276            3 
  470000    1.0757622   -3.2380528    441.93324  0.078356957  0.080763663            2 
  471000    1.0609828   -3.2341947    442.28471   0.07825278  0.080716731            1 
  472000     1.063079   -3.2452243    445.73028  0.078695319  0.080671107            3 
  473000     1.076149   -3.2557605    443.42428  0.078122671  0.080626864            2 
  474000    1.0820996   -3.2211127    444.03549  0.078065312  0.080584443            3 
  475000    1.0506347    -3.249818    444.54211  0.077989844  0.080539578            1 
  476000    1.0647459   -3.2257251     446.9232  0.078242857  0.080494653            2 
  477000    1.0796693   -3.2600682    447.79656  0.078231404   0.08045096            1 
  478000    1.0753924   -3.2517959    448.03627  0.078109531  0.080407242            4 
  479000    1.0627277   -3.2562687    448.45563  0.078019421  0.080363481            4 
  480000    1.0790962   -3.2416661    450.54774  0.078220094  0.080319876            1 
  481000    1.0510069   -3.2354798    449.35967   0.07785164  0.080277956            2 
  482000    1.0628057   -3.2462797    451.22298  0.078012272  0.080235352            2 
  483000    1.0574516   -3.2229354      451.178  0.077842996  0.080195435            1 
  484000    1.0703939    -3.257727     451.5707  0.077749776  0.080152085            3 
  485000    1.0914061   -3.2616268    453.80404  0.077973203  0.080108422            3 
  486000    1.0647109   -3.2554081    452.87252  0.077653039  0.080065088            2 
  487000    1.0502845   -3.2736115    453.22454  0.077553823  0.080020809            1 
  488000    1.0365896   -3.2496657    456.06448  0.077879863   0.07997705            3 
  489000    1.0605929   -3.2396493    456.21272  0.077745863  0.079935577            1 
  490000    1.0648912   -3.2332629    456.58452  0.077650429  0.079892221            4 
  491000    1.0497651   -3.2338329    459.61464  0.078006559  0.079850349            2 
  492000    1.0615902    -3.214407    458.84266  0.077717252  0.079807063            2 
  493000    1.0471584   -3.2683532    458.19056  0.077449385  0.079763241            1 
  494000    1.0760748   -3.2394214    459.50061  0.077513598  0.079720554            3 
  495000    1.0539155   -3.2644705    460.52919  0.077530167  0.079677346            4 
  496000    1.0591037   -3.2448353    463.45116  0.077864777  0.079635074            1 
  497000     1.063578   -3.2502499    461.95235  0.077456799  0.079592587            2 
  498000    1.0661673   -3.2340732    464.13229  0.077666045  0.079551014            1 
  499000    1.0527543   -3.2622917    463.97582  0.077484271  0.079509709            2 
  500000    1.0514067   -3.2869349    463.90495  0.077317492  0.079468201            2 
  501000    1.0354876   -3.2485034     466.3278  0.077566167  0.079428653            4 
  502000     1.049517   -3.2566944    466.11357  0.077376091  0.079389294            2 
  503000    1.0494821   -3.2338031    469.57957  0.077796482  0.079349876            4 
  504000    1.0476766    -3.253203    467.62513  0.077318971  0.079310706            1 
  505000    1.0756431   -3.2584031    469.27928  0.077438826  0.079271109            4 
  506000    1.0525749   -3.2743267    468.80896  0.077208327  0.079230826            3 
  507000    1.0375534   -3.2608236    471.79702  0.077547176  0.079190385            1 
  508000    1.0561696   -3.2574144    471.39529  0.077328623  0.079151838            1 
  509000    1.0477591   -3.2535659     472.7275   0.07739481  0.079113747            2 
  510000    1.0562471   -3.2439399    474.14658  0.077474931  0.079077711            3 
  511000    1.0419235   -3.2388994    474.21605  0.077334647  0.079042214            3 
  512000    1.0375209   -3.2507715    476.97835  0.077633195  0.079004906            2 
  513000    1.0537566    -3.262507    474.52437  0.077083231  0.078966236            2 
  514000    1.0469145   -3.2705685    477.51596  0.077418282   0.07892851            2 
  515000    1.0427521   -3.2768586    477.34627  0.077240497  0.078890506            2 
  516000    1.0528038   -3.2800721    477.88954  0.077178543  0.078851091            4 
  517000    1.0593584   -3.2511068    477.56399  0.076976788  0.078811136            5 
  518000    1.0615941   -3.2566248    477.56078  0.076827667  0.078770734            3 
  519000    1.0580664   -3.2324743    478.39573  0.076813702  0.078729704            2 
  520000      1.04009   -3.2431441    477.84458  0.076577658  0.078688059            2 
  521000    1.0472528   -3.2339642    479.17927  0.076644157  0.078646393            2 
  522000    1.0490279   -3.2723877    481.31313  0.076837983  0.078605449            2 
  523000    1.0535294    -3.251994    482.62524  0.076900133  0.078565382            2 
  524000    1.0432328   -3.2635138    482.92884  0.076801661  0.078524389            2 
  525000     1.050607   -3.2653221    483.51041  0.076747683  0.078484244            4 
  526000    1.0252601   -3.2682193    484.11023  0.076696805  0.078444575            3 
  527000    1.0453888    -3.266829    485.11358  0.076709927  0.078403842            2 
  528000      1.06227   -3.2844374    484.23774  0.076426411  0.078363291            1 
  529000     1.029696   -3.2717649    485.68559  0.076510017  0.078322186            2 
  530000     1.042947   -3.2889774    486.27241  0.076457926  0.078281667            6 
  531000    1.0207103   -3.2573115    487.78449  0.076551238  0.078239461            2 
  532000    1.0422481   -3.2470267    487.54611  0.076370005  0.078197277            1 
  533000    1.0565475    -3.238929    486.39508  0.076046761  0.078154051            2 
  534000    1.0393465    -3.283655    487.93652  0.076144899  0.078111441            3 
  535000    1.0678999   -3.2756536    488.70339  0.076122023  0.078067958            2 
  536000    1.0437849   -3.2617952     490.2588  0.076221828  0.078024404            2 
  537000    1.0561964   -3.2544926    488.75201  0.075846061  0.077981965            4 
  538000    1.0503458   -3.2842471    489.68574  0.075849712  0.077937798            3 
  539000    1.0262197   -3.2833159    490.37282  0.075815216  0.077891995            2 
  540000    1.0355969   -3.2730172    490.47743  0.075690962  0.077845485            2 
  541000    1.0581002   -3.2721985    491.15971  0.075656148   0.07779873            3 
  542000     1.044021   -3.2738115    492.48462  0.075720267  0.077753052            1 
  543000    1.0463182   -3.2742584    490.02518  0.075203373  0.077705704            5 
  544000    1.0431397   -3.2948964    491.25363  0.075253313   0.07765841            1 
  545000    1.0389125   -3.2633661    493.29566  0.075427471  0.077612743            2 
  546000    1.0327388   -3.2692954    494.63366  0.075493537  0.077567252            3 
  547000    1.0531085   -3.2771133    494.79491   0.07538009  0.077520535            2 
  548000    1.0382915   -3.2796805    494.11116  0.075138558  0.077474621            5 
  549000    1.0443341   -3.2729646    496.83456  0.075415082  0.077428072            2 
  550000    1.0472056   -3.2697255    496.55838  0.075236118  0.077382258            2 
  551000    1.0355173   -3.2924341    497.89445  0.075301641   0.07733878            3 
  552000    1.0313042   -3.2733373    498.79745  0.075301547  0.077294941            3 
  553000    1.0210718   -3.2687138    500.82704  0.075471223  0.077253206            2 
  554000    1.0353091   -3.2669482    503.55608  0.075745499  0.077211071            3 
  555000    1.0413497   -3.2847754    501.54575  0.075307169  0.077169743            2 
  556000    1.0333792   -3.2826303    505.56073   0.07577349   0.07712756            4 
  557000    1.0226904   -3.2846255    502.11562  0.075122026   0.07708698            1 
  558000    1.0208148    -3.278321    505.42764  0.075482025  0.077046659            1 
  559000    1.0093126   -3.3000003    503.91623  0.075121679  0.077005292            5 
  560000    1.0110943   -3.2917095    504.20743  0.075030868  0.076964495            1 
  561000    1.0448587   -3.3025125    508.60473  0.075550316  0.076922499            2 
  562000    1.0477814   -3.2960224    508.03718  0.075331728  0.076882571            5 
  563000    1.0438056   -3.2685932    506.41035  0.074957127  0.076841549            3 
  564000    1.0321497   -3.2814829       508.09  0.075072399  0.076800183            2 
  565000    1.0435329   -3.2790998    507.26748  0.074818212  0.076758435            1 
  566000    1.0287391   -3.2638756    510.27563   0.07512892   0.07671654            5 
  567000    1.0437955   -3.2781839    507.89337  0.074646291  0.076676437            2 
  568000    1.0500391   -3.2950999    510.54356  0.074903692  0.076633327            2 
  569000     1.032715   -3.2716789    510.07356  0.074703216  0.076591083            1 
  570000    1.0158232   -3.2919748    508.86375  0.074395285  0.076546898            3 
  571000    1.0295897   -3.2767511    513.52151  0.074944762  0.076504206            3 
  572000    1.0398401   -3.2745512    510.73317  0.074407514  0.076460549            3 
  573000    1.0343171   -3.3036261    510.01068  0.074172583  0.076416532            2 
  574000    1.0335565    -3.298793    513.87719  0.074604703  0.076373222            2 
  575000    1.0258957   -3.2861983    516.69064  0.074882701   0.07633093            3 
  576000    1.0277228   -3.2899064    514.89847  0.074493412  0.076289023            5 
  577000    1.0281335   -3.2908674    515.86436  0.074503808  0.076246276            2 
  578000    1.0214582   -3.2922375    514.50971  0.074179601  0.076203446            2 
  579000    1.0062512   -3.3076775    515.95322  0.074259243     0.076159            3 
  580000    1.0432715   -3.3277609    514.44554  0.073914589  0.076114505            3 
  581000    1.0299749   -3.2967766     517.7206  0.074257115  0.076069741            2 
  582000    1.0245172   -3.2708793    519.12061  0.074329984  0.076026204            1 
  583000     1.025144   -3.2989952    522.33725  0.074662271  0.075982649            2 
  584000     1.028845   -3.3019394    518.84765  0.074036479   0.07593937            1 
  585000    1.0206564   -3.2730535    522.53442  0.074435102  0.075897388            3 
  586000    1.0019385    -3.320624    522.20839  0.074261716  0.075856553            3 
  587000    1.0069372   -3.3098839    523.94382  0.074381575  0.075815967            4 
  588000    1.0165817   -3.2938988    523.84711  0.074241371   0.07577437            2 
  589000    1.0198405    -3.297628       523.79  0.074107245  0.075734267            1 
  590000    1.0447798   -3.2847383    524.87741  0.074135227  0.075693982            2 
  591000     1.003858   -3.2854666    524.79862  0.073998677  0.075653771            5 
  592000    1.0214856   -3.2899873    525.76397  0.074009568   0.07561251            3 
  593000    1.0064832   -3.3245321    522.85414  0.073475849  0.075571293            1 
  594000     1.004873   -3.3209155    527.98839  0.074072446  0.075529778            2 
  595000    1.0361754     -3.31648    527.60021  0.073893586   0.07548941            3 
  596000    1.0094297   -3.3040446    529.58148  0.074046627  0.075450307            4 
  597000    1.0105841   -3.3004092    531.52928  0.074194483  0.075412041            4 
  598000     1.045331   -3.3163903    533.67807  0.074369853  0.075374811            1 
  599000    1.0180768    -3.340139    531.82699  0.073988173  0.075336975            4 
  600000    1.0321863   -3.3062989    533.10371  0.074042182  0.075298996            3 
  601000     1.002148   -3.2992374    536.37078  0.074371988  0.075262728            2 
  602000    1.0245168   -3.3055016    534.27347  0.073958122  0.075226712            2 
  603000    1.0223293   -3.3056086    536.19428  0.074100923   0.07518986            4 
  604000    1.0185221   -3.3199356    535.59741   0.07389589  0.075152349            2 
  605000    1.0397512   -3.3170374    537.29094  0.074007017  0.075115518            2 
  606000   0.98064065   -3.3257291    537.88258  0.073966252  0.075077545            1 
  607000    1.0293488   -3.3003576     536.8617  0.073704242  0.075039373            3 
  608000    1.0079494   -3.3061061    537.74256   0.07370375  0.075000772            2 
  609000    1.0029499   -3.3325752    539.06224  0.073763306  0.074963475            2 
  610000    1.0004856   -3.3409759    540.92651  0.073897064  0.074925481            4 
  611000     1.014654   -3.2851916    539.64626  0.073601509  0.074887024            5 
  612000    1.0093432   -3.3009428    541.65538  0.073754817  0.074851018            1 
  613000    1.0216045   -3.3275444     543.4926  0.073884258    0.0748152            2 
  614000    1.0235856     -3.32155    542.11322  0.073576713  0.074780716            3 
  615000    1.0188006   -3.3278127    544.60106  0.073794182  0.074744854            2 
  616000    1.0060488   -3.3006064    543.91866   0.07358207  0.074708679            2 
  617000   0.99535009   -3.3323255    545.01262  0.073610564  0.074672494            4 
  618000   0.98228739   -3.3135281     547.6207  0.073843136  0.074637139            1 
  619000   0.98873211   -3.3303197    547.73971  0.073739863  0.074601688            2 
  620000    1.0154262   -3.2971703    549.22418  0.073820454  0.074565567            1 
  621000    1.0026853   -3.3165217    548.54874  0.073610941  0.074530319            4 
  622000   0.99721574   -3.3188183    548.89315  0.073538739  0.074495359            1 
  623000    1.0055318   -3.2957517    549.85954  0.073549966  0.074460405            2 
  624000   0.99958407   -3.2983536    550.67512  0.073541014  0.074425165            5 
  625000    1.0068489   -3.3306122    550.68614  0.073424818  0.074390477            2 
  626000    1.0034178   -3.3295624    553.86274  0.073730397  0.074355615            3 
  627000    1.0234633   -3.3403529    551.64714  0.073318333  0.074321419            2 
  628000    1.0039822   -3.3034134    554.84283   0.07362564  0.074287552            3 
  629000    1.0108302   -3.3366062    553.08763  0.073276051   0.07425283            3 
  630000   0.97807402   -3.3542462    554.78191  0.073383851   0.07421836            3 
  631000    1.0079322   -3.3341315    555.00011   0.07329637  0.074182512            3 
  632000    1.0213462   -3.3079925    555.70519  0.073273364  0.074147068            1 
  633000    1.0118769   -3.3428822    556.66732   0.07328427  0.074111437            5 
  634000   0.99876688   -3.3268655    558.11517  0.073358987  0.074076725            1 
  635000   0.99773077   -3.3092769    557.02116   0.07309989  0.074041061            3 
  636000   0.98492293   -3.3425798    556.80016  0.072955995  0.074004794            2 
  637000   0.97449334   -3.3366501    558.91047  0.073117539  0.073969214            2 
  638000   0.97644036   -3.3337899    558.36125  0.072931197  0.073932232            3 
  639000   0.98683327    -3.316846      557.916  0.072758998   0.07389561            3 
  640000    1.0106566   -3.3600442    558.79227   0.07275941  0.073859435            3 
  641000    1.0134903   -3.3284324    560.56198  0.072875972  0.073822636            2 
  642000   0.98926616   -3.3283305    563.48924  0.073142425   0.07378753            1 
  643000   0.98970413   -3.3188171    564.11596  0.073109897  0.073752828            5 
  644000    0.9966407   -3.3510683    566.83278  0.073347928  0.073719197            8 
  645000    1.0150779   -3.3188095    566.25003  0.073158918  0.073686345            5 
  646000    1.0014061   -3.3510573     563.5297  0.072694749  0.073651987            2 
  647000    1.0289588   -3.3225673    565.72082  0.072864608   0.07361789            2 
  648000   0.98389979   -3.3391245    569.09857  0.073186544   0.07358457            2 
  649000    1.0191997   -3.3267869    566.07688  0.072685783  0.073552381            2 
  650000   0.99490152   -3.3327769    568.09356  0.072832507  0.073520188            5 
  651000   0.99326811   -3.3292503    568.19852  0.072734065  0.073487118            2 
  652000    0.9844862   -3.3434099     568.4303  0.072652135  0.073454731            2 
  653000   0.99805239   -3.3551718    568.83342   0.07259232   0.07342162            3 
  654000   0.99892774   -3.3399468    570.78193  0.072729604  0.073387986            2 
  655000    1.0005825   -3.3284184    571.32659  0.072687861  0.073356428            1 
  656000   0.97772097   -3.3165601    573.85839  0.072898678  0.073325613            3 
  657000   0.98549086   -3.3288777    573.73173  0.072771656  0.073293896            3 
  658000   0.99814049   -3.3325552    576.94558  0.073068082  0.073263167            2 
  659000   0.98420933   -3.3502978    573.45551  0.072515872  0.073230933            2 
  660000   0.97315818   -3.3354187     576.5667  0.072798825  0.073199027            2 
  661000   0.98239041   -3.3331001    576.11142  0.072631294   0.07316576            3 
  662000   0.98875013    -3.331207    578.95372   0.07287937  0.073132501            4 
  663000   0.99097973   -3.3557563    577.34952  0.072567812  0.073099191            4 
  664000   0.97880161   -3.3633652    576.63309  0.072368611  0.073065135            6 
  665000   0.99679005   -3.3273254      578.156  0.072450626   0.07303261            1 
  666000    1.0121731   -3.3289637    578.01839  0.072324623   0.07299938            3 
  667000   0.97901368    -3.335377    577.65488  0.072170774  0.072967343            2 
  668000   0.98169899   -3.3609611    580.15748  0.072374935  0.072933791            4 
  669000   0.98291823   -3.3255516    580.66118  0.072329495  0.072900598            4 
  670000   0.99385854   -3.3164945    581.19427  0.072287845  0.072867039            4 
  671000   0.99592514   -3.3439013    580.38915  0.072080123  0.072833777            2 
  672000   0.98907765   -3.3453279    582.74433  0.072264922  0.072800393            3 
  673000   0.98291085   -3.3467363    581.23757  0.071970972   0.07276641            4 
  674000    0.9858564   -3.3312479    582.00908  0.071959579  0.072731651            2 
  675000   0.99459561   -3.3637047    581.70795  0.071815797  0.072696672            3 
  676000   0.98066118   -3.3666607    581.25483  0.071653702  0.072660455            5 
  677000   0.99778922   -3.3756126    582.62809  0.071716899  0.072624925            2 
  678000   0.97389425   -3.3489004    583.70852  0.071743918  0.072589048            2 
  679000   0.97406265   -3.3435192    583.15606  0.071570454   0.07255369            3 
  680000   0.97855762   -3.3398415    586.20741  0.071839143  0.072517819            3 
  681000   0.97718117   -3.3664961    583.96188  0.071458869  0.072481891            2 
  682000   0.97181852   -3.3531364    586.83571  0.071705243  0.072446137            3 
  683000   0.98482638   -3.3577673    588.12708  0.071757818  0.072411226            1 
  684000    0.9842189   -3.3442757    586.57821  0.071464207  0.072375268            2 
  685000   0.99791162   -3.3655523    587.86598  0.071516543    0.0723394            1 
  686000   0.97951968   -3.3364917    591.25079  0.071823468    0.0723036            3 
  687000   0.98892277   -3.3597516    589.05145  0.071452141  0.072268841            4 
  688000    1.0014016   -3.3331176    592.32451  0.071744733  0.072234071            3 
  689000   0.97467919   -3.3603134    589.47959  0.071296515  0.072198863            3 
  690000   0.96328577   -3.3413116    591.69125  0.071460296  0.072164213            2 
  691000   0.97402686   -3.3718497    595.16547  0.071775865  0.072129866            4 
  692000   0.98488481   -3.3463064    593.90338  0.071520156  0.072095889            6 
  693000   0.97923207   -3.3795728    593.84602  0.071410055  0.072062352            3 
  694000   0.97156252   -3.3524167    594.51425  0.071387398  0.072029678            3 
  695000   0.98238638   -3.3559529    595.09337   0.07135412   0.07199659            4 
  696000    0.9556199   -3.3843904     595.9621  0.071355615  0.071963087            3 
  697000   0.96614761   -3.3592643    597.41757  0.071427257  0.071928888            1 
  698000   0.95690701   -3.3684239    595.82726  0.071135059   0.07189464            7 
  699000    0.9655224   -3.3387062    596.77401  0.071146163  0.071860652            2 
  700000   0.95874224   -3.3706846    595.68383  0.070914742  0.071826407            3 
  701000   0.98018115   -3.3632406    598.12254  0.071103487   0.07179152            7 
  702000   0.98446408   -3.3761064    598.67705  0.071068025  0.071756535            2 
  703000   0.96440528   -3.3646175    600.43865  0.071175753  0.071722129            3 
  704000   0.96519154   -3.3761801    598.79676  0.070880298  0.071688135            2 
  705000   0.95885993    -3.355072    601.43484  0.071091589  0.071654069            2 
  706000   0.96088054   -3.3573293    603.14222  0.071192425  0.071619868            3 
  707000   0.98000933   -3.3085659    602.71758  0.071041676  0.071586561            1 
  708000   0.96526217   -3.3713133    603.22665  0.071001253  0.071553632            3 
  709000   0.98149271    -3.352413    603.50776  0.070934151  0.071519839            4 
  710000    0.9657602   -3.3557464    604.14461  0.070908992  0.071486276            4 
  711000    0.9742903   -3.3790044    606.28148  0.071059714  0.071452597            3 
  712000   0.95812269   -3.3791112    604.01402  0.070694524  0.071418942            2 
  713000   0.97642368   -3.3515245    605.06811  0.070718572  0.071385391            4 
  714000   0.98249306   -3.3942348    606.98317  0.070843041  0.071352916            3 
  715000   0.95084887   -3.3929115    608.11998  0.070876454  0.071319695            2 
  716000   0.95207113   -3.3625151     608.6949  0.070844378  0.071286542            6 
  717000   0.97621993   -3.3874849    608.48601  0.070721293   0.07125409            2 
  718000   0.97517912   -3.3566621    609.17868   0.07070319  0.071221054            2 
  719000   0.95692955    -3.374189    611.82979  0.070912122  0.071189288            4 
  720000   0.97643513   -3.3837767    609.09101  0.070496645  0.071157559            2 
  721000   0.96648183    -3.381288    610.47018  0.070558273  0.071125394            1 
  722000   0.95837484   -3.3676017    612.00709  0.070637938  0.071094202            6 
  723000   0.94939213   -3.3787005    612.14634  0.070556287   0.07106286            3 
  724000   0.94953005   -3.3719101    615.89878  0.070890743  0.071031425            5 
  725000   0.97305709   -3.3984426    615.66401  0.070765978  0.071000828            4 
  726000   0.97147883   -3.3867689    615.31776   0.07062876  0.070969921            2 
  727000   0.97012096   -3.4034341    615.60908  0.070565002  0.070939088            5 
  728000   0.95910318   -3.4079347    617.54184  0.070689314  0.070907975            2 
  729000   0.95768791   -3.3492908    619.15412  0.070776648  0.070877423            2 
  730000    0.9659158   -3.3901278    618.52811  0.070608232  0.070846743            3 
  731000   0.95936825   -3.4020437    615.14669  0.070126161  0.070815256            3 
  732000   0.97768333   -3.3785394    619.39967  0.070514534   0.07078464            5 
  733000   0.98457863   -3.4209998    617.97179  0.070256001  0.070752889            3 
  734000   0.97558865   -3.3815325    621.73177  0.070587167  0.070721198            2 
  735000   0.96578607   -3.3924286    620.17034  0.070314097  0.070690399            2 
  736000   0.95709697    -3.385133    622.31131  0.070460973  0.070659166            3 
  737000   0.96376152   -3.3737805    621.88346  0.070316989  0.070627561            3 
  738000   0.96098489   -3.4064835    621.37374  0.070164153  0.070595592            1 
  739000   0.96761607   -3.3831362     622.1177  0.070153101  0.070563637            3 
  740000    0.9375128   -3.3907015    623.16521  0.070176262  0.070532329            2 
  741000   0.98031855   -3.3880023    624.55402  0.070237744  0.070502184            2 
  742000   0.97113841   -3.3905321    625.37298   0.07023506  0.070472285            6 
  743000   0.96251423      -3.3745    627.77868   0.07041035  0.070442231            2 
  744000   0.93468654    -3.395852    626.38758  0.070159899  0.070412025            3 
  745000   0.94746415   -3.3640104    630.67132   0.07054489  0.070381102            2 
  746000   0.96582194    -3.388721    627.85815  0.070136076  0.070351149            6 
  747000   0.93866642   -3.3938874    627.67947  0.070022252  0.070320478            2 
  748000   0.94611515   -3.3705636    630.42503  0.070234517  0.070289736            3 
  749000   0.96264085   -3.3813385    629.43986  0.070031138  0.070258953            3 
  750000   0.95428952   -3.4159845    628.38852  0.069820947  0.070227464            2 
  751000     0.950387   -3.3862871    628.70596    0.0697632  0.070196066            3 
  752000   0.94360291   -3.3853844    633.45776  0.070197004  0.070165599            4 
  753000   0.94553191    -3.385399    632.81163  0.070032274  0.070135093            2 
  754000     0.968902   -3.3758407    630.26007  0.069657391  0.070103806            2 
  755000   0.94661469   -3.3896419    632.68988   0.06983332  0.070072532            2 
  756000   0.93286527   -3.4003794    635.13241  0.070010186  0.070041416            4 
  757000   0.95198957   -3.3819998    634.38515  0.069835441  0.070010237            2 
  758000   0.94162096   -3.3900259    635.01448  0.069812498  0.069979779            3 
  759000   0.96213943   -3.3635457    636.21391  0.069852208  0.069949648            2 
  760000   0.95517642   -3.3908419    634.73284  0.069597899  0.069919731            3 
  761000   0.95054719   -3.4097366    636.15024  0.069661656  0.069889545            3 
  762000   0.95078243   -3.4092535    634.89869  0.069433365  0.069859185            4 
  763000   0.95622347   -3.4023951    639.80457  0.069878175  0.069829132            3 
  764000   0.93145832    -3.409771    639.44432  0.069747417  0.069799352            2 
  765000   0.92840111   -3.4186146     637.6641  0.069462321  0.069767962            3 
  766000   0.93974925   -3.4247605    638.14958  0.069424454  0.069736665            3 
  767000   0.95304074   -3.3939414     635.6959  0.069067351    0.0697054            2 
  768000   0.94848312   -3.4071736    639.10775  0.069347629  0.069673934            2 
  769000   0.94205749   -3.3957991    639.51449  0.069301527  0.069642416            3 
  770000   0.96318913   -3.3859674    641.84289  0.069463517  0.069611296            1 
  771000   0.94052633    -3.405964    641.25051  0.069309394  0.069579205            2 
  772000   0.94248747   -3.3866596    641.56028  0.069253052  0.069547891            4 
  773000   0.93745997   -3.4128112    642.85589  0.069303136  0.069516252            3 
  774000   0.94527078   -3.3812259    645.35731  0.069482915  0.069485592            2 
  775000    0.9478873   -3.4131736    645.41587  0.069399556  0.069455397            2 
  776000   0.96591873   -3.4010371    642.68173  0.069016508  0.069424074            9 
  777000   0.94117922   -3.4330662    644.33222  0.069104699  0.069393176            2 
  778000   0.94997485   -3.4015689     646.2651  0.069222911  0.069361635            1 
  779000   0.93670798   -3.4155172    644.59373  0.068955256  0.069330594            2 
  780000   0.94371574   -3.3824251    646.61209  0.069082489  0.069299207            3 
  781000    0.9673847   -3.3977107    646.40288  0.068971711  0.069267792            5 
  782000    0.9226813   -3.3780146    648.34533  0.069090508  0.069237061            3 
  783000   0.92675152   -3.4082888    646.20986  0.068774995   0.06920664            4 
  784000   0.94397519   -3.3793514    651.15427  0.069212827  0.069176171            3 
  785000   0.95062209    -3.405283    648.30546  0.068822236  0.069145361            2 
  786000   0.92549867   -3.4072642    649.41328  0.068852129  0.069114087            5 
  787000   0.93769727   -3.4056153    651.17124  0.068950787  0.069083734            3 
  788000   0.95010732   -3.4169006    651.37231   0.06888455  0.069053187            4 
  789000   0.95151458   -3.4048492    650.92388  0.068749882  0.069022986            2 
  790000   0.93517507   -3.4046516     651.9299  0.068768977  0.068992595            2 
  791000   0.94724989   -3.4186058    653.04195  0.068799194  0.068962165            3 
  792000   0.95198343   -3.4193076    650.68528   0.06846436  0.068931879            2 
  793000   0.93505596   -3.4526223    653.74345  0.068699396  0.068901406            4 
  794000   0.92831164    -3.437911    654.36871  0.068678496   0.06887124            4 
  795000   0.93225268    -3.438818     656.0631  0.068769717  0.068840902            3 
  796000   0.92926921   -3.4173427    654.54648  0.068524548  0.068810155            2 
  797000   0.94173521   -3.4070212    654.71883  0.068456591  0.068779719            2 
  798000   0.95938542    -3.417878    656.72283  0.068580078  0.068749083            2 
  799000    0.9133203   -3.4162995    656.70893  0.068492796  0.068718312            2 
  800000   0.94615726    -3.440531    656.75971   0.06841247  0.068687413            2 
  801000   0.95051776    -3.421685    656.69172  0.068319987  0.068656022            2 
  802000   0.93644324    -3.421413    659.22011  0.068497517  0.068624882            2 
  803000    0.9414362   -3.4160222    659.67606  0.068459533  0.068593918            7 
  804000   0.95307735   -3.4192277    659.56235  0.068362598  0.068562407            3 
  805000   0.93372867   -3.4324798    658.16359  0.068132877  0.068531243            1 
  806000   0.96435269   -3.4261745    659.86633  0.068224393  0.068500136            2 
  807000   0.94277582   -3.3956155    662.78365  0.068441104  0.068469406            3 
  808000   0.92162474   -3.4266071    661.70831  0.068245493  0.068439322            4 
  809000   0.92497352   -3.4282073    662.81406  0.068275037  0.068408977            3 
  810000   0.95280842   -3.4275603    661.23399  0.068028188  0.068377726            4 
  811000   0.92938778   -3.4298873    665.07405  0.068338888  0.068347181            2 
  812000   0.91203754   -3.4172756    668.62444  0.068619092  0.068316957            3 
  813000   0.96342522   -3.4474343    665.86261    0.0682516  0.068286782            1 
  814000   0.93632159   -3.4523336    662.97566  0.067872201  0.068255865            2 
  815000   0.92992098   -3.4183096    666.05177  0.068103453  0.068225504            4 
  816000   0.94300949   -3.4461033    665.74855  0.067989026  0.068194982            7 
  817000   0.93217858    -3.434498    665.95256  0.067926618   0.06816395            1 
  818000   0.93951938   -3.4171428    667.71208  0.068022828  0.068133309            3 
  819000   0.93927938   -3.4474748    666.29319    0.0677954  0.068102784            3 
  820000   0.93333085    -3.449521    666.19931  0.067703182  0.068072258            2 
  821000   0.90910239   -3.4358315    666.95047  0.067696962  0.068041788            3 
  822000   0.92314307   -3.4416069    666.46672  0.067565564  0.068011436            1 
  823000   0.91599733   -3.4397042    670.94237  0.067936651  0.067980533            4 
  824000   0.91556923   -3.4730081    667.46744  0.067502775  0.067948481            4 
  825000   0.91991712   -3.4508241    667.54591  0.067428879  0.067916702            7 
  826000   0.91382412    -3.433776    669.16186  0.067510276  0.067884381            8 
  827000   0.91285733   -3.4513463     668.9588  0.067408182  0.067851185            3 
  828000   0.92574556   -3.4497024    668.93349  0.067324224  0.067818343            5 
  829000    0.9254149   -3.4430353    671.10189  0.067460986  0.067785795            4 
  830000   0.90885042   -3.4229205    670.09312  0.067278425  0.067753282            3 
  831000    0.9060167   -3.4481415    670.09854  0.067198008  0.067721046            1 
  832000   0.91676108   -3.4435879    671.56395  0.067264018  0.067688718            2 
  833000   0.92930899   -3.4284212    673.40116  0.067367063  0.067655571            3 
  834000   0.95234949   -3.4417683    673.05079  0.067251278  0.067623052            3 
  835000   0.91772017   -3.4181082    674.35887  0.067301285  0.067591137            2 
  836000    0.9253699   -3.4389628    673.97069  0.067182086  0.067559302            4 
  837000   0.93302874   -3.4729062    674.74308  0.067178721  0.067526761            4 
  838000   0.93802772   -3.4270233    673.76428  0.067001221  0.067494672            3 
  839000   0.90599022   -3.4292248    677.31085  0.067273624  0.067463222            6 
  840000   0.92101606   -3.4523851     677.2761   0.06719009  0.067431515            4 
  841000    0.9146736   -3.4218894    677.04132  0.067086933  0.067399326            1 
  842000   0.89392256   -3.4533759    674.93001  0.066798299  0.067366846            6 
  843000   0.92287039    -3.466806    675.48345  0.066773769  0.067334005            2 
  844000   0.91684421   -3.4536571    677.96233  0.066939409  0.067301136            6 
  845000    0.9095468   -3.4562396    679.28269  0.066990403   0.06726889            6 
  846000   0.91374772   -3.4209016    680.72825   0.06705361  0.067236722            6 
  847000   0.88833233    -3.463986     679.5185  0.066855421  0.067203127            4 
  848000   0.94228986   -3.4542288    675.09177  0.066341566  0.067169967            2 
  849000   0.91136575   -3.4676946     680.5856   0.06680267  0.067136791            4 
  850000   0.91812996   -3.4506677    680.85138  0.066750136  0.067104305            4 
  851000   0.92144756   -3.4519256    679.01973  0.066492336  0.067070932            2 
  852000   0.93934715   -3.4482443    680.92002  0.066600159  0.067037721            5 
  853000   0.93678867   -3.4566558    681.36772  0.066565818  0.067005003            5 
  854000   0.91338446   -3.4581639    683.16417   0.06666317  0.066971524            2 
  855000   0.91781054   -3.4567385    681.03307  0.066377493  0.066938218            4 
  856000   0.89074963   -3.4285707    679.72584  0.066172687  0.066905484            4 
  857000    0.9113281   -3.4676226    682.24895  0.066340816   0.06687247            5 
  858000   0.90455509   -3.4361875      683.826  0.066416667   0.06683962            7 
  859000   0.92412833   -3.4684656    682.93331  0.066252746  0.066807215            2 
  860000   0.90641727    -3.479629    682.82152  0.066164876  0.066774128            4 
  861000   0.93077176    -3.494234    684.01369  0.066203416  0.066741843            2 
  862000   0.90885272    -3.475147    687.38425   0.06645246  0.066709759            3 
  863000    0.9126307   -3.4628896    685.25116  0.066169482  0.066677167            4 
  864000   0.90299012   -3.4170316    691.68981  0.066713909  0.066644627            3 
  865000   0.89002548   -3.4645631    685.73073  0.066062691  0.066612765            3 
  866000   0.88880069   -3.4573135    687.45727  0.066152547  0.066580164            2 
  867000   0.91274432     -3.45684    687.21232  0.066052703  0.066546994            2 
  868000   0.89885407   -3.4508967    689.54841  0.066200884  0.066513686            2 
  869000    0.9055576   -3.4576416    690.46897  0.066212982  0.066480686            3 
  870000   0.92356893   -3.4632382    689.94744   0.06608692  0.066448282            4 
  871000   0.88120455   -3.4664474    686.38947  0.065670635   0.06641588            3 
  872000   0.89948274   -3.4762547    690.77612  0.066014538  0.066383112            5 
  873000   0.91415318   -3.4883529    690.09436  0.065873841  0.066350376            9 
  874000   0.90949992   -3.4582509    691.33357  0.065916626  0.066317587            2 
  875000   0.90013876   -3.4721945    693.71138   0.06606775  0.066285485            3 
  876000   0.91247094   -3.4899442    695.08087  0.066122609  0.066253099            3 
  877000    0.9152394    -3.467894    693.38353   0.06588593  0.066221464            5 
  878000   0.89504028   -3.4465342    694.62545  0.065928764  0.066189676            2 
  879000   0.90419017   -3.4678305    691.90163  0.065595528  0.066157641            3 
  880000   0.90659271   -3.4329681    696.44252  0.065950996  0.066125458            3 
  881000   0.91404678   -3.4571852    693.18841  0.065568332  0.066093675            1 
  882000    0.8982864   -3.4751994    694.27988  0.065597116  0.066061153            5 
  883000   0.90964871   -3.4644396    694.53593  0.065546992  0.066029069            4 
  884000   0.88936205   -3.4827125    695.84939  0.065596662  0.065996724            4 
  885000   0.91410878   -3.4842789    695.79594  0.065517509  0.065964676            7 
  886000   0.90134762   -3.4510865    699.85627  0.065825458  0.065932772            7 
  887000   0.87129081   -3.4636854    698.93304   0.06566451  0.065901832            3 
  888000    0.8998681   -3.4750205    698.45715  0.065545904  0.065870241            2 
  889000   0.91133095   -3.4844499    702.15966   0.06581924  0.065838316            3 
  890000    0.8813047    -3.496544    700.92959  0.065630111  0.065806041            6 
  891000   0.88966071    -3.474014     700.5398  0.065519996   0.06577429            2 
  892000   0.90373825   -3.4924142    700.91317  0.065481425  0.065742479            5 
  893000   0.91246255   -3.5013858    701.03668  0.065419623  0.065711225            2 
  894000   0.88580428   -3.4771805    705.65622  0.065777052  0.065680346            4 
  895000   0.87164827   -3.4667304    703.33365  0.065487304  0.065649011            4 
  896000   0.90373301   -3.4944201     702.9984  0.065383035  0.065617672            4 
  897000   0.90360489   -3.4928029    702.62921  0.065275846  0.065586202            4 
  898000   0.89228904   -3.4972602    703.89105  0.065320253  0.065554889            6 
  899000   0.90137835   -3.4768156    705.91619  0.065435316  0.065523697            2 
  900000    0.8826221   -3.4678886    706.61369  0.065427193  0.065493368            2 
  901000   0.88561009   -3.4673475    705.77721  0.065277211  0.065462641            4 
  902000   0.89949074   -3.4926935    705.20994  0.065152433  0.065431239            2 
  903000   0.89656103   -3.4973712    706.89238  0.065235546  0.065400034            3 
  904000   0.89288665   -3.4763528    704.87408   0.06497733  0.065368936            2 
  905000   0.88298621   -3.4546705    708.80363  0.065267369  0.065337647            1 
  906000   0.88996922   -3.4522681    710.16361   0.06532042  0.065306155            3 
  907000      0.88737     -3.48225    708.90375  0.065132649   0.06527486            3 
  908000   0.90206574    -3.507299    707.93706  0.064972197  0.065243124            2 
  909000   0.90133877    -3.505261    706.76527  0.064793296  0.065211148            3 
  910000   0.89524259   -3.4676818    710.48459  0.065062691  0.065179413            2 
  911000   0.90460537   -3.4960677    709.80587  0.064929187  0.065147979            4 
  912000   0.91551609   -3.4687194     711.6478  0.065026298  0.065116475            3 
  913000   0.89032579   -3.4830578    711.40272  0.064932705  0.065084995            3 
  914000   0.88963503   -3.4876074     711.4924   0.06486984  0.065053762            4 
  915000   0.88964525   -3.4821835    710.96674  0.064751069    0.0650219            2 
  916000   0.88393355   -3.4961127    713.59153  0.064919171  0.064990367            4 
  917000    0.8898327   -3.5247251    713.09483  0.064803238  0.064958512            3 
  918000   0.90425297   -3.4785174    715.00107  0.064905689  0.064926911            3 
  919000   0.88896302   -3.5113053    710.06225  0.064387219  0.064895131            2 
  920000   0.89725986   -3.5049477    713.23482  0.064604603  0.064863748            1 
  921000   0.88363776   -3.4940816     712.4532  0.064463735   0.06483227            5 
  922000   0.89583844   -3.4855091    715.61477  0.064679571  0.064801173            5 
  923000   0.87213567   -3.4885595    717.30862  0.064762425  0.064770197            2 
  924000   0.88125264   -3.5021507    715.53112  0.064532027  0.064738832            2 
  925000   0.89151141   -3.4872847    715.75156  0.064482123  0.064708244            4 
  926000   0.87154901   -3.4546893     718.9455  0.064699919  0.064677271            5 
  927000   0.86807182   -3.5024742    718.38442  0.064579685  0.064646563            3 
  928000   0.90353195   -3.5051248    720.88657  0.064734786  0.064615593            2 
  929000   0.87962939   -3.4835547    721.44705  0.064715379  0.064584537            3 
  930000    0.8914203   -3.4966376      717.195  0.064264785  0.064553734            4 
  931000   0.86283704   -3.4906178    720.63798  0.064503937  0.064523726            5 
  932000   0.88855386   -3.5048848    719.13025  0.064299915  0.064493767            7 
  933000   0.87958523   -3.4576488    721.35937  0.064430097  0.064463826            6 
  934000   0.87929976   -3.5232247    719.17939  0.064166612  0.064433715            2 
  935000   0.88327333   -3.4988748    720.95426  0.064256173  0.064402829            4 
  936000   0.88274755   -3.5301499    722.31215  0.064308418  0.064371686            6 
  937000   0.88945411   -3.5093727    720.89394  0.064113656  0.064340734            3 
  938000   0.88253502   -3.4773868    721.57828  0.064106102  0.064309898            3 
  939000   0.87014525   -3.5145027    721.26833  0.064010324  0.064278646            2 
  940000   0.88196543   -3.5270299    721.45034  0.063958363  0.064247563            9 
  941000    0.8901542   -3.5303725    721.83595  0.063924544  0.064216469            5 
  942000   0.86553292   -3.5114971    726.66246  0.064283657  0.064185282            4 
  943000   0.89236321    -3.528266    724.53643   0.06402761  0.064154659            8 
  944000   0.87487525   -3.5122525    726.63445   0.06414499  0.064123466            3 
  945000   0.86655481   -3.5080178    726.28472  0.064046271  0.064092861            2 
  946000   0.86881259   -3.5280737    725.55483  0.063914273  0.064061811            4 
  947000   0.88172496   -3.4934432    730.60996  0.064291619  0.064031301            2 
  948000   0.85384972   -3.5289283    724.72737  0.063706696    0.0640005            4 
  949000   0.86144007   -3.5016904    727.72714   0.06390298  0.063969326            2 
  950000   0.86227021   -3.5259892    729.20677  0.063965507  0.063938914            5 
  951000   0.87746291   -3.5139239    727.86204   0.06378041  0.063907827            5 
  952000   0.88536671   -3.4877469    729.34512  0.063843235  0.063877499            5 
  953000   0.86028311    -3.486721    729.20123  0.063763661  0.063847146            4 
  954000   0.86909307    -3.505597    732.10258   0.06395026  0.063817409            3 
  955000   0.87742084   -3.5061412    730.64792  0.063756363  0.063787273            2 
  956000   0.86068759   -3.4992445    732.27972  0.063831914  0.063757308            2 
  957000   0.86466534   -3.4981115     736.8112  0.064159805  0.063727938            3 
  958000   0.86511443   -3.5314075      733.523  0.063806802  0.063698035            4 
  959000   0.87211232   -3.5139444    734.29956  0.063807748  0.063668219            7 
  960000   0.87654374   -3.5306139    732.68034  0.063600724  0.063638832            4 
  961000   0.88239214   -3.5270078    734.51432  0.063693576  0.063609224            5 
  962000   0.86240633   -3.5252706    734.61617  0.063636189  0.063579639            6 
  963000   0.84960276   -3.5277247     736.5551  0.063737894  0.063549789            3 
  964000   0.86770722   -3.5192498    733.76147  0.063430279   0.06352046            4 
  965000   0.87721374   -3.5023393    736.30579  0.063584265  0.063490631            3 
  966000   0.87470186   -3.5250251    738.54591   0.06371169   0.06346145            3 
  967000   0.85500523   -3.5273093    737.03199  0.063515338  0.063432522            3 
  968000   0.86018989     -3.53588    738.32282  0.063560849  0.063403465            2 
  969000   0.87010024   -3.5083588    740.76514  0.063705293   0.06337444            6 
  970000    0.8659116   -3.5186001    742.64436  0.063801061   0.06334505            3 
  971000    0.8920436   -3.5285641    738.70811  0.063397538  0.063316081            2 
  972000   0.87379007   -3.5238792    738.65784  0.063328004  0.063286738            3 
  973000   0.87010221   -3.5266522    738.29255  0.063231633  0.063257178            2 
  974000   0.88383689    -3.522542    740.62586  0.063366346  0.063226948            2 
  975000    0.8667791   -3.5398582    739.55189  0.063209563  0.063197325            4 
  976000    0.8664552   -3.5430963    740.84974  0.063255613  0.063167395            5 
  977000   0.88385296   -3.5109874    741.89771  0.063280255  0.063137903            3 
  978000   0.86465787    -3.518046    742.41888  0.063259959  0.063108738            2 
  979000    0.8621293   -3.5211423     743.9962  0.063329605  0.063078945            2 
  980000   0.87944532   -3.5024576    743.75802   0.06324473  0.063049271            8 
  981000   0.86685813   -3.5187474    742.84571  0.063102762  0.063019995            4 
  982000   0.86311113   -3.5273003    741.77574  0.062947703  0.062989857            3 
  983000   0.86961895   -3.5326045    744.26564  0.063094747   0.06296002           14 
  984000   0.85602168   -3.5421319    744.12079   0.06301836  0.062929937            3 
  985000   0.87901417   -3.5222536     747.3371  0.063226489  0.062900052            3 
  986000   0.87075717   -3.5361015    747.28299  0.063157791  0.062870844            3 
  987000   0.87301173   -3.5596895    743.48872  0.062773448  0.062841372            5 
  988000   0.87119952   -3.5357552    744.23999  0.062773279  0.062811723            2 
  989000   0.85829263   -3.5552964    745.90943  0.062850474  0.062782295            2 
  990000   0.87199584   -3.5423618     747.3263  0.062906254  0.062752242            3 
  991000   0.85209116   -3.5342389    744.54052   0.06260852   0.06272254            5 
  992000   0.84823012    -3.511491    746.54034  0.062713402  0.062692381            9 
  993000   0.85871916   -3.5292794    746.18426  0.062620364  0.062662472            7 
  994000   0.85702587    -3.507587    750.27343  0.062900187  0.062632259            2 
  995000   0.86460607   -3.5266655    747.22109   0.06258133  0.062602594            5 
  996000   0.85438162   -3.5505676    747.59534  0.062549811  0.062572578            3 
  997000   0.84380045   -3.5883179    750.08784  0.062695406   0.06254256            5 
  998000   0.85402415   -3.5310066    751.08475  0.062715828  0.062513033            2 
  999000   0.86404236   -3.5635681    748.79451  0.062462005   0.06248349            4 
 1000000   0.87348125   -3.5599349    749.11567  0.062426306  0.062453622            4 
 1001000   0.85473762   -3.5489636    752.46707  0.062642946  0.062423354            7 
 1002000    0.8508983   -3.5241173    751.17573  0.062473031  0.062393579            5 
 1003000   0.84828172   -3.5341797    752.47321  0.062518545  0.062363985            4 
 1004000    0.8584017   -3.5412174    751.27032  0.062356435  0.062334506            2 
 1005000   0.88188428   -3.5316433    753.24469    0.0624581  0.062305205            4 
 1006000   0.85122858   -3.5573315    753.64663   0.06242931  0.062275958            4 
 1007000   0.84992922   -3.5369456    751.65356   0.06220238  0.062246557            5 
 1008000   0.85896035   -3.5582515    758.30406  0.062690481  0.062217653            4 
 1009000   0.85311177   -3.5508002    758.35393  0.062632469  0.062188879            5 
 1010000   0.84633454   -3.5525432    758.49713  0.062582271  0.062159763            7 
 1011000   0.84107476   -3.5485668    755.58683  0.062280484  0.062131126           12 
 1012000   0.85655712   -3.5637098    755.57472  0.062217945  0.062102335            2 
 1013000    0.8628924   -3.5502336    757.80243  0.062339785  0.062073079            2 
 1014000   0.85446077   -3.5669323    755.86385  0.062118988  0.062044129            2 
 1015000   0.85353416   -3.5501954    758.61163  0.062283385  0.062014976            3 
 1016000   0.84802742   -3.5404584    761.65565  0.062471756  0.061986043            2 
 1017000   0.84970324   -3.5792104    757.43276  0.062064304  0.061957258            8 
 1018000    0.8532345   -3.5454097    762.11745  0.062386825  0.061929213            5 
 1019000   0.85482528   -3.5544615    761.09008  0.062241584   0.06190094            3 
 1020000    0.8513647   -3.5282681    761.43423  0.062208679  0.061872621            6 
 1021000   0.82353651   -3.5488274    759.04287  0.061952569  0.061844093            6 
 1022000   0.84859871   -3.5434475    763.30415  0.062239412  0.061815767            3 
 1023000    0.8387173   -3.5797433    759.75384  0.061889365  0.061786935            4 
 1024000   0.85158259    -3.545131    765.11482  0.062265204  0.061758615            3 
 1025000   0.84818127   -3.5390132    766.13355  0.062287281  0.061730144            2 
 1026000   0.85020947   -3.5583218    762.33841  0.061918324  0.061702068            2 
 1027000   0.85261287   -3.5667003    763.18517  0.061926742  0.061673574            2 
 1028000   0.85057461   -3.5539934    762.38044  0.061801268  0.061644871            2 
 1029000   0.84587954   -3.5577651    765.40305  0.061985994  0.061616046            5 
 1030000   0.84251164   -3.5414419    764.34185  0.061839955  0.061587115            4 
 1031000   0.85267253   -3.5696287    764.25877   0.06177326  0.061558447            4 
 1032000   0.83748951   -3.5632378    766.64431  0.061906033  0.061529646            4 
 1033000   0.81889946   -3.5753433     763.4184  0.061585867  0.061500898            3 
 1034000   0.83276038   -3.5531564    766.02046  0.061736014  0.061472356            2 
 1035000   0.85542646   -3.5586743    767.41595  0.061788724  0.061443879            1 
 1036000    0.8474241   -3.5925479    765.90143  0.061607258  0.061415184            7 
 1037000    0.8378912   -3.5627429    769.18628  0.061811819  0.061387226            6 
 1038000    0.8574812   -3.5593534    770.08778  0.061824645   0.06135877            5 
 1039000   0.82756254   -3.5539527    768.17217  0.061611499  0.061330558            4 
 1040000   0.83089523   -3.5518063    770.71395  0.061755925  0.061302481            2 
 1041000   0.84039243   -3.5693634    766.09662  0.061326979  0.061274642            2 
 1042000   0.83935399   -3.5544901    770.36462  0.061609454  0.061246441            3 
 1043000   0.85018062   -3.6005242    770.44045  0.061556444  0.061218102            4 
 1044000   0.84173046   -3.5592595    774.43106  0.061816017  0.061189858            4 
 1045000   0.82165128   -3.5474256     772.1653   0.06157618  0.061161918            8 
 1046000    0.8457917   -3.5588115    769.23059  0.061283508  0.061133567            6 
 1047000   0.83690092   -3.5833095    772.40137  0.061477345  0.061105275            3 
 1048000   0.84139506   -3.5684192    771.88931  0.061377967  0.061076805            6 
 1049000   0.85030981   -3.6041227    773.42913  0.061441781  0.061048831            4 
 1050000   0.82820004   -3.5885651    772.38623  0.061300495  0.061020973           10 
 1051000   0.81528295   -3.5816857    774.36743  0.061399257  0.060992433           10 
 1052000   0.83196372    -3.607894    773.73236  0.061290586  0.060964075            5 
 1053000    0.8135988   -3.5574126     774.4076  0.061285819   0.06093572            6 
 1054000   0.84299274   -3.5919718    774.33646  0.061222047  0.060907836            6 
 1055000   0.83146831   -3.5949153    777.81656  0.061438907    0.0608799            1 
 1056000   0.83535602   -3.5711126    776.72325  0.061294449  0.060852017            2 
 1057000   0.83153969   -3.5717605    776.52167  0.061220567  0.060823897            8 
 1058000   0.83792397   -3.5725374    775.62623  0.061092173  0.060795736            6 
 1059000   0.84050222   -3.5687539    778.00292  0.061221508  0.060767539            5 
 1060000   0.83343114   -3.5863016    778.97039   0.06123981  0.060739388            3 
 1061000   0.83891872   -3.5942612    778.13829  0.061116736  0.060712011            3 
 1062000   0.83178052   -3.5629638    778.62459  0.061097347  0.060684343            6 
 1063000   0.84462398   -3.5790613    777.41375  0.060944947  0.060656628            6 
 1064000   0.83053347   -3.5929327    778.42974  0.060967242  0.060628665            5 
 1065000   0.83405017   -3.5749371    779.95965  0.061029707  0.060600525            3 
 1066000   0.84655117   -3.5950849    778.71558  0.060875201  0.060572699            7 
 1067000    0.8239844   -3.5959698    782.28761  0.061097127  0.060544452            6 
 1068000   0.83775548   -3.5648712    779.93127  0.060856061  0.060516475            4 
 1069000   0.81211964    -3.598092    779.25492  0.060746408  0.060488178            4 
 1070000   0.82042075   -3.5615826    783.19523  0.060996513   0.06045995            3 
 1071000     0.831076   -3.5999016    779.13579  0.060623699  0.060431501            5 
 1072000   0.84340234   -3.5868247    781.50999  0.060751709  0.060402934            5 
 1073000   0.82688528   -3.5617789    783.19321  0.060825816  0.060374321            2 
 1074000   0.82507662   -3.5862216    781.14719  0.060610427   0.06034581            6 
 1075000   0.81729845   -3.5609007    784.29793  0.060798289  0.060317332            5 
 1076000    0.8144547   -3.5810551    780.47531  0.060445734  0.060289046            8 
 1077000   0.82507966   -3.5905587    783.25791  0.060604914  0.060260507            3 
 1078000   0.81220388   -3.5763414    784.05187   0.06061007  0.060232329            2 
 1079000   0.82685375   -3.6217731    779.74848  0.060221538  0.060204336            3 
 1080000   0.82754879   -3.5806093    781.20884   0.06027846  0.060175895            2 
 1081000   0.81542078   -3.6024712    782.99715  0.060360557  0.060147256            4 
 1082000   0.80765523   -3.6109929    783.98422  0.060380794  0.060118389            6 
 1083000   0.83055369   -3.5914113     784.6436  0.060375777   0.06008986            6 
 1084000   0.80139396   -3.6078836    785.26389  0.060367765  0.060061444            6 
 1085000   0.82560656   -3.6011641    784.07859   0.06022109  0.060033407            7 
 1086000   0.82642971   -3.5934226    786.57937  0.060357533  0.060005151            6 
 1087000   0.81763005   -3.6082841    787.44745  0.060368556   0.05997666            3 
 1088000   0.81827569   -3.5998002    784.19378  0.060063862  0.059948207            5 
 1089000   0.83469847    -3.599624    786.45271  0.060181567  0.059919153            3 
 1090000   0.81305031   -3.6098477    784.76584  0.059997388  0.059890165            3 
 1091000    0.8312575   -3.5761602    786.15104    0.0600482  0.059860898            3 
 1092000   0.82400622   -3.5930631    785.46936   0.05994119  0.059831704            4 
 1093000   0.80558562   -3.6244377    787.46175  0.060038255  0.059802204            2 
 1094000   0.82641389   -3.6046921    787.69529  0.060001164  0.059773033            8 
 1095000   0.81434946   -3.6250237    784.99788  0.059741087  0.059744194            6 
 1096000   0.80478076   -3.5948717    789.01781   0.05999223  0.059714897            3 
 1097000   0.81346705   -3.6103106    789.13832  0.059946697  0.059685889            5 
 1098000   0.80890171   -3.6006416    789.35819  0.059908788  0.059657043            5 
 1099000   0.82245073   -3.6185782    785.53812  0.059564613  0.059627898            5 
 1100000    0.8337835   -3.6347621     788.0347  0.059699599  0.059598309            4 
 1101000    0.8300726   -3.6006115    792.60311  0.059991152  0.059569284            3 
 1102000   0.81440705   -3.6210429    788.35451  0.059615435   0.05954047            4 
 1103000   0.82033944   -3.5859336    790.32545  0.059710294  0.059511256            4 
 1104000   0.81734663    -3.614569    793.12828  0.059867775   0.05948184            4 
 1105000   0.80376066   -3.6029528    793.02436  0.059805759   0.05945291            5 
 1106000    0.8192761   -3.6320243    789.64714  0.059497223  0.059423957            4 
 1107000   0.81977511   -3.5976454    791.88453  0.059611904  0.059394944            3 
 1108000   0.81611495   -3.6061386    793.34507  0.059667951  0.059365988            5 
 1109000   0.80719171   -3.6154141     792.3785  0.059541516  0.059336792            5 
 1110000    0.8206329   -3.6089551    792.39089  0.059488806  0.059307559            4 
 1111000   0.80831107   -3.6152601    791.57694  0.059374208  0.059278305            4 
 1112000    0.8087688   -3.5984396    793.82688  0.059489424  0.059248638            3 
 1113000   0.80313518   -3.6175088    794.39456  0.059478479  0.059219443            3 
 1114000   0.81691917   -3.6042599    795.06707  0.059475394   0.05919012            8 
 1115000   0.81450681   -3.6333852    792.48326  0.059228943  0.059160675            4 
 1116000   0.80536981   -3.6054482    795.78914  0.059422726  0.059131443            5 
 1117000   0.80779362   -3.6260423    795.18206  0.059324236  0.059102452            3 
 1118000    0.8014732   -3.6023839    794.93946  0.059253091  0.059073238            4 
 1119000    0.8234776   -3.6283136    792.21266   0.05899707  0.059044419            3 
 1120000   0.80476839   -3.6028731      796.306  0.059248958  0.059015499            5 
 1121000   0.81015435   -3.6275446    795.93756  0.059168715  0.058986266            4 
 1122000   0.80591849   -3.6079515    797.94703  0.059265228  0.058957294            3 
 1123000   0.80881415    -3.593821    796.34633  0.059093673  0.058928386            5 
 1124000   0.80078636   -3.6458041    796.39695  0.059044851  0.058899425            3 
 1125000   0.80641289   -3.6135959    798.90337  0.059178027  0.058870478            4 
 1126000   0.82212985   -3.6284357    798.05782  0.059062894   0.05884113            6 
 1127000   0.81245837   -3.6029752    797.62919  0.058978792   0.05881206            7 
 1128000   0.80069588   -3.6194754    799.05275  0.059031674  0.058782792            5 
 1129000   0.81962503   -3.6333898    797.71772  0.058880847  0.058753565            6 
 1130000   0.81602766   -3.5999851    799.46706  0.058957748  0.058724767            3 
 1131000   0.80193585   -3.6272089    800.20013  0.058959632  0.058695773            9 
 1132000   0.78981713   -3.6376251    798.24928  0.058763934  0.058666644            6 
 1133000   0.79699469   -3.5992203    798.59815  0.058737728  0.058637036            3 
 1134000   0.82140099   -3.6166405    799.20101  0.058730233  0.058607895            4 
 1135000   0.81481957   -3.6363314    798.55747  0.058631238  0.058578545            7 
 1136000   0.79403498   -3.6492947    800.52439  0.058723914   0.05854914            5 
 1137000   0.80670593   -3.6604568    800.66738  0.058682746  0.058519783            2 
 1138000   0.81635941   -3.6335643    800.24978  0.058600599  0.058490167            4 
 1139000   0.78065318   -3.6400075    803.88759  0.058815305  0.058460968            4 
 1140000   0.80191618   -3.6365967    801.87485  0.058616583  0.058431753            6 
 1141000    0.7951271   -3.6096064    805.14465   0.05880402  0.058402472            3 
 1142000   0.80894524   -3.6040498    803.52205  0.058634125  0.058373673            2 
 1143000   0.80339638   -3.6237276    803.95797  0.058614609  0.058344654            3 
 1144000   0.79387372   -3.6361755    802.77946  0.058477524  0.058315319            5 
 1145000   0.79460973   -3.6220186     802.8065   0.05842842  0.058285804            4 
 1146000   0.78897007   -3.6245288    803.69051  0.058441718   0.05825647            5 
 1147000   0.81004228   -3.6253853    804.76121  0.058468556  0.058227058            2 
 1148000   0.79335631   -3.6131455    804.71665  0.058414391  0.058197767            5 
 1149000   0.80488602   -3.6541122    802.05425  0.058170456  0.058168083            5 
 1150000   0.78369265   -3.6226813    806.06192  0.058410284  0.058138638            4 
 1151000   0.79747654   -3.6601247    805.46942  0.058316639  0.058109488            2 
 1152000    0.8005476   -3.6036097    806.91489   0.05837058  0.058080097            5 
 1153000   0.79066065    -3.662546     805.5338  0.058220136  0.058050861            4 
 1154000   0.78965401   -3.6391847    806.36939  0.058230025  0.058020856            9 
 1155000   0.79094527   -3.6692674    805.01688  0.058082026  0.057991459            4 
 1156000   0.79639527   -3.6462289    805.64248   0.05807688  0.057962385            4 
 1157000   0.79092166   -3.6585002    806.99649  0.058124207  0.057933125            6 
 1158000   0.78254324   -3.6437306    809.39271  0.058246453  0.057903897            6 
 1159000   0.78817917    -3.630382    809.33586  0.058192109  0.057874915            2 
 1160000   0.78825045   -3.6446274    807.75898  0.058028663  0.057845796            2 
 1161000   0.78678903   -3.6451479    808.81738   0.05805465  0.057817106            4 
 1162000   0.79490935   -3.6082863    811.52405  0.058198799  0.057788519            6 
 1163000    0.8289246   -3.6495863    811.32773  0.058134689  0.057760066            5 
 1164000   0.77927475   -3.6326771    812.50715  0.058169183  0.057731678            3 
 1165000   0.77796847   -3.6376457    809.66087  0.057915656  0.057703434            3 
 1166000   0.80675204    -3.640729    811.35835  0.057987303  0.057674795            3 
 1167000   0.78139937    -3.637585    811.67687  0.057960359  0.057645693            5 
 1168000   0.77355791   -3.6612913    810.28012  0.057811082  0.057616924            5 
 1169000    0.7944361   -3.6514649    810.96901  0.057810737  0.057588207            3 
 1170000   0.77416287   -3.6430365     809.2545   0.05763921  0.057559762            4 
 1171000    0.7931294   -3.6569397    810.48709  0.057677704  0.057530744            5 
 1172000   0.78548506   -3.6571342    811.88287  0.057727735  0.057501503            6 
 1173000   0.78617643   -3.6650691    808.92974  0.057468722  0.057472747            5 
 1174000   0.80111477   -3.6482961    811.51962  0.057603607  0.057443787            5 
 1175000   0.78516678   -3.6314824    811.48202  0.057551917  0.057414417            4 
 1176000   0.80358165   -3.6461994    810.14691   0.05740837  0.057385203            7 
 1177000   0.78823594   -3.6462653    812.10815  0.057498453  0.057355927            5 
 1178000   0.76852095   -3.6380528    813.61273  0.057556079  0.057326763            9 
 1179000   0.80061596   -3.6570702    812.41185  0.057422381  0.057297312            4 
 1180000   0.80002132   -3.6463842     811.5276  0.057311271  0.057267438            4 
 1181000   0.78893027     -3.65453     814.2319  0.057453563   0.05723805            7 
 1182000   0.77513336   -3.6527817    815.57323  0.057499523  0.057208796            3 
 1183000   0.79523941   -3.6626863    814.59466  0.057381985  0.057179457            3 
 1184000   0.78481146    -3.672485    813.87861  0.057283123  0.057149715            4 
 1185000   0.77851611   -3.6481134    812.29045  0.057123098  0.057119764            7 
 1186000   0.77761165   -3.6613291    810.61462  0.056957183  0.057090037            4 
 1187000   0.76982747   -3.6736274    813.05176  0.057080298  0.057060041            8 
 1188000   0.80110902   -3.6552255    816.20063   0.05725313  0.057030497            5 
 1189000   0.77602043   -3.6530354     815.1534  0.057131581  0.057000683            5 
 1190000   0.77892182   -3.6694517    813.35912  0.056957922  0.056971082           10 
 1191000   0.77178044    -3.652882    815.03662  0.057027471  0.056941304            4 
 1192000   0.77784765   -3.6583806    814.64929  0.056952551  0.056911775            3 
 1193000   0.78154313   -3.6975079    815.55891  0.056968351  0.056882048            3 
 1194000   0.76345632   -3.6756032    815.64756  0.056926825  0.056852404            3 
 1195000   0.78234878   -3.6605872    818.98041  0.057111604    0.0568231           12 
 1196000   0.76770251   -3.6553976    815.44535  0.056817541   0.05679333            7 
 1197000   0.77169625   -3.6531263    817.44501  0.056909287  0.056764018            8 
 1198000    0.7786578   -3.6650017    817.64497  0.056875694   0.05673417            6 
 1199000   0.76180006    -3.640585    817.78243  0.056837811  0.056704666            3 
 1200000   0.79039189   -3.6790681    816.01118  0.056667443  0.056674797            2 
 1201000   0.77833895   -3.6565974    818.56249  0.056797286  0.056645131            6 
 1202000   0.77412783   -3.6441356    821.21164  0.056933697  0.056615546            3 
 1203000   0.77301386   -3.6747003    819.22469  0.056748731   0.05658605            4 
 1204000   0.76426467   -3.6641966    820.35618  0.056779913  0.056556604            5 
 1205000   0.77387686   -3.6693775     819.3813  0.056665374   0.05652739            7 
 1206000   0.76643341   -3.6798781    820.02812  0.056663082  0.056498057            8 
 1207000   0.76226987   -3.6774241    817.75975  0.056459524  0.056468267            2 
 1208000   0.77033986   -3.6740647    818.16118  0.056440479  0.056438532            6 
 1209000   0.77754549   -3.6743646    819.18109  0.056464095   0.05640909            4 
 1210000    0.7686224   -3.6794611    822.99558  0.056680137  0.056379638            4 
 1211000   0.77273622   -3.6682626    821.06798  0.056500686  0.056350288            8 
 1212000   0.77218301   -3.6736542    820.43589  0.056410608  0.056320862            2 
 1213000   0.76904945   -3.6751328    822.21359  0.056486231  0.056291367            2 
 1214000    0.7527085    -3.671746    822.20685   0.05643924  0.056262059            6 
 1215000   0.76843327   -3.6503279     821.0336  0.056312318  0.056232699            5 
 1216000    0.7567734   -3.6654788    824.47868  0.056502102  0.056203299            4 
 1217000   0.75896108   -3.7091872    822.45345  0.056316998  0.056173654            5 
 1218000   0.77249418   -3.6969384    822.48059  0.056272618  0.056144399            9 
 1219000   0.77992568   -3.6799917    823.89645  0.056323246   0.05611472            5 
 1220000   0.74978416   -3.6892622    822.11984  0.056155727  0.056085495            8 
 1221000   0.77340204   -3.6789469     825.4187  0.056334883  0.056056087            4 
 1222000   0.76062071   -3.6877755    822.36153  0.056080301  0.056026392            7 
 1223000   0.75728558    -3.680175    823.18307  0.056090424  0.055996454           11 
 1224000   0.76934605   -3.6878982    823.81933  0.056087917  0.055966982            6 
 1225000   0.78259265   -3.6742176    823.50385   0.05602067  0.055937812            4 
 1226000   0.75603173   -3.7002024    824.16344  0.056019809  0.055908319            5 
 1227000   0.75872273   -3.7115353    825.64373  0.056074689  0.055878963            7 
 1228000    0.7699387    -3.687302    823.73242  0.055899323  0.055849441            6 
 1229000   0.77140492   -3.6999509    826.30524  0.056028291  0.055819865           10 
 1230000   0.74759649   -3.7007934    823.35321  0.055782738  0.055790232            7 
 1231000   0.74229974   -3.6891856    825.62319  0.055891091  0.055760391            5 
 1232000   0.74624882   -3.7081096    823.92757  0.055731031  0.055730254            6 
 1233000   0.75668864   -3.6781683    826.11932  0.055833963  0.055700419            5 
 1234000   0.76485755   -3.6890178    828.61895   0.05595752    0.0556705            2 
 1235000   0.77596973   -3.6805221    829.59214  0.055977877  0.055641107            5 
 1236000   0.77604194   -3.6893059    825.77184  0.055675016  0.055611306            5 
 1237000   0.74576241   -3.6911479    826.22359  0.055660441  0.055581736            3 
 1238000   0.77454317   -3.7036854    826.64998  0.055644183  0.055551956            8 
 1239000   0.76432706    -3.706931    826.16452  0.055566621  0.055522106            4 
 1240000   0.75486393   -3.7073234    827.34398  0.055601074  0.055492336            8 
 1241000   0.75552591   -3.6782591    829.12941  0.055676162  0.055462756            2 
 1242000   0.75883223   -3.7179854    828.42091  0.055583797   0.05543316            7 
 1243000   0.74804586   -3.6957959    830.07445  0.055649936  0.055403975            3 
 1244000   0.75779723   -3.7299174    828.96842  0.055531111  0.055374755           15 
 1245000   0.77924424   -3.6982101    829.05835  0.055492527   0.05534536           13 
 1246000   0.75240648   -3.6781343    829.80783  0.055498116  0.055316329            2 
 1247000   0.74572663   -3.6915632    829.55464  0.055436691  0.055287326            5 
 1248000   0.76938292   -3.7075363    830.98564  0.055487823  0.055258155            4 
 1249000   0.77292386   -3.6930636    831.24961   0.05546101  0.055229129            3 
 1250000   0.76500865   -3.6946308    830.77222  0.055384814  0.055199915            3 
 1251000    0.7528673   -3.7190357    830.76721  0.055340209  0.055170806            4 
 1252000   0.75776175   -3.7058871    831.87697  0.055369873  0.055141656            3 
 1253000    0.7606422   -3.7043327    830.96321  0.055264912  0.055112013            7 
 1254000   0.74530955   -3.7137448    830.76489  0.055207662  0.055082079            4 
 1255000   0.76677763   -3.7163167    831.39634  0.055205601  0.055052381            4 
 1256000   0.76623678   -3.7055957    830.18123  0.055081026  0.055022604            5 
 1257000   0.75434439   -3.6971974    831.74704  0.055141013  0.054993185            9 
 1258000   0.75923699   -3.7214451    831.37705  0.055072671  0.054963594            4 
 1259000    0.7492787   -3.7082764    831.82844  0.055058806  0.054933762            4 
 1260000   0.75453764   -3.7155355    831.32628  0.054981897  0.054904084            7 
 1261000    0.7396345   -3.7121851    832.96161  0.055046366   0.05487471            6 
 1262000   0.74827212   -3.7224009    830.53974  0.054842825  0.054845016            6 
 1263000   0.74543485   -3.7203239    832.68637  0.054941038  0.054815425            7 
 1264000   0.74549971   -3.7009514     833.5778  0.054956342  0.054785733            7 
 1265000   0.74252697   -3.7080847    831.43096  0.054771473  0.054756266            6 
 1266000   0.74118793   -3.7140244    832.66393  0.054809368  0.054726911            4 
 1267000   0.76293392    -3.703135    832.56194  0.054759401  0.054697288            5 
 1268000   0.75337195   -3.7355161     832.8403   0.05473451  0.054667509            3 
 1269000   0.74506683   -3.6996836    832.20134  0.054649418   0.05463811            9 
 1270000   0.75866419   -3.7195056     835.2439   0.05480603  0.054608327            4 
 1271000   0.77674504   -3.7284761    831.48174  0.054516243  0.054578585            7 
 1272000   0.74612485   -3.7327763    835.06166  0.054707918   0.05454913            7 
 1273000   0.75843498   -3.7093499    838.14447   0.05486675  0.054519962            4 
 1274000   0.73214845   -3.7226876    838.11212  0.054821567  0.054490659           10 
 1275000   0.72521689   -3.7214377    836.09832  0.054646949  0.054461361            3 
 1276000   0.75312066   -3.7221944    835.96058  0.054595127  0.054432163            5 
 1277000   0.73929498   -3.7096007    837.17849  0.054631851  0.054402806            6 
 1278000   0.73717967   -3.7105917    838.34009  0.054664847  0.054373898            7 
 1279000   0.74779592   -3.7371561    839.42686  0.054692915  0.054344775            5 
 1280000    0.7434585   -3.7236408    838.18267  0.054569184  0.054315404            5 
 1281000   0.73765407   -3.7179227    836.24678  0.054400649  0.054286073           12 
 1282000   0.75624758   -3.7361882    837.48287  0.054438564  0.054256821            8 
 1283000   0.75404044    -3.720297    838.03771  0.054432171  0.054227721           12 
 1284000   0.74426544   -3.7033377    836.97053  0.054320517  0.054198467            4 
 1285000   0.72882491   -3.7264792    839.46626  0.054440095  0.054169532            3 
 1286000   0.74344976   -3.7341969    839.97457    0.0544307  0.054140208            5 
 1287000   0.75447895   -3.7610808    836.43626  0.054159302  0.054110842            4 
 1288000   0.72992488   -3.7213972     841.5445  0.054447755   0.05408197            6 
 1289000   0.73463522   -3.7181661    842.32948  0.054456263   0.05405301            3 
 1290000   0.74422558   -3.7361879    840.52182  0.054297275  0.054024265            6 
 1291000   0.73470693   -3.7379317    843.16558   0.05442587  0.053995676            5 
 1292000   0.73163442   -3.7253328    840.14405  0.054188858  0.053966989            6 
 1293000   0.73947627   -3.7175503    841.84577  0.054256624  0.053938452            3 
 1294000    0.7257283   -3.7425771    842.47215  0.054255033  0.053909836            3 
 1295000   0.74362196   -3.7202841    841.33567  0.054140005  0.053881369            6 
 1296000   0.72158737   -3.7254099    845.06605  0.054338095  0.053853076            3 
 1297000   0.73882028   -3.7129322    844.53665  0.054262185  0.053824561            3 
 1298000   0.72346833    -3.711676    847.47052  0.054408739  0.053795954            5 
 1299000    0.7185847    -3.730048     843.5806  0.054117308  0.053767527            6 
 1300000   0.73340674   -3.7314648    847.55895  0.054330702  0.053738878            7 
 1301000   0.75524506   -3.7308006    846.85648  0.054243946  0.053710438            6 
 1302000   0.73731649   -3.7198391    844.84385  0.054073467  0.053681942            7 
 1303000   0.74975392   -3.7151021    843.55679  0.053949654  0.053653709            6 
 1304000   0.72800996   -3.7418086     843.8415  0.053926476  0.053625057           11 
 1305000   0.74922763   -3.7411192    842.48821  0.053798736  0.053596666            4 
 1306000   0.72830076   -3.7452452    844.97897  0.053916473   0.05356837            7 
 1307000   0.73481552   -3.7496747    846.82375  0.053992843   0.05353986            6 
 1308000   0.73714739    -3.741308     846.8342   0.05395223  0.053511681            5 
 1309000   0.74423497   -3.7277518    845.58274  0.053831343   0.05348339            5 
 1310000    0.7340778   -3.7457679    847.30339  0.053899707  0.053454956            5 
 1311000   0.72633138   -3.7336478     846.0733  0.053780403  0.053426731            5 
 1312000    0.7209765   -3.7246338    849.07052  0.053929784  0.053398111            7 
 1313000   0.73060009   -3.7146115    847.88927  0.053813739  0.053370149            3 
 1314000   0.72317795   -3.7358371    846.79509  0.053703392  0.053341921            8 
 1315000   0.72916329   -3.7463121     846.9294  0.053671064  0.053313632            3 
 1316000   0.72805731   -3.7134273    849.84029  0.053814608  0.053285322            7 
 1317000   0.72408607   -3.7387111    848.22679  0.053671652  0.053256962            3 
 1318000   0.72700021   -3.7518628    850.78047  0.053792392  0.053228692            5 
 1319000   0.71224369   -3.7574018    847.51057  0.053545019  0.053200142            7 
 1320000   0.71699959   -3.7555938    849.08566  0.053603893   0.05317198            5 
 1321000   0.73512393   -3.7539356    847.47942  0.053461987    0.0531436           10 
 1322000    0.7310512   -3.7490599    848.72517  0.053500074  0.053115348            6 
 1323000   0.71933023   -3.7517713    846.60255  0.053325936     0.053087            8 
 1324000   0.72591182   -3.7605058    846.73745   0.05329415  0.053058457           11 
 1325000   0.73499673   -3.7632981    850.54346  0.053493299  0.053029854            3 
 1326000   0.72125723   -3.7176148     851.8535  0.053535288  0.053001489            2 
 1327000   0.72141274   -3.7641409    851.19741  0.053453743  0.052973432            4 
 1328000   0.73341196   -3.7475835    850.23915   0.05335336  0.052945144            7 
 1329000   0.71599554   -3.7576505    851.13698  0.053369512  0.052916884            6 
 1330000   0.69926814   -3.7567628    849.10949  0.053202349  0.052888875           10 
 1331000   0.73231376   -3.7690264    851.33748  0.053301871  0.052860796            4 
 1332000   0.72597196   -3.7438104    850.28409  0.053195951  0.052832888            4 
 1333000   0.71923715   -3.7482244    852.00914  0.053263887  0.052804887            7 
 1334000   0.71179668   -3.7735916    852.60837  0.053261393  0.052776851            5 
 1335000   0.71239245   -3.7575231    849.96143  0.053056269  0.052748648            4 
 1336000   0.71322866   -3.7587707    851.61139  0.053119473  0.052720478            9 
 1337000   0.72832255   -3.7846089    849.44188   0.05294452  0.052692263            5 
 1338000   0.71399879   -3.7594211     851.0175  0.053003083  0.052663688            5 
 1339000   0.71698554   -3.7606894    854.25318  0.053164873  0.052635568            4 
 1340000    0.7249557   -3.7397359    854.15971  0.053119385  0.052607668            6 
 1341000   0.70747045   -3.7472448    853.28922  0.053025679  0.052579903            4 
 1342000    0.7094495   -3.7656998    853.76783  0.053015886  0.052552029            5 
 1343000   0.73016957   -3.7875008    853.11716  0.052936036  0.052523994            5 
 1344000   0.72538604   -3.7949508    852.98454  0.052888427  0.052495971            5 
 1345000   0.71343616   -3.7529777    855.97098  0.053034138  0.052467919           11 
 1346000   0.71503153   -3.7672933    855.14836  0.052943806  0.052439933            2 
 1347000   0.73085112   -3.7708788    856.63917  0.052996731  0.052412005            8 
 1348000   0.71018853   -3.7688328    856.17325  0.052928613  0.052384027            5 
 1349000   0.71573256   -3.7772829     853.2921  0.052711397  0.052356074            6 
 1350000   0.71161632   -3.7678345    856.07916  0.052844393  0.052328093           12 
 1351000   0.71288832   -3.7654016    855.75531  0.052785302  0.052300346            5 
 1352000    0.7106874   -3.7615835     856.3011    0.0527799  0.052272852            3 
 1353000   0.73091619   -3.7835612    856.34012  0.052743294  0.052245374           18 
 1354000   0.71196067   -3.7742677    857.13329  0.052753157  0.052217811            4 
 1355000   0.70872091   -3.7592497    858.09612  0.052773439  0.052190175           11 
 1356000   0.71150872   -3.7888746    857.83415  0.052718421  0.052162515            9 
 1357000   0.72279513   -3.7841583    858.00641   0.05269015  0.052134778           10 
 1358000   0.71082291   -3.7759863    858.88616  0.052705337    0.0521069            7 
 1359000   0.70876217   -3.8046381    856.58014  0.052525149  0.052078945           10 
 1360000   0.70923978   -3.7720608    857.15575  0.052521798  0.052051314            3 
 1361000   0.72986338   -3.7642232    858.59436  0.052571293  0.052023605            8 
 1362000   0.70389596   -3.7834053    856.56543  0.052408555  0.051995993            5 
 1363000   0.70307641    -3.774919    859.51573  0.052550485  0.051968446            7 
 1364000   0.70835618   -3.7763536    859.57731   0.05251572  0.051940891            4 
 1365000   0.72061219   -3.7670587    861.14031  0.052572668  0.051913181            5 
 1366000   0.71278835   -3.7687219    860.76018  0.052510992  0.051885326            8 
 1367000   0.68753873   -3.7799205    859.14785   0.05237429  0.051857831            6 
 1368000   0.71056516     -3.79775    859.41961  0.052352559  0.051830356           11 
 1369000   0.71296356   -3.7903338    860.18917  0.052361162  0.051802494            3 
 1370000   0.70870527   -3.7703088    862.22638   0.05244686  0.051774988            4 
 1371000   0.69447562   -3.7656918    860.01914  0.052274443  0.051747619            6 
 1372000    0.6908358   -3.8074441    859.94766  0.052232001  0.051719759            8 
 1373000   0.69680929   -3.8080029    861.13361  0.052265939   0.05169198            8 
 1374000   0.70378013   -3.8062292    860.14245  0.052167786  0.051664418            6 
 1375000   0.71756397   -3.8032022    859.18353  0.052071729  0.051636975           10 
 1376000   0.71414739   -3.7976585    860.82284  0.052133166  0.051609693            4 
 1377000   0.71500024   -3.7888417    862.18802  0.052177924  0.051582253            5 
 1378000   0.69585172   -3.8067601    862.80519  0.052177382  0.051554903            4 
 1379000   0.69295827   -3.7887023    863.19827  0.052163299  0.051527712            7 
 1380000   0.70181657   -3.7780835    862.27325  0.052069641  0.051500599            6 
 1381000   0.69750591   -3.7621319    864.49927  0.052166261  0.051473585            3 
 1382000   0.70475035   -3.8085475    862.21347  0.051990682  0.051446516            5 
 1383000   0.70555582   -3.7934846    862.71637  0.051983392  0.051419374            7 
 1384000   0.70013309   -3.7966221    863.42058  0.051988233  0.051392195            5 
 1385000   0.68003524   -3.8028364      863.876  0.051978099  0.051365131            5 
 1386000   0.70027726   -3.8014021    863.50539  0.051918314  0.051337756            7 
 1387000   0.69691039   -3.8075832    865.06427  0.051974541  0.051310416            4 
 1388000   0.69677436   -3.7801948    864.42157  0.051898509  0.051283236            6 
 1389000   0.70176004   -3.8044759    864.51061  0.051866487  0.051256029            9 
 1390000   0.69932846   -3.8114036    865.31011  0.051877105  0.051228861            7 
 1391000    0.6885778   -3.7859972    866.45592  0.051908454   0.05120164            7 
 1392000   0.69240749   -3.8063008     865.6302  0.051821731  0.051174536            7 
 1393000   0.69577096   -3.7946622    866.09518  0.051812346  0.051147242            9 
 1394000    0.6834979   -3.8102501    864.56516  0.051683714   0.05111979            6 
 1395000   0.68944183   -3.7994968    866.50928  0.051762801  0.051092342            4 
 1396000   0.70656194   -3.7927244    866.42548  0.051720719   0.05106492           14 
 1397000   0.68793677   -3.8075443    863.16876  0.051489427  0.051037417           13 
 1398000    0.6907185   -3.8007832    863.64994  0.051481279  0.051009652            4 
 1399000   0.69544088   -3.8045727    864.74398  0.051509649  0.050982041            6 
 1400000   0.69444144   -3.7972486     863.3949  0.051392554  0.050954426            6 
 1401000   0.69213916   -3.8018227    864.93704  0.051447599  0.050926789           11 
 1402000   0.70372108    -3.804519    867.12087  0.051540708  0.050898962            6 
 1403000   0.70188386   -3.8051268      862.922  0.051254573  0.050871069           12 
 1404000   0.68107187   -3.8188447    864.04739  0.051284864  0.050843252            6 
 1405000   0.67237037   -3.8123019    866.92692  0.051419153  0.050815588            6 
 1406000   0.67751384   -3.8108132    865.95316  0.051324867  0.050787958            4 
 1407000   0.69046596   -3.8011132     866.3167   0.05130992  0.050760297            5 
 1408000   0.69000617   -3.8032254    866.44094  0.051280832  0.050732799            4 
 1409000   0.68733552    -3.815882     867.4006  0.051301195  0.050705166            5 
 1410000   0.68470714   -3.8062191    866.62639  0.051219054  0.050677804            8 
 1411000   0.68920659   -3.8214552    864.02015   0.05102883  0.050650265            5 
 1412000   0.70496779   -3.8211154    867.02033  0.051169755  0.050622725            6 
 1413000   0.67466026   -3.8209009    868.02462  0.051192771  0.050595348            7 
 1414000   0.69564609   -3.8263816    868.40863  0.051179198   0.05056787            5 
 1415000   0.70089018   -3.8031075    868.01282  0.051119719  0.050540483            8 
 1416000   0.69886542   -3.8061546    870.41336  0.051224892  0.050513187            8 
 1417000   0.68774821   -3.8274557    869.54426   0.05113763  0.050485899            4 
 1418000    0.6860705   -3.7945584    867.51508  0.050982315  0.050458651            9 
 1419000   0.69552129   -3.8153105     868.1738  0.050985072  0.050431356            5 
 1420000   0.69867656   -3.8089596    871.68898  0.051155456  0.050404186            3 
 1421000   0.67841522   -3.8118655    873.69035  0.051236825  0.050377218            7 
 1422000   0.67531841   -3.8148619    869.74022  0.050969305  0.050350264            8 
 1423000   0.67636453   -3.8196312     869.1209  0.050897219  0.050323059            7 
 1424000   0.68978816   -3.8345643    868.97851  0.050853143  0.050295689            3 
 1425000   0.68796125   -3.8189205     870.2103  0.050889491  0.050268342            8 
 1426000   0.67546502   -3.8364712    868.56237  0.050757502  0.050241081            7 
 1427000   0.68559844   -3.8212842    872.85392  0.050972549  0.050213875            4 
 1428000   0.68201714   -3.7856311    871.02108  0.050829895  0.050187183            4 
 1429000   0.66490018   -3.8195867    869.73711  0.050719449  0.050160205           17 
 1430000   0.68192485   -3.8248881    874.51478    0.0509624  0.050133197            7 
 1431000   0.68412704   -3.8148479    872.56195  0.050813065  0.050106434            7 
 1432000   0.67786593   -3.8242801    873.39129  0.050825843  0.050079619           11 
 1433000   0.67709475   -3.8470011    871.95877   0.05070707  0.050052709            6 
 1434000   0.68258637   -3.8202517    873.12669   0.05073958  0.050025707            7 
 1435000   0.68603189   -3.8209386    873.82072  0.050744525  0.049998788            7 
 1436000   0.68415891   -3.8397775    871.00422  0.050545742  0.049971675            6 
 1437000   0.67560028   -3.8420405    869.66237  0.050432752  0.049944449           10 
 1438000   0.67905774    -3.853965    870.49331  0.050445834  0.049917252            9 
 1439000   0.69280427   -3.8234049    873.51744  0.050585907  0.049890167            9 
 1440000   0.67388454    -3.810179    873.48396  0.050548841  0.049863236            4 
 1441000   0.67836676   -3.8330218    873.26624  0.050501171  0.049836323            4 
 1442000   0.67903381    -3.825032    873.56011  0.050483132  0.049809412            5 
 1443000    0.6726675   -3.8435323    872.75336  0.050401557  0.049782308           10 
 1444000   0.66530796   -3.7960028    875.14121  0.050504456  0.049755547            5 
 1445000    0.6792087   -3.8501982    874.89277  0.050455177  0.049728676           10 
 1446000   0.67838766   -3.8462917    873.56195  0.050343588  0.049701592            8 
 1447000    0.6914052   -3.8229341     874.8139  0.050380897  0.049674667            5 
 1448000   0.67015951   -3.8364299    873.73986  0.050284292  0.049647489            8 
 1449000   0.66489054   -3.8407894     872.0772  0.050153968  0.049620379            5 
 1450000   0.69130142   -3.8446654    874.36437  0.050250826  0.049593303            7 
 1451000   0.67914586    -3.826492    875.17062  0.050262498  0.049566194            6 
 1452000   0.66840795    -3.834679    873.84875  0.050152017  0.049538831            4 
 1453000   0.66773834   -3.8146425    877.63757    0.0503348   0.04951159            4 
 1454000   0.68445242   -3.8519673    873.40617  0.050057667  0.049484397            7 
 1455000   0.67611477   -3.8443345    875.22125  0.050127219  0.049456969            6 
 1456000   0.67443957   -3.8421472    875.22087   0.05009277  0.049429731            6 
 1457000   0.67383225   -3.8269894    874.42171  0.050012681  0.049402398            9 
 1458000   0.66262313   -3.8344728    874.81072  0.050000613  0.049375385           12 
 1459000   0.67988006   -3.8223223    873.24328  0.049876815  0.049348185            7 
 1460000   0.66650602   -3.8262175     872.8848  0.049822192  0.049320946            4 
 1461000   0.66364212   -3.8370288    875.61737  0.049943952  0.049293669           10 
 1462000   0.68107388   -3.8232085    874.86353  0.049866822  0.049266421            7 
 1463000   0.68711251    -3.854828    871.88081  0.049662839  0.049239122           10 
 1464000   0.67411582   -3.8546686    876.12741  0.049870641  0.049211571            9 
 1465000   0.67145699   -3.8569047    878.09101  0.049948294  0.049184346            4 
 1466000   0.67234038    -3.864726    875.27672  0.049754248   0.04915689            6 
 1467000   0.66912689   -3.8366442    873.00928  0.049591529  0.049129573            9 
 1468000   0.67277507   -3.8454324    875.00675  0.049671137  0.049102411            7 
 1469000   0.66881599   -3.8510916    872.73374  0.049508381  0.049075204            9 
 1470000   0.66464927   -3.8545616    874.87632  0.049596164   0.04904804            8 
 1471000   0.66053593   -3.8445206    875.75323  0.049612125  0.049020968            9 
 1472000   0.67803777   -3.8523717    877.17535   0.04965893  0.048993949            5 
 1473000   0.67488656   -3.8766751    871.92755   0.04932833  0.048966797            5 
 1474000   0.66112603   -3.8618353    877.64634  0.049618178  0.048939674            5 
 1475000   0.65828439   -3.8651281     876.9669  0.049546153  0.048912631            5 
 1476000   0.67274548   -3.8752936    876.42692  0.049482098  0.048885619           10 
 1477000   0.64987531   -3.8479009    880.47072   0.04967675  0.048858667            6 
 1478000   0.66307387   -3.8462098    877.36186  0.049467854  0.048831845            8 
 1479000   0.66002679   -3.8599351    877.62973    0.0494495  0.048805038           13 
 1480000   0.66439625   -3.8584455    879.67896  0.049531473    0.0487783            2 
 1481000   0.66129418    -3.851714    880.56041  0.049547626  0.048751567            8 
 1482000   0.64937687   -3.8622047     879.2723  0.049441762  0.048724982            6 
 1483000   0.65968328   -3.8399745    879.25417  0.049407405  0.048698342            5 
 1484000   0.65765352   -3.8644842    881.37505  0.049493208   0.04867161            3 
 1485000   0.64680757   -3.8820631    879.92231  0.049378356  0.048644698            6 
 1486000   0.65479566   -3.8715408     879.8751   0.04934248  0.048618107            5 
 1487000   0.65078442   -3.8643868    879.65691   0.04929707  0.048591334           11 
 1488000   0.67608628   -3.8616065    878.25262  0.049185295  0.048564413            8 
 1489000   0.65543291   -3.8486865    881.92726  0.049357917  0.048537762            2 
 1490000   0.65393275   -3.8711828    880.32706  0.049235294  0.048511119            5 
 1491000   0.64666335   -3.8697773    879.58307   0.04916069  0.048484361            5 
 1492000   0.66455133   -3.8530458    882.19026  0.049273361  0.048457642            6 
 1493000   0.65383872    -3.861118    881.30257  0.049190811  0.048431025            7 
 1494000   0.65373824   -3.8829921     880.8605  0.049133227  0.048404173            7 
 1495000   0.65513044     -3.87713    879.70734  0.049036083  0.048377266            7 
 1496000   0.65551769   -3.8638782    882.43269  0.049155119  0.048350603            5 
 1497000    0.6644198   -3.8643406    881.12536  0.049049508  0.048323878            6 
 1498000   0.65425741   -3.8807342    880.90511  0.049004512  0.048296879           11 
 1499000   0.64838827   -3.8506372    883.16234  0.049097306  0.048270343            4 
 1500000   0.64807166   -3.8653074    882.03896  0.049002165  0.048243675            8 
 1501000   0.67185605   -3.8725943    880.31598  0.048873861  0.048217029            3 
 1502000   0.66576321   -3.8795657    878.73521  0.048753618  0.048190168           13 
 1503000   0.65774903   -3.8908822    882.61162  0.048936107  0.048163296            7 
 1504000   0.65234806    -3.861154    881.48071  0.048840908  0.048136676            8 
 1505000   0.65408146   -3.8715862     883.5547  0.048923294  0.048110267            3 
 1506000   0.65953886   -3.8443801     885.1623  0.048979764   0.04808382            4 
 1507000   0.65051792    -3.882311    883.12675  0.048834702  0.048057385            4 
 1508000    0.6380507   -3.8790636    884.32715  0.048868653  0.048031074            7 
 1509000   0.65240932   -3.8936707    884.75526  0.048859911  0.048004652            3 
 1510000   0.63986487   -3.8792674     883.3246  0.048748598  0.047978225           10 
 1511000   0.63942173   -3.8857802     883.2657  0.048713087  0.047951698           14 
 1512000   0.64696952   -3.8789566    882.90269  0.048660863  0.047925249            4 
 1513000   0.63983302   -3.8973281    882.63866  0.048614158  0.047898805           13 
 1514000   0.64878889   -3.8651171    885.43947   0.04873621  0.047872539            5 
 1515000   0.65063726   -3.8949275    885.22377  0.048692177  0.047846302           13 
 1516000   0.64065334    -3.882014    886.13138  0.048709948  0.047820063           10 
 1517000   0.65242452   -3.8727344     886.2595  0.048684877  0.047793824            8 
 1518000   0.66152631   -3.8998974    883.52453  0.048502664  0.047767442            8 
 1519000   0.64578738   -3.9059411    885.46631  0.048577261  0.047740947           11 
 1520000     0.643224    -3.897193    885.39757  0.048541533  0.047714751            6 
 1521000   0.65230103   -3.9119414    886.52751  0.048571527  0.047688697            4 
 1522000   0.63806309   -3.9052484    886.45238    0.0485355  0.047662603            6 
 1523000   0.64399597   -3.8877985    886.11774  0.048485322  0.047636513            4 
 1524000   0.65532524   -3.8823958    887.93528  0.048552891  0.047610304           11 
 1525000   0.64793781   -3.8904113    888.57214  0.048555855  0.047584295            4 
 1526000   0.64316648   -3.8994923    888.96119  0.048545281  0.047558197           10 
 1527000   0.64272691   -3.8851581    888.88698   0.04850944  0.047532211            5 
 1528000   0.62651356   -3.9085347    887.55675  0.048405146  0.047506204            4 
 1529000   0.65087014   -3.9091882    887.90772  0.048392616  0.047480205            4 
 1530000   0.64151622   -3.8845607    887.07757  0.048315772   0.04745417           12 
 1531000   0.64741407   -3.9328834    886.34391   0.04824428   0.04742808           11 
 1532000    0.6359356   -3.9076875    890.10114  0.048417164  0.047402077            7 
 1533000   0.63132712   -3.8947009     887.7545  0.048258018  0.047376169            6 
 1534000   0.63104004   -3.9028881    890.68894   0.04838597  0.047350267            6 
 1535000   0.62838784    -3.904486    889.77453  0.048304806  0.047324345            5 
 1536000    0.6377962   -3.8950426    890.30459  0.048302115  0.047298449           12 
 1537000   0.64418486   -3.9215584     886.4137  0.048059732  0.047272269            8 
 1538000   0.64762216   -3.9068326    888.40412  0.048136331  0.047246394           17 
 1539000   0.63904851   -3.9233886    886.09106  0.047979806  0.047220169            9 
 1540000   0.63556693   -3.8825407    889.55739  0.048136222  0.047194136            6 
 1541000    0.6463667   -3.9403639    886.63398  0.047946895  0.047167867            4 
 1542000   0.63302295   -3.8923629    889.53077   0.04807235  0.047141674            9 
 1543000   0.64265145   -3.9356157    886.57864  0.047881758  0.047115467           13 
 1544000   0.64703012    -3.876745    888.93961  0.047978174   0.04708923            6 
 1545000   0.63306839   -3.9127831    888.54259  0.047925706   0.04706298           12 
 1546000   0.64591481   -3.8950996    889.29329  0.047935171  0.047036678            7 
 1547000    0.6360786   -3.8914916    886.88203  0.047774296  0.047010511            6 
 1548000   0.64689325   -3.8942157    889.79033  0.047899996  0.046984493            9 
 1549000   0.62572757   -3.9089362    887.07104   0.04772278  0.046958257           10 
 1550000   0.63099313   -3.9113275    885.11442  0.047586797  0.046931843           14 
 1551000   0.63709067   -3.9251944     887.6326  0.047691414  0.046905223            6 
 1552000   0.64759983   -3.8950418    888.58631  0.047711894  0.046878988            7 
 1553000   0.63892609   -3.8941318    888.91349  0.047698727   0.04685254           12 
 1554000   0.62910063   -3.9218114     888.6332  0.047653003   0.04682602            9 
 1555000   0.63718737   -3.9310013     888.7871  0.047630606  0.046799641           18 
 1556000   0.62541235   -3.9271924    889.10982  0.047617278   0.04677314            7 
 1557000   0.62487661   -3.9340931    887.82566  0.047517965  0.046746494            7 
 1558000   0.63195899   -3.9171259    887.59513  0.047475135  0.046720152            6 
 1559000   0.63502971   -3.9205252    889.00513  0.047520052  0.046694002           11 
 1560000   0.63245054   -3.9238901    887.61546  0.047415356  0.046667798           15 
 1561000   0.60791214   -3.9215769    887.99526  0.047405256  0.046641413            6 
 1562000   0.63791407   -3.9214347    889.44831  0.047452428   0.04661514            4 
 1563000   0.61599613   -3.9105173    890.99825  0.047504705  0.046588885           18 
 1564000   0.62604698   -3.9145773    889.99323  0.047420782  0.046562673            9 
 1565000   0.61763604   -3.9116403    889.68565  0.047374103  0.046536509           11 
 1566000   0.63216192   -3.9203177    890.32717  0.047377989  0.046510273            9 
 1567000   0.62271471   -3.9115953    891.13381  0.047390651  0.046484178            4 
 1568000   0.62820884   -3.9284912    889.11199  0.047252976  0.046457935            7 
 1569000   0.63272832    -3.919597    892.72211  0.047414601  0.046431767            5 
 1570000   0.62837083   -3.9058185    888.48332  0.047159412  0.046405425           13 
 1571000   0.62579085   -3.9206121    889.54559  0.047185741  0.046379255            4 
 1572000   0.63203389    -3.931764     889.7059  0.047164223  0.046353045           17 
 1573000   0.62480834   -3.9304783     889.2703  0.047111162  0.046326515           13 
 1574000   0.63344367   -3.9177668     888.8771  0.047060414  0.046300213            8 
 1575000   0.61488716   -3.9091442    889.97763  0.047088763  0.046273913           11 
 1576000   0.61669759   -3.9430461    889.97813  0.047058911  0.046247601            7 
 1577000   0.62550554   -3.9196457    892.21369  0.047147204  0.046221241            6 
 1578000   0.62715738   -3.9314878    889.19687  0.046958009  0.046194968            7 
 1579000   0.62778451    -3.937849    888.56997  0.046895185  0.046168655            5 
 1580000   0.61664651   -3.9257934    893.18762  0.047109051  0.046142414            9 
 1581000   0.60807747   -3.9211561    891.05647  0.046966923  0.046116185            7 
 1582000   0.62892573   -3.9405211    890.21133  0.046892717  0.046090035           10 
 1583000   0.62833334   -3.9260708    890.90073  0.046899386  0.046063884            8 
 1584000    0.6160343   -3.9403552    892.40118  0.046948715  0.046037809            8 
 1585000   0.61728785   -3.9426082    893.91326  0.046998594  0.046011641            9 
 1586000   0.61878029    -3.926359    892.71423   0.04690596  0.045985435           11 
 1587000   0.61397822   -3.9457561    889.56008  0.046710779  0.045959275            7 
 1588000   0.60841022   -3.9339866    888.59904  0.046630932  0.045933008            8 
 1589000   0.62713363   -3.9376547    891.86226  0.046772722   0.04590671            7 
 1590000   0.62222412    -3.929572    891.26822  0.046712171  0.045880574           12 
 1591000   0.62617093   -3.9564632    890.09202  0.046621204  0.045854323           12 
 1592000    0.6060138   -3.9374078    892.69134  0.046727981  0.045828031            8 
 1593000   0.62149005   -3.9239683    890.28744  0.046572894  0.045801728            9 
 1594000   0.61772119   -3.9199859    891.96345  0.046631297  0.045775566            7 
 1595000   0.62229989   -3.9591551    891.61501  0.046583856  0.045749471            7 
 1596000   0.61127009   -3.9618675    891.76976  0.046562749  0.045723234            6 
 1597000   0.62365978   -3.9513359    889.08537  0.046393518  0.045696849            8 
 1598000   0.62330265   -3.9584811     891.6372  0.046497559  0.045670525            7 
 1599000   0.61979868   -3.9602294    892.34952  0.046505604  0.045644268           21 
 1600000   0.62514501   -3.9611087    895.78905   0.04665568  0.045617914            5 
 1601000   0.61611764   -3.9549281    892.27305  0.046443527  0.045591765            5 
 1602000   0.61863731   -3.9288776    894.37616  0.046523937  0.045565521            7 
 1603000   0.62153028   -3.9392196    894.49192  0.046500932  0.045539456            6 
 1604000   0.60743076   -3.9688506    890.11503  0.046244547   0.04551324            7 
 1605000   0.60904661   -3.9413904    891.46285  0.046285714  0.045486966            7 
 1606000   0.61688468    -3.920034    892.16421  0.046293286  0.045460801            4 
 1607000   0.61209143   -3.9572273    891.85805  0.046248603  0.045434671           21 
 1608000   0.61114279   -3.9324126     893.8878  0.046325031    0.0454087           10 
 1609000   0.60964481   -3.9528158    891.31302  0.046162887  0.045382464            7 
 1610000   0.60183287   -3.9414434    892.30807  0.046185718  0.045356384            9 
 1611000   0.61003339   -3.9523597    891.05563  0.046092263  0.045330106           17 
 1612000   0.62389085   -3.9668549    893.47216  0.046188594  0.045303684            6 
 1613000   0.60828386   -3.9358648    892.47667  0.046108528  0.045277362            5 
 1614000   0.61864702   -3.9480275    891.10919  0.046009355  0.045251153           12 
 1615000   0.60748254   -3.9571924    890.47016  0.045947893  0.045224948            6 
 1616000   0.61731368   -3.9570891    892.24747  0.046011111  0.045198733           10 
 1617000   0.59790394   -3.9698296    891.90619  0.045965069  0.045172628            6 
 1618000   0.59730716   -3.9363853    893.19979  0.046003285   0.04514643           10 
 1619000   0.61548117   -3.9699849    892.68898  0.045948578  0.045120301            8 
 1620000    0.6083472   -3.9549817    892.84185  0.045928079  0.045094138            7 
 1621000   0.60944042   -3.9355852    893.96991  0.045957738  0.045068089           11 
 1622000    0.6141548    -3.962418    894.85258  0.045974752  0.045042165            8 
 1623000   0.59078971   -3.9636158    894.81146  0.045944314   0.04501617           10 
 1624000   0.60215764   -3.9829224    892.67827  0.045806562  0.044990091            8 
 1625000   0.60076972   -3.9730508    892.82161  0.045785723  0.044964017            5 
 1626000   0.60817064   -3.9921458     894.8312  0.045860558  0.044938096            7 
 1627000   0.60051078   -3.9394809     894.4337  0.045812011  0.044912054            8 
 1628000   0.61238164   -3.9765844    894.24601  0.045774263  0.044886193           12 
 1629000   0.60052434    -3.950371    894.37954  0.045752994  0.044860205            6 
 1630000   0.59656852   -3.9726455    895.39621  0.045776902   0.04483433           17 
 1631000   0.60069317   -3.9769988    896.86648  0.045823957  0.044808553            5 
 1632000   0.60108346   -3.9550141    895.60456  0.045731442  0.044782704           12 
 1633000   0.60472081   -3.9728135    894.49924  0.045647032  0.044756934            4 
 1634000   0.60277859   -3.9685789    894.95992  0.045642591   0.04473113           12 
 1635000   0.60008282    -3.976973    892.63043  0.045495945  0.044705174           13 
 1636000    0.5875733   -3.9722934    894.51998  0.045564384   0.04467944            9 
 1637000   0.60698483   -3.9500803    896.95514  0.045660514  0.044653755            8 
 1638000   0.59466135   -3.9601546    896.25025  0.045596777   0.04462808            6 
 1639000   0.60025063   -3.9570304    896.22449  0.045567648  0.044602399           11 
 1640000   0.60501819   -3.9662374    897.32814  0.045595942  0.044576584            6 
 1641000   0.60120848   -3.9689729    894.55451  0.045427306  0.044550821            9 
 1642000   0.60348716   -3.9760158    894.95403  0.045419916   0.04452508            8 
 1643000    0.5974433   -3.9645446     894.5221  0.045370364  0.044499463            8 
 1644000   0.59498735   -3.9750558    895.43158  0.045388868   0.04447378            5 
 1645000    0.5895769   -3.9910417    894.97592  0.045338193  0.044448011           14 
 1646000   0.58264194   -3.9852155    894.39077  0.045281023  0.044422085           10 
 1647000   0.60539089   -3.9719129    895.81538  0.045325611  0.044396252           13 
 1648000   0.59244782   -3.9745718    898.86218  0.045452173  0.044370671           16 
 1649000   0.60676687   -4.0015379    896.04598  0.045282291    0.0443449           18 
 1650000   0.59409987   -3.9942489    895.42669   0.04522357  0.044319116           25 
 1651000    0.5990186    -3.983178    895.40459  0.045195063  0.044293361           10 
 1652000   0.60386318    -3.987199    896.02356  0.045198928  0.044267752           14 
 1653000   0.59837971   -3.9750248    896.92731  0.045217146  0.044242177           24 
 1654000   0.59719581   -3.9948015    895.23808  0.045104699  0.044216556           16 
 1655000   0.59308351   -3.9720239     897.5081  0.045191747  0.044191002           10 
 1656000   0.60560086   -3.9885592    895.81294  0.045079154  0.044165505           15 
 1657000   0.58771628   -3.9884093    898.23082  0.045173547  0.044139902           15 
 1658000   0.60943098   -4.0021167    896.18443  0.045043447  0.044114392            5 
 1659000   0.59403617   -3.9970125    895.70711   0.04499232  0.044089079            4 
 1660000    0.5973221   -3.9845525    897.42425  0.045051418  0.044063626            7 
 1661000   0.58384938   -4.0005014    897.13252  0.045009659  0.044038187           10 
 1662000   0.57857284   -3.9882729    897.36071  0.044994019  0.044012738           10 
 1663000   0.59073467    -3.999882    898.56107  0.045027113  0.043987349           52 
 1664000    0.5971691   -4.0039475    899.27661  0.045035888  0.043961957            5 
 1665000   0.58517038    -4.004166    898.81407  0.044985689  0.043936696           12 
 1666000   0.59241566   -4.0108734    899.04962  0.044970469  0.043911377           14 
 1667000   0.58423385   -4.0076361    901.09191  0.045045586  0.043885956           18 
 1668000    0.5815436   -3.9751508    898.90785  0.044909465  0.043860773           18 
 1669000   0.58702464   -4.0171017    898.59278  0.044866826  0.043835541           13 
 1670000   0.57837643   -3.9860507    900.10884  0.044915611  0.043810152           10 
 1671000   0.58986699    -4.002122    899.49391  0.044858064  0.043784939           10 
 1672000   0.57257207   -3.9973297    897.86503  0.044750051  0.043759662           10 
 1673000   0.58113708   -4.0156773    900.61933  0.044860497  0.043734147           17 
 1674000   0.58819229   -4.0290494    898.40686  0.044723559  0.043708703           13 
 1675000   0.57715339   -4.0198045    898.78845  0.044715843  0.043683226           10 
 1676000   0.58670363   -4.0026283    899.49326  0.044724207  0.043657936            7 
 1677000   0.58066944   -4.0073217    897.91841  0.044619281  0.043632779           15 
 1678000   0.57327813   -3.9853593    901.33743  0.044762486   0.04360763           15 
 1679000   0.59786132    -3.994255    898.96654  0.044618153   0.04358257            6 
 1680000   0.57737513   -4.0114299    899.23085  0.044604705  0.043557549           12 
 1681000   0.56694483   -3.9957182     900.6984  0.044650922  0.043532381           12 
 1682000    0.5923606   -3.9999961    899.91392   0.04458551  0.043507239            6 
 1683000   0.58389385    -3.984825    900.86521   0.04460612   0.04348214           22 
 1684000   0.58776071   -4.0085542    898.78386  0.044476636  0.043457001           16 
 1685000   0.57707403   -3.9941975    899.87508  0.044504208  0.043431902            7 
 1686000   0.57504477   -4.0292498    903.23209  0.044643737    0.0434068           10 
 1687000    0.5691892   -4.0198852    901.56031  0.044534692   0.04338174           12 
 1688000   0.56953493   -4.0041805    902.81793  0.044570396  0.043356704            6 
 1689000   0.58951729   -4.0178411     899.3627   0.04437353  0.043331767            9 
 1690000   0.58599935   -3.9879574    903.80997  0.044566566  0.043306903            9 
 1691000   0.58434503   -4.0023309    901.83274  0.044442772  0.043282304           13 
 1692000   0.57725474   -4.0133157    902.39978  0.044444434  0.043257502           17 
 1693000   0.56958475   -4.0319883    902.65982  0.044430981  0.043232745            9 
 1694000    0.5690475   -4.0185904    901.22185  0.044334015  0.043207942           11 
 1695000    0.5839145   -4.0054548    901.27781   0.04431061  0.043182994            7 
 1696000   0.57293894   -4.0210713    902.14961   0.04432732   0.04315814           13 
 1697000   0.58397197   -4.0052884    900.95832  0.044242699  0.043133307            3 
 1698000    0.5824389   -4.0001976    904.82236   0.04440628  0.043108649            7 
 1699000    0.5825755   -4.0301793    904.71403   0.04437483  0.043084126            9 
 1700000   0.57037589   -4.0322637    901.17973  0.044175477  0.043059489           17 
 1701000   0.56336153   -4.0221598     905.0826  0.044340711  0.043034818            6 
 1702000   0.56826153   -4.0295681    902.84979  0.044205336  0.043010301            5 
 1703000   0.57926714   -4.0294906    902.84099  0.044178949  0.042985725            7 
 1704000   0.57920897   -4.0184944    904.61444  0.044239752  0.042961092           10 
 1705000   0.56537925    -4.045021    903.03215  0.044136469  0.042936378           13 
 1706000   0.57814917   -4.0213913    902.05264  0.044062751  0.042911696           10 
 1707000    0.5744855   -4.0170845    904.28333  0.044145837  0.042887214           11 
 1708000   0.56140037   -4.0302304    902.75441  0.044045395  0.042862601           34 
 1709000   0.58134439   -4.0227232    903.41958  0.044052057  0.042837841           17 
 1710000   0.56714113   -4.0250427    904.47224  0.044077595  0.042813099            9 
 1711000   0.55160454   -4.0205544     901.5012  0.043907131  0.042788366           10 
 1712000   0.57645052   -4.0273479     904.7106  0.044037705  0.042763727           10 
 1713000   0.56901917    -4.030874    904.23079  0.043988655  0.042739106           10 
 1714000   0.58409122   -4.0306139    903.98166  0.043950878  0.042714398            9 
 1715000   0.55864708   -4.0155268    903.18798  0.043886685  0.042689771            9 
 1716000   0.56654674   -4.0142352    902.79619  0.043842084  0.042665111            7 
 1717000   0.55608151   -4.0130176     903.2883  0.043840434  0.042640338           10 
 1718000   0.56925448   -4.0546138     904.6306  0.043880025  0.042615611           12 
 1719000    0.5633654   -4.0418094    903.08943  0.043779786  0.042590936           10 
 1720000   0.56121173   -4.0061938    905.45129  0.043868764  0.042566414           17 
 1721000   0.56026308   -4.0238181    905.32772   0.04383729  0.042541872           26 
 1722000   0.55619898   -4.0239596    903.54501  0.043725562  0.042517355            6 
 1723000   0.57306127   -4.0326556    903.43881  0.043695048  0.042492842            9 
 1724000   0.57438225   -4.0576059    906.66194    0.0438255  0.042468317           21 
 1725000   0.55433248   -4.0321991    905.93565  0.043765007  0.042443803           23 
 1726000   0.57046026   -4.0320708    904.54056  0.043672294  0.042419235           11 
 1727000    0.5641459   -4.0464537    902.75247  0.043560725  0.042394629            9 
 1728000   0.55519304   -4.0303054    903.35375  0.043564513  0.042369926            3 
 1729000   0.54624245   -4.0148471    902.78474  0.043511892  0.042345238            6 
 1730000   0.56728375   -4.0410078    901.31077   0.04341574  0.042320505            9 
 1731000     0.543075   -4.0519489    901.73596  0.043411128  0.042295784           10 
 1732000   0.56245123   -4.0418197    903.03128  0.043448387   0.04227104            8 
 1733000   0.55342692   -4.0458911    900.08855  0.043281811   0.04224633           10 
 1734000   0.57091854   -4.0614385    901.82203  0.043340159  0.042221538           11 
 1735000    0.5674362   -4.0593943    903.66732   0.04340381  0.042196849            9 
 1736000    0.5619994   -4.0388057    902.64552  0.043329758  0.042172137            9 
 1737000   0.56283633    -4.043701    902.91839  0.043317904   0.04214747           15 
 1738000   0.55306215   -4.0558859    906.21816  0.043451197  0.042122903           13 
 1739000   0.55966714   -4.0623301    903.81662  0.043311128  0.042098272            6 
 1740000   0.56915455   -4.0579689    905.34798  0.043359578  0.042073769            7 
 1741000   0.56338539   -4.0304589    905.67266  0.043350213  0.042049428            6 
 1742000   0.55602189   -4.0225336    906.36524   0.04335846  0.042025047            7 
 1743000   0.55366909    -4.044518    903.61562  0.043202124   0.04200062            6 
 1744000   0.54465747   -4.0553504    904.42178  0.043215872  0.041976077           21 
 1745000   0.56074346   -4.0552547    904.49947  0.043194817  0.041951438           10 
 1746000    0.5473995   -4.0446878    901.17589  0.043011449   0.04192672           19 
 1747000   0.56289684   -4.0465624    903.28952  0.043087651  0.041902225            5 
 1748000   0.54918235   -4.0426121    905.36838  0.043162108  0.041877768           11 
 1749000   0.55658548    -4.033688    904.35992  0.043089381  0.041853311            9 
 1750000   0.55106999   -4.0577631    905.95359  0.043140647  0.041828888            6 
 1751000   0.55833607   -4.0629861    903.88344  0.043017487  0.041804407           12 
 1752000   0.55184649   -4.0569601     906.0072   0.04309395  0.041779887           12 
 1753000   0.53986587    -4.069274    905.52243  0.043046322  0.041755433           10 
 1754000   0.54314972   -4.0805304    906.32964  0.043060131  0.041730956           22 
 1755000   0.55262551   -4.0674209    904.40642  0.042944275  0.041706636           11 
 1756000   0.54975159   -4.0736693    903.93842  0.042897609  0.041682242           10 
 1757000   0.53696227   -4.0608096    905.34469  0.042939892  0.041657868            9 
 1758000   0.55394602   -4.0773099    905.24755  0.042910862  0.041633551           19 
 1759000   0.55866148    -4.067534    905.12955  0.042880877  0.041609109           20 
 1760000   0.55734398   -4.0640408     906.1276  0.042903769  0.041584717           13 
 1761000   0.55705553   -4.0815276    904.04628  0.042780914  0.041560444           32 
 1762000   0.54811565    -4.065998    903.55984  0.042733628  0.041536196           12 
 1763000   0.55541583   -4.0640521    906.20845  0.042834583  0.041512079           24 
 1764000   0.55520353   -4.0530363    905.65769  0.042784283  0.041487943            7 
 1765000    0.5543979   -4.0617633    905.99082   0.04277577  0.041463783            4 
 1766000   0.54527356   -4.0734318    903.21437  0.042620535  0.041439529           15 
 1767000   0.55918189   -4.0606853    908.31131  0.042836791   0.04141544           13 
 1768000   0.54969335   -4.0735854    905.74646   0.04269167  0.041391313           31 
 1769000   0.55333383   -4.0668381    906.31784  0.042694453  0.041367054           13 
 1770000   0.54253401   -4.0786618    905.37725  0.042626048   0.04134293           12 
 1771000   0.53931988   -4.0683324     906.5367  0.042656536  0.041318853           27 
 1772000   0.54907962   -4.0646367    907.19281  0.042663319  0.041294738           10 
 1773000   0.55184649   -4.0783539    906.05773  0.042585906  0.041270701           16 
 1774000   0.54151381   -4.0727533    906.59769  0.042587265  0.041246797           24 
 1775000    0.5496006   -4.0474465    908.54468   0.04265468  0.041222766            7 
 1776000   0.55346841   -4.0765341     906.4306  0.042531466  0.041198862           10 
 1777000   0.55499874   -4.0839391    905.70799  0.042473644  0.041174771           12 
 1778000   0.54429449   -4.0821517    905.46767  0.042438492  0.041150731            7 
 1779000   0.55966527   -4.0866647     907.1473  0.042493316  0.041126717            6 
 1780000   0.54620386   -4.0743716    905.33775  0.042384726    0.0411027           16 
 1781000   0.54672973   -4.0853163    906.42452  0.042411778  0.041078574           12 
 1782000    0.5414009   -4.0781466    907.52019  0.042439216  0.041054547            7 
 1783000   0.53605042   -4.0705461    905.51784  0.042321828  0.041030644            9 
 1784000   0.54186269    -4.079425    910.03486  0.042509102  0.041006813            4 
 1785000   0.53928438   -4.0860602    908.02375  0.042391398  0.040982915           11 
 1786000   0.53692074   -4.0789193    908.27818  0.042379534  0.040959026           58 
 1787000   0.55085051   -4.1017635    907.57967  0.042323245  0.040935217           15 
 1788000   0.54759742   -4.0817472    906.09602  0.042230426  0.040911275           18 
 1789000   0.52792191   -4.1039578    906.96367  0.042247236  0.040887478            6 
 1790000   0.53704451   -4.0859896    907.68481  0.042257207  0.040863582           16 
 1791000   0.54308012   -4.0730707    909.69557  0.042327172  0.040839833           16 
 1792000   0.53642638    -4.078865    908.83837  0.042263689  0.040816066           26 
 1793000   0.54125581   -4.1086567    909.07243  0.042250996  0.040792298           10 
 1794000   0.54656461   -4.1107359    906.73828  0.042119021  0.040768375           11 
 1795000   0.53199749   -4.0960269    907.92941  0.042150855  0.040744616           12 
 1796000   0.52963925   -4.0793764    910.83535  0.042262219  0.040720927           11 
 1797000   0.53021251    -4.110006    907.37108  0.042078051  0.040697175           12 
 1798000   0.54080333   -4.0920439    907.84425  0.042076578  0.040673489           16 
 1799000    0.5332794   -4.0937555    908.68159  0.042091977  0.040649795            8 
 1800000   0.53316526   -4.0916407    909.91789  0.042125828  0.040626177            8 
 1801000   0.52258498   -4.0989989    912.33267  0.042214171  0.040602694            6 
 1802000   0.53193521    -4.081547    910.31843  0.042097597  0.040579233            7 
 1803000   0.54231825   -4.0958594    908.38905  0.041985074  0.040555723            9 
 1804000     0.531676   -4.1020446    909.28521  0.042003197  0.040532057           30 
 1805000   0.53758026   -4.1101678    910.39981  0.042031386  0.040508512           10 
 1806000   0.53422042   -4.0799517     910.7304  0.042023367  0.040484986           11 
 1807000   0.53622085   -4.0987901      910.327  0.041981507  0.040461558           13 
 1808000   0.53988345   -4.1030654    911.26531  0.042001535  0.040438012           11 
 1809000   0.53605662   -4.0840089    909.26792  0.041886306  0.040414496           11 
 1810000    0.5339425    -4.104478    908.68071  0.041836128  0.040390999           16 
 1811000   0.53347574     -4.11958    907.54435  0.041760738  0.040367471           19 
 1812000   0.53141605   -4.1121729    909.76682  0.041839902  0.040343881           16 
 1813000   0.52611173   -4.1104873    906.34899  0.041659726  0.040320283           40 
 1814000   0.53689105   -4.1050597    907.73118  0.041700256  0.040296793           19 
 1815000   0.52638803   -4.0873494    910.21579  0.041791359  0.040273288           31 
 1816000   0.52394773   -4.1134539    909.49801  0.041735408  0.040249793           13 
 1817000    0.5464771   -4.1251386    909.24421  0.041700798  0.040226245           15 
 1818000   0.52915031   -4.1086967    909.38191  0.041684173  0.040202747           20 
 1819000   0.52764445   -4.0937999    910.17754  0.041697707  0.040179301           15 
 1820000   0.52011199   -4.1038013    912.18396  0.041766665  0.040155941           23 
 1821000   0.52945667   -4.1063315    910.03307  0.041645299  0.040132526           17 
 1822000   0.53290205   -4.1125152    909.02754  0.041576452  0.040109099           14 
 1823000   0.53591367   -4.1093154    908.75204  0.041541051  0.040085631           41 
 1824000    0.5399752   -4.1161415    908.81258  0.041521043  0.040062185           26 
 1825000   0.53162762   -4.1014442    907.75377  0.041449944  0.040038842           28 
 1826000   0.52792749   -4.1275825    910.84843  0.041568475  0.040015389           22 
 1827000   0.51773567   -4.0980948    911.52275   0.04157648  0.039992058           17 
 1828000    0.5173681   -4.1075259    909.79999    0.0414752  0.039968757            8 
 1829000   0.51498834   -4.1175727    909.39173  0.041433922  0.039945439           16 
 1830000   0.52620154   -4.1370721    910.38895  0.041456692  0.039922021           21 
 1831000   0.53235418   -4.1138099    909.86363  0.041410141  0.039898592           24 
 1832000   0.52126259   -4.1352363    908.38802  0.041320416  0.039875191           13 
 1833000     0.535772   -4.1298293    909.65392  0.041355424  0.039851832            7 
 1834000   0.52560278   -4.1103741    911.80732  0.041430722   0.03982847           28 
 1835000    0.5310824   -4.1076512    910.96803  0.041370029  0.039805266           14 
 1836000   0.51642549   -4.1307557    908.64075  0.041241864  0.039782021           14 
 1837000   0.51819924   -4.1249834    910.95316  0.041324313  0.039758708           12 
 1838000    0.5180059   -4.1420375    909.32258  0.041227901  0.039735477            9 
 1839000   0.52251022   -4.1411239    909.27237  0.041203207  0.039712201           28 
 1840000   0.51973699   -4.1300056    909.04414  0.041170477  0.039688953           12 
 1841000   0.52823912   -4.1280904    909.84235  0.041184245  0.039665778           13 
 1842000   0.50656658   -4.1402127    910.09975  0.041173532   0.03964255           18 
 1843000   0.51896491   -4.1231246    910.08425  0.041150491  0.039619414           13 
 1844000   0.51626635   -4.1256511    910.58454  0.041150783  0.039596351           12 
 1845000   0.51420666   -4.1353048    909.01431  0.041057557  0.039573192           16 
 1846000   0.52159139   -4.1338258     910.0613   0.04108258      0.03955           19 
 1847000   0.52223205   -4.1295967    910.87346   0.04109698  0.039526944           13 
 1848000    0.5178889   -4.1263774    911.33605  0.041095601  0.039503828           12 
 1849000   0.51747963   -4.1368822    912.81265  0.041139925  0.039480822           26 
 1850000   0.52548534    -4.141318    911.38358  0.041053314  0.039457794           41 
 1851000   0.51387556   -4.1271179    912.48945  0.041080922  0.039434736           19 
 1852000   0.51070568   -4.1145634    911.86481  0.041030634  0.039411669           23 
 1853000   0.52094071   -4.1423255    912.16085  0.041021805  0.039388624           55 
 1854000   0.51301618   -4.1326261    911.65449  0.040976919  0.039365503           18 
 1855000   0.52034225   -4.1396455    911.32595   0.04094007  0.039342454           12 
 1856000   0.51025408   -4.1368847    912.23252  0.040958716  0.039319304           19 
 1857000   0.51305304   -4.1492401    910.14435  0.040842952  0.039296098           35 
 1858000   0.51807297    -4.134654    910.59614  0.040841233  0.039272934           37 
 1859000   0.49618189   -4.1268498    910.47846  0.040813989  0.039249752           26 
 1860000   0.49829073   -4.1396332    909.31615  0.040739971  0.039226604           18 
 1861000   0.50962276    -4.145253    912.37138  0.040854889  0.039203425           36 
 1862000   0.51265326   -4.1440402    909.40956  0.040700392  0.039180212           33 
 1863000   0.52248116   -4.1526774    909.40841  0.040678494  0.039157001           35 
 1864000   0.52787642   -4.1550607     910.6555  0.040712424  0.039133845           25 
 1865000   0.50677378   -4.1560002     910.4334   0.04068067  0.039110765           12 
 1866000   0.50487999   -4.1540696    910.85049  0.040677496   0.03908766           13 
 1867000   0.50623068   -4.1398006    909.53237  0.040596874  0.039064632           26 
 1868000   0.50760837   -4.1546924    910.19217  0.040604576  0.039041648           10 
 1869000   0.50462141   -4.1363917    911.73492  0.040651637  0.039018604           10 
 1870000   0.50370876   -4.1569738     911.4749  0.040618311   0.03899565           15 
 1871000   0.52395386   -4.1497308     910.3556  0.040546749  0.038972647           16 
 1872000   0.51062009   -4.1302559    912.06629  0.040601242  0.038949683           14 
 1873000   0.50078862   -4.1496317    911.86132  0.040570445  0.038926639           34 
 1874000   0.50977177   -4.1434924     910.1152  0.040471149  0.038903579           15 
 1875000   0.50421184   -4.1649898    910.37961  0.040461316   0.03888054            9 
 1876000    0.4970735   -4.1555131     910.6665  0.040452492  0.038857512           14 
 1877000   0.50169511   -4.1661615    909.75794  0.040390603  0.038834516           53 
 1878000    0.5104758   -4.1595767    909.68333  0.040365785  0.038811611           14 
 1879000    0.4970673   -4.1572182     912.6409   0.04047547   0.03878864           18 
 1880000   0.50267201   -4.1583423    910.07872  0.040340369  0.038765785           10 
 1881000   0.50366592   -4.1534741    909.85312  0.040308928   0.03874291           17 
 1882000   0.49707664   -4.1604518    910.32577  0.040308438  0.038720015           14 
 1883000    0.5034102   -4.1624498     910.5634  0.040297548  0.038697059           33 
 1884000   0.51485205   -4.1505023     910.2221  0.040261062  0.038674264           54 
 1885000   0.49828667   -4.1504768    911.24351  0.040284859  0.038651416           43 
 1886000   0.50028585   -4.1408065    910.42671  0.040227408  0.038628647           49 
 1887000   0.50184354   -4.1609588    910.89675  0.040226848  0.038605874           27 
 1888000   0.50165194   -4.1687031    911.39719   0.04022763  0.038583006           29 
 1889000   0.49609202   -4.1515377    911.38714  0.040205891  0.038560217           21 
 1890000   0.49640288   -4.1729481    911.67332  0.040197236  0.038537535           27 
 1891000   0.50354344   -4.1647903    911.73824   0.04017884  0.038514725           24 
 1892000   0.50459837   -4.1637918    911.16301  0.040132268  0.038491974           14 
 1893000   0.50456841   -4.1649221    911.27017  0.040115785  0.038469226           32 
 1894000   0.50271608   -4.1618331    909.65309  0.040023455  0.038446452           10 
 1895000   0.49437163   -4.1634305    911.28159  0.040073948  0.038423774           20 
 1896000   0.50684838   -4.1723199    911.61623  0.040067521  0.038401092           14 
 1897000   0.48157301   -4.1699424    910.63532  0.040003309  0.038378339           17 
 1898000   0.49194178   -4.1706618    911.56611  0.040023099  0.038355599           33 
 1899000   0.49489934   -4.1772985    910.32806  0.039947695  0.038332854           26 
 1900000   0.49119421    -4.160511    910.33209  0.039926846  0.038310128           15 
 1901000   0.50712945   -4.1811109    910.36246  0.039907174  0.038287501           14 
 1902000    0.4856046   -4.1705572    911.80897  0.039949569  0.038264809            8 
 1903000   0.49988717   -4.1737499    911.84549  0.039930176  0.038242116           13 
 1904000   0.49952637   -4.1877932    910.80926  0.039863851  0.038219443           12 
 1905000   0.49486354   -4.1721482    910.22641  0.039817428  0.038196779           23 
 1906000   0.49558663   -4.1796707    911.86352  0.039868115  0.038174091           31 
 1907000   0.48630956   -4.1696004    910.89365  0.039804827  0.038151406           17 
 1908000   0.49092487   -4.1820727    911.77779   0.03982258  0.038128781           11 
 1909000   0.47610476   -4.1857234    911.04586  0.039769769  0.038106103           23 
 1910000   0.48164115   -4.1891871    910.73348  0.039735318  0.038083395            8 
 1911000   0.49545213   -4.1859187    910.59195  0.039708353  0.038060704            9 
 1912000   0.49348218   -4.2109279    911.41817  0.039723595  0.038037991           11 
 1913000   0.49068107   -4.1890423    912.96891  0.039770383  0.038015362            8 
 1914000   0.48698947   -4.1729689    911.64758  0.039692075  0.037992741           13 
 1915000   0.49796007   -4.1902725    911.49868  0.039664869   0.03797017           24 
 1916000   0.47854435   -4.1957179    912.13203  0.039671713  0.037947601           18 
 1917000   0.48655631   -4.1949179     909.9809  0.039557507  0.037924973           18 
 1918000   0.49290338   -4.1797524    911.58609  0.039606625  0.037902392            8 
 1919000   0.47945238   -4.1906471    912.52548   0.03962678  0.037879881           13 
 1920000   0.49099833   -4.1956437    912.20446  0.039592207  0.037857353           34 
 1921000   0.47701737   -4.1805157    910.18562   0.03948402  0.037834893           21 
 1922000   0.49221858   -4.1901728    910.69141  0.039485406  0.037812365           18 
 1923000   0.47719118   -4.1862062    909.68998  0.039421476  0.037789882           39 
 1924000   0.48048293   -4.1756673    912.00435  0.039501228  0.037767373           48 
 1925000   0.48451332   -4.1936074    912.34086  0.039495275  0.037744975           34 
 1926000   0.48022822   -4.1733325    913.12591  0.039508736  0.037722563           25 
 1927000   0.48964157     -4.18096     911.0862  0.039400026  0.037700298           28 
 1928000   0.49471228   -4.1736027    911.85097  0.039412646  0.037677984           39 
 1929000   0.47887299   -4.1877066    909.99119  0.039311871  0.037655623           16 
 1930000   0.48558012   -4.2013525    912.80186  0.039412861  0.037633164           54 
 1931000   0.48060416   -4.1927563    910.63929  0.039299124  0.037610696           30 
 1932000   0.48235512   -4.2094029    910.42717  0.039269633  0.037588245           17 
 1933000   0.48044746   -4.1996407    910.40255  0.039248256  0.037565789           18 
 1934000   0.48110761   -4.1680936    912.34165  0.039311515  0.037543369           17 
 1935000    0.4753158   -4.1968764    913.50236  0.039341187   0.03752102           23 
 1936000   0.48217955     -4.19807     911.9422  0.039253711  0.037498598           16 
 1937000   0.48602486   -4.1823902    910.59719   0.03917558  0.037476211           20 
 1938000   0.48616801    -4.187556    910.32626  0.039143716  0.037453896           28 
 1939000   0.48982762    -4.190618    913.83277  0.039274229  0.037431672           15 
 1940000   0.48264227    -4.217456    912.90858  0.039214286  0.037409371           15 
 1941000   0.46829093    -4.225301    911.54589  0.039135578   0.03738702           24 
 1942000   0.47482627   -4.2132633    910.99638  0.039091846  0.037364612           38 
 1943000    0.4955986   -4.2140669    911.37259  0.039087862  0.037342218           49 
 1944000   0.46688775   -4.2245237    910.28607  0.039021179  0.037319746           43 
 1945000   0.47693569     -4.21207    909.73237  0.038977394  0.037297336           42 
 1946000    0.4754359   -4.2130556    911.32645  0.039025627  0.037274927           30 
 1947000   0.49126381   -4.2051178    909.06579  0.038908825  0.037252535           48 
 1948000   0.47979309   -4.2078242    911.75039  0.039003696  0.037230186           49 
 1949000   0.47597908    -4.219932    911.61705  0.038977982   0.03720784           46 
 1950000   0.47923944   -4.2203763    910.91938  0.038928179  0.037185482           40 
 1951000   0.47056989   -4.2222957    912.63703  0.038981592  0.037163156           13 
 1952000   0.47698544   -4.2197794    910.00566  0.038849285   0.03714086           45 
 1953000   0.47018715   -4.2110446    911.16893  0.038879029  0.037118541           32 
 1954000   0.46966673   -4.2139094     910.1102   0.03881398  0.037096193           21 
 1955000   0.48172141   -4.2106214    910.23159  0.038799301  0.037073848           26 
 1956000    0.4612966   -4.2145844    911.16032  0.038819032  0.037051523           20 
 1957000   0.46676827   -4.2210386    909.58641  0.038732175  0.037029205           25 
 1958000   0.47707001   -4.2254813     908.9163  0.038683874  0.037006832           22 
 1959000   0.47257558   -4.2306324    909.84581  0.038703667  0.036984395           12 
 1960000   0.47067652   -4.2323196    909.23562  0.038657977   0.03696205           12 
 1961000    0.4690339   -4.2198495    910.51233  0.038692518  0.036939658           20 
 1962000   0.47072848   -4.2056359    910.22428  0.038660562    0.0369173           33 
 1963000   0.46157726   -4.2132314    910.24526  0.038641758  0.036894936           25 
 1964000   0.47367333   -4.2194686    910.03098  0.038612991  0.036872583           27 
 1965000   0.46614773   -4.2236783    910.91063  0.038630646  0.036850291           18 
 1966000   0.47282473   -4.2315938    907.15368   0.03845175  0.036827893           24 
 1967000   0.47360675     -4.21865    909.44648  0.038529338  0.036805462           17 
 1968000   0.47012172   -4.2280439     908.3399  0.038462902  0.036783067           34 
 1969000    0.4630374   -4.2448517    905.94072  0.038341828  0.036760618           35 
 1970000   0.47518422   -4.2263002    908.83431  0.038444768  0.036738117           54 
 1971000   0.46811992   -4.2464879    909.92827  0.038471515  0.036715676           40 
 1972000   0.46744762   -4.2362649    907.96093   0.03836887  0.036693198           52 
 1973000   0.47614765   -4.2373126     907.1566   0.03831545  0.036670778           56 
 1974000   0.46085893   -4.2349861    907.74473  0.038320868  0.036648328           22 
 1975000   0.46786204   -4.2427596    909.92654  0.038393525  0.036625922           45 
 1976000   0.46714259   -4.2345064    909.38309  0.038351176  0.036603531           30 
 1977000   0.46441854     -4.23854    912.02088  0.038442964  0.036581167           33 
 1978000   0.46120762   -4.2343394    907.74568  0.038243414   0.03655891           37 
 1979000   0.46140224   -4.2272311    910.87564  0.038355889  0.036536704           38 
 1980000    0.4667955    -4.238811    909.42079  0.038275286  0.036514496           10 
 1981000   0.47328942   -4.2339163     908.9686  0.038236942  0.036492336           23 
 1982000   0.46775332   -4.2279577    908.96697  0.038217582  0.036470154           14 
 1983000    0.4622182   -4.2381722    909.88862   0.03823704  0.036447992           18 
 1984000   0.45956674   -4.2362121    909.22015   0.03818969  0.036425823           19 
 1985000   0.45914785   -4.2509591    907.61584    0.0381031  0.036403632           19 
 1986000   0.45840195   -4.2376302    908.30618  0.038112881    0.0363815            9 
 1987000   0.45040945   -4.2376543    909.52359  0.038144757  0.036359351           20 
 1988000   0.46564876   -4.2425344    910.74661  0.038176837  0.036337178           16 
 1989000   0.45951683   -4.2421739    908.75967  0.038074396  0.036315028           14 
 1990000   0.45926732   -4.2434687    906.09587  0.037943713  0.036292891           37 
 1991000   0.45601493   -4.2405773      908.679  0.038032772  0.036270717           30 
 1992000   0.44908133     -4.23827    907.72188  0.037973639  0.036248556           21 
 1993000   0.45743423   -4.2321083     909.4934  0.038028659  0.036226476           32 
 1994000    0.4606848   -4.2498607    908.77132   0.03797941  0.036204438           35 
 1995000    0.4536281   -4.2442967    909.44175  0.037988377  0.036182411           39 
 1996000   0.45752302   -4.2654181    908.68959  0.037937942   0.03616031           50 
 1997000    0.4593967   -4.2411299    911.22601  0.038024787  0.036138194           14 
 1998000   0.44933217   -4.2531785    908.18788  0.037879041  0.036116108           49 
 1999000   0.46036679   -4.2672626    908.17253  0.037859452  0.036093991           22 
 2000000    0.4628303   -4.2467469    908.77305  0.037865544  0.036071862           41 
 2001000   0.45710993   -4.2527679    906.66547  0.037758849   0.03604978           56 
 2002000   0.45698747   -4.2559879    908.64402  0.037822345  0.036027643           25 
 2003000   0.45514312    -4.271752    908.90169  0.037814182  0.036005472           30 
 2004000   0.44864786   -4.2688098     908.8748  0.037794195  0.035983339           35 
 2005000   0.45427099   -4.2441233    907.95215  0.037736997  0.035961209           32 
 2006000    0.4486351   -4.2464105    907.43923  0.037696877  0.035939069           68 
 2007000   0.45069601   -4.2600602    907.09604  0.037663845  0.035916896           41 
 2008000   0.45466752   -4.2597094    905.00989  0.037558511   0.03589473           79 
 2009000   0.45936542   -4.2465464    907.09813  0.037626436  0.035872543           74 
 2010000   0.45367763   -4.2671014    904.73712  0.037509831  0.035850387           41 
 2011000   0.44519515   -4.2690328    906.06233  0.037546093  0.035828191           25 
 2012000   0.45152076   -4.2657489     907.6059  0.037591364  0.035806003           21 
Loop time of 4884.81 on 48 procs for 2000000 steps with 4000 atoms

Performance: 70750.000 tau/day, 409.433 timesteps/s
99.4% CPU use with 48 MPI tasks x no OpenMP threads

MPI task timing breakdown:
Section |  min time  |  avg time  |  max time  |%varavg| %total
---------------------------------------------------------------
Pair    | 321.25     | 341.8      | 363.43     |  54.0 |  7.00
Neigh   | 33.156     | 34.366     | 37.324     |  12.9 |  0.70
Comm    | 308.88     | 332.06     | 351.44     |  54.8 |  6.80
Output  | 4.2427     | 4.2447     | 4.2754     |   0.2 |  0.09
Modify  | 4121.6     | 4128.6     | 4137.7     |   6.6 | 84.52
Other   |            | 43.75      |            |       |  0.90

Nlocal:        83.3333 ave          90 max          75 min
Histogram: 1 1 2 4 9 8 13 3 4 3
Nghost:        2230.33 ave        2258 max        2208 min
Histogram: 2 5 3 9 7 12 5 3 1 1
Neighs:        14878.1 ave       16755 max       12692 min
Histogram: 2 2 2 3 10 9 12 4 2 2
FullNghs:      29756.0 ave       32203 max       26295 min
Histogram: 2 0 2 4 8 8 12 3 5 4

Total # of neighbors = 1428290
Ave neighs/atom = 357.07250
Neighbor list builds = 108303
Dangerous builds = 0

#clear
#
#next RN
#
#jump SELF
Total wall time: 1:21:28
