
units lj                  # Use reduced LJ style units
atom_style atomic         # Uncharged point particles
atom_modify map hash      # Needed for indexing of clusters etc
                          # Used to be able to find where atoms are in relation to each other.

lattice fcc 1.0 spacing 1 1 1
Lattice spacing in x,y,z = 1.5874011 1.5874011 1.5874011
region box block 0 10 0 10 0 10 units lattice
create_box 2 box
Created orthogonal box = (0.0000000 0.0000000 0.0000000) to (15.874011 15.874011 15.874011)
  3 by 4 by 4 MPI processor grid
create_atoms 1 box
Created 4000 atoms
  using lattice units in orthogonal box = (0.0000000 0.0000000 0.0000000) to (15.874011 15.874011 15.874011)
  create_atoms CPU = 0.002 seconds
set type 1 type/fraction 2 0.85 78393
Setting atom values ...
  3394 settings made for type/fraction
mass 1 1.0
mass 2 1.0
pair_style lj/cut  3.5
pair_modify tail  yes
pair_coeff 1  1  1.0  1.0   # Intearaction between 1 and 1 set with epsilon = 1 and sigma = 1
pair_coeff 1  2  1.5  0.8
pair_coeff 2  2  0.5  0.88

write_data data.0
System init for write_data ...
Neighbor list info ...
  update every 1 steps, delay 10 steps, check yes
  max neighbors/atom: 2000, page size: 100000
  master list distance cutoff = 3.8
  ghost atom cutoff = 3.8
  binsize = 1.9, bins = 9 9 9
  1 neighbor lists, perpetual/occasional/extra = 1 0 0
  (1) pair lj/cut, perpetual
      attributes: half, newton on
      pair build: half/bin/atomonly/newton
      stencil: half/bin/3d
      bin: standard
WARNING: Not all mixed pair coeffs generated from mixing. Use write_data with 'pair ij' option to store all pair coeffs. (../write_data.cpp:312)


#############################
#   M E L T   S Y S T E M   #
#############################

velocity all create 2.4 2750902 mom yes dist gaussian # Assign velocities
                                                    # Temperature 2.4, random number seed, zero linear momentum
                                                                                # Gaussian distribution

timestep 0.002   # simulation timestep
thermo 1000       # output thermodynamic data every 1000 steps bf 100

# Define a fix  in this case with index 1 applied to all
# particles in the simulation. This fix is for simulations
# in the anisotropic NPT ensemble. Note that we use the MTK
# correction.
fix 1 all npt temp 2.4 2.4 0.1 iso 5.68 5.68 0.5 mtk yes tchain 5 pchain 5 # Use NPT ensemble
                                                                         # Set temperature and pressure and damping
                                                                         # Numbers of thermostats in chain and in barostat
run 10000          # run for 10000 steps
Per MPI rank memory allocation (min/avg/max) = 3.642 | 3.644 | 3.648 Mbytes
Step Temp E_pair E_mol TotEng Press Volume 
       0          2.4   -3.4381692            0   0.16093083   -2.9520202         4000 
    1000    2.3791677   -2.6546925            0   0.91316684    5.6834789    3874.6986 
    2000    2.3323429    -2.630852            0   0.86678766    5.6008892    3901.8246 
    3000    2.4282169   -2.5608366            0    1.0805782    5.9163858    3916.4669 
    4000    2.4186078   -2.6024776            0    1.0245271    5.7632901    3901.9397 
    5000    2.4115835   -2.6258571            0   0.99061376    5.7015265    3887.4984 
    6000    2.4436187   -2.6338752            0    1.0306365    5.7760473    3894.5047 
    7000    2.3907747   -2.6335342            0   0.95173137    5.7730676    3883.8072 
    8000    2.3655052   -2.6794813            0   0.86788935    5.3208368    3903.0058 
    9000    2.3902291   -2.6329027            0   0.95154461    5.5788154    3915.7951 
   10000    2.4342264   -2.6222516            0    1.0281751    5.5028065    3935.9277 
Loop time of 2.54053 on 48 procs for 10000 steps with 4000 atoms

Performance: 680171.794 tau/day, 3936.179 timesteps/s
99.6% CPU use with 48 MPI tasks x no OpenMP threads

MPI task timing breakdown:
Section |  min time  |  avg time  |  max time  |%varavg| %total
---------------------------------------------------------------
Pair    | 1.0932     | 1.1866     | 1.3377     |   3.4 | 46.71
Neigh   | 0.21257    | 0.21885    | 0.24003    |   1.0 |  8.61
Comm    | 0.70344    | 0.85887    | 0.94451    |   4.5 | 33.81
Output  | 0.00024777 | 0.00025126 | 0.00032041 |   0.0 |  0.01
Modify  | 0.21891    | 0.26077    | 0.3186     |   5.4 | 10.26
Other   |            | 0.01515    |            |       |  0.60

Nlocal:        83.3333 ave          96 max          71 min
Histogram: 1 0 6 6 11 6 11 5 1 1
Nghost:        1656.27 ave        1680 max        1634 min
Histogram: 1 8 3 8 5 6 8 2 4 3
Neighs:        9677.85 ave       11158 max        7993 min
Histogram: 1 1 3 8 9 8 9 5 1 3

Total # of neighbors = 464537
Ave neighs/atom = 116.13425
Neighbor list builds = 911
Dangerous builds = 240

# Equilibrate just above the melting temperature to avoid step fn in T

fix 1 all npt temp 1.25 1.25 0.1 iso 5.68 5.68 0.5 mtk yes tchain 5 pchain 5
run 2000
Per MPI rank memory allocation (min/avg/max) = 3.643 | 3.645 | 3.649 Mbytes
Step Temp E_pair E_mol TotEng Press Volume 
   10000    2.4342264   -2.6222516            0    1.0281751    5.5028065    3935.9277 
   11000    1.2337357   -3.9020922            0   -2.0519513     5.641108    3008.7363 
   12000    1.2728702   -3.9313018            0   -2.0224739    5.7374478    2996.3249 
Loop time of 0.623976 on 48 procs for 2000 steps with 4000 atoms

Performance: 553867.537 tau/day, 3205.252 timesteps/s
99.6% CPU use with 48 MPI tasks x no OpenMP threads

MPI task timing breakdown:
Section |  min time  |  avg time  |  max time  |%varavg| %total
---------------------------------------------------------------
Pair    | 0.26481    | 0.30371    | 0.33478    |   2.4 | 48.67
Neigh   | 0.040702   | 0.04306    | 0.04654    |   0.6 |  6.90
Comm    | 0.19481    | 0.22831    | 0.273      |   3.0 | 36.59
Output  | 5.1821e-05 | 5.3548e-05 | 6.8337e-05 |   0.0 |  0.01
Modify  | 0.040051   | 0.044034   | 0.048434   |   1.1 |  7.06
Other   |            | 0.004803   |            |       |  0.77

Nlocal:        83.3333 ave          93 max          76 min
Histogram: 4 8 6 2 8 9 3 4 3 1
Nghost:        1995.33 ave        2025 max        1966 min
Histogram: 2 2 4 9 11 7 3 4 4 2
Neighs:        12758.6 ave       14378 max       10913 min
Histogram: 1 5 5 4 3 11 6 5 4 4

Total # of neighbors = 612414
Ave neighs/atom = 153.10350
Neighbor list builds = 145
Dangerous builds = 24

#############################
# L I N E A R  Q U E N C H  #
#############################

# Define solid atoms. This closely follows ten Wolde  Ruiz-Montero and Frenkel  Faraday Discuss  1996  104  93-110
# Compute components of the per-atom q6 vector
compute q6 all orientorder/atom degrees 1 6 components 6 nnn NULL cutoff 1.3 # compute the Q6 parameter.
                                                                             # Use all neighbours within 1.3 unit cell.

# get number of connections
compute coord_number all coord/atom orientorder q6 0.5

# An atom is solid if it has 8 or more connections (of a possible 14)
variable is_solid atom c_coord_number>=8
group solid dynamic all var is_solid    # Must be dynamic to update
dynamic group solid defined

# do clustering
compute cluster solid cluster/atom 1.3 # Create a cluster where all atoms within are solid and max 1.3 units from another member

# define chunks one chunk per cluster
compute clus_chunks solid chunk/atom c_cluster nchunk every compress yes  # Says which atoms are in which chunk

# count the size of each chunk
compute size_chunks solid property/chunk clus_chunks count


# Find the maximum entry in the vector of chunk sizes
variable max_n equal max(c_size_chunks)


# Thermo style which includes this variable
# thermo_style custom step temp pe vol v_max_n

thermo ${N}  # Print the thermo information every 100 steps
thermo 1000  

# Reset the npt fix at a lower temperature (below freezing)
fix 1  all npt temp  ${temp} ${temp}  0.1  iso  5.68  5.68  0.5  mtk yes tchain  5  pchain  5
fix 1  all npt temp  0.45 ${temp}  0.1  iso  5.68  5.68  0.5  mtk yes tchain  5  pchain  5
fix 1  all npt temp  0.45 0.45  0.1  iso  5.68  5.68  0.5  mtk yes tchain  5  pchain  5

dump dmp2 all dcd ${N} traj.dcd
dump dmp2 all dcd 1000 traj.dcd


compute msd all msd com yes
variable twopoint equal c_msd[4]/6/(step*dt+1.0e-6)
fix 9 all vector 10 c_msd[4]
variable fit equal slope(f_9)/6/(10*dt)
thermo_style custom step temp pe c_msd[4] v_twopoint v_fit v_max_n

fix 1 all npt temp 1.25 ${temp} 0.1 iso 5.68 5.68 0.5 mtk yes tchain 5 pchain 5
fix 1 all npt temp 1.25 0.45 0.1 iso 5.68 5.68 0.5 mtk yes tchain 5 pchain 5
run 5000000 # 5000000  # Run for this many steps
Neighbor list info ...
  update every 1 steps, delay 10 steps, check yes
  max neighbors/atom: 2000, page size: 100000
  master list distance cutoff = 3.8
  ghost atom cutoff = 3.8
  binsize = 1.9, bins = 8 8 8
  4 neighbor lists, perpetual/occasional/extra = 1 3 0
  (1) pair lj/cut, perpetual
      attributes: half, newton on
      pair build: half/bin/atomonly/newton
      stencil: half/bin/3d
      bin: standard
  (2) compute orientorder/atom, occasional
      attributes: full, newton on
      pair build: full/bin/atomonly
      stencil: full/bin/3d
      bin: standard
  (3) compute coord/atom, occasional
      attributes: full, newton on
      pair build: full/bin/atomonly
      stencil: full/bin/3d
      bin: standard
  (4) compute cluster/atom, occasional
      attributes: full, newton on
      pair build: full/bin/atomonly
      stencil: full/bin/3d
      bin: standard
Per MPI rank memory allocation (min/avg/max) = 9.829 | 9.836 | 9.842 Mbytes
Step Temp PotEng c_msd[4] v_twopoint v_fit v_max_n 
   12000    1.2728702   -3.9313018 5.9655634e-30 4.1427522e-32 8.3333333e+20            2 
   13000    1.2744945   -3.8840808   0.87171105 0.0055878911  0.073601446            2 
   14000    1.2407062   -3.9470668    1.7653788  0.010508207  0.074110455            2 
   15000    1.2732292   -3.9270852    2.6560741  0.014755967  0.074204142            3 
   16000    1.2393782   -3.8950653    3.5419382  0.018447594  0.074016011            1 
   17000    1.2461617   -3.9311346    4.4368881  0.021749451  0.073615336            1 
   18000    1.2909599   -3.9421547    5.3290152  0.024671366  0.073901461            2 
   19000    1.2596523   -3.9272225     6.177752  0.027095403  0.073980954            2 
   20000    1.1960947   -3.9254374    7.1209119  0.029670465  0.074011992            4 
   21000    1.2328757   -3.9309876    8.0794925  0.032061477  0.074323311            1 
   22000    1.2180311   -3.9358428    8.9363304  0.033849736  0.074574715            2 
   23000    1.2305154   -3.9281472    9.9399735  0.036014396   0.07495671            5 
   24000    1.2327816   -3.9242785    10.852619  0.037682705  0.075382431            3 
   25000    1.2449677   -3.9321146    11.631748  0.038772491  0.075453246            2 
   26000    1.2525118   -3.9416512    12.710825  0.040739822  0.075695933            1 
   27000    1.2261334   -3.9235735    13.842218  0.042722895   0.07618073            2 
   28000    1.2574094   -3.8937215    14.776863  0.043978759   0.07667709            3 
   29000    1.2291654   -3.9173957     15.55444  0.044696666  0.076869838            1 
   30000    1.2327851    -3.905206    16.531562  0.045921004  0.077019888            1 
   31000     1.245092   -3.9225323    17.589174  0.047282726  0.077237736            1 
   32000    1.2522733   -3.9298054    18.624905  0.048502356  0.077544989            1 
   33000    1.2505602   -3.8863266     19.73995  0.049848358  0.077761647            2 
   34000    1.2234362   -3.9509587    20.678493   0.05068258  0.078049746            3 
   35000     1.262129   -3.9469059    21.292541  0.050696525  0.078200569            1 
   36000    1.2390147   -3.9346478    22.550381  0.052199954  0.078356126            7 
   37000    1.2267816   -3.9353266    23.561529  0.053066507  0.078632368            2 
   38000    1.2284219   -3.9544725    24.627201  0.054007018  0.078928931            1 
   39000    1.2230389   -3.9218738     25.57331  0.054643825  0.079165698            1 
   40000    1.2538371   -3.9176821    26.568901  0.055351876  0.079358639            3 
   41000    1.2564865   -3.8951521    27.617032  0.056132179  0.079597438            2 
   42000    1.2257251   -3.9310528    28.715079  0.056974362  0.079784733            1 
   43000     1.245071   -3.9122461    29.572745  0.057311521  0.079935252            2 
   44000    1.2765108   -3.9046874    30.780033  0.058295517  0.080135622            3 
   45000    1.2371961   -3.9269929     31.84591  0.058973906  0.080401093            2 
   46000    1.2190815   -3.9253728    32.914328  0.059627404   0.08063347            4 
   47000    1.2523598   -3.9154123    33.904574  0.060114492  0.080883337            3 
   48000    1.2437875   -3.9419397    34.890959  0.060574581  0.081105207            1 
   49000    1.2496433   -3.9092064    35.997654    0.0612205  0.081252799            2 
   50000    1.2505521   -3.8931706    36.770183  0.061283637  0.081376527            2 
   51000    1.2199685    -3.916546    37.516609  0.061301648  0.081461638            1 
   52000    1.2300421   -3.9246611    38.559334  0.061793804  0.081510521            4 
   53000    1.2423876   -3.9188678     39.71413    0.0624436  0.081596708            1 
   54000    1.2358233   -3.9031681     40.75293  0.062890323  0.081694163            7 
   55000    1.2530318   -3.9552694    41.731962  0.063230245  0.081794196            1 
   56000    1.2424974   -3.9599835    42.737706  0.063597776  0.081861562            1 
   57000    1.2250791   -3.9529807    43.839729   0.06409317  0.081929104            4 
   58000     1.253381    -3.905153     44.56423  0.064029065  0.081982063            1 
   59000    1.2185751   -3.9176611    45.339627   0.06403902  0.081979862            1 
   60000    1.2168534   -3.9257347    46.116713   0.06405099  0.081948467            2 
   61000    1.2583249   -3.8875568    47.173063  0.064444074  0.081898522            1 
   62000    1.2369159   -3.9270763    47.944269  0.064441221  0.081809718            2 
   63000    1.2621199   -3.9188898    49.074313  0.064913112  0.081727695            1 
   64000    1.2604126   -3.9257001     49.73144  0.064754479  0.081647096            1 
   65000    1.2605242   -3.9151243    50.453801   0.06468436  0.081510603            1 
   66000    1.2391913   -3.9261761    51.407804  0.064908843  0.081390392            3 
   67000    1.2334974   -3.8990196    52.306345  0.065057642  0.081264354            2 
   68000    1.2335672   -3.9486042    53.065007  0.065030645   0.08115625            3 
   69000    1.2295195   -3.9127598    54.326172  0.065611319  0.081052143            2 
   70000    1.2509075   -3.9388444     55.14176  0.065644952  0.080963696            2 
   71000     1.272071   -3.9546717     56.10768  0.065854084  0.080875423            3 
   72000    1.2458462   -3.9051519    56.848097  0.065796409  0.080780805            3 
   73000    1.2335199   -3.9073016    57.819982  0.066004546  0.080698142            2 
   74000    1.2515615   -3.9273995    58.833918  0.066254411  0.080612408            1 
   75000    1.2313252   -3.9097155    60.000468  0.066667187  0.080527634            1 
   76000    1.2607316   -3.8782143    60.872913  0.066746614   0.08044329            3 
   77000    1.2223756   -3.9460417    61.618021   0.06668617  0.080365777            2 
   78000    1.2284807    -3.913896    62.414796  0.066682474  0.080281477            2 
   79000    1.2277987    -3.921291    63.238856  0.066707653  0.080180913            1 
   80000    1.2433601   -3.9400266    63.909532  0.066572428  0.080076026            3 
   81000    1.2522775   -3.9504392    65.029186  0.066902454  0.079967979            1 
   82000    1.2299589   -3.9305638    65.446744  0.066510919  0.079862507            1 
   83000    1.2452033   -3.9029097    66.920949  0.067189707  0.079761885            1 
   84000    1.2573508   -3.9155551    67.722612  0.067185131  0.079682457            3 
   85000     1.250421   -3.9204064    69.050039  0.067696116  0.079620816            1 
   86000    1.2510234   -3.9506104    69.749494  0.067586719  0.079566049            3 
   87000    1.2287481    -3.899985     71.06292   0.06806793  0.079526287            2 
   88000    1.2481947   -3.9333511    72.200785  0.068371955  0.079482666            2 
   89000    1.2407609   -3.9585989    73.016845  0.068367832   0.07944525            2 
   90000    1.2295307   -3.9494842    74.071513  0.068584734  0.079417691            1 
   91000    1.2323876   -3.9393381    75.117638  0.068789046  0.079428642            2 
   92000    1.2395265   -3.9706852    76.162992  0.068988217  0.079439883            2 
   93000    1.2377788    -3.941696    77.128747   0.06911178  0.079457381            3 
   94000    1.2167995   -3.9264269    78.110638  0.069247019   0.07945948            2 
   95000    1.2259986   -3.9569408    78.451157  0.068816804  0.079450184            3 
   96000    1.2038263   -3.9139925    80.060926  0.069497331  0.079423205            2 
   97000    1.2489779   -3.9678743     80.27766  0.068967061  0.079393883            2 
   98000    1.2131913   -3.9661728    80.837898  0.068739709    0.0793461            2 
   99000    1.2477943   -3.9374826     82.33112  0.069302289  0.079305502            1 
  100000    1.2540189   -3.8829748    83.058138  0.069215115  0.079273697            2 
  101000    1.2434781   -3.9127356    83.957521  0.069271881   0.07922813            2 
  102000    1.2411372   -3.9484264    84.832961  0.069307974  0.079192873            2 
  103000    1.2424048   -3.9351409    85.662966  0.069306606  0.079161039            1 
  104000    1.2507662   -3.9378331    87.018644  0.069726477  0.079135511            2 
  105000    1.2524141   -3.9505214    88.268157  0.070054093  0.079117989            3 
  106000    1.2353467   -3.9593619    89.350712   0.07024427  0.079113385            2 
  107000    1.2134926   -3.9369478    90.289928  0.070319259  0.079117114            2 
  108000    1.2547438   -3.9378865    91.134359  0.070319721  0.079120002            3 
  109000     1.233493   -3.9313604    91.948679  0.070297155  0.079121597            1 
  110000    1.2295743    -3.919058    93.414135  0.070768283  0.079129094            4 
  111000    1.2373318   -3.8961794    94.616376  0.071033315  0.079138896            1 
  112000    1.2371643   -3.9444073    95.396546  0.070979573  0.079162961            2 
  113000    1.2084469   -3.9568601    95.884373  0.070711189  0.079186164            1 
  114000    1.2520492   -3.9235602    97.232446  0.071076349  0.079208322            2 
  115000    1.2279068   -3.9486511    98.549283  0.071412524  0.079242595            2 
  116000    1.2315332   -3.9567913    99.569829  0.071530049  0.079266512            2 
  117000    1.2582826   -3.9313085    100.15328  0.071334247  0.079293554            2 
  118000    1.2194953   -3.9454114    101.09991   0.07139824  0.079311746            1 
  119000    1.2435048   -3.9480814    102.06941  0.071477178  0.079327958            2 
  120000    1.2283292    -3.962323    102.88037  0.071444703  0.079347555            3 
  121000    1.2088572   -3.9391754    104.02661  0.071643673  0.079380928            5 
  122000    1.2163562   -3.9740778    105.13743  0.071815185  0.079408513            3 
  123000    1.2313816   -3.9779777    106.25392  0.071987753  0.079437033            3 
  124000    1.2430636   -3.9435306      107.641  0.072339381  0.079476866            2 
  125000    1.2394171   -3.9517577    108.76812  0.072512082  0.079520428            3 
  126000    1.2099109   -3.9318332    110.01836  0.072763462  0.079576542            1 
  127000    1.2259218   -3.9289491    110.92815  0.072787503  0.079632823            3 
  128000    1.2250944   -3.9048821    111.93871  0.072876762  0.079681861            1 
  129000    1.2437982   -3.9318584    113.73138  0.073469886  0.079739118            1 
  130000    1.2101175   -3.9361571    114.15816  0.073178305  0.079791176            2 
  131000    1.2479249   -3.9393619    115.08255   0.07320773  0.079835342            1 
  132000    1.2411962   -3.9258705     115.6007  0.072980237  0.079878699            3 
  133000    1.2124602   -3.9387165    116.61747  0.073068592  0.079926119            2 
  134000    1.2333962   -3.9302126    117.69379  0.073192655  0.079959494            4 
  135000     1.215337   -3.9452124    118.77876  0.073320222  0.079991194            1 
  136000      1.23125   -3.9423281    119.75203   0.07337747  0.080016336            3 
  137000    1.2473394   -3.9333131    120.65539  0.073391355  0.080052555            2 
  138000    1.2516314   -3.9530296    122.28741  0.073845051  0.080097757            2 
  139000    1.2265912   -3.9713674    123.43237  0.074000224  0.080141833            1 
  140000    1.2253328    -3.982451    124.06525  0.073848362  0.080191446            1 
  141000    1.2558211   -3.9440157    125.60725  0.074235964  0.080251795            3 
  142000    1.2441718   -3.9498864    126.37523  0.074163869  0.080300983            1 
  143000    1.2308515   -3.9969654    126.70858  0.073839501  0.080341662            2 
  144000    1.2596777   -3.9564999    128.59923  0.074420852  0.080385443            1 
  145000    1.2449642   -3.9389759    129.56572   0.07446306   0.08041927            2 
  146000    1.2183895   -3.9273296    129.40748  0.073862715  0.080449828            2 
  147000    1.2138787   -3.9499077    130.65367  0.074066704  0.080482169            1 
  148000    1.2581706   -3.9575612    131.87376  0.074253243  0.080506357            2 
  149000    1.2379822   -3.9527947    132.68886   0.07421077  0.080533903            3 
  150000    1.2393712   -3.9315708    133.63647  0.074242483  0.080564903            5 
  151000    1.2718575     -3.93254    135.03518  0.074522724  0.080591143            2 
  152000    1.2279608    -3.961101    135.08382  0.074059111  0.080619978            3 
  153000     1.233477   -3.9585775    136.53216  0.074363921  0.080642606            2 
  154000    1.2230113   -3.9709194    137.23792  0.074262941  0.080659625            2 
  155000     1.254713   -3.9379985    138.99722  0.074729686  0.080685451            4 
  156000    1.2215307   -3.9544846    139.71133  0.074632122  0.080712504            1 
  157000    1.2380622   -3.9631837    140.34644  0.074493866  0.080737203            1 
  158000    1.2343045    -3.932959    141.10982  0.074425008  0.080757688            3 
  159000    1.2143838   -3.9545392    142.55968  0.074716813  0.080772331            2 
  160000    1.2252219   -3.9433361     143.2337  0.074600883  0.080789486            4 
  161000    1.2318272   -3.9248671    144.19095  0.074632996  0.080802234            2 
  162000    1.2077206   -3.9255789    145.40911  0.074798923  0.080814431            4 
  163000    1.2083529   -3.9479934    146.45041  0.074872399  0.080832614            2 
  164000    1.2285973   -3.9573686    146.94652  0.074667949  0.080849157            1 
  165000    1.2177364   -3.9240733    147.81369  0.074653381  0.080856905       -1e+20 
  166000    1.2217889   -3.9988814    148.77772   0.07468761  0.080860193            2 
  167000    1.2290645   -3.9115238    150.25961  0.074979843  0.080865103            1 
  168000    1.2133965   -3.9874223    150.19462  0.074501301  0.080867746            2 
  169000    1.2282734   -3.9555937    151.41484  0.074662147  0.080868951            2 
  170000    1.2444729   -3.9648953    152.55374  0.074781244  0.080867656            2 
  171000      1.21698   -3.9889081    152.66876  0.074399982  0.080869569            3 
  172000    1.2318054   -3.9371208    154.52196   0.07486529  0.080872935            2 
  173000    1.2292479   -3.9067002    156.37304    0.0753242  0.080868042            2 
  174000    1.2034887   -3.9330282    155.90351   0.07466643  0.080861869            1 
  175000     1.236675   -3.9832308    156.16634  0.074364922  0.080850296            2 
  176000     1.223673    -3.947902    157.85804   0.07474339  0.080843294            1 
  177000     1.240993    -3.958911     159.0815  0.074897126  0.080833075            2 
  178000    1.2239055   -3.9798707    159.37285  0.074612757  0.080823256            4 
  179000    1.2315142   -3.9013203    160.44138   0.07469338  0.080815534            3 
  180000    1.2153311   -3.9783689    162.05854  0.075027101   0.08081058            1 
  181000    1.2203336   -3.9440915    162.31397   0.07473019  0.080800717            2 
  182000    1.1939822   -3.9810641     162.2344  0.074283149  0.080782486            1 
  183000    1.2384209   -3.9659503    163.32423  0.074373509  0.080754696            2 
  184000    1.2157948    -3.957281    164.13839  0.074338039  0.080724952            2 
  185000    1.2336848   -3.9405814    165.48404  0.074542359  0.080692222            1 
  186000    1.1924114   -3.9747419    165.49961  0.074148569  0.080658034            1 
  187000    1.2029123   -3.9118159    166.82385  0.074342181  0.080624998            4 
  188000    1.2285989   -3.9969687    166.05236  0.073604771  0.080588558            2 
  189000    1.2008331   -3.9554518    168.22143  0.074171707   0.08055016            2 
  190000    1.2174066   -3.9539883    169.81421  0.074479915  0.080518454            3 
  191000    1.2164016   -3.9227329     170.9908  0.074603317  0.080491298            1 
  192000    1.1952595   -3.9460375    171.76741  0.074551827  0.080470228            4 
  193000    1.2394333   -3.9669867    172.72291  0.074578112  0.080442883            4 
  194000    1.2356216    -3.974272    173.68612  0.074607439  0.080415819            9 
  195000     1.229303     -3.95658    173.57848  0.074178838  0.080392553            1 
  196000    1.2146705   -3.9637555    175.10979  0.074451441  0.080368502            1 
  197000    1.2334585   -3.9710474    176.16415  0.074519523  0.080344116            2 
  198000    1.2193309   -3.9468444    177.23409  0.074593471  0.080315004            1 
  199000    1.2207974   -3.9723014    176.93409  0.074093001  0.080277023            2 
  200000    1.2237177   -3.9681103    176.91673  0.073715303  0.080244166            2 
  201000    1.2211611    -3.949943    179.76529  0.074529555  0.080214094            1 
  202000    1.2115275   -3.9744641    179.29219  0.073965423  0.080179034            1 
  203000    1.2374477   -3.9398706    180.95993  0.074285686  0.080142306            2 
  204000    1.2438559   -3.9630576    181.64785  0.074202553  0.080107802            2 
  205000    1.2302376   -3.9579295    181.89158  0.073939665  0.080067219            1 
  206000    1.2328573     -3.96083    182.87262  0.073977597  0.080032059            1 
  207000    1.2121128   -3.9578977    184.78918  0.074391778  0.079996601            3 
  208000    1.2046968   -3.9843824    184.68001  0.073990387  0.079958194            2 
  209000    1.2298947   -3.9889165    186.15606  0.074224903  0.079919401            1 
  210000    1.2204354   -4.0416292    186.58106  0.074040101  0.079886399            3 
  211000    1.2424435   -3.9880806    188.02606  0.074259898  0.079849701            1 
  212000    1.2264184   -3.9803223    189.33421  0.074423826  0.079820992            3 
  213000    1.2388779   -3.9879364     189.7209  0.074225704  0.079793817            2 
  214000    1.2177385   -3.9822237    190.21678  0.074071954  0.079765006            1 
  215000    1.2247663   -3.9558014    191.90383  0.074381331  0.079732332            3 
  216000    1.2283739   -3.9662687    192.42085   0.07423644  0.079697206            2 
  217000    1.2223843    -3.940493     193.5565  0.074330451  0.079661378            1 
  218000    1.2308498   -3.9502275    194.01277  0.074163903  0.079628674            2 
  219000    1.1895966   -4.0011075    194.88465  0.074157022  0.079599118            1 
  220000    1.2076679   -3.9714265    195.92895  0.074215511  0.079568479            2 
  221000    1.2102749   -3.9885286    196.15289  0.073964136  0.079532444            3 
  222000    1.2098888    -3.996813    197.53392   0.07414937  0.079495757            1 
  223000    1.2231443    -3.946795    198.72728   0.07426281  0.079455961            2 
  224000    1.2088573   -3.9164594    199.23236  0.074119181  0.079420318            2 
  225000    1.2186751   -3.9529993    199.57269   0.07391581  0.079378082            2 
  226000    1.2083719   -3.9535726    201.82854  0.074420554  0.079343068            2 
  227000    1.2336803   -3.9704117    201.87146  0.074108466  0.079306056            2 
  228000    1.2140425   -3.9523137    201.90586  0.073796003  0.079265296            3 
  229000    1.1870383    -3.965755    203.18298  0.073938494  0.079225027            2 
  230000    1.2103166    -3.978252     202.7772  0.073470001  0.079185479            1 
  231000    1.2100211     -3.97177    204.66119  0.073831599  0.079146682            2 
  232000    1.2083249   -3.9673793    205.41921  0.073785636  0.079111024            2 
  233000    1.2165502   -3.9690863    207.34071  0.074156191  0.079078236            2 
  234000    1.1984316   -3.9809291    207.98294  0.074067998  0.079045101            3 
  235000    1.2254792   -3.9687333    208.75267  0.074025769  0.079013975            4 
  236000    1.2303301    -3.965216    210.42991  0.074304348  0.078986635            2 
  237000    1.2374914   -3.9775023    211.32682  0.074306196  0.078958289            3 
  238000    1.2177282   -3.9851131    210.68416  0.073768963   0.07892768            2 
  239000    1.2459787   -3.9586416     213.5149  0.074447315  0.078897283            2 
  240000    1.2018286   -4.0141796    213.61358  0.074171383  0.078871298            1 
  241000    1.2143824   -3.9080553     214.9571  0.074328181  0.078847435            3 
  242000    1.2607729   -4.0080991     214.1197  0.073732678  0.078821058            1 
  243000    1.2177096   -3.9866725    216.26354  0.074164451  0.078789719            2 
  244000    1.2004982   -3.9226455    217.33306   0.07422577  0.078761682            1 
  245000    1.2142593   -4.0047787    217.54695  0.073995563  0.078738385            2 
  246000    1.2213683   -3.9635863    218.87264  0.074143848  0.078713441            6 
  247000    1.1994274   -4.0128415    220.61114  0.074430208  0.078693521            4 
  248000    1.1969313   -3.9256617    222.78943  0.074862039  0.078678877            1 
  249000     1.215454    -4.011243    221.74022  0.074210249  0.078660182            1 
  250000      1.22797   -3.9862297     223.2563  0.074418767   0.07863606            2 
  251000    1.1878933     -3.96817    224.64523   0.07458341  0.078616682            4 
  252000    1.2091481   -3.9648042     224.9095  0.074374834  0.078593979            3 
  253000    1.1830017   -3.9686708    226.37774  0.074564472  0.078570065            1 
  254000    1.2141856   -4.0013979    226.86274  0.074430032  0.078548892            3 
  255000    1.2192806   -3.9808677    228.49201  0.074670592  0.078530586            3 
  256000    1.2121102   -3.9472152    228.96551  0.074533045  0.078513615            1 
  257000    1.2072484   -3.9902193    229.98667  0.074574147  0.078495329            4 
  258000    1.2289254   -3.9613743    230.01305  0.074293621  0.078476937            2 
  259000    1.2371135   -3.9804245    231.34466   0.07443522  0.078456233            3 
  260000     1.198437   -4.0072158    231.57975  0.074224278  0.078436983            3 
  261000     1.192609   -3.9953879    232.08636  0.074101647  0.078414246            2 
  262000     1.199377   -4.0226065    232.13108  0.073833042   0.07838763            1 
  263000    1.2092673   -3.9575611    236.16636  0.074830913  0.078365452            2 
  264000    1.1952662   -4.0133023    235.03592  0.074190631  0.078344499            2 
  265000    1.2129646   -3.9887715    235.35461  0.074010882   0.07831708            2 
  266000    1.2116917   -3.9868195    235.93585  0.073914739  0.078289936            2 
  267000    1.2042263   -3.9497491    237.54958  0.074141568  0.078262419            2 
  268000    1.2084267   -3.9745079     237.1792  0.073749752  0.078235141            1 
  269000     1.213207   -3.9719716    238.86221  0.073996967  0.078207698            2 
  270000    1.2064128   -3.9799441    239.95076  0.074058877  0.078179238            2 
  271000     1.230413   -3.9991425    239.79272  0.073736998  0.078150125            3 
  272000    1.2188197    -3.985581     240.0207  0.073535753   0.07811943            4 
  273000    1.2148654   -3.9735685    241.48145  0.073712285  0.078088371            2 
  274000    1.2174393    -3.978443    243.14222  0.073948364  0.078056396            2 
  275000    1.1966207   -3.9950107    243.38879  0.073754177  0.078028748            3 
  276000    1.2027942    -3.987603    243.60044  0.073550859  0.077997243            4 
  277000    1.1930472   -4.0035398    245.02552  0.073714055  0.077964791            3 
  278000    1.1924499   -3.9778392    246.98677  0.074036802  0.077935249            5 
  279000      1.19659   -3.9964859    247.13965    0.0738171  0.077908104            2 
  280000    1.1773529   -3.9743689    247.18859  0.073568034  0.077878039            2 
  281000    1.1904794   -3.9603997    249.11344  0.073877059  0.077848934            1 
  282000    1.2248965   -3.9508053    251.12159  0.074208509  0.077824096            2 
  283000    1.2143679   -3.9884996    251.31202  0.074002361  0.077799245            2 
  284000    1.2199732   -3.9974788    252.01791  0.073948918  0.077773537            3 
  285000    1.2048744   -3.9688654    252.59058  0.073856893  0.077748895            1 
  286000    1.2299228   -3.9772869    254.36952  0.074116992  0.077727635            1 
  287000    1.2139851   -3.9688291    254.67976  0.073948826  0.077700107            3 
  288000    1.1697163   -3.9900822    254.21075   0.07355635   0.07767003            2 
  289000    1.2106184   -4.0070089    255.35716  0.073632399  0.077638547            3 
  290000     1.195121   -3.9941354    256.54312  0.073719286  0.077608639            2 
  291000    1.2165236    -3.974423     258.0686  0.073902806  0.077582579            2 
  292000    1.1877043    -3.968454    257.30986  0.073433178  0.077554436            2 
  293000    1.2302797   -3.9894549    257.90186  0.073350926  0.077527947            2 
  294000    1.1845188   -3.9664173    259.66054  0.073599925   0.07749963            1 
  295000    1.1972448   -3.9982527    260.53674  0.073597949  0.077469145            4 
  296000    1.1964295   -3.9558585    261.06531  0.073498117  0.077437614            3 
  297000     1.194112   -4.0005395     260.7035  0.073149131  0.077405613            1 
  298000    1.1973522   -4.0131521    261.23481  0.073052239  0.077372828            2 
  299000    1.2021954   -3.9795069    263.06657  0.073318442  0.077338394            5 
  300000    1.1888608   -3.9676758    265.37837  0.073716214  0.077307288            1 
  301000    1.1878099   -3.9985928    265.38539  0.073473252  0.077277034            1 
  302000    1.1782083   -3.9746383    266.26234  0.073471948  0.077245546            2 
  303000    1.2239669   -4.0067656     266.5703  0.073314163  0.077214567            5 
  304000    1.2093969   -4.0072445    268.34514  0.073559524   0.07718458            1 
  305000    1.1957888   -4.0154457    268.28646  0.073302312  0.077153856            2 
  306000     1.250292   -3.9716587    270.82288  0.073753508  0.077125225            2 
  307000    1.1858512    -3.972931    270.98935  0.073558456  0.077097341            1 
  308000     1.179414    -3.989967    271.45813  0.073446463  0.077069311            3 
  309000    1.1845252   -3.9860421    273.49722  0.073758689  0.077042146            2 
  310000    1.2108295   -3.9960651     273.8979  0.073628468  0.077013278            2 
  311000    1.2084946   -3.9797779    272.91028  0.073127083  0.076989053            3 
  312000      1.22686   -3.9825719    275.49507  0.073583086    0.0769639            6 
  313000    1.2036814   -4.0005298     275.4221  0.073328567  0.076940215            2 
  314000    1.2354294   -4.0001138    276.83903  0.073471081  0.076916309            3 
  315000    1.2160176   -4.0027627    276.24206   0.07307991  0.076889197            2 
  316000     1.229858   -4.0102754    277.01766   0.07305318  0.076861651            4 
  317000    1.2036319    -4.018861    278.75844  0.073280347  0.076835836            2 
  318000    1.2198919   -3.9844837    280.78532  0.073581059  0.076807163            3 
  319000    1.1874235   -3.9998324    280.25382  0.073211551  0.076779762            1 
  320000    1.1893314   -3.9745313    281.00403  0.073178132  0.076752278            3 
  321000     1.210002   -3.9583475    282.80124   0.07341673  0.076723886            2 
  322000    1.2063009   -4.0273694    281.61023  0.072880495  0.076696187            2 
  323000    1.2023738   -3.9496491    284.66266  0.073442379  0.076668397            2 
  324000    1.1995825   -3.9952653    284.08298  0.073066611  0.076644349            4 
  325000    1.1843738   -3.9607731     286.3288  0.073417642  0.076617377            2 
  326000    1.1948594   -3.9765077    288.28352  0.073692106  0.076593927            1 
  327000    1.1978466   -3.9645055    288.58572  0.073543761  0.076569755            3 
  328000    1.2021871   -3.9910365    289.68516  0.073598872  0.076545209            2 
  329000    1.1968816   -3.9829493    289.98115  0.073450139  0.076524032            2 
  330000    1.1928108   -3.9933537    291.12611  0.073516693  0.076502182            2 
  331000    1.1820455   -4.0152407    292.10772  0.073541721  0.076480751            2 
  332000    1.2193274   -3.9845301    293.19128  0.073592188   0.07646386            2 
  333000     1.206256   -4.0280984    293.91029  0.073551124  0.076446403            4 
  334000       1.1886   -4.0117384    294.57666  0.073497172  0.076429475            2 
  335000     1.185654   -3.9747266    296.52301  0.073761942  0.076411948            2 
  336000    1.1889813   -3.9513062    298.54118   0.07404295  0.076399416            2 
  337000    1.1838322   -3.9738398    298.97911   0.07393153  0.076386477            2 
  338000    1.2103889   -3.9961261    299.45237  0.073829479   0.07637386            2 
  339000    1.1930286   -3.9592265    299.90932  0.073724022  0.076361271            5 
  340000    1.2239144    -3.987621     301.5505  0.073909437  0.076349913            3 
  341000    1.1891594   -3.9725204    303.20923  0.074098052  0.076340116            1 
  342000    1.1912696   -3.9840011    303.14826  0.073866534  0.076329423            1 
  343000    1.1919267   -4.0113618    303.51865  0.073741168  0.076315125            2 
  344000    1.1822447   -3.9781292    305.06638   0.07390174  0.076301209            2 
  345000    1.2147867    -3.974706    305.59232   0.07381457  0.076288586            5 
  346000    1.1804217    -3.998945    307.66944  0.074101502  0.076277473            3 
  347000    1.2080802   -3.9861767    308.49754  0.074086825  0.076264163            1 
  348000    1.1998579   -3.9970331    308.88392  0.073966455  0.076251009            2 
  349000    1.2160168   -4.0114716    308.69984  0.073710563  0.076236241            1 
  350000    1.1865188   -3.9801645    310.69934  0.073976033  0.076223599            2 
  351000    1.1803123   -3.9757287    310.23437  0.073654884  0.076209832            1 
  352000    1.1845571   -3.9676036    311.04419  0.073637356  0.076194229            3 
  353000    1.1821974    -4.020432    311.59473  0.073558719  0.076177652            1 
  354000    1.1970743   -4.0081719    313.62582  0.073829053  0.076163533            4 
  355000    1.1745857   -3.9719488    313.34141  0.073554321  0.076152382            3 
  356000    1.1936749   -3.9842938    315.38821  0.073826828  0.076139124            2 
  357000    1.2037499   -4.0144141    315.50778  0.073647941  0.076127638            2 
  358000    1.2092885   -3.9794279    319.47147  0.074364866  0.076119355            1 
  359000    1.1766892   -3.9828469    318.96484   0.07404012  0.076111935            4 
  360000    1.1823437   -4.0079734    320.79271  0.074257572  0.076104044            2 
  361000    1.1875048   -3.9805587    320.32195  0.073943201  0.076094178            3 
  362000      1.16566    -4.008687    320.57478   0.07379714  0.076083027            2 
  363000     1.173872   -3.9911877    320.88035  0.073663991  0.076074047            4 
  364000    1.1738291   -4.0114966    322.74982  0.073889611   0.07606499            2 
  365000    1.1936492   -3.9823562    324.38038  0.074059448  0.076058674            2 
  366000    1.1663905   -3.9960609    325.27429   0.07406063  0.076051118            2 
  367000    1.1949941   -4.0247408     325.5674  0.073925386  0.076041886            1 
  368000    1.1986819   -4.0027734     325.5969  0.073731183  0.076033497            2 
  369000    1.1948973   -3.9885297    326.92105  0.073830409  0.076023627            1 
  370000    1.2003195   -3.9954231    327.09294  0.073669582   0.07601163            2 
  371000    1.1942007   -4.0067664    327.74811  0.073618174  0.075999587            1 
  372000    1.1953907   -3.9792074    329.45759  0.073803224   0.07598845            2 
  373000    1.1745463   -4.0122631    330.81312  0.073908203  0.075977835            3 
  374000    1.1737733   -3.9858275    330.68423   0.07368187  0.075965962            2 
  375000    1.2074188   -3.9967196    332.19534  0.073821186  0.075953833            2 
  376000    1.1893779   -4.0018088     333.3299  0.073876308  0.075942983            3 
  377000    1.2086975   -3.9785863    333.24578  0.073661755  0.075932179            2 
  378000     1.202727   -4.0080439    334.52083  0.073747978  0.075921338            2 
  379000    1.1682115   -3.9820572    335.71896  0.073816834  0.075911005            1 
  380000    1.2085302   -4.0049331    337.38617  0.073988194  0.075902064            2 
  381000    1.1850162   -3.9767077    337.96859  0.073921388  0.075892583            1 
  382000     1.188106   -3.9972478    338.98369   0.07394932  0.075886025            2 
  383000    1.1952102   -4.0168492    338.53422  0.073658447  0.075875031            1 
  384000    1.1790233   -4.0372819    338.50143  0.073459511  0.075866067            2 
  385000    1.1885975   -4.0047849    341.83381  0.073990003  0.075855238            2 
  386000    1.1856188    -4.020781    341.11587  0.073643322  0.075843895            3 
  387000    1.1734664   -3.9881656     342.9024  0.073837727  0.075832432            1 
  388000    1.1907593   -4.0248854    343.18074  0.073707203  0.075822946            2 
  389000    1.1555087   -3.9860138    343.15682    0.0735126  0.075811707            1 
  390000    1.1915164   -3.9783075    345.24559  0.073770426  0.075802598            2 
  391000    1.1865214   -3.9739184     345.7635  0.073692135  0.075792844            1 
  392000    1.1928987   -3.9818099    347.02607  0.073772548  0.075783651            1 
  393000    1.1982404   -3.9781024    348.21636  0.073837225  0.075773603            4 
  394000    1.2322176     -3.98355    349.05632  0.073827478  0.075766151            2 
  395000    1.1731554   -4.0421065    349.32709  0.073697698  0.075758581            2 
  396000    1.1539847    -4.030686    351.21315   0.07390849  0.075749375            2 
  397000    1.1947779   -4.0216834    350.30683  0.073532081  0.075739454            3 
  398000    1.1908694     -4.02715    351.87002  0.073674627  0.075731542            2 
  399000    1.1663214   -3.9953753    352.89695  0.073704458  0.075718077            4 
  400000    1.1996631    -4.014609    353.58293  0.073663111  0.075706642            3 
  401000    1.1915165   -3.9728333    354.84355  0.073741386  0.075694793            1 
  402000    1.1749357   -4.0187244    354.78528   0.07354587   0.07568421            3 
  403000    1.2128485    -3.985777    355.17487  0.073443934  0.075672131            3 
  404000    1.1945442   -3.9809441    356.91639  0.073621367  0.075662624            3 
  405000    1.1782455   -4.0268555    357.54307  0.073568534  0.075649665            2 
  406000    1.1792657   -3.9942204    357.66083  0.073411501  0.075637498            1 
  407000    1.1892476   -4.0309718     358.7469  0.073453502  0.075625492            3 
  408000    1.2002107    -3.996884    361.76072  0.073889037  0.075615067            1 
  409000    1.1863937   -4.0037669    359.53289   0.07325446  0.075605609            2 
  410000    1.2046672   -4.0375394    363.14716  0.073810399  0.075596023            3 
  411000    1.1871199   -4.0268668    362.28194  0.073455382  0.075587541            1 
  412000    1.1717702   -3.9973673    365.87403  0.074003647  0.075578401            1 
  413000     1.188626   -4.0664986    365.52756  0.073754552  0.075567886            7 
  414000    1.1844628   -4.0209054    363.94874  0.073258603   0.07555717            2 
  415000    1.1775683   -3.9999212    368.20185  0.073936114  0.075547212            3 
  416000    1.1698185   -4.0292357    366.80035  0.073477634  0.075537827            2 
  417000    1.1948464   -4.0188238    366.83965  0.073309283  0.075527368            1 
  418000    1.1853127   -3.9918468    368.56728  0.073478326  0.075517641            2 
  419000    1.1822061   -4.0057828    371.15553  0.073817726  0.075507091            1 
  420000    1.1993159   -4.0028439    371.34304  0.073679175  0.075499813            3 
  421000    1.1678888   -4.0001976    372.20969   0.07367571   0.07549045            1 
  422000    1.2042716   -4.0142055    373.65449  0.073786432  0.075481034            1 
  423000    1.1887067   -4.0250738    373.37928  0.073557778  0.075472414            2 
  424000    1.1916791    -3.994912    375.43169  0.073787674  0.075463749            2 
  425000    1.1782181   -4.0344511    375.23245  0.073574991  0.075453518            3 
  426000    1.1896032   -4.0132954    375.86741  0.073526489   0.07544333            2 
  427000    1.1688692   -3.9904429    377.32313  0.073638394  0.075433597            2 
  428000    1.1682955   -4.0177196    376.85971  0.073376112  0.075421828            2 
  429000    1.2082797   -3.9962763    377.50915  0.073331226  0.075411203            1 
  430000    1.1848763   -4.0032957    378.10087  0.073275363  0.075401114            5 
  431000    1.1693473    -4.002682    380.92596  0.073651578  0.075390038            2 
  432000    1.1752396    -3.979986    381.43874  0.073580005  0.075381745            1 
  433000    1.1581734   -4.0091356    383.29034  0.073766423  0.075371528            1 
  434000    1.1931483   -3.9949756    383.91112  0.073715653  0.075362936            2 
  435000    1.1795739   -4.0081224    386.50204  0.074042537  0.075356267            1 
  436000    1.1857029   -4.0211617    384.70371  0.073528996  0.075348413            3 
  437000    1.1820735   -4.0289161     387.4396  0.073882457  0.075339853            1 
  438000    1.1756776   -4.0287701     386.8602   0.07360354  0.075332204            2 
  439000    1.1674091   -4.0244097    388.95714  0.073833929  0.075323942            3 
  440000    1.1729568     -4.00632    390.13872  0.073889909  0.075315702            2 
  441000    1.1866557   -4.0591243    387.75605  0.073272118  0.075306979            3 
  442000    1.1403095    -3.982185     391.9908  0.073904751  0.075298328            2 
  443000    1.1853701    -4.009023    390.67875  0.073491112   0.07528879            1 
  444000    1.2189191   -4.0181544    391.94011  0.073562332  0.075277604            3 
  445000    1.1815691   -3.9898856    393.84407  0.073753571  0.075266907            1 
  446000    1.1600192   -4.0242673    393.72187  0.073565371  0.075257632            2 
  447000    1.1694884    -3.987765     396.4577  0.073910832  0.075249103            6 
  448000    1.1579352   -4.0271105    396.01745   0.07366396  0.075242126            2 
  449000    1.1942844   -3.9909237    396.49459  0.073588454  0.075235354            3 
  450000    1.1526223   -3.9845849    398.06373  0.073715506  0.075227836            2 
  451000    1.1827525    -4.034934    398.29645  0.073595057   0.07521913            3 
  452000     1.221027   -4.0453343    399.72618  0.073695829  0.075211709            3 
  453000    1.1623788    -3.995194    400.46829  0.073669664  0.075203228            2 
  454000    1.1712679   -4.0010517    401.25766  0.073652286  0.075195029            1 
  455000    1.1508523   -3.9926541    401.28933  0.073496215  0.075185838            2 
  456000     1.148175   -4.0313065    402.78095  0.073607629  0.075176647            1 
  457000      1.17571   -4.0487879     402.1686  0.073334902  0.075165295            3 
  458000    1.1784082   -4.0354501    404.23269  0.073550344  0.075154268            4 
  459000    1.1854338   -4.0436157    403.14628  0.073192861  0.075144433            3 
  460000    1.1816741   -4.0419588    404.60526  0.073298055  0.075134029            2 
  461000    1.1985701   -4.0233675    405.81154  0.073357111  0.075123481            4 
  462000    1.1751469   -4.0482886    405.51846  0.073145465  0.075112752            3 
  463000    1.1684148   -4.0422761     406.7944  0.073217135   0.07510212            1 
  464000    1.1754455   -4.0322913    407.60675  0.073205235  0.075090182            2 
  465000     1.178156   -4.0232147    410.05311  0.073486221  0.075080047            2 
  466000    1.1754986   -4.0344685    410.36837  0.073384902  0.075068781            2 
  467000    1.1930207   -3.9712558    410.98239  0.073337328  0.075058146            2 
  468000    1.1755239   -4.0012985    412.41634  0.073435957  0.075047538            2 
  469000    1.1660933   -4.0496707    410.39932  0.072920989  0.075036769            2 
  470000    1.1624897   -4.0472487    412.12391  0.073071615  0.075024574            1 
  471000    1.1371317    -4.035835    411.50408  0.072806808  0.075011878            2 
  472000    1.1720691   -4.0065867    415.53543  0.073364306  0.075000201            6 
  473000    1.2055812   -3.9896765    416.20633  0.073327402  0.074989147            9 
  474000    1.1653193    -4.015392    417.83817  0.073459593  0.074978787            2 
  475000    1.1611198   -4.0320659     415.7817  0.072944158  0.074966337            2 
  476000     1.191455   -4.0165548    420.10563  0.073547904  0.074954593            1 
  477000    1.1597606   -4.0255119    418.72543   0.07315259  0.074944307            5 
  478000    1.2091021   -4.0405443    421.46611  0.073477356  0.074933791            2 
  479000    1.1923384   -4.0592746    419.40273  0.072964985  0.074922255            1 
  480000    1.1456848   -4.0216677    422.05084  0.073272716  0.074911877            2 
  481000    1.1352452   -4.0105452     424.0115  0.073460065  0.074900901            3 
  482000    1.1681372   -4.0407523    424.59924  0.073409274   0.07489008            2 
  483000    1.1700507   -4.0097338    424.94154  0.073316346  0.074879412            2 
  484000     1.183422   -4.0406979    425.30248   0.07322701  0.074869606            2 
  485000    1.1793272   -4.0263381    427.66049  0.073481184  0.074858475            2 
  486000    1.1467964   -4.0117293    428.42927  0.073461809  0.074849354            3 
  487000    1.1569205   -4.0345016     427.1052  0.073084393  0.074838534            2 
  488000    1.1597613   -4.0439428    428.47364  0.073168313  0.074828414            1 
  489000    1.1569528   -4.0335555    429.29491  0.073158641  0.074817093            2 
  490000    1.1747434   -4.0605875    428.01368  0.072791441  0.074804782            2 
  491000    1.1535088   -4.0416897    429.59666  0.072911856  0.074792436            3 
  492000    1.1755311   -4.0550232    430.39271  0.072898494  0.074780759            3 
  493000    1.1749814   -4.0390193    432.10292   0.07303971  0.074768255            2 
  494000    1.1878146   -4.0275958     431.3583  0.072766244  0.074755931            2 
  495000    1.1719763   -4.0416134    431.90506  0.072711289  0.074741351            2 
  496000    1.1601509   -4.0201875     432.8899  0.072730158  0.074728505            2 
  497000     1.175294   -4.0300744    435.95336  0.073097478  0.074716212            2 
  498000     1.156416   -4.0387889    435.76518  0.072919207  0.074703853            1 
  499000    1.1832205   -4.0449976    436.45691  0.072888596    0.0746907            3 
  500000    1.1824176   -4.0168995    438.26772   0.07304462  0.074677566            1 
  501000    1.1751576   -4.0279832    439.18558  0.073051494  0.074665338            3 
  502000    1.1819011   -4.0273454    440.17917  0.073070911  0.074652875            2 
  503000    1.1693933   -4.0020694    442.50714  0.073311322  0.074641652            1 
  504000    1.1785029   -4.0498214    439.64731  0.072693008   0.07463095            2 
  505000    1.1679453   -4.0255695    441.83296   0.07290973  0.074619241            2 
  506000    1.1681433   -4.0538866    441.73341  0.072749244  0.074608267            5 
  507000    1.1781626   -4.0407151    443.44504  0.072887087  0.074595542            3 
  508000    1.1491793   -4.0300282    442.49057  0.072587035  0.074584812            2 
  509000    1.1648231   -4.0344404    444.35962  0.072750429  0.074573958            5 
  510000    1.1894298   -4.0312437    445.73734  0.072832899  0.074562209            2 
  511000    1.2015502   -4.0084787    448.43839  0.073130852  0.074549742            3 
  512000    1.1838248   -4.0362945    446.89832  0.072737357  0.074539246            2 
  513000    1.1829932   -4.0148018    449.00151  0.072937217  0.074526786            5 
  514000    1.1635481    -4.051608    448.18889  0.072663568  0.074513131            2 
  515000    1.1619728   -4.0475467    447.56794  0.072421996  0.074498753            1 
  516000    1.1597864   -4.0490021    451.78013  0.072961906  0.074483502            5 
  517000    1.1457994    -4.042544    450.86917  0.072673948  0.074469355            4 
  518000    1.1664851   -4.0186045    451.49904  0.072634981  0.074455333            2 
  519000    1.1628557   -4.0219256    453.12769  0.072756533  0.074442127            1 
  520000     1.179116   -4.0456378    453.46245  0.072670265  0.074428861            2 
  521000    1.1382705   -4.0562034    453.83485  0.072590347  0.074416081            3 
  522000    1.1634443   -4.0547149    454.56746   0.07256824  0.074403781            5 
  523000    1.1709037   -4.0383578    454.75371  0.072459164  0.074391665            2 
  524000    1.1754966   -4.0661727    456.01689   0.07252177  0.074378924            1 
  525000    1.1690393   -4.0388331    458.08231  0.072711478   0.07436732            2 
  526000    1.1600503   -4.0336704    458.72731  0.072675429  0.074353944            2 
  527000    1.1810995   -4.0447734    458.60708  0.072518513  0.074341554            2 
  528000     1.186894   -4.0176553    460.56409  0.072690039  0.074329171            2 
  529000    1.1448705   -4.0431852    460.29489  0.072510222  0.074315105            2 
  530000    1.1590545   -4.0564015    460.62702  0.072425633  0.074302198            5 
  531000    1.1856772   -4.0172483    461.90648  0.072490032  0.074287344            2 
  532000    1.1607432   -4.0466149     464.9959  0.072837704  0.074273584            2 
  533000    1.1900885   -4.0222316    464.38743  0.072605914  0.074258498            2 
  534000    1.1957369   -4.0488358      464.068  0.072420099  0.074243332            3 
  535000    1.1426254   -4.0606674    463.69871  0.072227213  0.074227541            3 
  536000    1.1634846   -4.0331153    464.75616  0.072256866  0.074212344            1 
  537000      1.13852   -4.0564776    465.63042   0.07225798   0.07419647            1 
  538000    1.1543534    -4.039691    467.35518  0.072390827  0.074181502            3 
  539000    1.1687127   -4.0651114    468.76116  0.072473896  0.074164721            2 
  540000    1.1603312   -4.0404005    467.79168  0.072190074  0.074148777            3 
  541000    1.1736398   -4.0145524    471.12632   0.07257029  0.074132224            3 
  542000    1.1511187   -4.0559602    467.74081  0.071915869  0.074114107            3 
  543000    1.1457586   -4.0050391    472.04211  0.072443541  0.074097239            1 
  544000    1.1758356   -4.0426219    472.32272  0.072353358  0.074080173            1 
  545000    1.1676164   -4.0355661    471.49299  0.072093729  0.074063209            3 
  546000    1.1778548   -4.0481442    473.26976   0.07223287  0.074045089            1 
  547000    1.1695991   -4.0443634    471.67017  0.071857125  0.074028318            3 
  548000    1.1804844   -4.0016874    476.50422  0.072461104  0.074012883            1 
  549000     1.165182   -4.0404767    473.35726  0.071851436  0.073996845            2 
  550000    1.1682912   -4.0688076    474.57741  0.071905668  0.073980457            1 
  551000    1.1763124   -4.0439572    477.71716  0.072250024  0.073964955            3 
  552000    1.1433681   -4.0620802    478.45819  0.072231007  0.073950918            2 
  553000    1.1742471   -4.0458048    481.14103  0.072504676  0.073936033            2 
  554000    1.1591137   -4.0705722    480.39451  0.072261508  0.073923296            2 
  555000    1.1463742   -4.0627527    480.16853  0.072097377  0.073910068            4 
  556000    1.1501056   -4.0513708    482.54816  0.072324364  0.073896496            3 
  557000    1.1693452   -4.0402614    481.85192  0.072090353  0.073880916            2 
  558000    1.1553823   -4.0616359    481.00243  0.071834294  0.073864534            2 
  559000    1.1456302   -4.0671864    482.80371  0.071974316   0.07384872            2 
  560000     1.171575    -4.046117    485.49077  0.072245651  0.073832372            2 
  561000    1.1679673   -4.0675135    484.22793  0.071929282  0.073816917            6 
  562000    1.1467492   -4.0394784    486.43861  0.072129094  0.073800038            1 
  563000    1.1396309   -4.0700213    486.79472  0.072053688  0.073783337            3 
  564000    1.1435779   -4.0512999    487.52563  0.072033928  0.073766184            2 
  565000    1.1861261   -4.0477916    488.40331  0.072035886  0.073750964            2 
  566000     1.178003   -4.0430255    487.82742  0.071823825  0.073735553            3 
  567000    1.1305866   -4.0473587    489.96225  0.072010912  0.073718257            2 
  568000    1.1525744   -4.0368942    491.84875  0.072160908  0.073702056            4 
  569000    1.1775019   -4.0741802    491.76616  0.072021991  0.073687214            2 
  570000    1.1793073   -4.0283111    492.72195  0.072035373  0.073673083            2 
  571000    1.1886841   -4.0947586    492.82262  0.071923908  0.073659819            3 
  572000    1.1525837   -4.0226843    497.41296  0.072466923  0.073645732            4 
  573000    1.1495658   -4.0741111    496.09347  0.072148557  0.073630522            2 
  574000    1.1692167   -4.0268451    496.09839  0.072023575  0.073616693            3 
  575000    1.1526957   -4.0714777    495.06879    0.0717491   0.07360145            1 
  576000     1.168049   -4.0693477    496.13048  0.071778137  0.073585521            1 
  577000    1.1524041   -4.0621934    495.35999  0.071542459  0.073570336            4 
  578000    1.1704751   -4.0991187    498.27369  0.071838768  0.073556106            2 
  579000    1.1682128   -4.0382214    498.89017  0.071803421  0.073542697            3 
  580000    1.1692577   -4.0146864     502.6593  0.072221164   0.07352942            2 
  581000    1.1772725   -4.0593061    503.40072  0.072203201  0.073517532            2 
  582000    1.1720725   -4.0332779    503.94368  0.072156884  0.073504485            1 
  583000    1.1656066   -4.0545342    502.94983  0.071891057   0.07349274            2 
  584000    1.1726517   -4.1076567    504.13619  0.071937241  0.073481364            3 
  585000    1.1652577   -4.0932398    504.10325   0.07180958  0.073468203            4 
  586000     1.145652   -4.0673624    503.38019  0.071584214  0.073453973            4 
  587000    1.1672959   -4.0677191    504.20404  0.071579223  0.073440665            1 
  588000    1.1736484   -4.0858389    507.67904  0.071949977  0.073428033            5 
  589000    1.1249677   -4.0773123    508.68756   0.07197051  0.073414916            3 
  590000    1.1321786   -4.0729546    509.41492   0.07195126  0.073402872            3 
  591000    1.1317724   -4.0421023    510.22519  0.071943766  0.073388768            1 
  592000    1.1602833   -4.0510933     510.3293  0.071836895  0.073375676            4 
  593000    1.1480371   -4.0469228    511.89769  0.071936157  0.073362692            2 
  594000    1.1802174   -4.0727692    512.92752  0.071959529  0.073350139            1 
  595000     1.126562   -4.0478007     514.9471  0.072121442  0.073337241            2 
  596000    1.1329618   -4.0989141      514.088  0.071880314     0.073325            1 
  597000    1.1644496   -4.0674425    515.59091  0.071969697  0.073310857            2 
  598000    1.1661381   -4.0699598    515.05863  0.071775171  0.073296519            2 
  599000    1.1585414   -4.0397079    517.15364  0.071946806  0.073283049            4 
  600000    1.1586634   -4.0728552    518.13456  0.071963134  0.073270525            1 
  601000    1.1573131   -4.0526196    520.40121  0.072157684  0.073258331            2 
  602000     1.188884   -4.0660768    517.83836  0.071683051  0.073244719            2 
  603000    1.1737436   -4.0781872    518.92298  0.071714066  0.073231615            2 
  604000    1.1500933   -4.0515678    519.84592  0.071722671  0.073218059            2 
  605000    1.1414787   -4.0679959    520.36343  0.071675404  0.073204204            3 
  606000    1.1542369   -4.0712342    520.42044  0.071564968  0.073189327            2 
  607000    1.1541995   -4.0610345    522.38914  0.071717345   0.07317595            2 
  608000    1.1725153   -4.0746488    522.83571  0.071660596  0.073160131            3 
  609000    1.1330325   -4.0334802    524.13562  0.071720802  0.073144608            2 
  610000    1.1533217   -4.0626924    523.40315  0.071503162  0.073128732            5 
  611000     1.166296   -4.0363409    524.61434  0.071551328  0.073113428            3 
  612000    1.1686174   -4.0506653    524.58428  0.071430321  0.073097859            3 
  613000    1.1528881    -4.070251    525.72575  0.071468971  0.073083722            3 
  614000     1.150616   -4.0617098    527.27247  0.071562496  0.073070271            1 
  615000    1.1366785   -4.0827855    526.76271  0.071377061  0.073055677            2 
  616000    1.1372896    -4.072204     527.0797  0.071304072  0.073041576            2 
  617000    1.1594134   -4.0531607    530.42422  0.071640224  0.073028103            2 
  618000    1.1406625    -4.081383    531.31185  0.071643992  0.073014599            2 
  619000     1.168561   -4.0537214    532.49611  0.071687683  0.073001523            3 
  620000    1.1617101   -4.0266622    532.72309  0.071602566  0.072988006            3 
  621000    1.1337451   -4.0377875    532.93034  0.071515075  0.072974502            5 
  622000    1.1508788   -4.0806919    532.27698  0.071312564  0.072961563            3 
  623000    1.1455058     -4.06636    535.34433  0.071608391  0.072947947            2 
  624000    1.1522931   -4.0845158    535.99158  0.071580072  0.072935695            1 
  625000    1.1625719   -4.0780233    536.43925  0.071525234  0.072921913            3 
  626000    1.1579095   -4.0628145     535.8735  0.071335663  0.072908443            1 
  627000    1.1717446   -4.0300959    539.52247  0.071706867  0.072896651            5 
  628000    1.1248781   -4.0484449    539.40876  0.071577596  0.072884157            1 
  629000    1.1564323   -4.1013187    537.46408  0.071206158  0.072870934            2 
  630000    1.1277413   -4.0956098    540.05199  0.071435449  0.072856754            2 
  631000    1.1511919   -4.0563969    541.19645  0.071473383  0.072842478            2 
  632000    1.1252362   -4.0668624    541.05143   0.07134117  0.072829924            2 
  633000    1.1525222   -4.0509645    546.14434  0.071898939  0.072816791            2 
  634000     1.144462   -4.0619642    542.04958  0.071247317  0.072802962            4 
  635000    1.1446381   -4.0825268    543.50325  0.071325885  0.072789968            3 
  636000    1.1259542   -4.0904158    544.15904  0.071299664  0.072776076            3 
  637000    1.1784347    -4.082057    543.98719  0.071165252   0.07276169            2 
  638000    1.1679702   -4.0869148    544.72694  0.071150332   0.07274816            2 
  639000    1.1446587   -4.1090959    546.66933  0.071292296  0.072733764            1 
  640000    1.1468849   -4.0653065    550.50352  0.071680146  0.072720256            2 
  641000    1.1520493   -4.0635734    550.06878  0.071511802  0.072705893            2 
  642000     1.136268   -4.0659365    549.17838  0.071284836  0.072691673            3 
  643000    1.1480302    -4.073279    549.74419  0.071247303  0.072677994            2 
  644000    1.1128141   -4.1259276    547.03299  0.070785843  0.072664321            2 
  645000    1.1368727    -4.046972    552.50155  0.071382629  0.072650313            3 
  646000     1.155952   -4.0930681    549.22527  0.070849493  0.072636434            2 
  647000      1.15096   -4.0730686    551.56787  0.071041715  0.072622101            3 
  648000    1.1660695   -4.0987622    552.73346  0.071081978  0.072608362            1 
  649000    1.1350466   -4.0692558    554.71248  0.071226564  0.072594975            1 
  650000    1.1013038   -4.0633815    555.31175  0.071193815  0.072581346            1 
  651000    1.1725322   -4.0639221    553.73121  0.070882132  0.072566896            3 
  652000    1.1570032   -4.0715368    554.90141  0.070922982  0.072552968            2 
  653000    1.1498471   -4.0864083    555.92518  0.070945021  0.072537889            3 
  654000    1.1557324   -4.0934474     555.0448  0.070724363  0.072523152           10 
  655000    1.1672003    -4.095866    559.91212  0.071235638  0.072508081            3 
  656000    1.1436436   -4.0747369    559.04574   0.07101699  0.072493549            2 
  657000    1.1324421   -4.0893684    557.60601  0.070726282  0.072477782            1 
  658000    1.1444175    -4.078665    559.85581  0.070903725  0.072463474            2 
  659000    1.1714444   -4.0898833    560.19495  0.070839018  0.072447167            5 
  660000    1.1315567    -4.064414    563.75025  0.071180588  0.072432373            4 
  661000    1.1609026   -4.0577508    562.36698   0.07089851  0.072417963            2 
  662000    1.1299692   -4.0802634    563.01044  0.070872412  0.072401673            2 
  663000    1.1274951   -4.0577178    564.99388  0.071014817  0.072385933            4 
  664000    1.1523886    -4.040034    565.48446  0.070969436  0.072370121            2 
  665000    1.1634787   -4.0804308    565.50432  0.070865203  0.072355049            1 
  666000    1.1452147   -4.0931854    565.73348  0.070787472  0.072340978            2 
  667000    1.1532231   -4.1077867     567.2049  0.070865179  0.072326608            4 
  668000    1.1238614   -4.0815555    564.77383  0.070455817  0.072310923            3 
  669000     1.143221   -4.0799453    569.54185  0.070944426  0.072296217            3 
  670000    1.1512388   -4.1102745    570.47649  0.070954788  0.072281725            2 
  671000    1.1269833   -4.0198583    572.91731  0.071152175  0.072267316            2 
  672000    1.1497321    -4.087718    571.98064  0.070930139  0.072253767            2 
  673000    1.1480604   -4.1325234    568.00295  0.070332213  0.072237353            4 
  674000    1.1412825   -4.0790277    571.51546  0.070662149  0.072221706            2 
  675000    1.1340858   -4.0784822    572.28873  0.070652929  0.072205079            3 
  676000    1.1415172   -4.1023826    573.71456  0.070724181  0.072189181            2 
  677000    1.1570904   -4.0826866    574.01747     0.070657  0.072173191            2 
  678000    1.1290223   -4.0623753    573.95058  0.070544565  0.072158545            6 
  679000    1.1344168   -4.0691791    573.51187  0.070386828  0.072142751            1 
  680000    1.1378168   -4.0796884    576.52623  0.070652725   0.07212704            3 
  681000    1.1600181   -4.0972897     577.1768  0.070628585  0.072111579            5 
  682000    1.1424746   -4.0868964    577.58136  0.070574457  0.072095845            4 
  683000    1.1521918   -4.0549002    577.85279  0.070504244  0.072080264            3 
  684000    1.1649257   -4.1295797    576.40187  0.070224399  0.072063433            3 
  685000    1.1574401   -4.0649688     579.3809  0.070484294  0.072046331            2 
  686000    1.1636889   -4.0863803    579.52154  0.070398632    0.0720293            4 
  687000     1.113568   -4.0732815    579.66518  0.070313583  0.072012101            3 
  688000    1.1283745   -4.0692251    581.41784  0.070423673  0.071995209            3 
  689000    1.1507716    -4.099575    581.33929  0.070311961  0.071977956            3 
  690000    1.1479127   -4.0759097    581.42141  0.070219977  0.071961517            1 
  691000    1.1179839   -4.0573263    584.27546   0.07046255  0.071944412            3 
  692000    1.1342047   -4.0635827     585.1067  0.070460826  0.071927592            2 
  693000    1.1326936   -4.1123978    582.34959  0.070027608  0.071909978            2 
  694000    1.1251789    -4.026355    588.91996  0.070715653  0.071894827            2 
  695000    1.1350913   -4.0937544    589.63352  0.070699462  0.071879751            3 
  696000    1.1396412   -4.0827759    588.65429  0.070480638  0.071865658            3 
  697000     1.125204   -4.0851252    587.74011  0.070270219  0.071852028            3 
  698000    1.1327374   -4.0730302    592.70103  0.070761823  0.071837096            1 
  699000    1.1275797   -4.0693896    592.63325   0.07065251  0.071823517            3 
  700000    1.1234984   -4.0715654    591.80888  0.070453438  0.071809795            4 
  701000    1.1281598   -4.0539062    591.66079  0.070335329  0.071794963            2 
  702000    1.1281536   -4.0692305    593.84001  0.070493828  0.071779169            3 
  703000    1.1313647   -4.0722556    593.73398  0.070380984  0.071763142            2 
  704000    1.1390871   -4.0555646    593.51692  0.070255318  0.071747288            4 
  705000     1.155176   -4.0716889    594.99599  0.070330496  0.071731159            3 
  706000    1.1547714   -4.0597295    597.82682  0.070565016  0.071716034            2 
  707000    1.1569562   -4.1219992    594.40941  0.070062401  0.071700088            2 
  708000    1.1308165    -4.075587     596.6563  0.070227907  0.071684163            2 
  709000    1.1407418   -4.0793139    596.90143  0.070157667  0.071669252            5 
  710000    1.1485113   -4.0856975    599.47786  0.070361251  0.071654435            5 
  711000    1.1395555   -4.0430471    600.45489  0.070376803  0.071640849            3 
  712000    1.1316277   -4.0993406    599.67205  0.070186335  0.071627221            2 
  713000    1.1277772   -4.0744517    605.16702  0.070730134   0.07161385            3 
  714000    1.1292708   -4.1050961     601.7227  0.070229074  0.071601042            5 
  715000    1.1292034   -4.0814782    606.57847  0.070696791  0.071588196            4 
  716000    1.1347004   -4.0909793    607.36722  0.070689854  0.071576332            1 
  717000    1.1343727   -4.0993126     606.2562  0.070462134  0.071563518            3 
  718000    1.1318708   -4.0480983    608.08049   0.07057573  0.071550601            2 
  719000    1.1273543   -4.0789415     605.0842  0.070130296  0.071538609            1 
  720000    1.1233159   -4.0913727      609.366  0.070528473  0.071526649            2 
  721000    1.1528309   -4.0675316    611.19383  0.070641913  0.071515779            5 
  722000    1.1371535   -4.0790016    611.72555  0.070605442  0.071505012            2 
  723000    1.1408744   -4.1305639    611.65599  0.070499768  0.071493705            2 
  724000    1.1487787   -4.0968757    608.30267  0.070016421   0.07148165            1 
  725000    1.1446421   -4.0939221    611.92016  0.070335651  0.071468785            2 
  726000     1.123221   -4.0953547    615.18946  0.070614033  0.071456477            3 
  727000     1.119566   -4.0723701    614.50166  0.070438063  0.071444253            2 
  728000    1.1502707   -4.1031696    613.67518  0.070246701  0.071432116            3 
  729000    1.1434363   -4.1000282    617.06715  0.070538084  0.071419498            3 
  730000    1.1655747   -4.0950389    614.46768  0.070144712  0.071407796            3 
  731000    1.1409972   -4.0850405     617.8796  0.070437711  0.071396405            3 
  732000    1.1310689   -4.1181591    619.35463  0.070509406  0.071384644            1 
  733000    1.1285189   -4.0390604    622.62325  0.070784817  0.071374529            2 
  734000    1.1377692   -4.0969783    620.92336  0.070495386  0.071364452            2 
  735000    1.1011025    -4.115386    623.98372  0.070746453  0.071353852            3 
  736000    1.1640274   -4.0907742    625.43165  0.070814272  0.071344152            2 
  737000    1.1623059   -4.0811784    626.07814  0.070791286  0.071334556            2 
  738000    1.1326091   -4.0819507    624.92149  0.070564757  0.071324344            2 
  739000    1.1327042   -4.0973374    626.66093  0.070665418  0.071314982            5 
  740000    1.1189803   -4.0843568    626.08228  0.070504761  0.071304015            3 
  741000    1.1544297     -4.08691    628.11319  0.070638011  0.071295642            1 
  742000    1.1093864   -4.1014839    629.81285  0.070733698  0.071285698            2 
  743000    1.0740521   -4.1030381    625.79998  0.070188423  0.071274531            3 
  744000    1.1264233   -4.1251916    626.49397  0.070171816   0.07126366            3 
  745000    1.1401132   -4.0824693    630.08067  0.070478822  0.071253048            2 
  746000    1.1368835   -4.1020126    632.50353  0.070654997  0.071243493            3 
  747000    1.1346736    -4.068764    634.19675  0.070749303  0.071234207            2 
  748000    1.1244087   -4.0856871    633.58729  0.070586819  0.071224399            1 
  749000    1.1396989    -4.088802     637.8306  0.070964686  0.071215411            1 
  750000    1.1377153   -4.0885988    634.97426  0.070552696  0.071206168            1 
  751000    1.1343622   -4.0890024    635.17502  0.070481028   0.07119722            3 
  752000    1.1393996   -4.0938161    636.64502  0.070550202   0.07118769            2 
  753000    1.1310199   -4.1063354    637.98119  0.070604382  0.071178389            2 
  754000     1.125778   -4.1118751    637.78469  0.070489024  0.071169027            3 
  755000    1.1309712   -4.1076676    639.71777  0.070609025  0.071159723            3 
  756000     1.113906    -4.118876    638.44626  0.070375469  0.071151087            1 
  757000    1.1336165   -4.1110675    639.49991  0.070398493  0.071142427            3 
  758000    1.1031368   -4.0781013    644.20606  0.070823006  0.071133227            4 
  759000    1.1360082   -4.1075107    643.06085  0.070603958  0.071123045            3 
  760000    1.1464523   -4.0904852    640.78408  0.070261412   0.07111308            2 
  761000    1.1515219   -4.1290553    645.06521   0.07063789  0.071103428            3 
  762000     1.131527   -4.1155978     643.4274  0.070366076  0.071094511            3 
  763000    1.1151335   -4.0999009    646.87562  0.070650461  0.071085109            1 
  764000    1.1259394   -4.1201701    646.82768  0.070552758  0.071075551            2 
  765000       1.1203   -4.0984317    645.64478  0.070331675  0.071065585            3 
  766000    1.1457508   -4.0944937    646.83802  0.070369671   0.07105609            3 
  767000    1.1388577   -4.1014938    646.65623  0.070258174  0.071046273            4 
  768000    1.1368481   -4.0736823     648.7845  0.070397623  0.071035553            5 
  769000    1.1015692   -4.0933936    648.73123  0.070300307  0.071025565            2 
  770000    1.1239619   -4.0958134    650.60464  0.070411758  0.071016006            3 
  771000    1.1047754   -4.1028218    650.54443  0.070313925  0.071007021            2 
  772000    1.1366277   -4.1159728    651.71487  0.070349188  0.070997241            9 
  773000    1.1368795   -4.1046064    652.93479  0.070389693  0.070987579            1 
  774000    1.1452863   -4.1353374    651.89904  0.070187235   0.07097684            1 
  775000    1.1248997   -4.0745051     657.0977  0.070655667  0.070968044            2 
  776000    1.1554303   -4.1361882    653.36832  0.070164124  0.070958331            7 
  777000    1.1371253   -4.1136156     657.1824  0.070482882  0.070949083            2 
  778000    1.1325684   -4.0943229    657.10499  0.070383996  0.070940078            2 
  779000    1.1470582    -4.135541    656.02174  0.070177765  0.070930663            3 
  780000    1.1140835    -4.056865    657.07609  0.070200437  0.070921193            3 
  781000    1.1268843   -4.0961539    658.77981   0.07029234  0.070912263            2 
  782000    1.1274629   -4.1159422    659.91788   0.07032373  0.070902308            1 
  783000    1.1254736    -4.136444    658.96475  0.070132477  0.070891739            1 
  784000    1.1229492   -4.0947897    662.68068  0.070437997  0.070882645            3 
  785000    1.1010461   -4.1099856     663.4213  0.070426889  0.070873019            3 
  786000    1.1031201   -4.1176318    659.13631  0.069882984  0.070863103            2 
  787000    1.1044932   -4.0701032    664.81035  0.070394997  0.070853389            3 
  788000     1.119836   -4.1395795    663.54049  0.070171372  0.070843356            1 
  789000    1.1259303   -4.1439619    665.05844  0.070242759  0.070833339            3 
  790000    1.1445385   -4.0858676     663.9297  0.070034779  0.070822191            1 
  791000    1.0942424   -4.1019955    663.47563  0.069898402   0.07081114            2 
  792000    1.1320652   -4.1164986    665.12569  0.069983764  0.070800072            2 
  793000    1.1234941   -4.0948246    663.78502  0.069754626  0.070788625            1 
  794000    1.1170603    -4.089036    666.39594  0.069940799  0.070776863            3 
  795000    1.1293511   -4.0957805    668.95987   0.07012158  0.070766418            3 
  796000    1.1517185   -4.1033382    666.35356  0.069760633  0.070755311            4 
  797000    1.1253414   -4.1159116    667.96137  0.069841214  0.070743918            3 
  798000    1.1072391   -4.0936181    667.81668  0.069738584   0.07073177            2 
  799000     1.117327   -4.1373731    669.33278  0.069809426  0.070720893            2 
  800000    1.1323503   -4.1444594    672.47487  0.070049465  0.070709764            3 
  801000     1.105829   -4.1460458    669.94618  0.069698936  0.070697951            2 
  802000    1.1356165   -4.1294025    673.08565  0.069938243  0.070686916            5 
  803000    1.1338446   -4.1007434    671.51569   0.06968822  0.070675748            2 
  804000    1.1223781   -4.1156307    675.47136  0.070011542  0.070664936            4 
  805000    1.1680719   -4.1057963    674.80676  0.069855772   0.07065396            2 
  806000    1.1519156   -4.0985511    673.59843  0.069644172   0.07064303            2 
  807000    1.0978425   -4.1356933    674.96598  0.069699089  0.070631691            3 
  808000    1.1474697   -4.1509885     674.6743  0.069582746   0.07061992            2 
  809000    1.1053067   -4.1186991    680.19152  0.070065051  0.070608869            2 
  810000    1.1202485   -4.0945206    678.08294  0.069761619   0.07059727            3 
  811000     1.108629   -4.1302366    681.01511  0.069976892  0.070585855            2 
  812000    1.1242641   -4.1235545    683.12018  0.070106751  0.070574937            3 
  813000    1.1227768   -4.1331011    680.00182  0.069700883  0.070564371            5 
  814000    1.1250487   -4.1019754    681.48448  0.069767044  0.070553772            2 
  815000    1.0940026   -4.1052615     685.4288  0.070084744   0.07054287            2 
  816000    1.1070228   -4.0957991    684.60995  0.069915232  0.070532459            4 
  817000    1.1409124    -4.126557    682.81532  0.069646606  0.070521213            2 
  818000    1.1273294   -4.1044031    682.88977  0.069569047   0.07050974            5 
  819000     1.123511   -4.1133227    684.52983   0.06965098  0.070498749            3 
  820000    1.1138686   -4.1082962    686.04212  0.069719728  0.070487434            2 
  821000    1.1135059    -4.098642    686.73492  0.069705128  0.070476215            1 
  822000    1.1186807   -4.1209806     686.6454  0.069611253  0.070465313            5 
  823000    1.1086121   -4.0956422    688.11117  0.069675088  0.070454056            1 
  824000    1.1231253   -4.1026778    686.95977  0.069474087  0.070443782            5 
  825000    1.0999837   -4.1163687      690.818  0.069779596   0.07043288            3 
  826000    1.1325599   -4.0726023    693.76248  0.069992179  0.070422645            3 
  827000    1.1302856   -4.1503498    687.28794  0.069255133  0.070411732            2 
  828000    1.1077145    -4.112135    692.99467  0.069745841  0.070400625            2 
  829000    1.1138804   -4.1202769    692.19093  0.069580914  0.070388476            2 
  830000     1.124994   -4.1231218    689.18324  0.069195104   0.07037639            4 
  831000    1.1282462   -4.1309592    691.04192  0.069298227   0.07036409            3 
  832000    1.1203666   -4.1104055     691.4934  0.069260156  0.070351037            3 
  833000    1.0965708   -4.0976076    695.63638  0.069591474  0.070339442            2 
  834000    1.1213165    -4.116128    693.76875  0.069321418  0.070327499            4 
  835000    1.1130047   -4.1480719     694.0984  0.069271298  0.070315521            3 
  836000    1.1204891   -4.1480772    694.92443  0.069270777  0.070303273            4 
  837000    1.1045351   -4.1210925    695.59584  0.069254862  0.070290547            2 
  838000    1.1022387   -4.1095889    699.92699  0.069602922   0.07027851            2 
  839000    1.1086752   -4.1348415    696.04411  0.069134298  0.070265985            3 
  840000     1.108639   -4.1264858    698.24242  0.069270081  0.070253879            3 
  841000    1.1086119   -4.1013694    699.49318   0.06931165  0.070240753            5 
  842000    1.1296376   -4.0839155    701.74554   0.06945225   0.07022867            2 
  843000    1.1403388   -4.0865784    700.83407  0.069279762   0.07021581            4 
  844000    1.1091042    -4.131347    701.09099  0.069223044  0.070202601            4 
  845000    1.1083488   -4.1190653    700.92353  0.069124609  0.070189161            2 
  846000    1.1180026   -4.0984424    700.25503  0.068977052  0.070175283            1 
  847000    1.1203905   -4.1284647    699.60513  0.068831674  0.070161234            1 
  848000    1.1116058   -4.1358176    699.46351  0.068736587  0.070146753            1 
  849000    1.1187212   -4.1053441     701.4882  0.068854358  0.070131972            4 
  850000    1.1303409   -4.1137566    700.12022  0.068639238  0.070117018            3 
  851000    1.1195375    -4.144924    702.64161  0.068805485  0.070102153            1 
  852000    1.1050356   -4.1348604    703.03572  0.068763275  0.070087562            2 
  853000    1.1069297   -4.1216471    703.61443  0.068739198  0.070072475            2 
  854000    1.1076891   -4.0913423    705.33704  0.068826799  0.070058121            4 
  855000    1.1476524   -4.1128129    709.02259  0.069105516  0.070044349            4 
  856000    1.1151099   -4.1703459    705.88568    0.0687194  0.070029948            2 
  857000    1.1377331   -4.1228487    709.00993  0.068943011  0.070015677            4 
  858000    1.1205088   -4.1185885    708.76865  0.068839224  0.070001552            2 
  859000    1.1519739   -4.1300137    708.35932  0.068719375  0.069986177            2 
  860000      1.10729   -4.1204133    707.63041  0.068568838  0.069971167            3 
  861000    1.1001792   -4.1265969    712.61602   0.06897174  0.069956582            5 
  862000    1.1218654   -4.1020153    711.18314  0.068753203  0.069942367            2 
  863000    1.1227966    -4.123149    713.37349  0.068885041  0.069927348            2 
  864000     1.112747   -4.1050593    711.13193  0.068589113  0.069912499            7 
  865000    1.1083867   -4.1436075    709.92315  0.068393367  0.069897919            2 
  866000    1.1160229   -4.1069177    715.03496   0.06880629  0.069882557            2 
  867000    1.1456589   -4.0977203    716.52994  0.068870621  0.069867258            4 
  868000     1.095888   -4.1355326    714.01171  0.068549511  0.069852124            2 
  869000    1.0870701   -4.1158962    712.17648  0.068294638  0.069836666            2 
  870000    1.1152727   -4.1272574    716.73177  0.068652468  0.069821729            4 
  871000    1.1070035   -4.1282701    712.81708  0.068199108  0.069806198            8 
  872000    1.0914884   -4.0976979    717.49997  0.068568422   0.06979006            3 
  873000    1.1205987   -4.1481968    714.48871  0.068202435  0.069774026            2 
  874000    1.0988628   -4.1518585    716.65168  0.068330633  0.069757042            2 
  875000    1.1170229   -4.1552605    715.59239  0.068151656  0.069740549            3 
  876000    1.1038786   -4.1213987    721.25722  0.068612749  0.069724372            3 
  877000    1.0985013   -4.1301164    721.89381  0.068595003  0.069708672            3 
  878000    1.0842339   -4.1254487    719.21636  0.068262753  0.069693019            3 
  879000    1.1315407   -4.1272216    721.51156  0.068402689  0.069676865            1 
  880000    1.1154559   -4.1320219    718.83544  0.068071537  0.069661101            1 
  881000    1.0966423   -4.1227677    722.47426  0.068338466  0.069645683            2 
  882000    1.0800217   -4.1103234    721.63221  0.068181426  0.069629524            3 
  883000    1.1196717    -4.130809    726.47404  0.068561159  0.069614161            4 
  884000    1.0873987   -4.1286194    726.28485  0.068465766  0.069598486            2 
  885000    1.0864321   -4.1067906    725.75585  0.068338593  0.069582773            1 
  886000    1.1214551   -4.1491826    721.54046  0.067864979  0.069566243            4 
  887000    1.1091689    -4.153825    726.84063  0.068286417  0.069549559            1 
  888000    1.1152754   -4.1386527     725.6327  0.068096162  0.069533429            3 
  889000    1.1032186    -4.160486    724.76501  0.067938227   0.06951786            2 
  890000    1.0991138   -4.1315885    730.92567  0.068438733  0.069503037            4 
  891000     1.092593   -4.1742186     728.3051  0.068116825  0.069487297            2 
  892000    1.0948858   -4.1403313    729.70036  0.068170811  0.069472363            1 
  893000    1.0825347   -4.1091335    734.07614  0.068502813  0.069457352            3 
  894000    1.1332048   -4.1126532     733.9702  0.068416313  0.069442597            2 
  895000    1.1198337   -4.1494119    730.87449  0.068051629  0.069428426            4 
  896000    1.1398581   -4.1038975    737.67646  0.068608301   0.06941311            3 
  897000     1.098317   -4.1933023    731.91644  0.067996697  0.069398409            3 
  898000    1.1028547   -4.1493381    735.56837  0.068259871  0.069383497            2 
  899000    1.0920581   -4.1158962    737.06452  0.068322629  0.069368556            3 
  900000    1.1207493   -4.1423029    737.39136  0.068276978  0.069353743            1 
  901000    1.0830496   -4.1236126    737.38655  0.068200754   0.06933906            2 
  902000    1.1164028   -4.1114496    738.41714  0.068220357  0.069324232            2 
  903000    1.1237261   -4.1197039    739.49892   0.06824464  0.069309383            2 
  904000    1.1018133   -4.1432329    738.91387  0.068115217  0.069294186            4 
  905000    1.1157879   -4.1608272    740.12233  0.068151227  0.069279645            5 
  906000    1.1146639   -4.1703107    742.44565  0.068289703  0.069265361            7 
  907000    1.0943685    -4.113742    743.77749  0.068336778  0.069252275            3 
  908000    1.1090827   -4.1256806    745.73928  0.068441564  0.069238822            1 
  909000    1.1161003   -4.1229934    745.54312  0.068348288  0.069226115            2 
  910000     1.119553   -4.1169692    745.48922  0.068268243  0.069213224            1 
  911000    1.1128796   -4.1317813    746.10675  0.068249794  0.069199503            6 
  912000    1.1114447   -4.1335434    746.59065  0.068219175  0.069185591            2 
  913000    1.1130054   -4.1131977    749.00512  0.068364834  0.069172211            2 
  914000    1.1243905   -4.1348251    745.40424  0.067961728  0.069159021            2 
  915000    1.1254297   -4.1134012    750.03591  0.068309281  0.069145309            2 
  916000    1.1125145   -4.1555029    748.05673  0.068054652   0.06913143            3 
  917000    1.0979407   -4.1416181    749.31868  0.068095118  0.069116831            2 
  918000    1.1232559   -4.1322419    751.50044  0.068218994  0.069102961            2 
  919000    1.1199971   -4.1402558     751.4769  0.068142627  0.069089386            3 
  920000    1.0842304   -4.1147991    749.01256  0.067845341  0.069074854            5 
  921000    1.1149132   -4.1209092    751.01999   0.06795331  0.069061308            2 
  922000    1.0991587   -4.1670472    749.85805  0.067774589  0.069046469            2 
  923000    1.1089378   -4.1324657    752.70285  0.067958004  0.069032866            1 
  924000    1.0878139   -4.1374228    755.53085  0.068139506  0.069019137            4 
  925000    1.1004027   -4.1227976    755.76535  0.068086968  0.069005169            5 
  926000    1.0911762   -4.1357408     757.7873  0.068195401  0.068990647            4 
  927000    1.0747573   -4.1637111    756.47257  0.068003647  0.068976975            4 
  928000    1.1015121   -4.1374525    757.25674  0.068000785  0.068963446            2 
  929000    1.1041904   -4.1271659     755.4764  0.067767886  0.068949798            4 
  930000    1.0904205   -4.1129905    760.40043  0.068136239  0.068936846            6 
  931000    1.0935372   -4.0818215     763.1017  0.068304842  0.068924051            3 
  932000    1.1228231   -4.1122018    762.60599  0.068187231  0.068911276            1 
  933000    1.1303209   -4.1280393    762.29879  0.068086709  0.068898538            2 
  934000    1.0847076   -4.1449744    757.61451   0.06759587  0.068884894            2 
  935000    1.1126319   -4.1493738    759.31075  0.067674755  0.068870046            2 
  936000    1.1113323   -4.1670358    758.44037  0.067524962  0.068855441            3 
  937000    1.1027846   -4.1911113    760.95561  0.067676592  0.068840959            2 
  938000     1.096864   -4.1489275     764.2761  0.067899441  0.068826933            3 
  939000     1.131191    -4.139755    761.94144  0.067619936  0.068812911            5 
  940000    1.1247778   -4.1413645    765.07017   0.06782537  0.068798544            2 
  941000    1.0868641   -4.1504552    764.09734   0.06766714   0.06878379            7 
  942000      1.10011   -4.1377895    766.01582  0.067765023  0.068769598            2 
  943000    1.0976688    -4.153812    763.32957  0.067455777  0.068754568            3 
  944000    1.0990116    -4.165163    766.11576  0.067630275  0.068739692            2 
  945000    1.0891699   -4.1487601     767.2563  0.067659286  0.068725431            1 
  946000    1.0933902   -4.1712926    765.01529  0.067390353  0.068710736            2 
  947000    1.1143019   -4.1563818    769.59995  0.067722629  0.068695954            6 
  948000    1.0733284   -4.1428943    769.05891  0.067603632  0.068681394            4 
  949000     1.120482   -4.1300328    773.21269  0.067897145  0.068667138            1 
  950000    1.1007213   -4.1504821    771.75111  0.067697466  0.068653168            2 
  951000    1.1129179    -4.163241    772.22447  0.067667759  0.068639005            2 
  952000    1.0911268   -4.1578575    773.18898  0.067681109  0.068624589            2 
  953000     1.108233   -4.1268084     774.4137  0.067717183  0.068610136            4 
  954000    1.1032746   -4.1739774    775.61578  0.067751203  0.068596077            5 
  955000    1.1055276   -4.0950184    776.51787  0.067758977  0.068582348            2 
  956000    1.0994912   -4.1367967    775.34856  0.067586171  0.068568274            3 
  957000    1.0928846   -4.2123466    773.77138  0.067378211  0.068552939            2 
  958000    1.1179829   -4.1477837    775.87621  0.067490972  0.068537941            2 
  959000    1.0982263   -4.1553529    773.11394  0.067180565  0.068523535            2 
  960000    1.0883321   -4.1577624    776.58341  0.067411754  0.068508561            4 
  961000    1.1103908   -4.1552674    775.18495  0.067220339  0.068494103            2 
  962000    1.1011252   -4.1645674    779.61212  0.067533968    0.0684807            2 
  963000    1.1178626   -4.1210267     780.7366  0.067561146  0.068466535            2 
  964000    1.1239473   -4.1512381     777.8085  0.067237941  0.068451519            2 
  965000    1.0989955   -4.1318416     782.4472  0.067568843  0.068436487            3 
  966000    1.0824603   -4.1718416    780.92486  0.067367569  0.068421992            5 
  967000    1.1052004   -4.1585771    784.50036  0.067606029  0.068407196            4 
  968000    1.0907578   -4.1627409    780.27588  0.067172511   0.06839273            2 
  969000    1.1074827   -4.1348574    779.73608  0.067056766  0.068378322            3 
  970000    1.0994828   -4.1380192    781.12853  0.067107262  0.068362773            2 
  971000    1.0739066   -4.1499151    782.00562  0.067113424  0.068347597            3 
  972000    1.1125274   -4.1539739    785.37792  0.067333498  0.068332584            3 
  973000    1.0892053   -4.1747581    783.68687  0.067119465  0.068317633            1 
  974000    1.0710465   -4.1493376    784.16506  0.067091467  0.068302761            3 
  975000    1.0992782   -4.1464342    784.56971   0.06705724  0.068287985            5 
  976000    1.1017557   -4.1840807     785.1285  0.067036245  0.068273245            2 
  977000    1.1076645   -4.1797083    785.46286  0.066996149  0.068258052            3 
  978000    1.0808832   -4.1837947    786.16824  0.066987751   0.06824236            7 
  979000    1.0804906   -4.1835966    786.63937  0.066959428  0.068226732            3 
  980000    1.1153974   -4.1332992    789.22493  0.067110964  0.068211026            2 
  981000    1.0910668   -4.1632197    787.83527  0.066924505  0.068195634            2 
  982000    1.0779101   -4.1653791     787.5097  0.066828725  0.068179554            1 
  983000    1.1101722   -4.1333398     790.2805  0.066995634  0.068163979            2 
  984000     1.098167   -4.1517272    791.06149   0.06699369  0.068148522            2 
  985000    1.0984943   -4.1155543    795.53968  0.067304541  0.068133569            2 
  986000    1.0846816   -4.1659095    789.76896   0.06674856  0.068118093            2 
  987000    1.0973147   -4.1970173    789.87201  0.066689633  0.068101439            3 
  988000    1.0921467   -4.1847108    792.41117    0.0668363  0.068085662            4 
  989000      1.09871   -4.1119931    795.45462  0.067025162  0.068069575            2 
  990000    1.0935951   -4.1580052    794.64161  0.066889024  0.068053732            3 
  991000     1.116173   -4.1322916    795.70212  0.066910706  0.068037905            2 
  992000    1.0972772   -4.1611359    794.98292  0.066782839  0.068022263            2 
  993000    1.0695177    -4.150215    796.75138  0.066863997  0.068007248            3 
  994000    1.0952353   -4.1228732      802.841   0.06730726  0.067992484            1 
  995000    1.0904828   -4.2052134    797.62473  0.066802741   0.06797786            4 
  996000     1.098348   -4.1551026    802.04216  0.067105268  0.067962987            4 
  997000    1.0804464    -4.166612    800.32452  0.066894393  0.067948123            2 
  998000     1.048978   -4.1327856    799.02031  0.066718463  0.067932785            3 
  999000    1.0994616   -4.1678388    801.90531  0.066892335  0.067917221            3 
 1000000    1.1044233   -4.1627341    799.75643  0.066646369  0.067902222            2 
 1001000    1.1062618    -4.151075    799.67068  0.066572651  0.067887476            1 
 1002000    1.0867093   -4.1270644    806.10871  0.067041643  0.067871711            2 
 1003000    1.0768446   -4.1932508    799.24852  0.066404829  0.067855743            2 
 1004000    1.1174337   -4.1365539     802.6257  0.066618999  0.067839494            3 
 1005000    1.1058854   -4.1684832    802.51851  0.066543824  0.067823273            4 
 1006000    1.1064477   -4.1717322    802.56984  0.066481928  0.067807017            3 
 1007000    1.0775844   -4.1733348    805.42225  0.066651957  0.067790831            1 
 1008000    1.0944126   -4.1757582    805.11986  0.066560835  0.067774703            2 
 1009000    1.0664523   -4.1655543    804.25111  0.066423118  0.067757912            3 
 1010000    1.0628051   -4.1620253    806.90414  0.066576249   0.06774107            3 
 1011000    1.1059436   -4.1692987    805.04197  0.066356905   0.06772412            1 
 1012000    1.0882895   -4.1545937    807.73763  0.066513309  0.067707008            2 
 1013000    1.0914164   -4.1859827    806.32349  0.066331317   0.06769008            2 
 1014000    1.0808831   -4.1511341    808.25235   0.06642442  0.067672817            4 
 1015000    1.1174162   -4.1636635    806.96831  0.066253555  0.067655913            3 
 1016000     1.074993   -4.2209297    807.44197  0.066227196  0.067638392            2 
 1017000    1.0783572   -4.1664453     807.2307  0.066144764  0.067620781            3 
 1018000    1.0903396   -4.1397673    809.76697  0.066287407  0.067603595            3 
 1019000     1.085233   -4.1859939    809.35093  0.066188333  0.067586666            2 
 1020000    1.1088129   -4.1444022    811.24058  0.066277825  0.067569559            3 
 1021000    1.0776835   -4.1608133    809.21138  0.066047288  0.067552346            4 
 1022000    1.0886559   -4.1725706    811.43742  0.066164173  0.067535306            2 
 1023000    1.0801072   -4.1507728    810.12315  0.065992436  0.067518492            1 
 1024000    1.1014637   -4.1957593    808.66477  0.065809307  0.067501172            2 
 1025000    1.0910509   -4.2095787    812.31995  0.066042273  0.067483609            2 
 1026000    1.1013539   -4.1438979    815.95796  0.066273389  0.067466275            1 
 1027000    1.0689284   -4.1554708    816.36296   0.06624172  0.067448924            1 
 1028000    1.0727529   -4.1344026    815.06817  0.066072322  0.067432296            2 
 1029000    1.0957463   -4.1487983    814.84919  0.065990378  0.067414515            2 
 1030000    1.0787643    -4.170877    817.87725  0.066171298  0.067397017            7 
 1031000     1.115554   -4.1632348    819.21935  0.066215596  0.067380445            5 
 1032000    1.0709473   -4.1703035     818.6373  0.066104433  0.067363654            3 
 1033000    1.0867264   -4.1708703    820.11317    0.0661595  0.067347166            6 
 1034000    1.0824805   -4.1566126    817.72857  0.065903334  0.067330364            7 
 1035000     1.075457   -4.1474751    823.01089  0.066264967   0.06731379            3 
 1036000    1.0835451   -4.1423958    821.81087  0.066104478  0.067297773            4 
 1037000    1.0835543   -4.1683074    819.62526  0.065865096  0.067281651            7 
 1038000    1.0781543   -4.1596335    823.37226  0.066102462  0.067265423            6 
 1039000    1.0915178   -4.1759574    822.64894  0.065980826  0.067249574            6 
 1040000    1.0935514   -4.1539179    824.72975  0.066084115  0.067233775            2 
 1041000    1.1113656   -4.1648568    827.97146  0.066280136  0.067218242            3 
 1042000    1.0942551   -4.1432305    830.98127  0.066457235  0.067203006            4 
 1043000    1.0896948   -4.1961493    826.36477   0.06602467  0.067187321            3 
 1044000    1.0885173   -4.1628827    830.39267   0.06628294  0.067171972            1 
 1045000    1.0923558   -4.1364905    827.46715  0.065986216  0.067157382            1 
 1046000    1.0943831   -4.1914941    826.58009  0.065852461   0.06714241            3 
 1047000    1.0633471   -4.1734962    832.71009  0.066277467  0.067127704            3 
 1048000    1.0867265   -4.2047606    831.12451  0.066088145  0.067112645            1 
 1049000    1.0837083   -4.1673258    831.33365  0.066041758  0.067097928            2 
 1050000    1.0849562   -4.1619911    835.31498   0.06629484  0.067083028            4 
 1051000    1.0925089   -4.1895754    834.49179  0.066166492  0.067068115            3 
 1052000    1.0718454   -4.1582458    837.23881  0.066321198  0.067053973            2 
 1053000    1.0944834   -4.1520109     838.2175  0.066335668  0.067040367            2 
 1054000    1.0758196   -4.1713499    838.30467  0.066279623  0.067025947            1 
 1055000    1.0872721   -4.1622394    836.15642  0.066047111  0.067012285            4 
 1056000    1.0916137    -4.172812    836.77751  0.066033579  0.066997874            1 
 1057000    1.0634663   -4.1394356    841.45765  0.066340086  0.066983825            2 
 1058000    1.0939857   -4.1634636    839.23645   0.06610243  0.066969327            4 
 1059000     1.101391   -4.1894708    838.83142  0.066008138  0.066954552            4 
 1060000    1.0681471   -4.1584751    840.55338   0.06608124  0.066940681            3 
 1061000    1.0792205   -4.1609056    840.71828   0.06603191  0.066925725            3 
 1062000    1.0931451   -4.1471544    842.61549  0.066118604  0.066910835            1 
 1063000    1.1025349   -4.1763122     842.3795  0.066037904   0.06689598            2 
 1064000    1.0685117   -4.1848437    843.74494  0.066082781  0.066881086            5 
 1065000    1.0961388   -4.1989105    842.16702  0.065897263  0.066866031            3 
 1066000    1.0559671   -4.1915453    839.69183  0.065641951  0.066850936            3 
 1067000    1.0703272   -4.1514647    844.11911  0.065926203  0.066835847            2 
 1068000    1.1045044    -4.193457    846.60681  0.066058584  0.066821309            3 
 1069000    1.0531695    -4.175438    846.91908  0.066021131  0.066806659            3 
 1070000    1.0891985   -4.1865254    845.36341  0.065838272  0.066791699            5 
 1071000    1.0753623   -4.1863642    843.49707  0.065631581   0.06677666            2 
 1072000    1.1055229   -4.1751362    848.07446  0.065926186  0.066761645            2 
 1073000    1.0806197   -4.1608929    848.66949  0.065910958  0.066746394            2 
 1074000    1.0870292   -4.1588519    851.33098  0.066056097  0.066732349            5 
 1075000    1.0563235    -4.163372    850.15001  0.065903102  0.066718205            4 
 1076000      1.08629   -4.1968133    850.89323  0.065899414  0.066703793            2 
 1077000    1.0751794   -4.1515184    851.36209  0.065874504  0.066689867            5 
 1078000    1.0671524   -4.2015758    852.17833  0.065876494  0.066675647            9 
 1079000    1.0858683   -4.1786526    850.62002   0.06569509  0.066661734            2 
 1080000    1.0752523   -4.1818526    854.26743  0.065915697  0.066647513            2 
 1081000    1.1009957   -4.1740094    857.24143  0.066083983  0.066633719            2 
 1082000    1.0746739   -4.1859433    853.57794  0.065740753  0.066619914            2 
 1083000    1.0617071   -4.1784318    854.27736  0.065733869  0.066606062            3 
 1084000    1.1019055   -4.1758695    853.70791  0.065629452  0.066591837            3 
 1085000    1.0779049   -4.1517144    860.77068  0.066111419  0.066577974            2 
 1086000    1.0672134   -4.1510097    862.45628  0.066179886  0.066564143            2 
 1087000    1.0730948   -4.1835346    860.33213  0.065956159  0.066550691            3 
 1088000    1.0687983   -4.2042445    860.57848  0.065914406  0.066536913            2 
 1089000    1.0678451   -4.1711036    860.13219  0.065819727  0.066522868            4 
 1090000    1.0734816   -4.1862241    862.18583  0.065916348  0.066509077            4 
 1091000    1.0939105   -4.1976932    862.67488  0.065893284  0.066495056            2 
 1092000    1.0805179   -4.1902431    859.03507  0.065555179  0.066481254            2 
 1093000    1.0797394   -4.1719467    863.18148  0.065811336  0.066467342            5 
 1094000    1.0835981   -4.1684534    864.34766  0.065840011  0.066453373            2 
 1095000     1.089222   -4.1597324    863.43443  0.065710383  0.066439236            2 
 1096000    1.0595236   -4.1925105    864.15868  0.065705496  0.066425011            1 
 1097000    1.0862272   -4.1394092    865.41911  0.065741348  0.066411531            3 
 1098000    1.0743647   -4.1780762    867.85106  0.065866049  0.066397662            2 
 1099000    1.0694304   -4.2135111    866.53798   0.06570655  0.066383734            2 
 1100000    1.0774815    -4.156932    869.67732  0.065884645  0.066370227            5 
 1101000    1.0602899    -4.197725    869.24768  0.065792286  0.066356631            4 
 1102000    1.0868363   -4.2007016    868.76465  0.065696056  0.066343221            2 
 1103000    1.0803543   -4.1864143    867.25683  0.065522577  0.066329321            2 
 1104000    1.0647565   -4.1572646    870.07926  0.065676273  0.066315897            5 
 1105000     1.072724   -4.1888487    871.44555  0.065719876  0.066302866            3 
 1106000    1.0598148   -4.1984063    874.61739  0.065899442  0.066289824            1 
 1107000    1.0758638   -4.2062771    872.13607  0.065653122  0.066276642            3 
 1108000    1.0749296    -4.193683    874.41944  0.065765602  0.066263443            2 
 1109000    1.0787778   -4.1902695    873.39148  0.065629056  0.066250313            2 
 1110000    1.0679159   -4.1697781    877.02279  0.065842552  0.066236858            3 
 1111000    1.0554572   -4.1943433    872.96586  0.065478988  0.066223179            4 
 1112000    1.0464587   -4.1912301    873.86523  0.065487502  0.066209514            3 
 1113000     1.086602   -4.1659885    878.86456  0.065802977  0.066195957            3 
 1114000    1.0972606   -4.2048532    875.86114  0.065519235  0.066182317            3 
 1115000    1.0583356   -4.1977835    875.30744  0.065419091  0.066168676            2 
 1116000    1.0757854   -4.2085948    882.03017  0.065862468  0.066155428            2 
 1117000    1.0478896   -4.1738683    878.24013   0.06552075  0.066142531            1 
 1118000     1.071012   -4.1873749    881.08834  0.065674444  0.066129624            5 
 1119000    1.0836764   -4.1879463     881.2211  0.065625641  0.066116328            3 
 1120000    1.0583443   -4.1606264    884.56521  0.065815864  0.066103598            2 
 1121000    1.0678589   -4.1915486    878.99151  0.065342812  0.066090291            2 
 1122000    1.0928154   -4.2209547    878.39837   0.06524052   0.06607731            1 
 1123000    1.0501636   -4.2002866    881.28418   0.06539657  0.066064307            2 
 1124000     1.075415   -4.1908583    883.37061  0.065493076  0.066051303            3 
 1125000    1.0784317   -4.1843557    884.85979  0.065545169  0.066037983            1 
 1126000    1.0470877   -4.1713027    883.26716  0.065369091  0.066025484            4 
 1127000    1.0710134    -4.176082    885.63786  0.065486384  0.066012493            2 
 1128000     1.101521   -4.1535536    887.71102  0.065581488  0.065999904            1 
 1129000    1.0600504   -4.2129842    882.25471  0.065120661  0.065987115            3 
 1130000    1.0469629   -4.1923863    887.49877  0.065449762  0.065974389            2 
 1131000    1.0857583   -4.1835896    887.93623  0.065424126  0.065961287            2 
 1132000    1.0918244   -4.2259325    886.59563  0.065267641  0.065948229            3 
 1133000     1.086058   -4.2101711    887.91237  0.065306882  0.065935317            4 
 1134000    1.0641848    -4.186757    894.99304  0.065769624   0.06592318            2 
 1135000    1.0416142    -4.197332     892.1063  0.065499729   0.06591113            5 
 1136000    1.0491154   -4.2076375    887.48947  0.065103394   0.06589847            9 
 1137000    1.1033567   -4.1957189    890.97623  0.065301688  0.065885659            2 
 1138000    1.0601263   -4.2165921    893.05042  0.065396194  0.065873101            1 
 1139000    1.0740321   -4.1821993    895.46337  0.065515318  0.065860253            4 
 1140000    1.0904001   -4.2029832    896.39184  0.065525719  0.065848185            4 
 1141000    1.0685971    -4.177671    896.92936  0.065507549  0.065835728            2 
 1142000    1.0793343   -4.1958529      897.687  0.065505473   0.06582327            2 
 1143000     1.074805   -4.2119637    896.33588  0.065349656  0.065810782            1 
 1144000    1.0744138   -4.1869332    897.19231  0.065354918  0.065798058            3 
 1145000    1.0534486   -4.1901313    893.40031  0.065021856  0.065785535            1 
 1146000    1.0537523   -4.2372123     895.5078  0.065118368  0.065773158            2 
 1147000    1.0636546   -4.2264772    898.88722  0.065307121  0.065760782            6 
 1148000    1.0907859   -4.1954632    899.88691  0.065322801  0.065748323            3 
 1149000    1.0687228   -4.1877362    900.33762  0.065298638  0.065735925            3 
 1150000    1.0607875    -4.200572    902.52991  0.065400718  0.065723783            2 
 1151000    1.0811499   -4.1821757    901.01532  0.065234239  0.065711467            1 
 1152000    1.0857175   -4.1948448    899.62013  0.065076688  0.065699288            6 
 1153000    1.0727178    -4.245957    903.90671   0.06533006  0.065687361            2 
 1154000    1.0680483   -4.1669357    908.95532  0.065638021  0.065675196            4 
 1155000    1.0693216   -4.1860578    907.14992  0.065450932  0.065662877            2 
 1156000    1.0756521   -4.1918304    907.09488  0.065390346  0.065650935            1 
 1157000    1.0652389   -4.1782408    904.47298  0.065144986    0.0656385            3 
 1158000    1.0730718   -4.2264096    904.34414  0.065079457  0.065625252            2 
 1159000    1.0784104   -4.1959408    902.98786  0.064925788  0.065612486            3 
 1160000    1.0987199   -4.2253704    904.37348  0.064969359  0.065599284            6 
 1161000    1.0775835   -4.2270458     907.0769  0.065107443   0.06558656            2 
 1162000    1.0744604   -4.1924622    905.21967  0.064918221  0.065573874            2 
 1163000    1.0721998   -4.1882099    909.30746  0.065155307  0.065561143            2 
 1164000     1.073074   -4.2518639     901.4041  0.064533512  0.065548103            3 
 1165000    1.0568527   -4.2393673    904.35395  0.064689123  0.065534546            2 
 1166000    1.0641311   -4.1998576    909.20828  0.064980581  0.065521011            3 
 1167000    1.0817129   -4.1677808    910.96024  0.065050003  0.065508108            3 
 1168000    1.0458175   -4.1985476    908.87431  0.064845484  0.065494477            2 
 1169000    1.0495641   -4.2083813    909.15378  0.064809936   0.06548093            2 
 1170000    1.0293994   -4.2013246    909.86927  0.064805504  0.065467507            1 
 1171000    1.0473755   -4.1624659    911.31312  0.064852912  0.065454461            4 
 1172000    1.0502761   -4.2238528    914.16885  0.065000629  0.065441511            3 
 1173000    1.0677489   -4.1899803    917.52073  0.065183343  0.065427928            2 
 1174000    1.0689415   -4.1860974    913.16332  0.064818521  0.065414989            1 
 1175000    1.0592812   -4.2446269    914.77863  0.064877917  0.065401132            3 
 1176000    1.0586736    -4.216748    914.73512  0.064819665  0.065387596            1 
 1177000    1.0666691    -4.224334    913.22121  0.064657406  0.065373596            8 
 1178000    1.0661867   -4.1704676    917.35708  0.064895096  0.065359512            3 
 1179000     1.078885   -4.2054781    912.18246  0.064474304  0.065345307            2 
 1180000    1.0713009   -4.2084221    914.38821  0.064575439  0.065331414            3 
 1181000    1.0329242   -4.2032922    918.64082  0.064820831  0.065317553            2 
 1182000    1.0645872   -4.2030869    918.15371  0.064731649  0.065303962            2 
 1183000    1.0549704   -4.2013316    920.88033  0.064869001  0.065290272            2 
 1184000     1.064452   -4.2216465    914.85028    0.0643898  0.065276161            5 
 1185000    1.0692195   -4.1876271    919.02855  0.064629293  0.065262108            2 
 1186000    1.0638122   -4.2035767    917.24449  0.064449444  0.065248108            1 
 1187000    1.0685782   -4.1923854    920.02632  0.064590446  0.065234158            4 
 1188000    1.0518717   -4.2253551    918.16217  0.064405315  0.065220488            4 
 1189000     1.053073   -4.2197645    919.45725  0.064441916  0.065206906            2 
 1190000    1.0373802   -4.2158824    920.49653  0.064460542  0.065192669            2 
 1191000     1.053949   -4.2070305      922.208  0.064526168  0.065179222            3 
 1192000    1.0604871   -4.1953811    920.55079  0.064356179  0.065165703            2 
 1193000    1.0621996   -4.2020177    921.73417  0.064384896  0.065151592            3 
 1194000    1.0496131   -4.2000983    920.39369  0.064237416  0.065137785            6 
 1195000    1.0571359   -4.1907779    924.51518  0.064471073  0.065123597            3 
 1196000    1.0550323   -4.2272399    922.61754  0.064284946   0.06510916            3 
 1197000    1.0747806   -4.1944537    924.94333  0.064393158  0.065095185            3 
 1198000    1.0571222   -4.2249122     921.2091  0.064079654   0.06508149            2 
 1199000    1.0930128   -4.2044765    922.95469  0.064147532  0.065067475            3 
 1200000    1.0563533   -4.2514201    925.32354  0.064258579  0.065053499            3 
 1201000    1.0272436   -4.2119612     927.0038  0.064321662  0.065039539            3 
 1202000    1.0629389   -4.2088587      928.445  0.064368067   0.06502551            7 
 1203000    1.0406847   -4.2463418    924.20615   0.06402093  0.065011822            4 
 1204000    1.0599689   -4.1979643    932.00841  0.064507781   0.06499772            3 
 1205000    1.0633226   -4.1926216    933.14315  0.064532721  0.064984264            3 
 1206000    1.0534919   -4.2165124     930.6858  0.064309411  0.064970729            3 
 1207000    1.0653354   -4.2060927    932.20292  0.064360876  0.064957563            2 
 1208000    1.0355133   -4.2587446     928.9863    0.0640857  0.064944024            5 
 1209000    1.0783369   -4.2367356    933.70033  0.064357619  0.064930264            2 
 1210000     1.039994    -4.184024    937.69711  0.064579691   0.06491688            2 
 1211000    1.0378279   -4.1843832    938.32045  0.064569257  0.064903842            2 
 1212000    1.0534389   -4.1862197    937.84737  0.064483455  0.064891447            1 
 1213000    1.0602839   -4.2202336    937.65498  0.064417078  0.064878817            3 
 1214000    1.0265851   -4.2244128    938.06994    0.0643925  0.064866319            2 
 1215000    1.0446774   -4.2042838    940.82508  0.064528469  0.064853432            3 
 1216000    1.0442706   -4.2187936     940.9624  0.064484814  0.064840656            2 
 1217000    1.0745465   -4.1911608    942.06094  0.064507049  0.064827451            2 
 1218000    1.0528988   -4.1997459    937.45152  0.064138719   0.06481461            2 
 1219000    1.0390657   -4.2561819    938.12107  0.064131875  0.064800821            4 
 1220000    1.0635268   -4.2329755    941.16452  0.064287194  0.064787152            4 
 1221000    1.0609736   -4.2028881    940.72876  0.064204802  0.064774219            2 
 1222000     1.073143   -4.2358652    940.27508  0.064121323  0.064760966            3 
 1223000    1.0581129   -4.2126595    942.09229  0.064192715  0.064748022            3 
 1224000    1.0818473   -4.2335796    945.39955  0.064365438  0.064735276            2 
 1225000    1.0566195   -4.2278773    946.39219  0.064380421  0.064722566            4 
 1226000    1.0425656   -4.2072847    947.56491   0.06440762  0.064709583            1 
 1227000    1.0725294   -4.2234313     942.8891  0.064037565  0.064696615           15 
 1228000    1.0463299   -4.2120532     945.4913  0.064162005  0.064683803            2 
 1229000     1.035881   -4.2300028    945.91044  0.064138218  0.064670849            2 
 1230000    1.0343951   -4.2181365    948.72693  0.064276893  0.064657719            2 
 1231000    1.0342413   -4.2413319    945.20404  0.063986193  0.064644278            3 
 1232000    1.0612425    -4.227652    946.03571   0.06399051   0.06463109            2 
 1233000    1.0773275    -4.220261    946.23978  0.063952405  0.064617415            3 
 1234000    1.0490593   -4.1940338    946.95012  0.063948549  0.064604154            1 
 1235000    1.0598412   -4.1566706    952.84604  0.064294605  0.064590674            1 
 1236000     1.038795    -4.231731    949.52189  0.064018466  0.064577728            3 
 1237000    1.0472317   -4.2000259    952.32042  0.064155242  0.064564636            3 
 1238000    1.0666322   -4.2319415    951.54801  0.064051427  0.064551066            2 
 1239000    1.0681753   -4.2069375    955.50788  0.064266067  0.064537681            2 
 1240000    1.0351026    -4.237736    947.48686  0.063675192  0.064524439            2 
 1241000    1.0738003   -4.2352233    952.52554  0.063962231  0.064510746            4 
 1242000    1.0558376   -4.2209374    953.97172  0.064007764  0.064497374            5 
 1243000    1.0575578   -4.2068016    955.18946   0.06403791  0.064484518            4 
 1244000    1.0837314   -4.2308386    953.56674  0.063877729  0.064471319            2 
 1245000    1.0410982   -4.2089228    956.42782  0.064017926   0.06445773            2 
 1246000    1.0566715   -4.2391355    951.90708  0.063664198  0.064444461            2 
 1247000    1.0426259   -4.1995427    958.82927  0.064075733   0.06443109            5 
 1248000    1.0634331   -4.2295573     958.3609  0.063993115  0.064417587            3 
 1249000    1.0447626   -4.2243129    955.87118  0.063775766  0.064403773            3 
 1250000    1.0719596   -4.2619807    957.18196   0.06381213   0.06439006            5 
 1251000    1.0613923   -4.2247061    955.30722  0.063636239   0.06437641            1 
 1252000    1.0372484   -4.2450532    957.89553   0.06375769  0.064362681            3 
 1253000     1.095751   -4.2174037    956.76548  0.063631649  0.064349113            2 
 1254000    1.0437505   -4.2255626     958.2581  0.063680097  0.064335602            3 
 1255000    1.0729022   -4.2200033    960.65152  0.063788281  0.064321885            2 
 1256000    1.0346638   -4.2195503    959.97896  0.063692872   0.06430834            4 
 1257000    1.0330222   -4.2009774    961.44012  0.063739069  0.064294818            2 
 1258000    1.0490723   -4.2196754    961.74827  0.063708815  0.064280811            1 
 1259000    1.0281692    -4.228216    961.21954  0.063623216  0.064267632            4 
 1260000    1.0783725   -4.2250416    962.15183   0.06363438  0.064254069            2 
 1261000    1.0374372   -4.2236618    960.98038  0.063506501  0.064240761            5 
 1262000    1.0571575   -4.1911853    961.04277  0.063460299  0.064226817            4 
 1263000    1.0390259   -4.2153737    965.12497  0.063679399  0.064213319            2 
 1264000    1.0479355    -4.223696    964.68329  0.063599901  0.064199984            3 
 1265000    1.0574441   -4.2309894    969.14456  0.063843515  0.064186177            3 
 1266000    1.0531124   -4.2559509    961.58172  0.063295268  0.064172806            4 
 1267000    1.0483524   -4.2433812    969.92192  0.063793865  0.064159467            3 
 1268000    1.0517389   -4.2371281    970.15014  0.063758553  0.064145855            2 
 1269000    1.0555097   -4.2344309    968.70163  0.063613188   0.06413226            2 
 1270000    1.0291155   -4.2608246     967.2237  0.063466122  0.064119156            2 
 1271000    1.0623653   -4.2365304    966.22803  0.063350907  0.064105871            2 
 1272000    1.0714224   -4.2241827     968.7651  0.063467315  0.064092938            1 
 1273000    1.0443123   -4.2345593    970.19307  0.063510937  0.064080322            4 
 1274000    1.0389298   -4.2397401    972.30115  0.063598976  0.064067524            2 
 1275000    1.0628842   -4.1958746    976.18379  0.063802862  0.064054774            2 
 1276000    1.0346848   -4.2637784    971.70958  0.063460657  0.064041796            3 
 1277000    1.0546342   -4.2314966    973.90947  0.063554521  0.064028756            3 
 1278000    1.0400535    -4.224059    972.75178  0.063429302  0.064016009            2 
 1279000    1.0551216   -4.2334785    973.49968  0.063428439  0.064003195            4 
 1280000    1.0343184   -4.2267535    976.52262  0.063575691  0.063990477            2 
 1281000    1.0712044   -4.2278909    978.81905  0.063675452  0.063977659            2 
 1282000    1.0389305   -4.2415172    971.21518  0.063131512  0.063964511            5 
 1283000    1.0372535   -4.2448499    975.43702  0.063356523  0.063950743            3 
 1284000    1.0437436   -4.2654567    978.66956  0.063516976  0.063937583            3 
 1285000    1.0561495   -4.2414193    976.43168  0.063322418  0.063924355            3 
 1286000    1.0525094   -4.2212939    980.12066  0.063512225  0.063911557            6 
 1287000    1.0352005   -4.2291279    981.82749  0.063573393  0.063898528            2 
 1288000    1.0910656   -4.2145668    980.47861  0.063436763  0.063885155            3 
 1289000    1.0558599   -4.2281602    978.75858   0.06327635  0.063872485            3 
 1290000    1.0130595   -4.2802518    977.71463   0.06315986  0.063859374            2 
 1291000    1.0490656   -4.2046859    981.37907  0.063347474  0.063846413            6 
 1292000     1.042514   -4.2435098    980.61797  0.063249353  0.063833211            2 
 1293000    1.0389115   -4.2395253    982.13473  0.063298191   0.06382022            2 
 1294000     1.010533   -4.2447785    983.85284   0.06335992   0.06380738            6 
 1295000    1.0288538   -4.2427356    983.36572  0.063279647  0.063794703            3 
 1296000    1.0581604   -4.2181672    986.37985   0.06342463  0.063781848            3 
 1297000    1.0293717    -4.220065    986.69897  0.063396233  0.063769216            2 
 1298000    1.0161506   -4.2331819    987.39497  0.063392076  0.063756571            2 
 1299000    1.0633435   -4.2461564    990.49705  0.063542279  0.063743952            2 
 1300000    1.0480068   -4.2569591    986.10266  0.063211709  0.063730897            2 
 1301000    1.0452126   -4.2491915     986.4918  0.063188047  0.063718377            2 
 1302000    1.0596396   -4.2359094    988.74181  0.063283526  0.063705703            2 
 1303000    1.0439496   -4.2547269      987.774  0.063173062   0.06369326            2 
 1304000    1.0485661   -4.2259374    992.49821  0.063426522  0.063680692            4 
 1305000    1.0649457    -4.251476    993.03443   0.06341216  0.063668143            3 
 1306000    1.0562605   -4.2490902    991.84379  0.063287633   0.06365576            3 
 1307000    1.0563766   -4.2283281    989.39223  0.063082901  0.063643284            2 
 1308000    1.0226426   -4.2421035    992.72228  0.063246832  0.063630876            5 
 1309000    1.0348129   -4.2568152    991.03196  0.063090906  0.063618157            3 
 1310000    1.0503157   -4.2547453    991.69035  0.063084628  0.063605528            3 
 1311000    1.0465814   -4.2445869    997.07398  0.063378717  0.063593201            1 
 1312000    1.0248762   -4.2553451    994.93564  0.063194591  0.063580245            4 
 1313000    1.0459919   -4.2108229    995.08357   0.06315585  0.063567914            3 
 1314000    1.0360741   -4.2507596    996.12562  0.063173872  0.063554998            2 
 1315000     1.014295   -4.2425192    993.74449  0.062974936  0.063542059            4 
 1316000    1.0384244    -4.263175    996.80805  0.063121077  0.063529054            3 
 1317000      1.03095    -4.274001    993.26496   0.06284896  0.063516061            7 
 1318000    1.0486613   -4.2427214    998.84809   0.06315428  0.063503025            2 
 1319000    1.0400675    -4.254585    998.27278  0.063070051   0.06348993            3 
 1320000    1.0397293    -4.222587    999.03752   0.06307055  0.063476806            4 
 1321000    1.0689661   -4.2507063    998.65502  0.062998676  0.063463931            3 
 1322000    1.0300996   -4.2213709    1000.5399  0.063069834  0.063451069            3 
 1323000    1.0506013   -4.2621775    997.63362  0.062839104  0.063438214            2 
 1324000      1.03132   -4.2535754    999.97694  0.062939132  0.063425288            2 
 1325000    1.0285912    -4.239791    999.92219  0.062888188  0.063412986            4 
 1326000    1.0441241   -4.2509278    1004.6353  0.063136961  0.063400279            4 
 1327000    1.0355568   -4.2306731    1004.4226  0.063076026  0.063387426            3 
 1328000    1.0404943    -4.259352    1003.3947  0.062964024  0.063374661            3 
 1329000    1.0586158   -4.2097327    1008.4654  0.063234603  0.063362167            1 
 1330000    1.0593206   -4.2483098    1004.0114  0.062907985   0.06334946            7 
 1331000    1.0401052   -4.2425531    1003.9307  0.062855667  0.063336821            2 
 1332000    1.0489268   -4.1980239    1006.8159  0.062988983  0.063323972            2 
 1333000    1.0294571   -4.2550297    1011.1728  0.063214101  0.063311631            4 
 1334000    1.0152128   -4.2931259    1006.2065  0.062856476  0.063298559            2 
 1335000    1.0403924   -4.2434216    1010.3959  0.063070905  0.063285853            2 
 1336000    1.0119176   -4.2719262    1009.0566  0.062940156  0.063273225            2 
 1337000    1.0317775   -4.2207231    1011.1808   0.06302548  0.063260594            3 
 1338000    1.0469278   -4.2552939    1010.5929  0.062941761  0.063247961            3 
 1339000     1.077404   -4.2513113    1010.2329  0.062872351  0.063235234            3 
 1340000    1.0341987   -4.2550059    1008.7676  0.062734304  0.063222878            4 
 1341000    1.0430516   -4.2651828     1013.712  0.062994779   0.06321075            2 
 1342000    1.0661204   -4.2460646    1014.7534  0.063012506  0.063198391            3 
 1343000    1.0489327   -4.2444209    1011.3213  0.062752622  0.063185741            2 
 1344000    1.0406598   -4.2543871    1013.7612  0.062857217  0.063173157            2 
 1345000    1.0746625   -4.2602824    1011.8531   0.06269226    0.0631608            8 
 1346000    1.0355353   -4.2395973    1015.6924  0.062883382  0.063148309            3 
 1347000    1.0253047   -4.2617482    1013.3103  0.062689329  0.063135941            2 
 1348000     1.017022    -4.248172    1012.9804  0.062622426  0.063123234            4 
 1349000    1.0372746   -4.2480874    1017.7109   0.06286823   0.06311028            2 
 1350000    1.0434709   -4.2336118    1021.0124  0.063025458   0.06309764            3 
 1351000    1.0538014   -4.2621677    1018.4884  0.062823119  0.063084959            2 
 1352000    1.0301689   -4.2442059    1016.5834  0.062659233  0.063072096            2 
 1353000     1.056203   -4.2533095    1019.5163  0.062793564  0.063059239            3 
 1354000    1.0417614   -4.2382182    1018.1611  0.062663778  0.063046832            2 
 1355000    1.0374123   -4.2904008    1018.7814   0.06265568  0.063034127            1 
 1356000     1.054864   -4.2559314    1017.0098  0.062500603  0.063021739            3 
 1357000    1.0369757   -4.2471965      1021.08  0.062704494  0.063008887            5 
 1358000    1.0397971   -4.2447585     1021.008  0.062653901   0.06299642            5 
 1359000    1.0271215   -4.2459606    1023.6217  0.062768074  0.062983715            6 
 1360000    1.0455119   -4.2611479    1020.0035  0.062500214  0.062971162            2 
 1361000    1.0223977   -4.2536447    1020.7912  0.062502524  0.062958328            1 
 1362000    1.0359766   -4.2305529    1028.2754  0.062914552  0.062945943            2 
 1363000    1.0490435   -4.2292666    1024.8276  0.062657595  0.062933667            5 
 1364000    1.0387955   -4.2792927    1029.5648  0.062901078  0.062921261            3 
 1365000    1.0188952   -4.2678844    1025.3612  0.062598363  0.062908991            2 
 1366000    1.0096846   -4.2718192    1026.4163  0.062616903  0.062896476            3 
 1367000     1.034208   -4.2392931    1031.6921  0.062892717  0.062884658            4 
 1368000    1.0511718   -4.2383587    1033.6193  0.062964138  0.062872745            2 
 1369000    1.0485777    -4.254453    1031.1171   0.06276583  0.062860978            2 
 1370000    1.0501574   -4.2437042    1026.7901  0.062456817  0.062848695            5 
 1371000    1.0456322    -4.248451    1031.2034  0.062679518  0.062836769            3 
 1372000    1.0422808   -4.2570971    1031.6953  0.062663708  0.062824787            2 
 1373000    1.0101158   -4.2110392    1035.5095  0.062849572  0.062812972            3 
 1374000    1.0309701   -4.2299527    1035.2468  0.062787896  0.062800831            3 
 1375000    1.0192626   -4.2611328    1030.9363  0.062480989  0.062788883            2 
 1376000    1.0408474   -4.2559009    1030.6194  0.062416386  0.062776604            4 
 1377000    1.0239312   -4.2445871    1032.0703  0.062458869  0.062764392            4 
 1378000    1.0299308   -4.2848386    1030.9486  0.062345708  0.062752269            3 
 1379000    1.0225563   -4.2573208    1034.6651  0.062525084   0.06274016            4 
 1380000    1.0061867   -4.2648153    1030.8749  0.062250901  0.062727698            9 
 1381000    1.0332692   -4.2439526    1036.2152  0.062528071   0.06271555            3 
 1382000    1.0507997   -4.2711464    1034.2577  0.062364791  0.062702866            2 
 1383000    1.0493303   -4.2845635    1033.6704  0.062284312  0.062690319            4 
 1384000    1.0273187   -4.2346683    1035.6854  0.062360633   0.06267758            2 
 1385000    1.0248736    -4.258467     1037.001  0.062394768  0.062665363            3 
 1386000    1.0525327   -4.2365518    1036.7511  0.062334725  0.062653194            2 
 1387000    1.0609604   -4.2461566    1040.1646  0.062494867  0.062641069            3 
 1388000     1.027827   -4.2385087    1039.5094  0.062410509  0.062629077            2 
 1389000    1.0197842   -4.2272328    1041.1654  0.062464924  0.062616991            2 
 1390000    1.0350169   -4.2222411    1040.1128  0.062356882  0.062604794            2 
 1391000    1.0114576   -4.2713515    1036.1398  0.062074035  0.062592337            6 
 1392000    1.0235453   -4.2574095    1042.9437  0.062436764  0.062579758            3 
 1393000    1.0355729   -4.2509798    1041.9949  0.062335181  0.062567506            6 
 1394000    1.0147474   -4.2514545    1037.8173  0.062040728  0.062555018           12 
 1395000    1.0320152   -4.2578024    1036.3095  0.061906181  0.062542359            4 
 1396000    1.0286637   -4.2734362    1040.4264  0.062107592    0.0625297            1 
 1397000    1.0576458   -4.2466658    1046.3784  0.062418181  0.062517126            3 
 1398000    0.9872069   -4.2660283    1037.9831  0.061873098  0.062504684            2 
 1399000    1.0156879   -4.2545949    1042.7276  0.062111483  0.062492015            1 
 1400000    1.0461245   -4.2755193    1045.3727  0.062224568  0.062479897            3 
 1401000    1.0509759   -4.2626321    1043.9902  0.062097917   0.06246744            2 
 1402000      1.03234   -4.2804156    1041.6454  0.061914256  0.062454991            2 
 1403000    1.0239761    -4.249879    1048.7638  0.062292931  0.062442534            2 
 1404000    1.0158896   -4.2835539    1046.4747  0.062112695  0.062430226            3 
 1405000    1.0239156   -4.2912951     1045.521  0.062011924  0.062417973            3 
 1406000    1.0089883   -4.2574886    1051.2057   0.06230475  0.062405678            1 
 1407000     1.055126    -4.289391    1047.6079  0.062047376  0.062393604            4 
 1408000    1.0467035   -4.2763179    1046.9098   0.06196199   0.06238127            2 
 1409000    1.0192152   -4.2772567    1048.5722  0.062016334  0.062368805            3 
 1410000    1.0391757   -4.2587198    1051.7903  0.062162546   0.06235641            2 
 1411000    1.0562784   -4.2657868    1051.7375  0.062115375  0.062344216            3 
 1412000    1.0321536   -4.2660286    1057.4643  0.062409363  0.062332463            4 
 1413000    1.0152833   -4.2469675    1056.9317  0.062333786  0.062320478            6 
 1414000    1.0277491   -4.2626709    1055.8229  0.062224358  0.062308921            2 
 1415000    1.0298506   -4.2647325    1055.4687  0.062159521  0.062297085            7 
 1416000     1.022121   -4.2699903    1060.6061  0.062417965   0.06228511            2 
 1417000    1.0271166   -4.2527416    1054.8352  0.062034534   0.06227344            1 
 1418000    1.0238568   -4.2770005    1056.5146   0.06208948  0.062261506            5 
 1419000    1.0073594   -4.2494456    1055.1653  0.061966486  0.062249522            3 
 1420000    1.0319883   -4.2840823    1055.6643  0.061952131  0.062237646            3 
 1421000    1.0332814   -4.2753964    1059.0634  0.062107868  0.062225828            2 
 1422000    1.0262039   -4.2668082    1057.2133  0.061955773  0.062213995            4 
 1423000    1.0360786   -4.2947196    1055.6084  0.061818249  0.062202477            4 
 1424000     1.040109   -4.3047633    1057.4161  0.061880622  0.062190212            3 
 1425000    1.0222402   -4.2480737    1063.1408  0.062171976  0.062178149            2 
 1426000    1.0219434    -4.251379    1062.7271    0.0621042  0.062166357            3 
 1427000    1.0399999   -4.2764191     1063.497  0.062105642  0.062154595            3 
 1428000    1.0357677   -4.2960961    1062.7344  0.062017649   0.06214286            5 
 1429000    1.0231985   -4.2950304     1061.001  0.061873165  0.062130995            2 
 1430000    1.0367854   -4.2572895    1069.0549  0.062299235  0.062119503            2 
 1431000     1.010913   -4.2737644    1063.0514  0.061906092  0.062107856            2 
 1432000    1.0293199   -4.2676166    1068.0049  0.062151122  0.062096052            2 
 1433000    1.0097798   -4.2690754    1064.8619  0.061924977  0.062084414            2 
 1434000    1.0405099   -4.2536849    1068.8216    0.0621119  0.062072959            4 
 1435000    1.0073504   -4.2997108    1065.1299  0.061854231   0.06206135            2 
 1436000    1.0025982   -4.2685657    1070.7169  0.062135379  0.062049865            5 
 1437000    1.0414402   -4.2901494    1067.2179  0.061889233  0.062038458            3 
 1438000    1.0285363   -4.2903437     1066.707  0.061816585  0.062026884            2 
 1439000    1.0307732    -4.270689    1067.3277  0.061809571  0.062015288            3 
 1440000    1.0272313   -4.2584436    1073.8912  0.062146479  0.062004214            5 
 1441000    1.0105259    -4.257247    1072.6401  0.062031001   0.06199321           12 
 1442000    1.0115309    -4.311436    1064.4556  0.061515003  0.061981531            3 
 1443000   0.99649734   -4.2794455    1067.5849  0.061653092  0.061970031            4 
 1444000    1.0295232   -4.2667557    1075.8954  0.062089995  0.061958759            1 
 1445000    1.0120216   -4.2769141    1071.5512  0.061796495  0.061947905            3 
 1446000    1.0030968    -4.269141     1073.471  0.061864397  0.061937002            2 
 1447000    1.0232457   -4.2435824    1082.0271  0.062314392  0.061925896            6 
 1448000    1.0227602   -4.2496949    1077.2185  0.061994619  0.061914988            2 
 1449000    1.0295854   -4.2880045    1073.8236  0.061756592  0.061903761            1 
 1450000    1.0176117   -4.2657412    1076.0183  0.061840131  0.061892265            4 
 1451000    1.0422708   -4.2795472    1080.2043  0.062037924  0.061881002            5 
 1452000    1.0108187   -4.2761091    1075.3314  0.061715533  0.061869993            2 
 1453000     1.027258    -4.296083    1078.4048  0.061849325  0.061858635            2 
 1454000    1.0111842   -4.2545952    1079.6391  0.061877529  0.061847654            4 
 1455000    1.0155776    -4.297697    1081.4015  0.061935942  0.061836539            5 
 1456000     1.014858    -4.223847    1080.6947  0.061852946  0.061825236            5 
 1457000    1.0251024   -4.3120999    1078.6263  0.061692191  0.061813642            2 
 1458000    1.0139688   -4.2883159    1081.4184  0.061809466  0.061802052            3 
 1459000    1.0080832   -4.2559069    1081.5781  0.061776221  0.061790763            4 
 1460000    1.0089792   -4.2653595    1080.6524  0.061681075  0.061779512            1 
 1461000    1.0208366   -4.2637461    1081.7322  0.061700443  0.061767832            2 
 1462000    1.0228482   -4.2997226    1083.4773  0.061757712  0.061756276            3 
 1463000    1.0019667   -4.2977541    1081.0288  0.061576032  0.061744765            6 
 1464000    1.0005429   -4.2918325     1078.011  0.061362191  0.061733344            3 
 1465000    1.0069898   -4.2662305    1082.5914  0.061580852  0.061721463            4 
 1466000    1.0375619   -4.2496052    1084.4686  0.061645556  0.061709529            3 
 1467000    1.0426926   -4.3057314    1083.9456  0.061573822  0.061697691            2 
 1468000    1.0083439   -4.2808202    1085.5701  0.061624096  0.061686178            2 
 1469000   0.98921531   -4.2683408    1087.4106  0.061686557  0.061674544            9 
 1470000    1.0092586   -4.2864718    1086.3386  0.061583819  0.061662862            3 
 1471000    1.0313518   -4.2919647    1086.6244  0.061558144   0.06165091            3 
 1472000    1.0032719   -4.2500143    1086.6328  0.061516804  0.061639171            2 
 1473000    1.0260095    -4.286038    1084.0069  0.061326484  0.061627362            3 
 1474000     1.007779   -4.2980145    1087.9187  0.061506035  0.061615921            2 
 1475000    1.0025279   -4.2806497      1087.27  0.061427681  0.061604391            2 
 1476000     1.017657   -4.2989388    1090.1859  0.061550693  0.061592904            3 
 1477000    1.0315476    -4.275305    1085.2469  0.061230362  0.061581242            3 
 1478000    1.0181473   -4.2900964    1087.0862  0.061292636  0.061569221            7 
 1479000    1.0141826   -4.2914121    1091.2213  0.061484183  0.061557002            4 
 1480000    1.0241883   -4.3113668    1088.5446  0.061291924  0.061544776            2 
 1481000    1.0258611   -4.3011746    1087.3799  0.061185003  0.061532682            4 
 1482000     0.999584   -4.2834515    1091.9122  0.061398574  0.061520439            1 
 1483000    1.0211355   -4.3205161    1089.3911  0.061215504   0.06150845            2 
 1484000   0.99578501   -4.2843988    1094.7705   0.06147633  0.061496306            6 
 1485000    1.0026025   -4.2726287    1092.1081  0.061285525  0.061484172            2 
 1486000    1.0126352   -4.2634468    1090.5017  0.061154203  0.061472137            2 
 1487000    1.0023883   -4.2362036     1099.206  0.061600877  0.061460676            2 
 1488000    1.0196026   -4.2956859    1092.1561  0.061164653  0.061448981            4 
 1489000      1.00095   -4.2721832    1092.6938  0.061153669  0.061437143            4 
 1490000    1.0098575   -4.2819526    1096.8224  0.061343535  0.061425066            5 
 1491000     1.035196   -4.3190722    1093.8924  0.061138633  0.061413288            4 
 1492000     1.022322   -4.2596434    1097.9626  0.061324986  0.061401535            3 
 1493000    1.0089458   -4.2793315    1098.7231  0.061326362  0.061390015            4 
 1494000   0.99755102   -4.2619058    1101.2974  0.061428905  0.061378827            3 
 1495000    1.0210389    -4.272682    1097.3491  0.061167732   0.06136769            3 
 1496000   0.99907561   -4.3002773    1094.2521  0.060954329  0.061356008            4 
 1497000    1.0292522   -4.2905591     1100.687  0.061271824  0.061344523            3 
 1498000    1.0004257   -4.3136176    1094.5389    0.0608889  0.061332591            3 
 1499000    1.0347451   -4.2963038    1099.0735  0.061100371  0.061320741            6 
 1500000    1.0037919    -4.303833    1104.0292  0.061334957  0.061309147            4 
 1501000    1.0058433   -4.2753676    1105.8494  0.061395149  0.061297655            5 
 1502000    1.0145416   -4.3008994    1101.7858   0.06112882  0.061285992            2 
 1503000    1.0244651   -4.2986255    1100.6838  0.061027045  0.061274337            4 
 1504000    1.0064768   -4.2564164    1104.3431  0.061189223   0.06126312            3 
 1505000    1.0208242   -4.2862627     1101.428  0.060987156  0.061251584            5 
 1506000    1.0091024   -4.3193162    1104.1466  0.061097089  0.061239686            2 
 1507000    1.0227995   -4.3226455    1102.4708  0.060963881  0.061227736            2 
 1508000     1.017097   -4.3254366    1099.4722  0.060757746  0.061215601            5 
 1509000    1.0074669   -4.3051321      1103.46  0.060937706   0.06120327            4 
 1510000   0.98379491   -4.2845148    1101.6588  0.060797946  0.061191277            3 
 1511000    1.0056456   -4.2980358    1105.0625  0.060945427  0.061179466            5 
 1512000   0.99616646   -4.2987427    1106.3473   0.06097593  0.061167325            3 
 1513000    1.0045512   -4.2803563    1112.2537  0.061260941  0.061155521            1 
 1514000    1.0013411   -4.2880245    1110.7922  0.061140035  0.061143661            2 
 1515000    1.0107751   -4.2834465    1107.7766  0.060933807  0.061131393            3 
 1516000    1.0071317   -4.3356274    1103.4153  0.060653874   0.06111941            2 
 1517000    1.0229303   -4.2970156    1111.0111  0.061031152  0.061107413            7 
 1518000   0.98691192   -4.3067038    1108.3633  0.060845593  0.061095445            3 
 1519000    1.0298237    -4.299557    1113.4049  0.061082119  0.061083577            2 
 1520000   0.99035008   -4.2934666     1113.866  0.061067214  0.061071848            3 
 1521000    1.0176461   -4.2990552    1114.6105  0.061067856    0.0610599            4 
 1522000    1.0347181   -4.3140267    1110.8763  0.060823273  0.061048109            2 
 1523000   0.99214903   -4.2898193    1114.8715  0.061001943  0.061036108            6 
 1524000   0.99564193   -4.3178047    1109.5112  0.060668807  0.061024105            3 
 1525000    0.9999336   -4.2893739    1116.2839   0.06099912  0.061012181            6 
 1526000    1.0087782   -4.3447879    1113.8498  0.060826225  0.061000276            1 
 1527000   0.99177807   -4.2879387    1114.5267  0.060823328   0.06098773            6 
 1528000   0.99723933   -4.3243925    1110.8741   0.06058432  0.060975486            4 
 1529000     1.026911   -4.2673616    1114.9764  0.060768281  0.060963154            7 
 1530000    1.0046226   -4.2996801    1117.0274  0.060840274  0.060951189            4 
 1531000    1.0099916   -4.3013263    1121.1588  0.061025411  0.060939237            2 
 1532000    1.0003594   -4.3165118    1116.7489  0.060745695  0.060927556            4 
 1533000    0.9949311     -4.30306    1118.7289  0.060813702  0.060915963            3 
 1534000   0.99756866     -4.26203    1117.6298  0.060714351  0.060904181            5 
 1535000    1.0366191   -4.2825386    1123.1245  0.060973101  0.060892648            2 
 1536000    1.0188956   -4.3037695    1120.8096  0.060807814  0.060881016            3 
 1537000     1.020678   -4.2982353    1126.2008  0.061060553  0.060869369            2 
 1538000   0.99458247   -4.3203309    1122.0714  0.060797106  0.060857798            4 
 1539000    1.0121252   -4.3049613    1119.8901  0.060639489   0.06084631            3 
 1540000   0.99742107   -4.3300158    1123.4002  0.060790052  0.060834485            3 
 1541000    1.0317478   -4.3058417    1125.4897  0.060863599   0.06082293            2 
 1542000    1.0106562   -4.3072101    1123.7987  0.060732746   0.06081136            4 
 1543000   0.99118351   -4.3100284    1124.3993   0.06072582  0.060799862            2 
 1544000    1.0026529   -4.3150643    1119.3031  0.060411435  0.060787541            4 
 1545000    1.0202165   -4.3399652    1119.8552  0.060402114   0.06077543            1 
 1546000   0.99001974   -4.2913295      1124.22  0.060598319   0.06076321            3 
 1547000    1.0106044   -4.3017172    1127.1168  0.060715192  0.060751428            2 
 1548000   0.98926213   -4.3091555    1123.9635  0.060506218  0.060739425            2 
 1549000    1.0088066   -4.3222175    1125.2891  0.060538471  0.060727226            6 
 1550000     1.004879   -4.3014274    1125.3282  0.060501517  0.060715291            2 
 1551000    1.0051969   -4.3149398    1124.9771  0.060443643  0.060703233            4 
 1552000    1.0177607   -4.3240516    1124.1535  0.060360476  0.060691125            4 
 1553000    1.0208863   -4.3470215    1128.4512  0.060552219  0.060678655            2 
 1554000    1.0054778   -4.3092651    1128.2848  0.060504334  0.060666286            5 
 1555000    1.0079035   -4.2628611    1132.1051  0.060670153  0.060654714            1 
 1556000    1.0056833   -4.2945225    1127.6665  0.060393452   0.06064254            4 
 1557000    0.9992347   -4.2822057    1130.2547  0.060493187  0.060630143            2 
 1558000    1.0146314   -4.3137228    1129.1773  0.060396731   0.06061782            1 
 1559000   0.99525012   -4.3008708    1127.3372  0.060259631  0.060605698            3 
 1560000    1.0260451   -4.3269521    1131.3681  0.060436331  0.060593362            2 
 1561000    1.0076639   -4.3267289    1130.5824  0.060355668  0.060581185            3 
 1562000    1.0082551   -4.2970004    1132.0259  0.060394038  0.060569047            3 
 1563000    1.0043687   -4.2692508    1132.2318  0.060366379   0.06055669            3 
 1564000   0.99614369   -4.3139113     1131.863  0.060308129  0.060544502            6 
 1565000   0.97819882   -4.2901852    1134.0695  0.060387089  0.060532294            2 
 1566000    1.0185128   -4.3005814    1131.8019  0.060227858  0.060520008            4 
 1567000   0.99527814   -4.2904125    1136.4905  0.060438762  0.060507567            8 
 1568000    1.0005205   -4.3020967    1134.1743  0.060277122  0.060495382            2 
 1569000   0.99665305   -4.2963044    1132.5095  0.060150282  0.060483018            8 
 1570000    0.9845082   -4.2804376    1135.3401  0.060262213  0.060470748            3 
 1571000    1.0097839   -4.2731115    1137.0854  0.060316434  0.060458681            2 
 1572000   0.99392461   -4.2914301     1133.322  0.060078563  0.060446514            2 
 1573000   0.98828382   -4.3278449    1136.6996  0.060219303  0.060434402            3 
 1574000   0.99284632   -4.3197305     1138.789  0.060291664  0.060421942            2 
 1575000    1.0215209   -4.2939877     1141.212  0.060381588  0.060409828            3 
 1576000    1.0108453   -4.3247844    1137.1341  0.060127649  0.060397861            3 
 1577000    1.0149434   -4.2883596    1139.5364  0.060216464  0.060385687            4 
 1578000    1.0058681   -4.3044532    1140.2761   0.06021737   0.06037351            1 
 1579000    1.0077422    -4.318489    1139.5595  0.060141414  0.060361547            2 
 1580000   0.99677734   -4.3137929    1135.2375  0.059875396  0.060349194            4 
 1581000    1.0028723   -4.2780014      1145.99  0.060404278  0.060337221            2 
 1582000   0.98393365   -4.3344889    1136.3149  0.059856452  0.060324852            2 
 1583000   0.99136449   -4.3174168    1144.0086  0.060223656  0.060312136            3 
 1584000   0.98362104   -4.2788407    1143.0877  0.060137189  0.060299629            2 
 1585000    1.0093875   -4.2999778    1145.7764  0.060240609   0.06028732            2 
 1586000     1.013578    -4.323935    1139.7509  0.059886029  0.060275031            2 
 1587000    0.9832622   -4.3337998    1141.4653  0.059938315  0.060262421            4 
 1588000    1.0019856   -4.3094943    1146.2423  0.060151252  0.060250082            2 
 1589000   0.99085735   -4.3065681     1143.839  0.059987362  0.060237929            2 
 1590000   0.98682442   -4.2955037    1146.3154  0.060079423  0.060226036            2 
 1591000     1.008771   -4.3288183    1146.6935  0.060061467  0.060213977            3 
 1592000   0.96423802   -4.3388443    1145.8903  0.059981693  0.060202052            2 
 1593000   0.98406331   -4.3046032    1148.8904  0.060100981  0.060190147            2 
 1594000   0.99695308   -4.3091807     1153.017  0.060279015   0.06017865            5 
 1595000   0.98620245   -4.3046954     1149.463  0.060055539  0.060166714            3 
 1596000   0.98017283   -4.3137568     1149.043  0.059995981  0.060154941            4 
 1597000   0.99220254   -4.3269589     1149.917  0.060004017  0.060143387            2 
 1598000   0.99595224    -4.310908    1154.3975  0.060200121  0.060131783            3 
 1599000   0.99563343    -4.344886    1150.4885  0.059958751  0.060120253            2 
 1600000    1.0141968   -4.3446537    1153.7406  0.060090658  0.060108801            3 
 1601000   0.97799626   -4.3228324    1159.5504   0.06035553  0.060097556            2 
 1602000    1.0030864   -4.3553701    1151.3557  0.059891577  0.060085919            3 
 1603000    1.0093121   -4.3487882    1153.7224  0.059977249  0.060074016            5 
 1604000   0.99622442   -4.3252187    1155.8069  0.060048157  0.060062309            3 
 1605000    1.0006742    -4.307087    1150.5047  0.059735449  0.060050537            4 
 1606000   0.99746341   -4.3181734    1154.6728  0.059914527  0.060038815            2 
 1607000   0.96577879   -4.3118563    1156.2706  0.059960101  0.060026709            4 
 1608000   0.99001267   -4.3354545    1153.7816  0.059793821  0.060014529            2 
 1609000   0.99325994   -4.3107127    1156.7529  0.059910552  0.060002269            3 
 1610000      0.97119   -4.3133472    1155.3007  0.059798173  0.059990534            3 
 1611000   0.97878844   -4.3297614    1155.7168  0.059782576  0.059978344            3 
 1612000   0.99517569   -4.3041384    1160.2956  0.059982195   0.05996621            4 
 1613000    1.0016281   -4.3315397     1157.492  0.059800164  0.059954331            3 
 1614000      1.00464   -4.3432683    1154.8269   0.05962551  0.059941953            4 
 1615000    1.0098607   -4.3132366    1160.2306  0.059867421  0.059929808            4 
 1616000   0.98525847   -4.3220576    1159.1062   0.05977239  0.059918134           11 
 1617000   0.97799492   -4.2744156    1165.1564  0.060047227  0.059906467            3 
 1618000   0.99101585   -4.2925982    1160.5695   0.05977387  0.059894543            1 
 1619000    1.0065584   -4.3308038    1156.9014  0.059548145  0.059882756            8 
 1620000   0.99110098   -4.3025748    1162.9795  0.059824051  0.059870889            2 
 1621000    1.0004799   -4.2954605    1162.3871  0.059756686  0.059859169            2 
 1622000   0.99208341   -4.2982429    1165.4017  0.059874728  0.059847467            1 
 1623000   0.99643276   -4.3294271      1163.94  0.059762784  0.059835696            6 
 1624000   0.99434261   -4.3466382    1162.1192  0.059632554  0.059823827            4 
 1625000   0.98232792   -4.3192327    1162.9847  0.059640243  0.059812309            2 
 1626000   0.99026211   -4.3273464    1161.8977  0.059547853  0.059800316            4 
 1627000   0.99235378   -4.2857323    1170.9235  0.059973545  0.059788616            4 
 1628000   0.97835111   -4.3490138    1161.9591  0.059477838  0.059777183            3 
 1629000   0.98319678   -4.3147772      1166.28  0.059662369  0.059765464            4 
 1630000   0.99013368   -4.3510631    1167.2035   0.05967298  0.059753634            2 
 1631000   0.99333098   -4.3473056    1162.7995  0.059411379  0.059741758            5 
 1632000   0.99540072   -4.3082985    1172.3604  0.059863173  0.059730156            3 
 1633000    0.9875441   -4.3199592    1172.1953  0.059818092  0.059718874            2 
 1634000    1.0043919   -4.3512131    1166.7436   0.05950345  0.059707389            2 
 1635000   0.97702692   -4.3266127    1167.4518  0.059503151  0.059695838            1 
 1636000   0.99584459   -4.3155223    1177.7711  0.059992418  0.059684092            2 
 1637000     1.001865   -4.3335742    1169.8743  0.059553771  0.059672521            2 
 1638000    1.0167428   -4.3087975    1174.2342  0.059739227  0.059661111            3 
 1639000   0.99755236   -4.3701831    1172.1633  0.059597481  0.059649782            4 
 1640000   0.99157953   -4.3143244    1176.3788  0.059775345  0.059638309            2 
 1641000    0.9952953   -4.3452441    1175.5466  0.059696658  0.059626874            7 
 1642000   0.99086394   -4.2939242    1180.4924  0.059911305   0.05961575            3 
 1643000   0.98784724    -4.319728    1177.4429  0.059720172  0.059604653            5 
 1644000   0.99351215   -4.3228906    1176.1373  0.059617667  0.059593672            2 
 1645000     1.001777   -4.3346175    1177.9251  0.059671989  0.059582447            4 
 1646000   0.97221167   -4.3477523    1174.5858  0.059466678  0.059571352            5 
 1647000   0.99656253   -4.3214091    1179.4828  0.059678343  0.059560152            2 
 1648000   0.97338741   -4.3535626    1178.1804  0.059576273  0.059548772            2 
 1649000   0.99130764   -4.3401131    1177.8691  0.059524413   0.05953752            3 
 1650000    0.9990379   -4.3031097    1181.0717  0.059650086  0.059526367            1 
 1651000   0.97295535   -4.3143887    1177.0118  0.059409034  0.059515096            6 
 1652000    1.0053464   -4.3351493    1178.9367  0.059470175    0.0595037            3 
 1653000   0.98119892   -4.3198931    1180.3656  0.059506231  0.059492457            8 
 1654000   0.99901193   -4.3256726    1185.3881  0.059723304  0.059481186            3 
 1655000    1.0101131   -4.3374181    1182.1922  0.059526295  0.059469885            5 
 1656000   0.96964402   -4.3041671     1190.421  0.059904437  0.059458799            4 
 1657000    1.0073555   -4.3270684    1182.7038  0.059480175  0.059447448            3 
 1658000   0.97962846   -4.3462179      1186.93  0.059656715  0.059435921            3 
 1659000    1.0026652   -4.2988924    1188.4791  0.059698567   0.05942469            4 
 1660000   0.98247733   -4.3126106    1186.4278   0.05955963  0.059413248            7 
 1661000   0.98646074   -4.3540382    1183.1436  0.059359001  0.059401871            2 
 1662000   0.98182033   -4.3037407    1186.3046   0.05948178  0.059390454            8 
 1663000   0.99016312   -4.3033374    1186.3914  0.059450362  0.059379369            4 
 1664000   0.96712687   -4.2997145    1184.2518  0.059307483  0.059368357            5 
 1665000    0.9943148   -4.3200558    1188.3878  0.059478867  0.059357414            4 
 1666000    0.9951916   -4.3258149    1191.1822  0.059582945  0.059346456            4 
 1667000   0.96242109   -4.3314541    1192.4629  0.059611221  0.059335351            1 
 1668000    0.9933806    -4.316094    1189.0419  0.059404573  0.059324303            4 
 1669000   0.98112922   -4.3541742    1187.4789  0.059290939  0.059313083            6 
 1670000   0.96200025   -4.3552249    1190.5206  0.059407215  0.059301883            4 
 1671000   0.97963551   -4.3278855    1193.5486  0.059522673  0.059290659            2 
 1672000   0.96318616   -4.3380278    1191.0223  0.059361162  0.059279633            2 
 1673000   0.96762066   -4.3482926    1190.9954  0.059324339  0.059268457            7 
 1674000   0.96731716   -4.3535723    1194.4311  0.059459931  0.059257551            3 
 1675000   0.99743592     -4.33839    1195.1915  0.059462262  0.059246542            3 
 1676000   0.98540805   -4.3537555    1193.9095  0.059363041  0.059235447            3 
 1677000   0.96985911   -4.3374769    1197.5467  0.059508381  0.059224261            3 
 1678000   0.98788222   -4.3209435     1197.693  0.059480185  0.059213559            2 
 1679000   0.99039583   -4.3251716     1194.015  0.059262209  0.059202718            3 
 1680000   0.98713203    -4.337617    1197.2695   0.05938837   0.05919164            5 
 1681000   0.98769004   -4.3471005    1196.9175  0.059335587  0.059180959            2 
 1682000    1.0029226   -4.3390945    1197.0061  0.059304701  0.059170253            2 
 1683000   0.97604972   -4.3408834    1198.6797  0.059352334   0.05915935            3 
 1684000   0.98944032   -4.3328429    1198.2496  0.059295802  0.059148394            2 
 1685000   0.97599277   -4.3634852     1196.281  0.059163256  0.059137934            3 
 1686000   0.99775092   -4.3412027    1204.3665  0.059527801  0.059127066            6 
 1687000    1.0007122    -4.339011    1199.5488  0.059254536  0.059115884            3 
 1688000   0.98435472   -4.3330735     1199.457  0.059214898  0.059104839            2 
 1689000   0.97179419   -4.3409735    1199.2837  0.059171291  0.059093845            2 
 1690000   0.98878409   -4.3484875    1198.6066   0.05910289  0.059082889            4 
 1691000   0.99346936   -4.3287496    1197.2252  0.058999863  0.059071856            2 
 1692000   0.99222859   -4.3677269    1196.8078  0.058944433  0.059060805            5 
 1693000   0.98664246   -4.3753448    1200.4973  0.059091224  0.059049631            5 
 1694000   0.96990476   -4.3380502    1204.6508  0.059260664  0.059038766            2 
 1695000   0.98512465   -4.3175185    1205.2083   0.05925311  0.059027979            2 
 1696000     1.003397    -4.335631    1200.9289  0.059007908  0.059016846            4 
 1697000   0.98464472   -4.3413057    1201.4465  0.058998553  0.059005582            2 
 1698000   0.98255231   -4.3485814    1200.2439  0.058904786  0.058993858            2 
 1699000   0.99116914   -4.3508755    1199.2399  0.058820869  0.058982172            2 
 1700000    1.0170316   -4.3676482    1204.1133  0.059025162  0.058970615            3 
 1701000   0.98784384   -4.3495205    1201.8163  0.058877929  0.058959436            4 
 1702000   0.94756454   -4.3428354     1205.666  0.059031824  0.058947661            3 
 1703000   0.97146295   -4.3368626    1205.3488  0.058981641  0.058935933            4 
 1704000   0.96448445   -4.3401213     1200.516  0.058710681  0.058924292            3 
 1705000   0.99462138   -4.3128163     1204.327  0.058862513  0.058912794            5 
 1706000   0.99107382    -4.359014    1204.7867  0.058850464  0.058901341            2 
 1707000   0.97505918   -4.3426128      1206.04   0.05887717  0.058889451            2 
 1708000   0.96568031    -4.342305    1205.4355   0.05881321  0.058877862            3 
 1709000   0.98732607   -4.3466752    1204.4674  0.058731587  0.058866123            2 
 1710000    0.9604799   -4.3876297    1207.6728   0.05885345  0.058854438            3 
 1711000   0.98577424   -4.3451022    1208.4482  0.058856819  0.058842856            2 
 1712000   0.97867553   -4.3632943    1205.8691  0.058696897  0.058831375            2 
 1713000   0.99000353   -4.3527689    1208.9584   0.05881292  0.058819512            6 
 1714000   0.98505769   -4.3355381    1207.1638  0.058691354  0.058807833            3 
 1715000   0.95785231   -4.3436087    1211.3085  0.058858529  0.058796398            2 
 1716000   0.97964802   -4.3398013    1209.7573  0.058748898  0.058784972            3 
 1717000    0.9749121   -4.3707265    1206.2016  0.058542107  0.058773026            3 
 1718000   0.98628331   -4.3429892    1212.1984  0.058798912  0.058761625            5 
 1719000   0.96282033    -4.345107    1210.5282  0.058683741  0.058750197            3 
 1720000   0.98878483   -4.3508387    1212.0838  0.058724991  0.058738486            6 
 1721000    1.0086531   -4.3525187    1211.7361  0.058674034   0.05872687            1 
 1722000   0.96900329   -4.3776214    1208.1377  0.058465818  0.058715314            3 
 1723000   0.98905495    -4.330089    1216.2258  0.058823071   0.05870381            2 
 1724000   0.96171475   -4.3408893    1214.1787  0.058689999  0.058692334            1 
 1725000    0.9933668   -4.3617787    1212.2847  0.058564476   0.05868069            3 
 1726000   0.99087093   -4.3387299    1214.7851   0.05865127  0.058669073            5 
 1727000   0.98166731   -4.3624025    1215.4495  0.058649367  0.058657718            2 
 1728000   0.96923275   -4.3611575    1214.5462  0.058571865  0.058646061           13 
 1729000   0.97089585    -4.355695    1217.9455  0.058701827  0.058634833            4 
 1730000   0.99393397    -4.365086    1213.5767   0.05845745  0.058623284            4 
 1731000   0.95887081   -4.3563178    1214.6926  0.058477403  0.058611745            5 
 1732000   0.97328169   -4.3326301    1219.5666  0.058678148  0.058600384            3 
 1733000   0.97300593   -4.3573989    1221.3534  0.058730206   0.05858916            8 
 1734000   0.96088436   -4.3688534    1220.5381  0.058657156  0.058577971            3 
 1735000   0.96626696   -4.3516678    1214.8392  0.058349624   0.05856673            2 
 1736000   0.96307111    -4.364628    1219.7503  0.058551761  0.058555425            3 
 1737000   0.98908463   -4.3680006    1219.7995  0.058520412  0.058544062            7 
 1738000   0.97777331   -4.3557874    1220.6054  0.058525382  0.058532809            2 
 1739000   0.96918949   -4.3693306    1223.4283  0.058627001  0.058521448            2 
 1740000   0.98326536   -4.3372088    1226.0737  0.058720004  0.058509893            3 
 1741000   0.95837476   -4.3891823    1223.8774  0.058581151  0.058498306            2 
 1742000   0.96466989   -4.3683041    1217.8707  0.058260175  0.058486685            2 
 1743000    1.0046042   -4.3419731    1226.1714  0.058623609  0.058475281            3 
 1744000    0.9799445   -4.3440246    1224.6062  0.058515202  0.058463966            2 
 1745000   0.97310316   -4.3869075    1225.2583  0.058512811  0.058452511            2 
 1746000   0.98249484   -4.3914832     1226.007  0.058515032  0.058440964            5 
 1747000   0.97886885   -4.3526981    1231.3523  0.058736515  0.058429314            6 
 1748000   0.97726114   -4.3311901    1227.1003  0.058500203  0.058417726            2 
 1749000   0.98079807   -4.3660768    1221.4184  0.058196037  0.058406475            6 
 1750000   0.98112972   -4.3769083    1226.5055  0.058405025  0.058395019            4 
 1751000   0.98651818   -4.3506142    1228.4583  0.058464608  0.058383603            4 
 1752000   0.97892442   -4.3578064    1227.1616   0.05836956  0.058372368            3 
 1753000   0.96540106   -4.3735676    1229.2902   0.05843745  0.058361307            3 
 1754000   0.95378628   -4.3295139    1232.6645  0.058564446  0.058350364            4 
 1755000   0.97010546   -4.3583897    1230.7668   0.05844097  0.058339191            2 
 1756000   0.94507933   -4.3643885    1226.4074  0.058200806  0.058327864            5 
 1757000   0.97626141   -4.3330625    1236.2984  0.058636805  0.058316655            2 
 1758000   0.97501302   -4.3456308    1230.7986  0.058342745  0.058305746            2 
 1759000   0.97540754   -4.3733159    1231.9823  0.058365657  0.058294633            3 
 1760000   0.97564594   -4.3656342    1236.5545   0.05854898  0.058283487            1 
 1761000   0.95611607    -4.332587    1232.7683  0.058336564  0.058272578            4 
 1762000   0.98705081   -4.3878975    1230.6284  0.058202249  0.058261399            5 
 1763000   0.97786428   -4.3796646    1230.3209  0.058154702  0.058250102            2 
 1764000   0.98129316   -4.3845936    1233.9882  0.058294984  0.058238872            5 
 1765000   0.98879813    -4.379391    1236.2743   0.05836989  0.058227684            4 
 1766000   0.94811162   -4.3709231    1235.7155   0.05831047  0.058216414            4 
 1767000   0.97718452   -4.3964199    1233.8249   0.05818831  0.058205123            4 
 1768000   0.98301188    -4.366077    1238.6681  0.058383675  0.058193732            4 
 1769000   0.97620792   -4.3583669     1237.489  0.058295127  0.058182479            1 
 1770000   0.98482421   -4.3919914    1233.6489  0.058081399  0.058171159            3 
 1771000   0.96595839     -4.40033    1233.3641  0.058035203  0.058159793            3 
 1772000   0.99486034   -4.3451688    1239.2858  0.058280936  0.058148236            3 
 1773000   0.94361012     -4.39803    1236.5383  0.058118928  0.058136965            6 
 1774000   0.98375168   -4.3574148    1241.6513   0.05832635  0.058125634            3 
 1775000   0.96277229    -4.319413    1243.1533  0.058364006  0.058114528            3 
 1776000   0.98113207   -4.3587335    1242.0115  0.058277568  0.058103365            2 
 1777000   0.97273169   -4.3856698    1234.3485  0.057885413  0.058092237            3 
 1778000   0.96775355   -4.3907283    1240.0175  0.058118556   0.05808078            5 
 1779000    0.9599368   -4.3998337    1235.6523  0.057881406  0.058069337            3 
 1780000   0.96461061   -4.3692045    1242.4606   0.05816763  0.058058148            4 
 1781000   0.97580578   -4.3533033    1239.7508  0.058008177  0.058046959            3 
 1782000   0.98327224   -4.3499205    1237.8671  0.057887535  0.058035847            7 
 1783000   0.95595929   -4.3461559     1246.956  0.058279865  0.058024666            2 
 1784000   0.98448707   -4.3671286    1246.3573  0.058219231  0.058013556            2 
 1785000   0.95289141   -4.4018032    1247.6469  0.058246822  0.058002462            5 
 1786000   0.95633438   -4.3775671    1244.1692  0.058051939  0.057991514            7 
 1787000   0.94338903   -4.3598904    1249.9568  0.058289349  0.057980772            4 
 1788000   0.98036976   -4.3852099    1245.9895  0.058071846  0.057969703            2 
 1789000   0.96276811   -4.3586635    1244.4036  0.057965513  0.057958552            4 
 1790000   0.94550301   -4.3691761    1249.4509  0.058168104  0.057947438            5 
 1791000   0.96233411   -4.3933684    1244.6743  0.057913378  0.057936127            5 
 1792000   0.97343309   -4.3929596    1241.1676  0.057717989  0.057924903            2 
 1793000   0.96405896   -4.3729004    1247.4948  0.057979867  0.057913386            3 
 1794000   0.97114012    -4.364385    1248.0052  0.057971255  0.057902112           13 
 1795000   0.97782759   -4.3854175     1251.537  0.058102922  0.057890898            3 
 1796000   0.97180496   -4.3684378    1246.2332  0.057824479  0.057879502            3 
 1797000    0.9893981   -4.3801544    1249.0572   0.05792326   0.05786818            4 
 1798000   0.98487835   -4.3622773    1247.7172  0.057828941  0.057856774            6 
 1799000   0.98811416   -4.3647586    1250.9525  0.057946658  0.057845666            3 
 1800000    0.9546578   -4.3625254    1251.7013  0.057949136   0.05783449            5 
 1801000   0.97220372   -4.3522968    1256.4518  0.058136767  0.057823452            6 
 1802000   0.96784146   -4.3563526    1251.4985   0.05787544  0.057812209            2 
 1803000   0.96051392   -4.3846569    1247.6194  0.057664049  0.057801046            1 
 1804000   0.94175017   -4.3804025    1251.9693  0.057833025  0.057789547            4 
 1805000   0.95737264   -4.3863197    1254.7766  0.057930589  0.057778079            2 
 1806000   0.94690342   -4.3465344    1251.4685  0.057745872  0.057766598            3 
 1807000    0.9783107   -4.3522704    1254.3381  0.057846249  0.057755405            7 
 1808000   0.97075551   -4.3772939    1252.9316  0.057749428  0.057743811            3 
 1809000   0.94980155   -4.3753831    1248.9803  0.057535483  0.057732486            4 
 1810000     0.965735   -4.3586148     1255.124  0.057786557  0.057721194            4 
 1811000   0.96557244    -4.358737    1252.4182  0.057630141  0.057709751            4 
 1812000   0.97485848    -4.397075    1251.5442  0.057558139  0.057698416            3 
 1813000   0.94807219    -4.371325    1255.7912  0.057721602  0.057686839            4 
 1814000   0.98034448   -4.4200259    1252.4706  0.057537238  0.057675352            7 
 1815000   0.95748041   -4.3950947    1256.4514  0.057688308  0.057663828            3 
 1816000   0.95629237   -4.4186646    1255.0195  0.057590835  0.057652339            3 
 1817000   0.95553415    -4.408296    1260.2183  0.057797576  0.057640955            5 
 1818000   0.97712717   -4.3658146    1262.5096   0.05787081  0.057629721            4 
 1819000   0.94988548   -4.3637837    1259.0626  0.057681078  0.057618642            6 
 1820000   0.96662065   -4.4031813    1256.2973  0.057522771   0.05760726            8 
 1821000   0.96952734   -4.3915683    1263.8975  0.057838984  0.057596049            4 
 1822000   0.93904488   -4.3683179    1259.4685  0.057604669  0.057584848            3 
 1823000   0.95989313   -4.3862718    1260.7697  0.057632552  0.057573675            4 
 1824000   0.94320553   -4.3862229    1258.1569  0.057481586  0.057562308            4 
 1825000   0.97052306   -4.3536609    1257.5101  0.057420553  0.057551098            2 
 1826000   0.94949196   -4.3648798    1261.8068  0.057585195  0.057539894            3 
 1827000   0.94976039   -4.3891345    1260.5713  0.057497323  0.057528403            4 
 1828000   0.95241885   -4.3770213    1264.5296  0.057646318  0.057517173            2 
 1829000   0.97026932   -4.3822886     1261.843   0.05749239  0.057505743            2 
 1830000   0.94637688   -4.3910485     1264.265  0.057571264  0.057494494            2 
 1831000   0.95945829   -4.3779935    1261.9126  0.057432761  0.057483339            3 
 1832000   0.95374997   -4.3678503    1268.6061   0.05770588  0.057472196            5 
 1833000   0.96433707   -4.3815488    1266.7727  0.057591048  0.057461199            4 
 1834000   0.95636363    -4.370376    1269.6675   0.05769118  0.057450185            3 
 1835000   0.95049996   -4.3819164    1267.4009  0.057556808   0.05743919            2 
 1836000   0.96240768   -4.3892437    1268.6387  0.057581641  0.057428021            4 
 1837000   0.94813894   -4.3900071    1271.2668  0.057669517  0.057416734            3 
 1838000   0.96165809   -4.3907662    1269.2251   0.05754557  0.057405833            7 
 1839000   0.95445082   -4.3613211    1265.8501  0.057361342  0.057394859            6 
 1840000   0.94204959   -4.3849322    1267.7781  0.057417487  0.057383781            4 
 1841000   0.94147656   -4.3773426    1269.8967  0.057482195  0.057372614            2 
 1842000    0.9553504   -4.4046269    1269.5261  0.057434226  0.057361663            3 
 1843000   0.93865487   -4.4113344    1268.3883  0.057351613  0.057350347            4 
 1844000   0.96947877   -4.3780979    1275.0716  0.057622541  0.057339242            2 
 1845000   0.94694548   -4.3972579    1275.9932  0.057632937   0.05732844            5 
 1846000   0.95657256   -4.3886684     1274.236  0.057522389  0.057317713            2 
 1847000   0.97385068   -4.3617724    1274.3063  0.057494418  0.057306876            3 
 1848000   0.95120517     -4.38615    1269.9426  0.057266529  0.057296049            7 
 1849000   0.94999995   -4.3815893    1273.3722  0.057390129  0.057285261            3 
 1850000   0.95719756   -4.3909029    1277.4908  0.057544632  0.057274407            2 
 1851000   0.95522622   -4.3998271    1275.2469  0.057412518  0.057263631            2 
 1852000   0.96054807    -4.392803    1276.1094   0.05742033  0.057252847            2 
 1853000   0.94950981   -4.3824154    1276.8889  0.057424395  0.057241867            3 
 1854000   0.96193079   -4.3666099    1281.5154  0.057601376  0.057230891            4 
 1855000   0.95718344   -4.4031469    1275.8916  0.057317683   0.05721995            2 
 1856000   0.92077068   -4.3903402    1275.0141  0.057247402  0.057208873            3 
 1857000   0.96490288   -4.3720136    1278.4376  0.057370201  0.057197839            6 
 1858000   0.95765506   -4.3936381     1276.619  0.057257758  0.057187022            5 
 1859000   0.97875297   -4.4192095    1277.1788  0.057252051  0.057176022            4 
 1860000   0.95675175   -4.4041221    1276.9507  0.057211051  0.057164938            4 
 1861000   0.94471176   -4.3920533    1276.4914  0.057159744  0.057153942            3 
 1862000   0.94894828   -4.4063615     1273.184  0.056981022  0.057142823           10 
 1863000    0.9651421    -4.388738    1279.3946  0.057228242  0.057131728            3 
 1864000   0.97875069   -4.3937277    1280.9923  0.057268971  0.057120984            2 
 1865000   0.94800563    -4.388869    1285.4752  0.057438572   0.05711022            3 
 1866000   0.94860942   -4.3737043    1289.6626  0.057594791  0.057099293            4 
 1867000   0.94355438   -4.3874594    1284.4357  0.057330641  0.057088577            8 
 1868000   0.94374413   -4.4052616    1284.7191  0.057312593  0.057077615            4 
 1869000   0.94270413    -4.393352    1283.3111  0.057219152  0.057066701            2 
 1870000   0.95372855   -4.4124702    1285.2974  0.057277067  0.057055622            3 
 1871000   0.94781652   -4.4201438    1284.2197  0.057198455  0.057044782            4 
 1872000    0.9557869   -4.4174491    1283.7878  0.057148673  0.057033747            3 
 1873000   0.95184624   -4.3774402    1286.3092  0.057230342  0.057023134            4 
 1874000   0.92061912   -4.3837054     1291.304  0.057421915  0.057012384            2 
 1875000   0.95419648   -4.4104149    1285.4541  0.057131295  0.057001539            5 
 1876000   0.94281219   -4.3961666    1288.0442  0.057215892  0.056990812            2 
 1877000   0.95289142   -4.4069377    1284.3288  0.057020458  0.056979956            2 
 1878000    0.9541965   -4.4073673     1287.224  0.057118567  0.056969163            3 
 1879000   0.94230129   -4.3849712    1290.0527   0.05721362  0.056958533            5 
 1880000   0.97933056   -4.3830894    1287.1951   0.05705652  0.056947734            5 
 1881000   0.96774113    -4.398982     1288.175  0.057069601  0.056936948            6 
 1882000   0.94903071   -4.4111891    1291.2142   0.05717385   0.05692618            5 
 1883000   0.95042865   -4.4158343    1291.0576  0.057136555  0.056915409            6 
 1884000   0.96616172    -4.411351    1291.1351  0.057109655  0.056904668            5 
 1885000   0.93530527   -4.3900044    1287.6834  0.056926763  0.056893648            6 
 1886000   0.94950905   -4.3859838    1291.3973  0.057060678  0.056882894            4 
 1887000   0.94755319   -4.3761512    1291.7716  0.057046971  0.056872208            3 
 1888000   0.94773932   -4.4019561    1295.2733  0.057171314  0.056861256            1 
 1889000   0.95963187    -4.406787    1289.5266  0.056887533   0.05684994            4 
 1890000   0.94422735   -4.3800343    1295.3168  0.057112736  0.056839001            2 
 1891000   0.93528347   -4.4153412     1293.543  0.057004364  0.056828082            1 
 1892000   0.94051662   -4.4187628    1291.1835   0.05687031  0.056817064            2 
 1893000   0.95762844   -4.4045775    1295.0439   0.05701021  0.056806109            6 
 1894000   0.93781712   -4.3977206    1294.0493  0.056936347  0.056795165            3 
 1895000   0.94462313    -4.415379    1295.9734  0.056990915  0.056784032            4 
 1896000   0.95794455   -4.3957398     1296.828  0.056998417  0.056772864            4 
 1897000   0.94384643   -4.4415157    1291.4519  0.056732203  0.056761862            2 
 1898000   0.94489386   -4.4209359    1289.8637  0.056632583  0.056750569            2 
 1899000   0.95075548   -4.4401851    1296.7618  0.056905466  0.056739393            5 
 1900000   0.94409526   -4.4135341    1295.4086  0.056816169  0.056728134            4 
 1901000   0.94769183   -4.4246946    1295.4751  0.056789195  0.056716832            6 
 1902000    0.9554103   -4.4057113    1294.3122  0.056708387  0.056705465            2 
 1903000   0.92380209   -4.4186629    1298.4109  0.056858071  0.056694064            3 
 1904000    0.9527661   -4.4532421    1292.5418  0.056571333  0.056682453            3 
 1905000   0.95029297   -4.4024748    1296.7839  0.056727207  0.056671019            5 
 1906000   0.94641101   -4.3882644    1298.8358  0.056787156  0.056659932            4 
 1907000    0.9504312   -4.4146676    1298.5322  0.056744107  0.056648653            2 
 1908000   0.95820199   -4.4095402     1299.243  0.056745413   0.05663724            5 
 1909000   0.96823269   -4.4117369    1297.6672  0.056646902  0.056625763            3 
 1910000   0.94405492   -4.4136299    1294.3411  0.056472123  0.056614174            3 
 1911000    0.9466969   -4.4343357    1296.2084  0.056524002  0.056602844            2 
 1912000   0.93206318   -4.4323848    1298.9906  0.056615699  0.056591312            4 
 1913000   0.95137985   -4.4248479    1297.5688  0.056524169  0.056579851            3 
 1914000   0.95321813   -4.4230781     1296.506  0.056448363  0.056568484            3 
 1915000   0.94113991   -4.4165658    1298.5491  0.056507794  0.056557305            3 
 1916000   0.94434725    -4.419789    1302.7296  0.056660125   0.05654609            5 
 1917000   0.96403473   -4.4019933    1301.0099  0.056555813  0.056534759            8 
 1918000   0.95784012   -4.4132899    1304.4402  0.056675366  0.056523336            2 
 1919000   0.92952859   -4.3955667    1299.6818  0.056439196  0.056512021            4 
 1920000     0.951773   -4.3998477    1302.0376  0.056512049  0.056500642            2 
 1921000   0.94973054   -4.4127455    1299.2343  0.056361022  0.056489336            2 
 1922000   0.92909648   -4.4350562    1298.4482  0.056297614  0.056477916            3 
 1923000    0.9505106   -4.4457882    1301.2016  0.056387659  0.056466517           14 
 1924000   0.94630973   -4.3830833    1306.5189  0.056588655   0.05645528            2 
 1925000   0.95741814   -4.4019348    1307.9259  0.056620168  0.056443868            3 
 1926000   0.94370722   -4.4081481    1306.6738  0.056536595   0.05643273            3 
 1927000   0.95198628   -4.4348774    1305.0932  0.056438904  0.056421382            6 
 1928000   0.95917393   -4.4341094    1304.9877  0.056405068  0.056410058            6 
 1929000   0.94074448   -4.4220593    1307.1377  0.056468709  0.056398691            3 
 1930000   0.94767064   -4.4079519    1306.7935   0.05642459  0.056387127            5 
 1931000   0.94260437   -4.4565961    1302.2908  0.056201054  0.056375855            2 
 1932000   0.92935393   -4.4030436    1310.3853  0.056521106  0.056364619            4 
 1933000   0.93443723   -4.4059472    1304.5553   0.05624053  0.056353388            2 
 1934000   0.93053589    -4.368764    1311.5328  0.056512099  0.056342133            4 
 1935000   0.95828053   -4.4128477    1316.5563  0.056699236  0.056331059            3 
 1936000   0.94149072   -4.4050865    1311.6776  0.056459954  0.056320119            2 
 1937000   0.93988724   -4.3790985    1314.5811  0.056555718   0.05630912            3 
 1938000   0.95290339   -4.3715814    1312.4031  0.056432884  0.056298181           13 
 1939000   0.96232733   -4.4278688    1309.5651  0.056281807  0.056287055           10 
 1940000   0.95441853   -4.4391553    1309.6643  0.056257057  0.056275938            6 
 1941000   0.95597939   -4.4209472    1311.1747  0.056292918  0.056264795            2 
 1942000   0.93212574   -4.4083439    1314.4788  0.056405714  0.056253635            2 
 1943000   0.95822879   -4.4199569    1311.3062  0.056240615  0.056242731            4 
 1944000   0.92553376   -4.4401279    1310.2651  0.056167055  0.056231776            5 
 1945000   0.94618976   -4.4182302    1312.1111  0.056217272  0.056220506            3 
 1946000   0.92652426   -4.4426217    1313.2771  0.056238314   0.05620922            4 
 1947000    0.9408218   -4.4155986    1315.2739  0.056294893  0.056198013            3 
 1948000   0.94037816    -4.432309    1317.0108  0.056340298  0.056186817            3 
 1949000   0.92679406   -4.4364734    1317.1995  0.056319457  0.056175476            4 
 1950000   0.92948693   -4.4235168    1313.6203   0.05613762  0.056164217            4 
 1951000   0.94159128   -4.4042389    1313.9399  0.056122497  0.056152842            2 
 1952000   0.96463883   -4.4004936    1316.1458  0.056187919  0.056141274            3 
 1953000   0.93544089   -4.4286053     1312.769  0.056015061  0.056129978            4 
 1954000     0.928235   -4.4299535    1316.8861  0.056161979    0.0561186            4 
 1955000   0.93937494   -4.4049809    1315.3602  0.056068209  0.056107344            4 
 1956000   0.92620808   -4.3840368    1318.5096  0.056173722  0.056095934            1 
 1957000   0.94575277   -4.4315626    1317.0323  0.056082111  0.056084826            6 
 1958000   0.93142356   -4.4043063    1317.3448  0.056066771  0.056073559            6 
 1959000   0.91921953   -4.4276939    1320.9557  0.056191751  0.056062116            3 
 1960000   0.96095646   -4.4299776    1318.9001  0.056075683   0.05605085            3 
 1961000   0.95813471   -4.3853219    1325.8859  0.056343953  0.056039842            4 
 1962000   0.94885324   -4.3783775    1325.0877  0.056281333  0.056029009            2 
 1963000   0.93690483   -4.4145544    1327.8452  0.056369724  0.056018076            2 
 1964000   0.95007304   -4.3986772    1329.2844  0.056402088  0.056007202            5 
 1965000   0.93329431   -4.4265398     1319.206  0.055945973  0.055996191            4 
 1966000   0.93579908   -4.4412462    1322.7242  0.056066639   0.05598501            3 
 1967000     0.920899    -4.442319    1324.1248  0.056097475  0.055973789            3 
 1968000   0.94571412   -4.4529769    1318.4903  0.055830381   0.05596262            5 
 1969000   0.94498433   -4.4022086    1325.4424   0.05609626  0.055951753            5 
 1970000   0.93467198   -4.4185809    1326.3415  0.056105818  0.055940751            3 
 1971000   0.92976214   -4.4202377    1326.1923  0.056071042  0.055930038            6 
 1972000   0.93794722   -4.4198119    1328.1514  0.056125396  0.055919512            2 
 1973000   0.90593672   -4.4784596    1327.2557  0.056059118   0.05590868            6 
 1974000   0.93566562   -4.4232153    1330.4143  0.056164061   0.05589789            2 
 1975000   0.93410355    -4.430087    1328.4091  0.056051018  0.055887192            7 
 1976000   0.92133497   -4.4476565    1327.4259  0.055981186  0.055876371            2 
 1977000   0.93485209   -4.4464721     1332.295  0.056158108  0.055865544            4 
 1978000   0.94139524   -4.4382714    1329.2972  0.056003422  0.055854672            2 
 1979000   0.93714211   -4.4237069    1330.1242  0.056009946  0.055844092            3 
 1980000   0.93158032   -4.3904064    1334.4172  0.056162341  0.055833373            4 
 1981000   0.95087924   -4.4286072    1333.6084  0.056099965  0.055822594            5 
 1982000   0.94595821   -4.4255349    1331.5905  0.055986819  0.055811765            2 
 1983000   0.91503574   -4.4148771     1330.639    0.0559186  0.055800949            3 
 1984000   0.92960763   -4.4475039    1336.6114  0.056141273  0.055790156            5 
 1985000   0.92122943   -4.4312895    1331.3238  0.055891005  0.055779418            3 
 1986000   0.94014281   -4.4284658    1339.7383   0.05621594  0.055768491            8 
 1987000   0.94292739   -4.4134465    1332.4241  0.055880897  0.055757724            7 
 1988000    0.9162044   -4.4258169    1332.1657  0.055841957  0.055746881            4 
 1989000   0.93960209   -4.4176453     1336.693  0.056003559  0.055736103            5 
 1990000   0.94244183   -4.4384983    1335.2471  0.055914869  0.055725452            6 
 1991000   0.93579728   -4.4443366    1336.5262  0.055940325  0.055714959            4 
 1992000   0.95146948   -4.4241742    1335.3249  0.055861984  0.055704211            3 
 1993000   0.93000166   -4.4310964    1335.5812  0.055844675  0.055693424            2 
 1994000   0.94622814   -4.4289327    1338.4375  0.055936037  0.055682634            3 
 1995000   0.93928327   -4.4567051    1338.5359  0.055912108  0.055671944            3 
 1996000   0.92491054   -4.4493482    1335.1425  0.055742422  0.055661188            3 
 1997000   0.93176404   -4.4147843    1336.9697  0.055790756   0.05565051            4 
 1998000   0.93848006   -4.4436781    1338.5107  0.055827106  0.055639947            7 
 1999000   0.91959282   -4.4271125    1338.5221  0.055799652    0.0556293            5 
 2000000   0.93644659   -4.4274384    1342.0787  0.055919945  0.055618952            4 
 2001000   0.90740282   -4.4484575    1335.0517  0.055599356  0.055608266            5 
 2002000   0.93053943   -4.4564603    1341.4488  0.055837862  0.055597176            4 
 2003000   0.94395557   -4.4371177    1338.4672  0.055685937  0.055586215            7 
 2004000   0.93984334   -4.4437106    1339.2538  0.055690861  0.055575587            3 
 2005000   0.93352877   -4.4357604    1340.5604  0.055717389  0.055564814            7 
 2006000   0.95474142   -4.4385295    1343.1594  0.055797582  0.055554056            2 
 2007000   0.91927944   -4.4541727    1338.4472  0.055574124   0.05554321            5 
 2008000   0.92434691    -4.423841    1342.3684   0.05570918  0.055532379            4 
 2009000   0.93437425   -4.4254742    1347.1102   0.05587814   0.05552153            5 
 2010000   0.94115495   -4.4363569    1341.9942  0.055638235  0.055510946            5 
 2011000   0.96180224   -4.4415057    1344.1362  0.055699327  0.055500335            4 
 2012000    0.9537843   -4.4745177    1347.3122  0.055803191  0.055489825            7 
 2013000   0.95001378   -4.4410897    1349.1672  0.055852259  0.055479013            3 
 2014000    0.9313957   -4.4524148    1350.4766  0.055878706  0.055468361            4 
 2015000   0.95394988   -4.4660697    1346.7181  0.055695537  0.055457764            4 
 2016000   0.93956489   -4.4296436    1349.2488   0.05577252  0.055447317            2 
 2017000   0.94068754   -4.4173365    1350.5189  0.055797345   0.05543688            3 
 2018000   0.94709121    -4.436506    1346.9343  0.055621669  0.055426364            4 
 2019000   0.94060415   -4.4204782    1354.5749  0.055909482  0.055415843            2 
 2020000   0.90868785   -4.4113733    1350.4988  0.055713648  0.055405643            2 
 2021000   0.93224386   -4.4530544    1350.3725  0.055680871  0.055395142            6 
 2022000     0.897706   -4.4293922    1353.2074   0.05577017  0.055384497            2 
 2023000   0.91957965     -4.45878    1350.7406  0.055640988  0.055373823            3 
 2024000   0.94317389   -4.4036692    1352.5675  0.055688715  0.055363185            3 
 2025000   0.95544807   -4.4374931    1356.6509  0.055829255  0.055352605            6 
 2026000    0.9367527   -4.4199991    1357.2103  0.055824708  0.055342184            3 
 2027000   0.92729465   -4.4830631    1347.2566  0.055387956  0.055331551            5 
 2028000   0.93579581   -4.4095393    1351.5776  0.055538198  0.055320954            3 
 2029000   0.92362829   -4.4344553    1350.0425  0.055447779  0.055310352            5 
 2030000   0.92813577     -4.46487    1351.4966  0.055480156  0.055299679            4 
 2031000    0.9192982    -4.425332    1355.8435  0.055631195  0.055289108            3 
 2032000   0.93718397   -4.4685753    1356.8737  0.055646066  0.055278366            9 
 2033000   0.93006306   -4.4497821    1354.1276  0.055506131  0.055267854            3 
 2034000   0.94096129     -4.43396     1352.939  0.055430147  0.055257276            4 
 2035000   0.92792904   -4.4599144    1352.1809  0.055371862  0.055246609            4 
 2036000   0.92164776   -4.4353625    1352.4894  0.055357292   0.05523588            3 
 2037000   0.93929226   -4.4293315    1352.8273  0.055343942  0.055224977            2 
 2038000   0.93209556   -4.4380148    1358.3223  0.055541476   0.05521427            2 
 2039000   0.92419981    -4.442404    1354.8777  0.055373454  0.055203434            6 
 2040000   0.91354411    -4.433649    1358.1976  0.055481928  0.055192434            4 
 2041000   0.91581982   -4.4658619     1350.241  0.055129877  0.055181526            3 
 2042000   0.93133186   -4.4335344    1356.2298  0.055347281  0.055170714            3 
 2043000   0.94827719   -4.4438206    1355.4709  0.055289237  0.055159849            4 
 2044000   0.92134987   -4.4635093    1353.7418   0.05519169  0.055149057            5 
 2045000     0.910937   -4.4572439    1356.3705  0.055271823  0.055138133            3 
 2046000   0.90975482   -4.4553414    1354.3338  0.055161854  0.055127322            3 
 2047000   0.92366954    -4.425313    1357.6799  0.055271123   0.05511648            4 
 2048000   0.92528969   -4.4409727    1357.6056  0.055241113   0.05510563            4 
 2049000   0.90968294   -4.4539666    1357.4626  0.055208339  0.055094525            5 
 2050000   0.93515178   -4.4846171    1353.7537  0.055030639  0.055083515            5 
 2051000   0.92007025   -4.4365657    1362.1106  0.055343351  0.055072634            6 
 2052000   0.89230718   -4.4280975     1365.462  0.055452485  0.055061921            6 
 2053000   0.92616278   -4.4409645    1362.4785  0.055304371  0.055050928            6 
 2054000   0.89553294   -4.4549041    1356.8154  0.055047687  0.055040001           10 
 2055000   0.91536271   -4.4324656    1366.0414  0.055395028  0.055029162            3 
 2056000   0.92027033     -4.44416    1365.3976  0.055341992   0.05501848            5 
 2057000   0.92327028   -4.4629871     1357.649  0.055001175    0.0550076            6 
 2058000   0.89660339   -4.4491489    1364.1129  0.055236189  0.054996757            4 
 2059000   0.91107813   -4.4665301    1362.4571  0.055142348  0.054985969            4 
 2060000    0.9255705   -4.4474387    1363.8791  0.055173101  0.054975236            3 
 2061000    0.9085614   -4.4509156    1366.3143  0.055244796   0.05496439            5 
 2062000   0.90875205   -4.4143325    1365.5267  0.055186175  0.054953646            4 
 2063000   0.92819304   -4.4727095    1361.1341  0.054981988  0.054942771            5 
 2064000   0.91988629   -4.4271961    1365.9749  0.055150795  0.054931976            6 
 2065000   0.92314861   -4.4475828      1365.11  0.055089184  0.054921298            7 
 2066000   0.91852793   -4.4815195    1365.2755  0.055069197  0.054910423            3 
 2067000   0.93154686   -4.4569398    1368.6436  0.055178341  0.054899497            3 
 2068000   0.92725044   -4.4652555      1366.62  0.055070114  0.054888703            3 
 2069000   0.91714197   -4.4524054    1367.1327   0.05506415  0.054878145            3 
 2070000   0.91874987   -4.4375521    1364.8954  0.054947481  0.054867459            3 
 2071000    0.9363494   -4.4499022    1370.0662  0.055129011  0.054856496            4 
 2072000   0.92980639     -4.44426     1371.195  0.055147806  0.054845933            5 
 2073000   0.92284058   -4.4546322    1367.6726  0.054979604  0.054835219            4 
 2074000   0.90667792   -4.4555499     1373.244  0.055176953  0.054824481            2 
 2075000   0.93108295   -4.4583281    1376.4167  0.055277779   0.05481382            5 
 2076000   0.92119653   -4.4354582    1374.6454  0.055180051  0.054803307            4 
 2077000   0.93920584   -4.4683577    1373.8117  0.055120034  0.054792756            5 
 2078000   0.92092779   -4.4502437    1376.2598  0.055191684  0.054782209            5 
 2079000   0.91048621   -4.4829421    1370.3036  0.054926392  0.054771682            2 
 2080000   0.90064716    -4.444824     1374.767  0.055078805  0.054761229            2 
 2081000   0.92396138    -4.465648     1376.761   0.05513219  0.054750786            7 
 2082000   0.92439092   -4.4940493    1373.7939  0.054986948  0.054740314            2 
 2083000   0.90678388   -4.4469116    1379.8187   0.05520158  0.054729694            3 
 2084000   0.90690975   -4.4415251    1381.7004  0.055250334  0.054719275           11 
 2085000   0.90167951   -4.4451281       1374.9  0.054952037  0.054708814            4 
 2086000   0.94109355   -4.4851318    1373.5557  0.054871992  0.054698387            3 
 2087000   0.90548683   -4.4718366    1373.5147  0.054844061  0.054687834            6 
 2088000   0.93736216    -4.443414    1382.3017  0.055168492  0.054677323            6 
 2089000   0.93110805   -4.4374092    1376.0064  0.054890951  0.054666995            7 
 2090000   0.90701167    -4.472143    1380.4154  0.055040485  0.054656463            5 
 2091000   0.91401791    -4.471017    1375.3217  0.054811165  0.054646041            4 
 2092000   0.93366201   -4.4781099    1380.9784  0.055010292  0.054635566            6 
 2093000   0.91847674   -4.4328316    1387.1971  0.055231611  0.054625163            4 
 2094000   0.92051333   -4.4287386    1385.3467  0.055131595  0.054614782            5 
 2095000   0.93737066   -4.4288178    1380.9713  0.054931235  0.054604487            4 
 2096000   0.92578747   -4.4725374    1379.4703   0.05484535  0.054593894            2 
 2097000   0.92298927   -4.4247298    1380.4026  0.054856245  0.054583268            2 
 2098000   0.91933765   -4.4678847    1381.0986  0.054857746  0.054572776            3 
 2099000   0.93286614   -4.4663874    1381.3741  0.054842549  0.054562037            3 
 2100000   0.92925622   -4.4552105    1381.9456  0.054839111  0.054551423            4 
 2101000   0.93260399   -4.4651525    1383.4471  0.054872563  0.054540968            8 
 2102000   0.89359062    -4.466643    1381.8544  0.054783316  0.054530478            3 
 2103000   0.92359692   -4.4620047    1384.0799  0.054845455  0.054519964            2 
 2104000   0.90959627   -4.4632045     1378.972  0.054617079  0.054509331            2 
 2105000   0.90033154   -4.4705942    1379.9258   0.05462889  0.054498678            2 
 2106000   0.88660414   -4.4605579    1385.4196   0.05482034  0.054488011            7 
 2107000   0.92390304   -4.4319669    1384.8388  0.054771351  0.054477386            2 
 2108000   0.89184172   -4.4412678    1384.5152  0.054732574  0.054466751            4 
 2109000   0.89968065   -4.4409733     1376.571  0.054392722  0.054455994            5 
 2110000   0.90271298   -4.4705046    1382.4704  0.054599938  0.054445272            5 
 2111000   0.91296008   -4.4520673    1382.9003  0.054591043  0.054434613            4 
 2112000   0.91168626   -4.4527229    1381.8593  0.054524122  0.054423971            4 
 2113000   0.90328525   -4.4477477    1385.8484  0.054655638  0.054413073            2 
 2114000   0.91869982    -4.478409    1380.4027  0.054415118  0.054402244            4 
 2115000   0.95409389   -4.4499432    1386.3159  0.054622377  0.054391405            3 
 2116000   0.93737526   -4.4468566    1381.5947  0.054410631  0.054380354            3 
 2117000   0.91810562   -4.4723883    1387.1307  0.054602846  0.054369601            5 
 2118000   0.90336606   -4.4641948    1380.5854   0.05431954  0.054358728            4 
 2119000   0.90419386   -4.4671257    1382.9263  0.054385963  0.054347903            5 
 2120000    0.9324106   -4.4769891    1386.0112  0.054481571  0.054337024            5 
 2121000   0.93020127    -4.462374    1390.2644  0.054622991  0.054326165            4 
 2122000   0.91581764   -4.4837094     1385.928  0.054426956  0.054315308            4 
 2123000   0.91147209   -4.4479231    1392.8018  0.054671134   0.05430446            4 
 2124000   0.92781324   -4.4515414    1390.8707   0.05456963  0.054293763            5 
 2125000   0.91318533   -4.4494044    1387.9847  0.054430774  0.054283057            7 
 2126000   0.92553621   -4.4356426    1389.1598   0.05445123  0.054272333            3 
 2127000   0.92374407   -4.4747269    1381.9011  0.054141244  0.054261485            2 
 2128000   0.92027463   -4.4676341    1388.1351  0.054359927  0.054250634            4 
 2129000   0.90819988   -4.4849562    1389.8333  0.054400864   0.05423986           10 
 2130000   0.91373584   -4.4797654    1391.2012  0.054428841  0.054229321            5 
 2131000   0.90811776   -4.4541755    1397.5079  0.054649924  0.054218554            3 
 2132000   0.91373542   -4.4934741    1391.5076  0.054389757  0.054207973            4 
 2133000   0.92253281   -4.4790882    1391.7337  0.054373095  0.054197243            6 
 2134000   0.89443506   -4.4471881    1394.2812  0.054447094  0.054186407            8 
 2135000   0.89517684   -4.4653741    1397.7576  0.054557282  0.054176005            7 
 2136000    0.9103857   -4.4686358    1395.3706  0.054438617  0.054165566            4 
 2137000   0.91910941   -4.4686943    1399.4056  0.054570489  0.054155116            5 
 2138000   0.91151077   -4.5093275    1393.3135  0.054307513  0.054144455            3 
 2139000   0.91811986   -4.4724299    1392.5846  0.054253726  0.054133763            3 
 2140000   0.92343468   -4.4923354    1392.0263  0.054206632  0.054123113            4 
 2141000   0.88984807   -4.4669119    1396.5866  0.054358812  0.054112239            4 
 2142000   0.92390493   -4.4959815    1395.0671  0.054274319  0.054101645            3 
 2143000   0.90987713   -4.4894811    1395.4819  0.054265122  0.054091029            5 
 2144000   0.90912116   -4.5038593    1391.9067  0.054100849  0.054080446            3 
 2145000   0.90000297    -4.492567     1394.688  0.054183684  0.054069688            5 
 2146000   0.90264482   -4.4684749    1397.3801  0.054262974   0.05405896            2 
 2147000   0.89867251    -4.489939    1397.3514  0.054236587  0.054048195            6 
 2148000   0.89761205   -4.4828694    1395.9178   0.05415572  0.054037528            5 
 2149000   0.91944871   -4.5024092    1398.9133  0.054246678  0.054026808            4 
 2150000   0.90998474   -4.4821987    1402.8128   0.05437259  0.054016059            3 
 2151000   0.89649608   -4.4862715    1402.2425  0.054325218  0.054005507            7 
 2152000   0.88993743   -4.4585228    1390.6106  0.053849544  0.053994671            7 
 2153000   0.90024129   -4.4921612    1400.3081   0.05419988  0.053983734            3 
 2154000   0.88685285   -4.4741653    1403.1442   0.05428444  0.053972921            3 
 2155000   0.92017289   -4.4736988    1400.6103  0.054161264  0.053962064            2 
 2156000    0.9254388   -4.4717098    1395.1281  0.053924246  0.053951227            4 
 2157000   0.90564212   -4.4450004    1402.0109  0.054165158  0.053940261            7 
 2158000   0.91258375   -4.4929484    1403.0529  0.054180296   0.05392942            2 
 2159000   0.91444385   -4.4566764    1405.0519  0.054232358  0.053918477            4 
 2160000   0.89219527   -4.5213065    1399.3334  0.053986626  0.053907728            4 
 2161000   0.94393887   -4.4573092    1403.3924   0.05411817  0.053896728            2 
 2162000   0.91506213   -4.4627421     1403.292  0.054089269  0.053885935            3 
 2163000   0.87086536   -4.4660438    1400.0451   0.05393917  0.053875061            2 
 2164000   0.90444755   -4.5076047    1402.7743  0.054019342   0.05386424            5 
 2165000   0.90233966    -4.477931    1401.0621  0.053928488  0.053853359            3 
 2166000   0.89508155   -4.4534091     1406.576  0.054115727   0.05384262            7 
 2167000   0.94773874   -4.4697981     1404.228   0.05400046  0.053831872            4 
 2168000   0.89968835   -4.4768535    1405.0443  0.054006929  0.053821138            3 
 2169000   0.92327833   -4.4716132    1406.0122  0.054019216  0.053810338            2 
 2170000   0.91016213   -4.4610991    1409.2112  0.054117174  0.053799416            2 
 2171000   0.92580192   -4.4680885    1405.9851  0.053968413  0.053788627            4 
 2172000   0.90150888   -4.4787347    1401.3148  0.053764381  0.053777794            3 
 2173000    0.8913394     -4.48271    1403.4437  0.053821279  0.053766832            3 
 2174000    0.8904695   -4.4635185    1403.9415  0.053815606  0.053755721            4 
 2175000   0.88740333   -4.4915382    1409.6659  0.054010189  0.053744754            4 
 2176000   0.90283311   -4.5131829    1397.9935  0.053538353  0.053733567            5 
 2177000   0.88767811   -4.4745313    1408.0965  0.053900495  0.053722561            3 
 2178000   0.88859543   -4.4738831    1408.9857  0.053909767  0.053711749            2 
 2179000   0.89634008   -4.4604652     1405.445  0.053749617  0.053700786            3 
 2180000    0.8937195   -4.4694343    1405.6583  0.053733115  0.053689887            7 
 2181000    0.9129736   -4.4949574    1410.2427  0.053883643  0.053678947            4 
 2182000   0.90456779   -4.4598041    1408.3031  0.053784874  0.053668049            3 
 2183000   0.92147965   -4.4853662    1410.2282  0.053833722  0.053657275            3 
 2184000   0.89318535    -4.493906    1410.3826  0.053814967  0.053646268            5 
 2185000   0.88974338    -4.485562    1409.1298  0.053742553  0.053635451            8 
 2186000   0.90258231   -4.5302217     1406.051  0.053600601   0.05362443            3 
 2187000   0.90764706   -4.4750528    1409.8847  0.053722174  0.053613345            5 
 2188000   0.90842168   -4.4535901    1412.6033  0.053801161  0.053602503            2 
 2189000   0.90965896   -4.4765826     1408.872  0.053634537  0.053591654           10 
 2190000   0.91971505   -4.4899091    1408.1557   0.05358279  0.053580761            5 
 2191000   0.87861129   -4.4716018    1414.4988  0.053799589  0.053569815            7 
 2192000   0.88810575   -4.4848969    1411.5018   0.05366111  0.053558893           13 
 2193000   0.87964209   -4.4773916     1409.023  0.053542446  0.053547831            4 
 2194000   0.88645576   -4.4901054    1412.6133  0.053654409  0.053536686            3 
 2195000   0.89258172   -4.4939114    1411.2897  0.053579716  0.053525658            3 
 2196000   0.90733624   -4.4510788    1418.5183  0.053829627   0.05351465            5 
 2197000   0.89790275   -4.4887118    1410.6072  0.053505053    0.0535037            4 
 2198000   0.89746553   -4.4901761    1411.2214  0.053503996  0.053492783            5 
 2199000   0.90556209   -4.4943678    1413.6059  0.053570027  0.053481832            4 
 2200000   0.86824173    -4.455449    1421.2188  0.053834046  0.053471014           11 
 2201000   0.91564121   -4.5106341     1410.803  0.053415228  0.053460144            5 
 2202000   0.88922671   -4.4872798    1411.1288  0.053403301  0.053449228           11 
 2203000   0.89134503   -4.5081604     1415.332  0.053538053  0.053438382            4 
 2204000   0.88094363   -4.4913581    1419.4309  0.053668742  0.053427557            3 
 2205000   0.89498621   -4.4741111    1418.1427  0.053595719  0.053416783            5 
 2206000   0.89289723   -4.4974524    1422.2237  0.053725586  0.053406007            2 
 2207000   0.91381875   -4.5122072    1413.3813  0.053367365  0.053395208            4 
 2208000   0.90188193   -4.5274391    1416.4624  0.053459482  0.053384487            7 
 2209000   0.89541415   -4.4847227    1418.1014  0.053497108  0.053373674            2 
 2210000   0.88556443   -4.5032135    1425.8389  0.053764664  0.053362916            7 
 2211000   0.91610402   -4.4933908    1420.9504  0.053556097  0.053352323            5 
 2212000   0.89555743   -4.4770954    1422.8825  0.053604675  0.053341616            5 
 2213000   0.87290502   -4.4757743    1423.6341  0.053608757  0.053330885           10 
 2214000   0.88989305   -4.5028693    1422.4693  0.053540701  0.053320298            4 
 2215000   0.90480329   -4.5116597     1422.186  0.053505869  0.053309636            5 
 2216000   0.89581489   -4.4822243    1427.5601  0.053683818  0.053299031            5 
 2217000   0.87826235   -4.4882753    1423.6819  0.053513828   0.05328852            4 
 2218000   0.89108075   -4.4920036    1428.8321  0.053683204  0.053278118            3 
 2219000   0.89780686     -4.46038     1427.695  0.053616305  0.053267708            5 
 2220000   0.89339639   -4.5215607    1423.1227   0.05342052  0.053257311            6 
 2221000   0.88572774   -4.4669315    1427.5963  0.053564321    0.0532468            4 
 2222000   0.89619545   -4.4988287    1425.9911  0.053480013  0.053236417            2 
 2223000   0.90923624   -4.4992316    1432.1613  0.053687259   0.05322601            4 
 2224000   0.88884108   -4.5008341    1428.6571  0.053531814  0.053215422            6 
 2225000   0.90149216   -4.4919813    1430.5417  0.053578342  0.053204859            4 
 2226000   0.89166687   -4.5141036    1424.4511  0.053326262  0.053194225            4 
 2227000   0.90136236   -4.4740517    1430.6607  0.053534676  0.053183757            8 
 2228000   0.91085327   -4.4874339    1425.6316  0.053322548  0.053173383            3 
 2229000   0.91252404   -4.4845082    1427.8775  0.053382589  0.053162945            3 
 2230000   0.88945491   -4.4926807    1431.4338  0.053491547  0.053152492            4 
 2231000   0.87596824   -4.4850641    1428.2074  0.053347056  0.053142016            4 
 2232000    0.8949589   -4.4774504    1434.1038  0.053543303  0.053131488            5 
 2233000    0.9073642   -4.4993606    1429.0608  0.053331126  0.053120974            2 
 2234000   0.90166886   -4.4979219    1434.0399  0.053492984   0.05311045            5 
 2235000   0.90126015   -4.4628734    1432.3004   0.05340419  0.053099775            5 
 2236000   0.89644067    -4.466412    1432.0665   0.05337159   0.05308917            3 
 2237000   0.88247349   -4.5291263    1426.4014  0.053136695  0.053078515            4 
 2238000   0.89258808   -4.5066266    1428.4252  0.053188307  0.053067792            2 
 2239000   0.90187812   -4.4841746    1435.2269  0.053417705  0.053057259            7 
 2240000    0.8752271   -4.5286774    1433.3336  0.053323422  0.053046606            4 
 2241000   0.90446163   -4.4829686    1430.1543  0.053181404  0.053036016            2 
 2242000    0.8958297   -4.4959272    1433.5568  0.053284153  0.053025271            2 
 2243000   0.86858945   -4.4874818    1433.5085    0.0532586   0.05301462            4 
 2244000   0.87817435   -4.5374824    1432.9527  0.053214227  0.053003779            8 
 2245000   0.91008047   -4.4930935    1438.3217  0.053389817  0.052993145            3 
 2246000   0.88981673   -4.4971836    1433.1817  0.053175337  0.052982349            6 
 2247000   0.88136292   -4.5262554    1432.1217  0.053112362  0.052971579            6 
 2248000    0.8983956   -4.5335963     1431.136  0.053052196  0.052960766            6 
 2249000   0.89720454   -4.5013023    1430.8473  0.053017906  0.052949945            5 
 2250000    0.9004725   -4.4787722    1433.7666  0.053102466  0.052939276            3 
 2251000   0.89319369   -4.5282415    1432.4392  0.053029734  0.052928487            6 
 2252000   0.87603225   -4.5416176    1429.6613  0.052903392  0.052917583            4 
 2253000   0.88662506   -4.5062631     1436.293  0.053125203  0.052906545            5 
 2254000   0.90338281   -4.4620129      1438.84    0.0531958  0.052895863            3 
 2255000   0.90101967   -4.5040156    1434.7734  0.053021931  0.052885104            4 
 2256000   0.88446707   -4.4906952    1433.9783  0.052969058  0.052874381            4 
 2257000   0.89758613   -4.5299053     1436.236  0.053028948  0.052863559            3 
 2258000   0.87972823   -4.5011298    1435.0673  0.052962329  0.052852747            4 
 2259000   0.89506708   -4.4982485    1438.7916  0.053076272  0.052841995            6 
 2260000   0.89639346   -4.4951056    1438.8648  0.053055488  0.052831204            6 
 2261000   0.88161551    -4.524169    1438.6018  0.053022326  0.052820529            4 
 2262000   0.88859282   -4.5229096    1438.3153  0.052988334  0.052809774            2 
 2263000   0.89673195   -4.5043835    1443.3397  0.053149938  0.052799087            4 
 2264000   0.89067173   -4.5075743     1439.335  0.052979056  0.052788492            4 
 2265000   0.88515361   -4.5201371    1445.4791  0.053181718  0.052777952            4 
 2266000   0.88313764   -4.5316408     1438.739  0.052910378  0.052767341            6 
 2267000    0.8830258   -4.5231274     1448.187  0.053234341  0.052756723            3 
 2268000   0.90549932    -4.512284    1445.4674  0.053110942  0.052746186            4 
 2269000   0.89267265   -4.5009345    1445.1903  0.053077359  0.052735653            8 
 2270000   0.88943852    -4.538131    1444.7474  0.053037717  0.052725004            8 
 2271000   0.89792686   -4.5135445    1444.4655  0.053004017  0.052714439            6 
 2272000   0.88459322   -4.4997529    1441.9681  0.052889088  0.052703831            4 
 2273000   0.88458423   -4.5100338    1442.7101  0.052893023  0.052693118            3 
 2274000   0.89245592   -4.5154484    1441.7211  0.052833521  0.052682561            6 
 2275000   0.88719146   -4.5150203    1441.4936  0.052801964  0.052671884            4 
 2276000   0.90067777   -4.5278974    1441.6616  0.052784916    0.0526612            8 
 2277000   0.89289986   -4.5318362    1441.8878   0.05277001    0.0526505            7 
 2278000   0.89379505   -4.5061521    1445.0953  0.052864181  0.052639929            3 
 2279000   0.88308311   -4.4867337     1445.302  0.052848545  0.052629196            5 
 2280000   0.90323651   -4.4916511    1441.5527   0.05268833   0.05261849            5 
 2281000   0.88317217   -4.5315548    1440.5166  0.052627379  0.052607726            5 
 2282000   0.87268082   -4.5062367    1449.1913  0.052921097  0.052597153            6 
 2283000   0.86986839   -4.5159152    1449.6314  0.052913982  0.052586397            4 
 2284000   0.88226487   -4.5251393    1444.5464  0.052705282  0.052575842            3 
 2285000   0.89219874   -4.5208307    1445.1906  0.052705711  0.052565042            5 
 2286000   0.88257533   -4.5100718     1450.471  0.052875146  0.052554148           11 
 2287000   0.90634065   -4.5133889    1442.4884  0.052561156  0.052543363            3 
 2288000   0.87604391   -4.4959954    1447.9121  0.052735725  0.052532472            6 
 2289000   0.89229818   -4.5532492    1439.6904   0.05241337  0.052521521            3 
 2290000   0.89868551   -4.4877318     1446.537  0.052639629  0.052510485            6 
 2291000   0.89747307   -4.5218868    1449.2089   0.05271384  0.052499634            4 
 2292000   0.88329293   -4.5243741    1449.0777  0.052686072  0.052488752            5 
 2293000   0.87971575   -4.4916412    1448.9244  0.052657521  0.052478022            4 
 2294000    0.8719474   -4.5257083    1444.8594  0.052486902  0.052467211            2 
 2295000   0.90539713   -4.5013463    1453.8965  0.052792176  0.052456384            3 
 2296000   0.88887285   -4.5178244    1445.8536  0.052477266   0.05244541            4 
 2297000   0.87639124   -4.5191091    1451.8299  0.052671235  0.052434621            5 
 2298000   0.87815105   -4.5363322    1447.7345  0.052499801  0.052423845            2 
 2299000   0.88253518   -4.5245702    1447.9317  0.052484111   0.05241295            3 
 2300000   0.88210757   -4.5191033    1449.9989  0.052536193  0.052401911            5 
 2301000   0.89019621   -4.5124051    1448.4074  0.052455721  0.052390978            2 
 2302000   0.89812244   -4.5399729    1451.8528  0.052557659  0.052380042            2 
 2303000   0.88006214   -4.5329775    1448.9927  0.052431347  0.052368958            5 
 2304000   0.88395843   -4.5040679    1451.1828  0.052487803  0.052358012            2 
 2305000   0.89197609   -4.5164685    1449.9072  0.052418916  0.052346993            4 
 2306000   0.85773248   -4.4977644    1447.3986  0.052305528  0.052335912            8 
 2307000   0.88912879   -4.5142241    1450.2619  0.052386284  0.052324829            7 
 2308000   0.88139587   -4.5259809    1449.3394  0.052330278   0.05231353            5 
 2309000   0.87140375    -4.517151    1452.0921  0.052406961  0.052302427            6 
 2310000   0.88643591   -4.5285262    1444.8707  0.052123764  0.052291301            3 
 2311000   0.87729509   -4.4940444    1449.6374  0.052273094  0.052280203            3 
 2312000   0.88638824   -4.5526712    1447.1762   0.05216177  0.052269075            4 
 2313000   0.88468848   -4.5223278    1452.0898  0.052316249  0.052257963            8 
 2314000    0.8916785   -4.4888247    1454.7044  0.052387798  0.052246777            7 
 2315000   0.89768497   -4.4977728    1455.7169  0.052401618  0.052235816            5 
 2316000   0.88765591    -4.515962     1454.116  0.052321389  0.052224703            6 
 2317000   0.87693387   -4.5140298     1453.807  0.052287692  0.052213684            3 
 2318000   0.87532249   -4.5318505     1455.121  0.052312376  0.052202542            3 
 2319000   0.88733954   -4.5014613    1450.5833  0.052126753  0.052191349            3 
 2320000   0.87671144   -4.5085157    1452.3372  0.052167286  0.052180194            2 
 2321000   0.86481652   -4.5199455     1456.322   0.05228788  0.052169071            3 
 2322000   0.87898843   -4.5374679    1451.3013  0.052085175  0.052157944            2 
 2323000   0.88237782   -4.5215538    1457.9357  0.052300751  0.052146723            8 
 2324000   0.87783314   -4.5106626    1453.1492  0.052106611  0.052135747            8 
 2325000   0.89116671   -4.5129385    1455.5135  0.052168941  0.052124738            3 
 2326000   0.89137463   -4.5401053    1459.9258  0.052304594  0.052113688            4 
 2327000   0.87214948   -4.5529292    1452.9878  0.052033654   0.05210253            4 
 2328000   0.85591944   -4.5210177    1454.6549  0.052070981  0.052091359            4 
 2329000   0.87706536   -4.5071346    1459.2359  0.052212535  0.052080081           11 
 2330000   0.87353635    -4.553959    1457.4158   0.05212503  0.052068846            4 
 2331000   0.87584235   -4.4972185    1460.6441   0.05221808  0.052057588            6 
 2332000   0.86379371   -4.5397574    1458.6475  0.052124339  0.052046391            6 
 2333000   0.88831251   -4.5205585    1461.6346  0.052208692  0.052035307            4 
 2334000   0.88596974   -4.5338468    1459.6312  0.052114797  0.052024064            4 
 2335000   0.86575504   -4.5472504    1456.2357  0.051971297  0.052012726            5 
 2336000    0.8781607   -4.5393812     1456.539  0.051959869  0.052001474            3 
 2337000   0.87907281   -4.5465901    1462.3868  0.052146157  0.051990329            1 
 2338000   0.87544645   -4.5160988    1462.2693  0.052119665   0.05197912            4 
 2339000   0.86896327   -4.5427297    1461.2712   0.05206182  0.051968259            6 
 2340000   0.88070209   -4.5403516    1459.3245  0.051970247  0.051957241            6 
 2341000   0.89309138   -4.5454606    1461.9454  0.052041344  0.051946191            6 
 2342000   0.87841262   -4.5270645    1457.7951  0.051871445   0.05193524            6 
 2343000   0.86844893   -4.5131646    1461.1911  0.051970092  0.051924241            6 
 2344000   0.88984794   -4.5336276    1460.4019  0.051919863  0.051913074            5 
 2345000   0.86630006    -4.533185    1463.6525  0.052013238  0.051901862            3 
 2346000   0.85735545     -4.53127    1461.6106  0.051918534   0.05189072            4 
 2347000   0.88710425   -4.5392786    1465.2732  0.052026458  0.051879778            5 
 2348000   0.86388745   -4.5312582    1463.3776  0.051937024  0.051868658            6 
 2349000   0.87967691   -4.5258384    1466.0447  0.052009532    0.0518576            5 
 2350000   0.88022158   -4.5392162     1461.955  0.051842377  0.051846439            5 
 2351000   0.85933794   -4.5299139    1468.9153  0.052067039  0.051835378            4 
 2352000   0.87048208   -4.5294569    1467.2071  0.051984379   0.05182435            4 
 2353000   0.88041395   -4.5072927    1470.7604  0.052088129  0.051813452            2 
 2354000   0.87125153   -4.5602916    1462.8793  0.051787004  0.051802331            2 
 2355000    0.8782013   -4.5215003    1467.2592  0.051919999  0.051791237            4 
 2356000   0.87215779   -4.5399191    1462.8526  0.051742098  0.051780203            3 
 2357000   0.86949565   -4.5254656     1465.435  0.051811447  0.051769036            2 
 2358000   0.88867204   -4.5332235     1468.393  0.051894013  0.051757938            3 
 2359000   0.89105957   -4.4959629    1473.2265  0.052042763  0.051746938            4 
 2360000   0.86237618   -4.5406576    1464.2665  0.051704327  0.051735977           10 
 2361000   0.86212339   -4.5168579    1471.7083   0.05194509  0.051724905            3 
 2362000   0.87914739   -4.5411848    1461.0069  0.051545543  0.051713693            5 
 2363000   0.87602306   -4.5485562     1459.008  0.051453236  0.051702411            4 
 2364000   0.88957599   -4.5112312    1466.0536  0.051679838   0.05169113            5 
 2365000   0.88086554   -4.5634138    1465.8627  0.051651257  0.051679787            6 
 2366000   0.86347327   -4.5276343    1469.1898  0.051746613  0.051668515            6 
 2367000   0.86412368   -4.5373231    1466.9582  0.051646183  0.051657266            4 
 2368000   0.85365658    -4.569459    1465.5794  0.051575851  0.051645784            6 
 2369000   0.87852273   -4.5462141    1464.7125  0.051523584  0.051634393            4 
 2370000   0.87881946   -4.5251531    1468.1699  0.051623413  0.051622997            6 
 2371000    0.8588765   -4.5391259     1465.921  0.051522601  0.051611763           10 
 2372000   0.87191901   -4.5212527    1473.8076  0.051777951  0.051600538            3 
 2373000   0.85804747   -4.5484661    1468.7693    0.0515792  0.051589315            5 
 2374000    0.8771993   -4.5426698    1470.5723  0.051620762  0.051578208            3 
 2375000   0.88284802   -4.5320975    1470.7027  0.051603604  0.051566902            4 
 2376000   0.88722217    -4.528328    1474.2686   0.05170695   0.05155574            6 
 2377000   0.86899484   -4.5430024    1468.2043  0.051472595  0.051544649            5 
 2378000   0.84859845   -4.5273647    1472.7239  0.051609332  0.051533434            5 
 2379000   0.85641973   -4.5473401    1470.3575  0.051504745  0.051522207            2 
 2380000   0.86018444    -4.532569    1471.8553  0.051535548  0.051511229            3 
 2381000    0.8487654   -4.5240482    1476.3371  0.051670766  0.051500195            6 
 2382000   0.87296231   -4.5568282    1469.9051  0.051424054  0.051489112            7 
 2383000   0.89120014    -4.572007    1468.7686  0.051362729   0.05147791            6 
 2384000   0.88998774   -4.5323877    1471.0587  0.051421237  0.051466712            4 
 2385000    0.8625263   -4.5364891    1472.0378  0.051433885  0.051455314            5 
 2386000   0.87238529   -4.5962545     1461.301  0.051037334  0.051443903            7 
 2387000   0.86736288    -4.522073    1471.6854  0.051378488   0.05143245            3 
 2388000   0.88138546   -4.5162388     1471.702  0.051357553  0.051421076            2 
 2389000   0.86930728   -4.5634478    1473.3606  0.051393908  0.051409728            3 
 2390000   0.87876551   -4.5653639    1467.2157  0.051158148  0.051398283           10 
 2391000   0.85723313   -4.5482384     1472.538   0.05132225   0.05138689            7 
 2392000   0.85910127   -4.5452501     1469.184  0.051183947  0.051375446            5 
 2393000   0.84542637   -4.5201664    1471.5534  0.051245067  0.051364152            7 
 2394000    0.8852199   -4.5549691     1471.813  0.051232698  0.051352826           10 
 2395000   0.86813208    -4.541467    1475.7172  0.051347155  0.051341467            6 
 2396000   0.86845767   -4.5660875    1476.3606  0.051348102  0.051330182            3 
 2397000   0.89269571   -4.5421162    1478.8483  0.051413165  0.051319012            3 
 2398000   0.88906709   -4.5583387    1473.9888  0.051222853  0.051307734           17 
 2399000   0.86261497   -4.5599596    1474.2715  0.051211322  0.051296419            6 
 2400000    0.8802206   -4.5433764    1472.9187   0.05114301  0.051285024            3 
 2401000   0.88757339   -4.5663349    1475.4989  0.051211262   0.05127366            3 
 2402000   0.87521026   -4.5624118    1473.9952  0.051137774  0.051262378            9 
 2403000   0.86583788   -4.5281348    1479.9523  0.051323077   0.05125107            7 
 2404000   0.85495416   -4.5785575    1478.1981  0.051240922  0.051239717            4 
 2405000   0.87295917   -4.5828158    1478.9324  0.051245059  0.051228381            5 
 2406000   0.87926974   -4.5396793    1476.8757  0.051152526   0.05121708            4 
 2407000   0.85134508   -4.5542696    1478.6024  0.051191055   0.05120574            4 
 2408000   0.87415513   -4.5364229    1478.9612   0.05118221  0.051194379            5 
 2409000   0.85509084   -4.5678012    1476.7981  0.051086139  0.051182946            5 
 2410000   0.85477497   -4.5733358    1475.2902    0.0510128  0.051171522            4 
 2411000   0.88192727   -4.5390742     1481.134  0.051193626  0.051159984            9 
 2412000   0.88095833   -4.5471564    1478.0287  0.051065116  0.051148674            5 
 2413000   0.87517496    -4.531133     1481.783  0.051173609  0.051137266            4 
 2414000   0.86717848   -4.5320561    1481.9324  0.051157566  0.051125936            6 
 2415000    0.8685617   -4.5196434     1481.061  0.051106315  0.051114427            3 
 2416000    0.8747632   -4.5719384    1479.8403  0.051043055  0.051102935            4 
 2417000   0.88596767   -4.5412344    1478.4487   0.05097396   0.05109151            6 
 2418000   0.85725745   -4.5452012    1479.8476  0.051001087  0.051080089            7 
 2419000   0.86674895   -4.5303678    1481.6307  0.051041432  0.051068694            3 
 2420000   0.88581836   -4.5714695    1480.6042  0.050984992  0.051057377            7 
 2421000   0.88482218   -4.5340008    1487.8241  0.051212449  0.051045953            4 
 2422000   0.85011802   -4.5516199    1487.3547  0.051175154  0.051034724            4 
 2423000   0.84864704   -4.5414513    1484.1036  0.051042219  0.051023354            3 
 2424000   0.86133036   -4.5601664    1483.8322  0.051011834   0.05101215            4 
 2425000    0.8562323   -4.5426472    1487.9237  0.051131398  0.051000942            5 
 2426000   0.86521896   -4.5517008    1482.4338  0.050921744  0.050989752            4 
 2427000   0.86137592   -4.5384584    1488.4225   0.05110639  0.050978429            5 
 2428000   0.86888434   -4.5907263    1482.9465  0.050897395  0.050967148            3 
 2429000     0.846538   -4.5315307    1483.0459  0.050879852   0.05095571            4 
 2430000   0.86599631   -4.5615994    1483.7965  0.050884653  0.050944357            3 
 2431000   0.88628307   -4.5324991    1487.2237  0.050981203   0.05093313            9 
 2432000   0.86895847   -4.5407478    1484.1279  0.050854163  0.050921788            6 
 2433000   0.86854485   -4.5255258    1482.2598  0.050769276   0.05091034            3 
 2434000   0.84606006   -4.5722584    1487.8436  0.050939591  0.050899026            3 
 2435000   0.86414515   -4.5820801    1483.5113  0.050770407  0.050887602            5 
 2436000   0.86963538   -4.5471122    1484.5507  0.050785123  0.050876225            2 
 2437000   0.87574146   -4.5508411    1482.9349   0.05070903  0.050864883            2 
 2438000   0.85908033   -4.5699551    1482.4379  0.050671243  0.050853344            5 
 2439000   0.86932712   -4.5436167    1487.6944  0.050830067  0.050841794            2 
 2440000   0.86705909   -4.5336041    1485.0653  0.050719445  0.050830302            2 
 2441000   0.85669726    -4.567258    1482.3433   0.05060574  0.050818968            3 
 2442000   0.87815559   -4.5770268    1480.7253  0.050529802   0.05080748            6 
 2443000   0.85455617   -4.5718161    1482.3763  0.050565437  0.050795883            3 
 2444000   0.87160973   -4.5410666    1491.6548  0.050861116  0.050784382            8 
 2445000   0.85276949   -4.5467378    1491.1161  0.050821952  0.050772849            4 
 2446000   0.86767239   -4.5860474     1487.741  0.050686188  0.050761389            4 
 2447000   0.84564123    -4.564827    1493.6927  0.050868162  0.050749943            3 
 2448000   0.88930693   -4.5480474     1486.754  0.050611178  0.050738453            2 
 2449000   0.85339967    -4.574748    1491.3468  0.050746793  0.050727055            3 
 2450000   0.85887054   -4.5714303    1488.4632  0.050628001    0.0507156            3 
 2451000   0.87867637   -4.5819142     1494.336  0.050807016  0.050704177            4 
 2452000   0.86910063   -4.5825274    1484.3127  0.050445648  0.050692727            4 
 2453000   0.86731066   -4.5819899    1485.7342  0.050473372  0.050681258            8 
 2454000   0.87387675   -4.5889788    1485.0737  0.050430375  0.050669738            4 
 2455000   0.85891972   -4.5427411    1490.8114  0.050604597  0.050658234            2 
 2456000   0.86229731   -4.5735436    1494.9024  0.050722802  0.050646794           13 
 2457000    0.8504482   -4.5587934    1489.4085  0.050515822  0.050635278            6 
 2458000   0.85626117   -4.5722361    1487.8001   0.05044074  0.050623719            4 
 2459000     0.876146    -4.563464    1492.6663  0.050585141  0.050612392            4 
 2460000   0.87333709   -4.5686354    1492.5473  0.050560546  0.050600939            4 
 2461000   0.85880248   -4.5776794    1491.6006  0.050507942  0.050589579            9 
 2462000   0.85265707   -4.5777301    1490.2134  0.050440475  0.050578131            8 
 2463000   0.86565557   -4.5504686    1491.7292  0.050471283  0.050566843            8 
 2464000   0.83991672   -4.5685589    1495.7389  0.050586406  0.050555434            2 
 2465000   0.85529178   -4.5611896    1498.6728  0.050665071  0.050544057            4 
 2466000   0.86703946   -4.5742751    1491.8376  0.050413545   0.05053264            6 
 2467000   0.85819841    -4.547557    1495.7544  0.050525415   0.05052129            6 
 2468000   0.82933025   -4.5520937    1492.3407  0.050389677  0.050509835            4 
 2469000   0.85845396   -4.5484159    1495.1226  0.050463163  0.050498423            3 
 2470000   0.86293357   -4.5820576    1488.5773  0.050221906  0.050486893            4 
 2471000   0.83448828   -4.5699448    1496.4034  0.050465514  0.050475281            4 
 2472000   0.85986533   -4.5754187    1493.0162  0.050330914  0.050463819            4 
 2473000   0.84989266    -4.579527     1489.202  0.050182033  0.050452283            5 
 2474000   0.84701502   -4.5604235    1490.3093  0.050199047  0.050440783            3 
 2475000   0.84694198   -4.5914267    1495.5861  0.050356436   0.05042931            6 
 2476000   0.86371502    -4.606123     1494.085  0.050285576  0.050417795           11 
 2477000   0.84836287   -4.5811247    1494.5797  0.050281918  0.050406188            3 
 2478000   0.86229532   -4.5888107    1495.5589  0.050294554  0.050394666            5 
 2479000   0.85970995   -4.5524815     1500.545   0.05044188  0.050383102            4 
 2480000   0.86104724   -4.5597876    1497.6601    0.0503246  0.050371581            5 
 2481000   0.85114254   -4.5535415    1496.9957     0.050282  0.050360022            2 
 2482000   0.84822739   -4.5749157    1493.2724   0.05013673  0.050348407            4 
 2483000   0.86018792   -4.5634416    1499.8517  0.050337349  0.050336764            5 
 2484000   0.86762021   -4.5788747    1490.0802  0.049989272  0.050324996            4 
 2485000    0.8618565   -4.5531636    1498.1965  0.050241332  0.050313429            2 
 2486000   0.86033499   -4.5774696    1497.2417  0.050189117  0.050301729            4 
 2487000   0.84806282    -4.560879     1497.608  0.050181208  0.050290049            4 
 2488000    0.8648716   -4.5741861    1491.7243   0.04996397  0.050278319            6 
 2489000   0.86109141   -4.5958202    1497.2543  0.050129045  0.050266563            6 
 2490000   0.86338492    -4.611611    1493.0122  0.049966942  0.050254715            4 
 2491000   0.84775483   -4.5637718    1493.7847  0.049972724  0.050243072            6 
 2492000   0.84569115    -4.586181    1503.7805  0.050286936  0.050231519            7 
 2493000   0.84891435    -4.553412    1500.4814  0.050156484  0.050219913            2 
 2494000   0.86449256   -4.5692667    1498.6679   0.05007578  0.050208255            5 
 2495000   0.82226368   -4.6070434    1490.9224  0.049797007  0.050196518            2 
 2496000   0.84484402   -4.5346995    1502.2431  0.050155018   0.05018499            4 
 2497000   0.84373806   -4.5907635    1498.7329  0.050017786  0.050173445            6 
 2498000   0.83953193   -4.5692683    1498.8289  0.050000965  0.050162027            9 
 2499000   0.84024177    -4.602878    1501.9134  0.050083815  0.050150529            2 
 2500000   0.84976933   -4.5566158     1504.118  0.050137266     0.050139            3 
 2501000   0.85839844   -4.5782634    1498.5913  0.049933071  0.050127536            6 
 2502000   0.83880702   -4.5903533    1498.4854  0.049909585  0.050115952            8 
 2503000   0.86679841   -4.6124544    1498.7483  0.049898399  0.050104237            6 
 2504000   0.87375105   -4.5680262      1502.52  0.050003992  0.050092538            3 
 2505000   0.84069678   -4.5676877    1503.9097  0.050030262  0.050080771            6 
 2506000   0.86257447   -4.5673849    1503.2651  0.049988863  0.050069232            4 
 2507000   0.87397731   -4.5872484    1500.2978  0.049870289  0.050057597           20 
 2508000   0.85073314    -4.594622    1500.0296  0.049841493   0.05004592            4 
 2509000   0.84171819   -4.5821793    1500.0235  0.049821427  0.050034218            6 
 2510000    0.8511092   -4.5685951    1501.7889  0.049860191  0.050022569            3 
 2511000   0.87589899   -4.5951877    1498.3174  0.049725122   0.05001082            3 
 2512000   0.84664113   -4.5734794    1501.5007   0.04981093  0.049999168            9 
 2513000   0.84590534   -4.5789816    1507.6458  0.049994885  0.049987409            4 
 2514000   0.84007469   -4.5949297    1504.5772  0.049873283  0.049975901            2 
 2515000   0.84350316    -4.572274    1503.9107  0.049831369  0.049964177            9 
 2516000   0.85925653   -4.5778845     1503.456  0.049796502  0.049952452            6 
 2517000   0.84131318   -4.5651245    1508.4299  0.049941396  0.049940796            2 
 2518000   0.85574692   -4.5827477    1508.0538  0.049909113  0.049929034            3 
 2519000   0.83024008   -4.5721237    1505.0137  0.049788728  0.049917331            3 
 2520000    0.8517607    -4.566617    1503.5128  0.049719337  0.049905681            5 
 2521000   0.84971155   -4.5712893    1506.4721  0.049797437  0.049893862            6 
 2522000   0.84854313   -4.5986859    1506.5478  0.049780196  0.049882177            3 
 2523000   0.85630965   -4.5904619    1504.8299  0.049703724  0.049870461           15 
 2524000   0.82986773   -4.5845241    1505.4006  0.049702871  0.049858728            4 
 2525000   0.86130956   -4.5759587    1508.3111  0.049779243  0.049846936            4 
 2526000    0.8397218   -4.5793344    1507.5727  0.049735179  0.049835132           11 
 2527000   0.83597887   -4.5922125    1507.3131  0.049706935  0.049823527            9 
 2528000   0.84784591   -4.5960266     1505.706  0.049634297  0.049811746            4 
 2529000   0.84593471   -4.5810605    1505.3041  0.049601428  0.049799891            5 
 2530000   0.85205575   -4.5953805    1504.2979  0.049548681  0.049788013            6 
 2531000   0.83350663   -4.5899806    1505.9294   0.04958282  0.049776102            4 
 2532000   0.85970528   -4.5738176    1512.4732  0.049778607  0.049764317            4 
 2533000    0.8393094   -4.5670736    1507.6356  0.049599802  0.049752536            3 
 2534000   0.86138635   -4.5860074    1503.6935  0.049450588  0.049740743            9 
 2535000   0.82256118   -4.5622938    1506.1693   0.04951247  0.049728931            5 
 2536000   0.83175297   -4.6023114    1507.7693   0.04954552  0.049717115            6 
 2537000   0.83962467   -4.5728271     1508.047  0.049535113  0.049705273            5 
 2538000   0.84650676   -4.6022927    1506.9771  0.049480467  0.049693536            3 
 2539000   0.83993709   -4.6106245      1506.76  0.049453854  0.049681704            3 
 2540000   0.85118018   -4.6329995    1508.8001  0.049501317  0.049669775            4 
 2541000    0.8692458   -4.5750673    1507.8145   0.04944951  0.049657941            5 
 2542000   0.83885787   -4.5795327    1506.8463  0.049398319  0.049646173            6 
 2543000   0.83484243    -4.574149    1507.6804  0.049406226   0.04963444            6 
 2544000   0.84471103   -4.6007707    1510.1106  0.049466411  0.049622735            3 
 2545000   0.84412031   -4.5849049    1508.9119  0.049407724  0.049610992            5 
 2546000   0.86507089   -4.5878481    1511.6534   0.04947805  0.049599266            5 
 2547000   0.84716049   -4.5975052    1512.4852   0.04948584  0.049587649            4 
 2548000   0.83475029   -4.6085717     1501.828  0.049117871  0.049575913            7 
 2549000   0.85898356   -4.5894742    1512.1851  0.049437202  0.049564187            4 
 2550000    0.8406237   -4.5892877    1514.0084    0.0494774   0.04955256            6 
 2551000   0.84185947   -4.5922535     1510.798   0.04935313  0.049540869            5 
 2552000   0.83938881   -4.5673012    1512.1517  0.049377995  0.049529031            3 
 2553000   0.84430903   -4.5911042    1511.4367  0.049335313  0.049517354            4 
 2554000   0.83241563   -4.5817764    1510.1095  0.049272693  0.049505557            5 
 2555000   0.84505628   -4.6000602    1513.9076  0.049377288  0.049493825            2 
 2556000    0.8374608   -4.5891828    1516.6662  0.049447907  0.049482073            9 
 2557000   0.82605868   -4.5953285    1509.7847  0.049204298  0.049470282            4 
 2558000   0.84892455   -4.5702356    1514.2535  0.049330645  0.049458572            8 
 2559000   0.84301991   -4.5874606     1513.905  0.049300018  0.049446814            7 
 2560000   0.81976864   -4.5839329    1512.3163  0.049229047  0.049434955            8 
 2561000   0.82793398   -4.5970157    1506.9734  0.049035971  0.049423176            2 
 2562000   0.86989332   -4.5853193    1512.2025  0.049186916  0.049411401            3 
 2563000   0.85011505   -4.6041682    1509.2337  0.049071196  0.049399606            6 
 2564000   0.83038555    -4.587071    1512.0288  0.049142901  0.049387768            3 
 2565000   0.85579484   -4.6191228    1512.2971   0.04913246  0.049376041            4 
 2566000   0.83679711   -4.5890629    1510.9114   0.04906831   0.04936422            2 
 2567000   0.84489479   -4.5947583    1514.6513  0.049170603  0.049352325            6 
 2568000   0.83884323   -4.5852123    1516.5608  0.049213422  0.049340638            7 
 2569000   0.83844488   -4.6071075    1511.9458  0.049044562  0.049328927            9 
 2570000   0.85400514   -4.6080485    1510.8687  0.048990556  0.049317193            3 
 2571000   0.82075514   -4.6227348    1512.4777  0.049023653  0.049305296            6 
 2572000   0.85146655   -4.5907667    1515.2199  0.049093438  0.049293467            5 
 2573000   0.83313803   -4.6027695    1518.6721  0.049186166  0.049281721            4 
 2574000   0.83295929   -4.6105146    1519.6254   0.04919792  0.049269981            3 
 2575000   0.82512488   -4.5911171    1515.6759  0.049050999  0.049258139            3 
 2576000   0.85181425   -4.6246472    1521.9967  0.049236435  0.049246353            5 
 2577000    0.8456258   -4.5724508    1514.7383  0.048982613  0.049234475            6 
 2578000   0.83695505   -4.5787538    1519.1735  0.049106978    0.0492227            9 
 2579000   0.82909685   -4.6270407     1513.215  0.048895404  0.049211044            4 
 2580000   0.83076247   -4.6069596    1514.7576  0.048926278  0.049199301            4 
 2581000   0.83588266   -4.6144413    1517.6525   0.04900079  0.049187637            2 
 2582000   0.84625098   -4.6068627    1520.6587  0.049078836   0.04917585            4 
 2583000   0.85461721     -4.61438    1520.4921  0.049054461  0.049164131            4 
 2584000    0.8437922   -4.6042519    1517.7792  0.048947988  0.049152264            3 
 2585000   0.83477646   -4.6026832    1521.5509  0.049050642  0.049140534            5 
 2586000   0.82707046   -4.6028769    1520.8395  0.049008751  0.049128885            5 
 2587000   0.82833884   -4.6004351    1518.8696  0.048926349  0.049117173            3 
 2588000    0.8542206   -4.6061635    1519.0839  0.048914344  0.049105469            7 
 2589000   0.81892604   -4.6344048    1519.9285  0.048922636  0.049093772            7 
 2590000   0.83920052   -4.6101641    1518.1661  0.048847044  0.049082085            5 
 2591000   0.83613127   -4.5912246    1521.0549    0.0489211  0.049070431            6 
 2592000   0.83833511   -4.5936929     1520.938   0.04889847   0.04905873            6 
 2593000   0.82631633   -4.6058078     1524.962  0.049008935  0.049047197            5 
 2594000   0.83319482   -4.6092491    1526.2806  0.049032401  0.049035568            6 
 2595000    0.8300786   -4.6279021    1524.0271   0.04894114  0.049023933            4 
 2596000   0.83256642   -4.5929561    1523.6243  0.048909357  0.049012257            3 
 2597000   0.83403639   -4.5904085    1523.8739  0.048898535  0.049000733            5 
 2598000   0.84515723   -4.6057176    1525.0229  0.048916567  0.048989171            2 
 2599000   0.83872761   -4.5920428    1525.3578  0.048908485  0.048977611            7 
 2600000   0.83242326    -4.627806    1524.0201  0.048846797  0.048965999            5 
 2601000   0.84725264    -4.630164    1519.9256  0.048696834  0.048954369            6 
 2602000   0.85678507   -4.6300057    1522.4768  0.048759827  0.048942668            5 
 2603000   0.84835399    -4.583761    1525.3118  0.048831853  0.048931175           10 
 2604000   0.83429612   -4.6214482    1523.8307  0.048765705  0.048919525            6 
 2605000   0.83608627   -4.6392691    1523.0998  0.048723603    0.0489079            5 
 2606000   0.85396172   -4.6100916    1523.5532  0.048719405  0.048896214            5 
 2607000   0.84244366   -4.6309486     1521.944  0.048649279  0.048884587            5 
 2608000   0.83728396   -4.5921581    1525.2651  0.048736742  0.048873014            6 
 2609000   0.84006801   -4.6179764    1525.4751   0.04872477  0.048861464            3 
 2610000    0.8479085   -4.6166487    1523.5995  0.048646216  0.048849871            3 
 2611000   0.84722803   -4.6159278    1526.7827  0.048729181  0.048838219            4 
 2612000   0.84992866   -4.5992674    1528.7474  0.048773207  0.048826603            3 
 2613000   0.82376307   -4.6237153    1522.8236   0.04856562  0.048815051            2 
 2614000   0.83205766    -4.609145    1528.2057  0.048718621   0.04880334            9 
 2615000   0.82770695   -4.6068479     1526.825  0.048655992  0.048791738            5 
 2616000   0.82691998   -4.6091672    1528.0268  0.048675676  0.048780049            5 
 2617000   0.82441689    -4.604567    1529.0479  0.048689591   0.04876844            6 
 2618000   0.84958563   -4.5924329    1528.8995   0.04866627  0.048756775            3 
 2619000    0.8260662    -4.609553    1524.9159  0.048520933  0.048745066            5 
 2620000   0.83603473   -4.6212531    1528.1034  0.048603797   0.04873343            5 
 2621000   0.83723423   -4.6219608    1530.2434  0.048653295  0.048721909            4 
 2622000   0.82627489   -4.6258239    1527.3434  0.048542568  0.048710291            3 
 2623000   0.81797967   -4.6130525    1533.1843   0.04870963  0.048698702            3 
 2624000   0.84495938   -4.5905953    1529.4539  0.048572596  0.048687297            3 
 2625000   0.82669652   -4.5928184     1536.328  0.048772317  0.048675966            4 
 2626000   0.82679268   -4.6057183    1528.3028  0.048499074  0.048664468            3 
 2627000   0.82682266   -4.5983065    1532.7917  0.048623007  0.048652884            3 
 2628000   0.83549919   -4.6380947    1532.5787  0.048597752  0.048641343            3 
 2629000   0.82936179   -4.6175092    1530.3922  0.048509958  0.048629879            3 
 2630000   0.84538655   -4.6025992    1534.3017   0.04861539  0.048618365            5 
 2631000   0.83312584    -4.611551    1529.7508   0.04845277  0.048606856            6 
 2632000   0.83239518   -4.6254587    1529.3188  0.048420681  0.048595306            6 
 2633000   0.83744583   -4.6054184    1529.8262  0.048418352  0.048583839            4 
 2634000    0.8176062   -4.6034949    1538.7497  0.048682286  0.048572257           18 
 2635000   0.83334339   -4.6282229    1530.3564  0.048398369  0.048560721            5 
 2636000   0.81969095   -4.6546176    1534.2383  0.048502728  0.048549208            7 
 2637000   0.84419254   -4.6180843    1535.2249  0.048515514  0.048537741            5 
 2638000   0.81009815   -4.6173283    1536.9681   0.04855219  0.048526271            8 
 2639000   0.82966089   -4.6227911    1538.5131  0.048582579  0.048514646            4 
 2640000   0.81921235   -4.6403531    1526.8964  0.048197488  0.048502981            6 
 2641000   0.80182599   -4.6153176    1534.3808  0.048415397  0.048491391            5 
 2642000   0.83660136   -4.6011666    1529.1165  0.048231027  0.048479772            4 
 2643000   0.84010179   -4.6308117    1533.0282  0.048336115  0.048468034            5 
 2644000   0.82912994   -4.6327343    1527.4759  0.048142836  0.048456261           10 
 2645000   0.82540732   -4.6375535    1531.5913  0.048254295  0.048444599            5 
 2646000   0.82120339   -4.6321602    1533.3792  0.048292366  0.048432885            8 
 2647000   0.82774207   -4.6309566     1535.461  0.048339663  0.048421248            7 
 2648000   0.83115513   -4.6238511    1532.0703  0.048214699   0.04840963            2 
 2649000   0.80428305    -4.627625    1529.5683  0.048117791  0.048397966           13 
 2650000    0.8169407   -4.6448411    1531.0767  0.048147067  0.048386257            2 
 2651000   0.82100923   -4.6237974    1531.9829   0.04815739  0.048374549            4 
 2652000   0.81861315   -4.6226925    1533.4276  0.048184627  0.048362708            8 
 2653000   0.82243969   -4.6367585    1531.5172  0.048106458  0.048350969            3 
 2654000   0.83545681    -4.628926    1534.6029  0.048185222  0.048339223            5 
 2655000   0.80983929   -4.6297892    1531.3562  0.048065167  0.048327481            4 
 2656000   0.83124027   -4.6038223    1533.3195   0.04810867  0.048315682            8 
 2657000   0.80482619   -4.6470693    1533.6389   0.04810058  0.048304044            5 
 2658000   0.81239922   -4.6445444    1531.5989  0.048018527  0.048292188            5 
 2659000   0.82356681   -4.6623629    1528.6104  0.047906807  0.048280353            8 
 2660000   0.82825293   -4.6161355    1538.2722  0.048191486   0.04826854            4 
 2661000   0.81404459   -4.5915063    1533.9276  0.048037318  0.048256723            9 
 2662000   0.83645859    -4.623514    1535.0703  0.048055043  0.048244905            5 
 2663000   0.82282324   -4.6367696    1535.9907  0.048065801  0.048233093            6 
 2664000   0.83578212   -4.6016988    1535.7438  0.048040032  0.048221214            4 
 2665000   0.84163503   -4.6291279     1533.071  0.047938429  0.048209468            5 
 2666000   0.82763719   -4.6357204    1539.1302  0.048109846  0.048197705            7 
 2667000   0.81786477   -4.6308059    1536.4547  0.048008207  0.048185828            3 
 2668000   0.82266804   -4.6633826    1533.4345  0.047895881  0.048174034            3 
 2669000   0.84233265   -4.6295881    1533.3367  0.047874881  0.048162224            5 
 2670000   0.83906958   -4.6334809    1535.8939  0.047936764  0.048150434            5 
 2671000   0.82390864   -4.6380533    1535.1864  0.047896742  0.048138643           13 
 2672000    0.8310452   -4.6235638     1542.186  0.048097119  0.048126811           10 
 2673000   0.85068893   -4.6181303    1534.7231  0.047846462  0.048115177            4 
 2674000   0.80682126   -4.6484985    1538.2999  0.047940038  0.048103281            5 
 2675000   0.83352494   -4.6358318     1538.519  0.047928941   0.04809145            4 
 2676000   0.83459349   -4.6086821    1544.0777  0.048084132  0.048079635            3 
 2677000   0.83405906   -4.6155104    1542.0721  0.048003738  0.048067931            4 
 2678000    0.8197455   -4.6358104    1539.3242  0.047900305  0.048056151           12 
 2679000    0.8292164   -4.6345702     1536.834  0.047804964  0.048044409            5 
 2680000   0.82675826   -4.6386985    1534.5014  0.047714597  0.048032605            7 
 2681000   0.79541336   -4.6590186    1534.9752  0.047711524    0.0480207            7 
 2682000   0.81493851   -4.6204299    1540.5889   0.04786816  0.048008879            3 
 2683000   0.84141841   -4.6516856    1544.0559  0.047958004  0.047997086            5 
 2684000    0.8100801   -4.6246406     1541.262  0.047853392  0.047985311            5 
 2685000   0.82767041   -4.6299155    1534.1895  0.047616061   0.04797359            3 
 2686000   0.81740278   -4.6367031    1540.8704  0.047805609  0.047961787            4 
 2687000   0.81591834   -4.6329421    1539.9622  0.047759651  0.047950061            5 
 2688000   0.80933714   -4.6297011    1544.1848  0.047872794  0.047938292            5 
 2689000   0.83017191   -4.6325323    1542.0523  0.047788902  0.047926462            5 
 2690000   0.81432765     -4.64629    1536.9513  0.047613113  0.047914644            6 
 2691000   0.81427192   -4.6482978    1538.2023  0.047634161  0.047902851            5 
 2692000   0.83478263   -4.6477564    1538.3876    0.0476222  0.047891061            5 
 2693000   0.82599996   -4.6320193    1539.6808  0.047644534    0.0478794            8 
 2694000   0.82118475    -4.607824    1545.3469   0.04780212   0.04786768            3 
 2695000   0.83255974   -4.6529912    1541.4647  0.047664338  0.047856018            8 
 2696000   0.81747507    -4.644913    1540.1696  0.047606628  0.047844327            5 
 2697000    0.8097699   -4.6318228    1542.8622  0.047672174  0.047832662            7 
 2698000   0.83213043   -4.6482641    1545.6392  0.047740277  0.047820909            3 
 2699000   0.80575077   -4.6439139    1543.4704  0.047655627  0.047809045            3 
 2700000   0.82623924   -4.6757961    1542.5424  0.047609334  0.047797206            5 
 2701000   0.82447776   -4.6095647    1546.4521  0.047712332  0.047785391            4 
 2702000   0.80873607   -4.6572616     1544.617  0.047638078  0.047773734            8 
 2703000   0.80848955   -4.6528013    1546.1173  0.047666707  0.047761876            8 
 2704000    0.8226763   -4.6614003     1546.611  0.047664292   0.04775015            3 
 2705000     0.815843   -4.6386826    1547.5582  0.047675855  0.047738558            4 
 2706000   0.81769001   -4.6316284    1547.3988  0.047653325  0.047726799            6 
 2707000    0.8150465   -4.6608386    1542.5499  0.047486452  0.047715063            6 
 2708000   0.82699834    -4.635693    1545.3122  0.047553921   0.04770333            8 
 2709000   0.82779776   -4.6382871    1546.5341  0.047573954  0.047691642            3 
 2710000   0.83330716   -4.6173933    1544.1616  0.047483443   0.04768017            4 
 2711000    0.8102292   -4.6552603    1543.6078  0.047448905  0.047668517            5 
 2712000   0.81076108   -4.6173551    1545.2955  0.047483269  0.047656786            5 
 2713000   0.81842382   -4.6375936    1544.4741  0.047440537  0.047645054           16 
 2714000   0.82004187   -4.6609148    1542.9554  0.047376424  0.047633273            3 
 2715000   0.81838121    -4.628505     1549.705  0.047566144  0.047621642            6 
 2716000    0.8137734   -4.6590411    1545.3419  0.047414762  0.047610043            4 
 2717000   0.82423419   -4.6483082    1546.2755  0.047425944  0.047598362            6 
 2718000   0.82578962    -4.642856    1546.9457  0.047429045  0.047586715            8 
 2719000   0.81446868    -4.613916    1551.2878  0.047544681   0.04757512            5 
 2720000   0.80975602    -4.652577    1551.2874  0.047527189  0.047563611            7 
 2721000   0.82153205   -4.6234993    1556.1961  0.047660054  0.047552049            6 
 2722000   0.81775507    -4.645989    1547.0182  0.047361565  0.047540449            4 
 2723000   0.81737792   -4.6391356    1550.6612  0.047455662   0.04752883            9 
 2724000   0.82430992   -4.6178648    1549.9098  0.047415252  0.047517152            5 
 2725000   0.82195902   -4.6375267    1553.1191  0.047495996  0.047505557            4 
 2726000    0.8185306    -4.623431    1551.0111  0.047414131  0.047494036            7 
 2727000   0.81079645   -4.6270135    1549.0967  0.047338245  0.047482507            6 
 2728000    0.8414488   -4.6377169    1554.3877  0.047482519  0.047470956            7 
 2729000   0.81898934   -4.6318442    1552.9675   0.04742175  0.047459304            3 
 2730000    0.8162766   -4.6314057    1554.7749  0.047459553  0.047447585            4 
 2731000   0.81918849   -4.6586616     1552.711  0.047379196   0.04743595            6 
 2732000   0.81290342   -4.6331366    1549.4115  0.047261211  0.047424236            5 
 2733000    0.8048826   -4.6440582    1550.7473  0.047284647   0.04741263            4 
 2734000   0.81366121   -4.6568466    1548.2366  0.047190826  0.047400955            4 
 2735000   0.78733234   -4.6298848     1554.095  0.047352072  0.047389304            4 
 2736000   0.83798572   -4.6495711    1547.2191  0.047125339  0.047377651            5 
 2737000   0.83767106   -4.6499109    1552.0792  0.047256096  0.047365919            7 
 2738000   0.81169413   -4.6472351    1552.0042  0.047236552  0.047354123            9 
 2739000   0.81402831   -4.6409262    1552.2294   0.04722616  0.047342428            7 
 2740000   0.81784825   -4.6368604     1552.676  0.047222505   0.04733073            9 
 2741000   0.84808591    -4.642622    1550.9861  0.047153901  0.047318995            5 
 2742000   0.80793851   -4.6483379    1555.0841  0.047261249  0.047307206            5 
 2743000   0.81308146   -4.6434988    1552.9826  0.047180173  0.047295541            5 
 2744000   0.82913101   -4.6586693    1549.7742  0.047065544  0.047283878            3 
 2745000   0.80698538   -4.6400443    1554.4795  0.047191241  0.047272165            8 
 2746000   0.79911983   -4.6556244    1554.2587  0.047167354  0.047260426            5 
 2747000    0.8087131   -4.6627511    1553.3321  0.047122076  0.047248691            5 
 2748000    0.8081869   -4.6524243    1549.2073  0.046979844   0.04723695            5 
 2749000    0.8342085   -4.6676595    1550.8102  0.047011344  0.047225242            6 
 2750000   0.83271776   -4.6324461    1555.6439  0.047140725  0.047213573            4 
 2751000   0.81543917   -4.6588294     1560.765  0.047278718   0.04720192            4 
 2752000   0.80656752     -4.63526    1555.4245  0.047099821  0.047190296            5 
 2753000   0.83097845   -4.6617519    1552.6255  0.046997988  0.047178508            8 
 2754000   0.83150759    -4.629731    1555.3921  0.047064637  0.047166823           11 
 2755000    0.8045341   -4.6634524    1551.9388  0.046943098   0.04715518            7 
 2756000   0.82039031    -4.685113    1554.3927  0.047000262  0.047143474            4 
 2757000    0.8107738   -4.6643218    1554.7473  0.046993935  0.047131668            4 
 2758000   0.81997679   -4.6376042    1559.9754  0.047134862  0.047120162            4 
 2759000   0.80436505   -4.6676897    1559.4751  0.047102667  0.047108446            8 
 2760000   0.79436866   -4.6727243    1551.6853  0.046850401  0.047096703            5 
 2761000   0.81500066   -4.6554393    1559.6376  0.047073451   0.04708497            4 
 2762000   0.80749562    -4.686944    1556.8532  0.046972398  0.047073264            4 
 2763000   0.79023526   -4.6632318    1564.6565   0.04719075  0.047061685            6 
 2764000   0.81502657   -4.6438892    1558.9972   0.04700305  0.047050154            9 
 2765000   0.80403342    -4.664726    1561.9756  0.047075816  0.047038638           10 
 2766000   0.80336026   -4.6740103    1558.2889  0.046947725   0.04702721            4 
 2767000   0.81356198   -4.6866288    1554.7047  0.046822814  0.047015635            5 
 2768000   0.80593745   -4.6644967    1554.7052  0.046805912  0.047004101            4 
 2769000   0.80542817   -4.6518694    1557.4732  0.046872313  0.046992541            5 
 2770000   0.81513276   -4.6707681    1556.7765   0.04683443  0.046980908           11 
 2771000   0.80912393   -4.6570092    1556.6287  0.046813086  0.046969406            5 
 2772000   0.80681589   -4.6616922    1554.9994  0.046747218   0.04695799            8 
 2773000   0.82196267   -4.6787716    1557.7547   0.04681316  0.046946476            6 
 2774000   0.82028407   -4.6549736    1559.1026  0.046836775  0.046935001            9 
 2775000   0.81168738   -4.6606075    1558.6396  0.046805993  0.046923434            8 
 2776000   0.80991588   -4.6322565    1563.6251  0.046938795  0.046911829            7 
 2777000   0.81089744   -4.6691444    1562.0604  0.046874937  0.046900359           10 
 2778000   0.80880713    -4.675641    1559.8572  0.046791974  0.046888776            6 
 2779000   0.81666835   -4.6536156    1561.7499  0.046831892  0.046877164            8 
 2780000    0.8123163   -4.6354752    1564.9443  0.046910801  0.046865654           10 
 2781000   0.79477567   -4.6754629    1560.7082  0.046766996  0.046854196            7 
 2782000   0.80499248   -4.6715018    1562.5859  0.046806432  0.046842726           10 
 2783000   0.81958903   -4.6743864    1565.1691  0.046866962   0.04683119            2 
 2784000    0.7858881    -4.673204    1564.5947  0.046832934  0.046819708            8 
 2785000   0.80444735   -4.6557429    1560.1255  0.046682391  0.046808241            7 
 2786000   0.80431007   -4.6551049     1561.451  0.046705283  0.046796616            5 
 2787000   0.78472407   -4.6705767    1564.3209  0.046774335   0.04678507            5 
 2788000   0.79603525   -4.6572522    1565.2661  0.046785813  0.046773502            4 
 2789000   0.81873457   -4.6777951    1564.9636  0.046759998  0.046762048            5 
 2790000   0.83175491   -4.6887993    1562.4866  0.046669255  0.046750586            6 
 2791000   0.79741067   -4.6680731    1566.7821  0.046780785  0.046738985            6 
 2792000   0.80645339   -4.6546387    1566.1612  0.046745498  0.046727561            6 
 2793000    0.8136427   -4.6962123    1565.8987  0.046720929  0.046716045            7 
 2794000   0.81140623   -4.6857919    1564.8803  0.046673834  0.046704465            2 
 2795000   0.82488193    -4.659514    1561.9237  0.046568982  0.046693024            4 
 2796000   0.79930409   -4.6612054    1563.9399   0.04661242  0.046681526            2 
 2797000   0.81575913    -4.656834    1565.9193  0.046654728  0.046670129            5 
 2798000   0.82560794   -4.6746557    1562.8609  0.046546964  0.046658619            6 
 2799000   0.79469664   -4.6745473    1565.0105  0.046594336  0.046647159            7 
 2800000   0.80305211   -4.6779587    1563.8385  0.046542812  0.046635521            7 
 2801000   0.81829744   -4.6738328    1565.4885  0.046575286  0.046623938            6 
 2802000   0.80064651   -4.6783938    1565.8821   0.04657037  0.046612249           11 
 2803000   0.79191182    -4.650417    1566.2107  0.046563523  0.046600577            5 
 2804000   0.79211217   -4.6617197    1567.6701   0.04659029  0.046589047            6 
 2805000   0.80380257   -4.6722752    1564.7677  0.046487454  0.046577536            8 
 2806000   0.79610111   -4.6905463    1568.7597  0.046589443  0.046565971            9 
 2807000   0.81477378   -4.6677391    1566.8987  0.046517596  0.046554519            7 
 2808000   0.80503409    -4.652071    1564.1615  0.046419798   0.04654297            4 
 2809000   0.80515363   -4.6901792     1567.256  0.046495076  0.046531504            5 
 2810000   0.80233944   -4.6501554    1567.6012  0.046488766  0.046520002            7 
 2811000   0.79428313   -4.6947291    1568.2876  0.046492577  0.046508638            7 
 2812000   0.79189301   -4.6878377    1564.9693  0.046377707  0.046497146            6 
 2813000   0.82027555   -4.6759089    1568.4198  0.046463438  0.046485609           12 
 2814000    0.7998714   -4.6553076    1568.9357  0.046462205  0.046474242            5 
 2815000   0.81088813   -4.6543674    1569.4542  0.046461047  0.046462915            6 
 2816000   0.79405197   -4.6641307    1573.6166  0.046567726  0.046451627           19 
 2817000   0.78176906   -4.6673436    1570.8774  0.046470164  0.046440277            3 
 2818000   0.80245936   -4.6815534    1572.0471  0.046488264  0.046428914           13 
 2819000   0.79958211   -4.6694892    1566.7205  0.046314312   0.04641757            4 
 2820000   0.79729457   -4.6621085    1568.5423  0.046351722  0.046406121            7 
 2821000   0.78504306   -4.6806393    1569.6793  0.046368879  0.046394691            5 
 2822000   0.77995816   -4.6822148    1569.2136  0.046338695  0.046383295           11 
 2823000   0.80176364   -4.6688048    1568.8243  0.046310791  0.046371914            7 
 2824000   0.80207288    -4.636787    1572.4041  0.046400026  0.046360617            3 
 2825000   0.81505098   -4.6925842    1568.3657  0.046264475  0.046349333            6 
 2826000   0.80840808   -4.6943143    1569.8885  0.046293009  0.046338013            4 
 2827000   0.79387224   -4.6787152    1575.8927  0.046453623  0.046326704            6 
 2828000   0.78692148   -4.6594933    1572.3984  0.046334229  0.046315455            7 
 2829000   0.79639408   -4.6881883    1573.9652  0.046364004   0.04630421            4 
 2830000   0.80275904   -4.6860457    1571.3982  0.046272031  0.046292851            6 
 2831000   0.80017305   -4.6774047     1571.558  0.046260391   0.04628155            5 
 2832000    0.8041036   -4.6744114    1577.5797  0.046421247  0.046270315            5 
 2833000    0.7887471   -4.6830063    1578.5804  0.046434299  0.046259037            3 
 2834000   0.78997317   -4.6882138    1575.1547  0.046317181  0.046247763            5 
 2835000   0.80246063   -4.6940081    1573.6302  0.046256032  0.046236569            7 
 2836000    0.8148266   -4.6884898    1576.2283  0.046316064  0.046225301            5 
 2837000   0.79612894   -4.6892204    1574.9088   0.04626098  0.046214102            5 
 2838000   0.80224602   -4.6795335    1573.1728  0.046193704  0.046202713            4 
 2839000   0.78613219   -4.6945999    1578.3158  0.046328397  0.046191506            6 
 2840000   0.77996306   -4.6690557    1577.7665  0.046295966  0.046180263            6 
 2841000   0.80722125   -4.6822553    1574.0258  0.046169946  0.046169041            4 
 2842000   0.79525727   -4.6778294    1575.3502  0.046192535  0.046157768            6 
 2843000   0.79479683    -4.696538    1571.6157  0.046066821  0.046146384            9 
 2844000   0.80523691   -4.6726171    1571.3477   0.04604277  0.046134997            6 
 2845000   0.79641634   -4.6916588    1574.9201  0.046131228  0.046123634            6 
 2846000   0.79205198   -4.6721201    1577.7239  0.046197115  0.046112282            3 
 2847000   0.80184369   -4.6849341    1577.2673  0.046167525   0.04610088            4 
 2848000   0.79048076   -4.7201563    1571.1028  0.045970939   0.04608954            3 
 2849000    0.8201773   -4.6613463    1578.1039  0.046159587  0.046078308            7 
 2850000   0.80084424   -4.6684779    1578.5215    0.0461556  0.046066962            4 
 2851000   0.79694866   -4.6515455    1583.8073  0.046293912  0.046055624            3 
 2852000   0.77946678   -4.6912871    1576.7127   0.04607038   0.04604432            8 
 2853000   0.79456713   -4.6992766    1577.5657  0.046079148  0.046032947            3 
 2854000   0.79711207   -4.6964214     1574.743  0.045980584  0.046021625            5 
 2855000   0.81221494   -4.6496045    1578.9137  0.046086213  0.046010435            4 
 2856000   0.79878235   -4.7009783    1574.5216  0.045941923  0.045999139            4 
 2857000   0.78872583   -4.6895042    1579.5072  0.046071263   0.04598792           10 
 2858000   0.80103544   -4.6892456    1576.6815  0.045972752  0.045976664            4 
 2859000   0.79462243   -4.6835603      1581.09  0.046085169  0.045965406            6 
 2860000   0.80167853   -4.6759506    1584.5024  0.046168484  0.045954264            4 
 2861000   0.79876727   -4.7208411    1581.0277  0.046051138  0.045943003            5 
 2862000   0.79336657   -4.6840166    1583.8153  0.046116215  0.045931751            7 
 2863000   0.79525759   -4.6933433    1577.7863  0.045924623  0.045920563            8 
 2864000   0.78757811   -4.6724298    1578.9286  0.045941823  0.045909341            3 
 2865000   0.79256718   -4.6990885    1576.8252  0.045864607  0.045898065            3 
 2866000   0.79029336   -4.6926042    1580.3542  0.045951216  0.045886781            3 
 2867000    0.8017844   -4.6545912    1583.9794  0.046040559  0.045875463            5 
 2868000   0.78340306   -4.7005897    1580.1601  0.045913531   0.04586413            8 
 2869000   0.79252359   -4.6667449    1581.7711   0.04594432  0.045852824            7 
 2870000   0.79825449   -4.7010872    1579.1242  0.045851459  0.045841512            6 
 2871000   0.79136345   -4.6927275    1581.9183  0.045916588  0.045830142            7 
 2872000   0.79155007   -4.6996048    1580.7998  0.045868146  0.045818851            5 
 2873000   0.81187296   -4.6843818    1577.5145  0.045756889  0.045807456           24 
 2874000   0.79176548   -4.7004513     1578.852  0.045779749  0.045796038            5 
 2875000   0.79364726   -4.6974406    1582.4666  0.045868598   0.04578467           21 
 2876000   0.77802582   -4.7081125    1578.1581  0.045727809   0.04577313           13 
 2877000   0.81249243   -4.6851396    1578.0123   0.04570769   0.04576179            9 
 2878000   0.78046248   -4.6879596       1582.5  0.045821751  0.045750327            6 
 2879000   0.80075472   -4.6832898    1580.0978  0.045736302  0.045738865            6 
 2880000   0.79057286   -4.6853873     1584.342  0.045843229   0.04572752            6 
 2881000    0.7917311   -4.6758691    1584.5311  0.045832787  0.045716206            4 
 2882000    0.7935361   -4.6866118    1580.7409  0.045707289  0.045704856            3 
 2883000   0.79261455   -4.7012358    1583.4624  0.045770101  0.045693527            4 
 2884000   0.77650922   -4.6784196    1585.5064  0.045813291  0.045682245            5 
 2885000   0.78519282   -4.6808714     1585.693  0.045802802  0.045670916            8 
 2886000    0.7849784   -4.6902946    1582.5084  0.045694977  0.045659543            4 
 2887000   0.78924187   -4.7146898    1584.8171  0.045745788  0.045648142            8 
 2888000   0.78256336   -4.6985743    1579.1186  0.045565517  0.045636719           13 
 2889000   0.80001866   -4.7155528    1584.3394   0.04570034  0.045625323           14 
 2890000   0.78679578    -4.685153    1579.7886  0.045553304  0.045613904           11 
 2891000   0.78379763   -4.6798487    1587.1112  0.045748621  0.045602488            6 
 2892000   0.78435711   -4.6936955    1577.2305  0.045448089  0.045591053           10 
 2893000   0.77429962   -4.7008721     1584.976  0.045655491  0.045579651           12 
 2894000   0.79747501   -4.7099005    1581.4365  0.045537795  0.045568339            5 
 2895000   0.80659502    -4.699748    1580.3699  0.045491361  0.045557022            4 
 2896000   0.79793457   -4.6893557    1579.8256  0.045459992  0.045545617            5 
 2897000   0.78961847   -4.6830398     1585.798  0.045616097  0.045534124            4 
 2898000   0.79688923   -4.7012777    1584.5592  0.045564736  0.045522783            4 
 2899000   0.78886098   -4.6938788     1586.516  0.045605266  0.045511511            3 
 2900000   0.78860658   -4.7265111    1582.9555  0.045487227  0.045500193            5 
 2901000   0.77438804   -4.6819004    1588.5861  0.045633289  0.045488817            8 
 2902000   0.80785494   -4.7042918    1582.5048  0.045442935  0.045477507            8 
 2903000    0.8162066   -4.6813539    1588.6365  0.045603298  0.045466293            9 
 2904000   0.78950243   -4.7056973    1588.8154  0.045592729  0.045455142            2 
 2905000    0.7568025   -4.6898008    1587.1608  0.045529569  0.045443912            3 
 2906000   0.76717793   -4.7118741    1586.2882   0.04548888  0.045432645            7 
 2907000    0.8014399   -4.7158356     1584.623  0.045425496  0.045421328            7 
 2908000   0.79560425   -4.6974209    1589.4973  0.045549555  0.045410107            5 
 2909000   0.78083831   -4.7201734    1586.6823  0.045453258  0.045398937            4 
 2910000   0.77911861   -4.7143987     1587.742  0.045467985  0.045387763            5 
 2911000   0.78248068   -4.6855791    1590.6445  0.045535455  0.045376479            4 
 2912000    0.8138518   -4.6773665    1590.1986  0.045507057  0.045365308            5 
 2913000   0.78683286   -4.6888298    1584.0405  0.045315269  0.045354184            5 
 2914000   0.80882967   -4.6770836    1592.7615  0.045549115  0.045342992            3 
 2915000    0.7879705   -4.6971395    1583.5027  0.045268803  0.045331708            5 
 2916000   0.79241413   -4.7372457    1586.1299  0.045328358  0.045320513            5 
 2917000   0.78540901   -4.7003638    1588.3955  0.045377544   0.04530927            5 
 2918000   0.76859126   -4.7025022     1585.347  0.045274931  0.045297962           11 
 2919000   0.79249343    -4.710013    1588.2764  0.045343051  0.045286788            6 
 2920000   0.78847252   -4.6842053    1586.7332  0.045283483   0.04527556            6 
 2921000   0.77735759   -4.7281929      1590.33  0.045370593  0.045264369           11 
 2922000   0.77071897   -4.7254115    1587.6749  0.045279344   0.04525311            6 
 2923000   0.78973154   -4.6955304    1589.8625  0.045326221  0.045242008            6 
 2924000     0.783392   -4.6902523    1591.2063  0.045349018   0.04523094            7 
 2925000    0.7946218   -4.7100073    1594.3397  0.045422783  0.045219825            4 
 2926000   0.77803807   -4.7113585     1588.686  0.045246242  0.045208704            5 
 2927000    0.7987309   -4.7215889    1592.3349  0.045334668  0.045197507            7 
 2928000    0.8150121    -4.707459    1588.9991  0.045224245  0.045186348            6 
 2929000   0.78609061   -4.7125846    1593.0092  0.045322898  0.045175246            7 
 2930000   0.78911291   -4.7093616     1596.239  0.045399288  0.045164197            3 
 2931000   0.76966805   -4.6995803    1595.6941  0.045368306  0.045153032            3 
 2932000   0.77595371   -4.7018452     1591.179  0.045224505  0.045141854            5 
 2933000   0.78787729   -4.7252915    1591.4448  0.045216637  0.045130625            4 
 2934000   0.79775784   -4.7077615    1592.8734  0.045241803  0.045119493            7 
 2935000   0.77925444   -4.6963002    1590.6343  0.045162815  0.045108396            3 
 2936000   0.76040642   -4.7281515    1595.3836  0.045282232  0.045097268            5 
 2937000   0.78523706   -4.7169629    1595.1119  0.045259106  0.045086162            5 
 2938000   0.77757932   -4.7046887    1593.8079  0.045206713  0.045075043            7 
 2939000   0.78009138   -4.7039826    1598.8621  0.045334639  0.045063975           13 
 2940000   0.77970969   -4.6877196    1597.1709  0.045271283  0.045052926            7 
 2941000   0.77832284   -4.7136156    1590.5558  0.045068451  0.045041807            9 
 2942000   0.78382214   -4.7146853    1596.7965  0.045229904  0.045030702            4 
 2943000   0.76631517   -4.7448325     1595.902  0.045189206  0.045019488           10 
 2944000   0.77516405   -4.7052113    1596.7274  0.045197221  0.045008256            9 
 2945000   0.79418169   -4.7268462    1593.0314   0.04507729  0.044997031            6 
 2946000   0.77183291   -4.7326393    1594.6871  0.045108823  0.044985894            5 
 2947000   0.76442255   -4.7230538    1593.8878  0.045070913  0.044974762           16 
 2948000   0.78699104   -4.7055657     1596.063  0.045117112  0.044963505            4 
 2949000   0.79459906   -4.7334968    1589.5816  0.044918661  0.044952279            7 
 2950000   0.78667526   -4.7152364    1596.4865   0.04509849  0.044941008            7 
 2951000   0.77096535   -4.7184464    1592.2485   0.04496353  0.044929753            4 
 2952000    0.7935414   -4.7158238    1597.8277  0.045105797  0.044918457            3 
 2953000   0.76993114   -4.7053725    1594.8155  0.045005518  0.044907319            9 
 2954000   0.76713955   -4.7525755    1593.5395  0.044954285  0.044896047            6 
 2955000   0.76383439    -4.705003    1598.3346  0.045074298  0.044884831            6 
 2956000   0.76879078   -4.6974802    1595.1042  0.044967979  0.044873715            6 
 2957000   0.79394829   -4.7394304    1596.1066  0.044981021  0.044862578            3 
 2958000   0.77300597   -4.7129669    1595.9375  0.044961053  0.044851391            4 
 2959000    0.7806982   -4.7342547    1595.8572  0.044943597   0.04484017            3 
 2960000   0.76302244   -4.7144758     1597.389  0.044971538  0.044829013            5 
 2961000   0.77821825   -4.6936697    1597.4378  0.044957723  0.044817974            6 
 2962000   0.80072363   -4.6975574    1597.9151  0.044955973  0.044806832            6 
 2963000   0.78208087   -4.6987754    1598.7392  0.044963978  0.044795703            6 
 2964000   0.78267438   -4.7012054    1597.6346  0.044917753  0.044784508            6 
 2965000   0.76642553   -4.6999519    1598.2877  0.044920959   0.04477342            6 
 2966000   0.77105785   -4.7048911    1603.1726   0.04504306  0.044762326            4 
 2967000   0.75832737   -4.7159824    1599.1652  0.044915323  0.044751263           11 
 2968000   0.77326055   -4.7278823    1592.4873  0.044712694  0.044740178           16 
 2969000   0.78974525   -4.7198875    1595.0719  0.044770178  0.044728943            6 
 2970000   0.75784892   -4.7149152    1595.9839  0.044780693  0.044717791            5 
 2971000   0.77582494   -4.7025321    1598.4256  0.044834107  0.044706642            6 
 2972000   0.77848442   -4.7541111    1590.8694   0.04460715  0.044695481            6 
 2973000   0.79514995   -4.7403034    1596.0435  0.044737176  0.044684291           17 
 2974000   0.77492236   -4.7446659    1598.5785  0.044793166  0.044673123            3 
 2975000   0.77715666    -4.708689    1601.4475  0.044858473   0.04466196            4 
 2976000   0.77506048   -4.7581898    1592.1549  0.044583192  0.044650808            5 
 2977000   0.78088754   -4.7323342    1598.6336  0.044749569  0.044639535            3 
 2978000   0.78419399   -4.7295949    1597.7759  0.044710541  0.044628363           10 
 2979000   0.76941245   -4.7180569    1600.7433   0.04477854  0.044617248            7 
 2980000   0.77751638   -4.7211889    1597.8113  0.044681525  0.044606059            8 
 2981000   0.76175164   -4.7212755    1604.6754   0.04485842  0.044594948            6 
 2982000   0.76398324   -4.7266977    1601.9083   0.04476605  0.044583761            4 
 2983000   0.78776685   -4.7124558    1601.2365  0.044732275  0.044572711            5 
 2984000   0.77931065   -4.7313665    1602.2334  0.044745124  0.044561538            2 
 2985000   0.77430148   -4.7044609    1605.4593  0.044820192  0.044550499            6 
 2986000   0.76380341   -4.7443437    1603.6915  0.044755846  0.044539283            9 
 2987000   0.77996423   -4.7460772    1598.4023  0.044593302  0.044528036            5 
 2988000    0.7538442   -4.7278236    1600.8674  0.044647127  0.044516876            5 
 2989000   0.77725288   -4.7227423    1598.1061  0.044555205  0.044505732            7 
 2990000   0.76396323   -4.7722238    1596.6771  0.044500476  0.044494494            8 
 2991000   0.75888635   -4.7170703    1603.5206  0.044676267  0.044483337           10 
 2992000   0.77639044   -4.7436997    1598.6818  0.044526564   0.04447216           14 
 2993000   0.77987485   -4.7116229    1604.1469  0.044663851  0.044461075            7 
 2994000   0.78089157   -4.7359489    1603.2916  0.044625127  0.044449974            4 
 2995000   0.76413282   -4.7499674    1600.4702  0.044531726  0.044438858            4 
 2996000   0.78487617   -4.7488515     1603.557   0.04460272  0.044427625            4 
 2997000    0.7823826   -4.7284603    1604.0939  0.044602767  0.044416531            6 
 2998000   0.77493552   -4.7514789    1601.9085  0.044527144  0.044405326            5 
 2999000   0.77962385   -4.7465227    1603.4338  0.044554679  0.044394169            9 
 3000000   0.75854538   -4.7425587    1600.2539  0.044451498  0.044383055            6 
 3001000    0.7606264   -4.7477046    1605.8298  0.044591519  0.044371919            7 
 3002000   0.77946459   -4.7626244    1602.9857  0.044497716  0.044360707            5 
 3003000   0.78248928   -4.7082063    1604.6257  0.044528409   0.04434958            5 
 3004000    0.7654767   -4.7268393    1607.8857  0.044604019  0.044338453            7 
 3005000   0.78817956   -4.7124627    1611.1666   0.04468016  0.044327427            6 
 3006000   0.77263749    -4.731827    1604.2544  0.044473674  0.044316422            6 
 3007000   0.77498701   -4.7243378     1601.843  0.044392058  0.044305473            3 
 3008000   0.77464278   -4.7368864    1606.1522  0.044496681  0.044294436            4 
 3009000   0.78964497   -4.7456639    1603.4762  0.044407781  0.044283295           17 
 3010000   0.78047141   -4.7071596    1608.1659  0.044522867  0.044272316            5 
 3011000   0.77365288   -4.7173715    1604.2274  0.044399075  0.044261278            8 
 3012000   0.77019628   -4.7286942    1603.3746   0.04436074  0.044250211            7 
 3013000   0.77014014   -4.7482473    1605.8646  0.044414885  0.044239154            7 
 3014000   0.77541137   -4.7341087     1603.403  0.044332089  0.044228043            5 
 3015000   0.76426179   -4.7389764    1606.9217   0.04441464  0.044216956            3 
 3016000   0.78306904   -4.7356873    1601.7993   0.04425838   0.04420583            6 
 3017000   0.76751673   -4.7431453    1603.4819  0.044290187  0.044194789            3 
 3018000   0.78658429   -4.7071675    1605.1695  0.044322109  0.044183789            4 
 3019000   0.76621999   -4.7264445    1609.4798  0.044426404  0.044172683           10 
 3020000   0.76779204   -4.7518315    1602.0852  0.044207649  0.044161615            7 
 3021000   0.75713668   -4.7424587    1611.8986  0.044463714  0.044150507            7 
 3022000   0.77786485    -4.746519    1608.2738  0.044349045  0.044139492           10 
 3023000   0.78631208   -4.7298069    1609.6551  0.044372454  0.044128506            8 
 3024000   0.77649849   -4.7290447    1608.5479  0.044327269  0.044117553            4 
 3025000   0.75837665   -4.7469467     1609.626  0.044342313  0.044106541            6 
 3026000   0.76463776   -4.7301676    1611.7358  0.044385763  0.044095607            4 
 3027000   0.77904591   -4.7636706    1607.6435  0.044258439  0.044084562           10 
 3028000   0.77157225   -4.7405385     1614.071  0.044420712  0.044073574            8 
 3029000   0.77220975   -4.7653049    1602.0288  0.044074745  0.044062551           11 
 3030000   0.76909325   -4.7244937    1605.9966  0.044169322  0.044051558            5 
 3031000   0.77010543   -4.7535331    1606.5775  0.044170723  0.044040499            6 
 3032000   0.75556335   -4.7370947    1607.1682  0.044172389  0.044029485            3 
 3033000   0.76783305   -4.7535046     1612.323  0.044299455  0.044018512           13 
 3034000   0.75737886   -4.7227828    1613.4413   0.04431557  0.044007651            6 
 3035000    0.7649625   -4.7535886      1610.44   0.04421856  0.043996603           11 
 3036000   0.75497043    -4.771748    1606.8131  0.044104444  0.043985604            5 
 3037000   0.75940748   -4.7464328    1608.5781  0.044138352  0.043974603            5 
 3038000   0.78118083   -4.7285143    1608.3494  0.044117549  0.043963707            8 
 3039000    0.7539437   -4.7464945    1613.0229  0.044231186   0.04395275            4 
 3040000   0.77302988   -4.7545497    1614.7689  0.044264499  0.043941777            4 
 3041000   0.75345535   -4.7591828     1608.098  0.044067137  0.043930865            2 
 3042000   0.75782518   -4.7371434    1608.4762  0.044063011  0.043919885            6 
 3043000   0.77018322   -4.7557267    1611.2961  0.044125757  0.043908904            7 
 3044000   0.75129768   -4.7473451    1610.6411  0.044093328  0.043897943            6 
 3045000   0.76150331   -4.7473151     1612.852  0.044139353  0.043887034           13 
 3046000   0.76448688   -4.7318434    1610.0336  0.044047757  0.043876036            5 
 3047000   0.77428298   -4.7491794    1614.0702  0.044143698  0.043865112            6 
 3048000   0.73976166   -4.7222619    1616.2187  0.044187958  0.043854259            5 
 3049000   0.76751521   -4.7431768    1611.9578  0.044057006  0.043843418            9 
 3050000   0.75586924   -4.7418448    1612.5415   0.04405851  0.043832509            9 
 3051000   0.76641025   -4.7334947    1617.6008  0.044182258  0.043821652           11 
 3052000   0.76474842   -4.7562826    1609.4214  0.043944446  0.043810746            9 
 3053000   0.75526567   -4.7399671    1615.5487  0.044097301  0.043799819           10 
 3054000   0.75632222   -4.7234569    1616.3352  0.044104323  0.043789016            4 
 3055000   0.77240888   -4.7399415    1614.8275  0.044048759  0.043778176            3 
 3056000    0.7704727   -4.7583133    1613.7292  0.044004396  0.043767185            3 
 3057000   0.77055488   -4.7231223    1614.4646  0.044010047   0.04375618            6 
 3058000   0.76548371   -4.7621317    1610.5545  0.043889102  0.043745279            8 
 3059000   0.76020742   -4.7476529    1616.2954  0.044031147  0.043734402            5 
 3060000   0.77551495   -4.7801733    1619.8221  0.044112803  0.043723458            8 
 3061000   0.74922468    -4.762886    1612.7536  0.043905957    0.0437125            5 
 3062000   0.75617258   -4.7445407    1610.7099  0.043835998  0.043701568            6 
 3063000   0.75064578   -4.7519081    1614.4538  0.043923545  0.043690617            4 
 3064000   0.76311085   -4.7623425    1610.8704   0.04381175  0.043679695            9 
 3065000    0.7592233   -4.7447853    1615.5872  0.043925699  0.043668705           10 
 3066000   0.76137085   -4.7568921    1621.3722  0.044068606  0.043657708            8 
 3067000   0.76341025   -4.7762113    1618.1681  0.043967179  0.043646759           10 
 3068000   0.76722215   -4.7307164    1616.9013  0.043918439  0.043635846            2 
 3069000   0.76237093   -4.7293806    1618.2343  0.043940326  0.043625009           12 
 3070000   0.76543997   -4.7670706    1611.3344   0.04373872  0.043614108            5 
 3071000   0.76347666   -4.7469797    1612.6135  0.043759185  0.043603152            8 
 3072000   0.76783547   -4.7740042    1617.4388  0.043875835  0.043592281            8 
 3073000    0.7662787   -4.7508593    1619.0773   0.04390599  0.043581281            4 
 3074000   0.75976442   -4.7683986     1618.923  0.043887525  0.043570378           10 
 3075000   0.72909279   -4.7591971    1619.1792  0.043880195  0.043559446           12 
 3076000   0.75649605   -4.7779181    1618.2451  0.043840623  0.043548546            3 
 3077000   0.75758985   -4.7598675    1616.4397  0.043777482  0.043537647            6 
 3078000   0.75671604   -4.7333778    1618.3115  0.043813936  0.043526831            8 
 3079000   0.77394029   -4.7769955    1617.4722  0.043776988  0.043516006            8 
 3080000   0.77007478   -4.7559651    1624.1298  0.043942906  0.043505168            3 
 3081000   0.76013795   -4.7569202    1622.7118  0.043890291  0.043494396            5 
 3082000   0.75473592   -4.7381523    1618.5163  0.043762608  0.043483606            7 
 3083000   0.76157505   -4.7377586     1620.958  0.043814413   0.04347286            6 
 3084000   0.75338582   -4.7625133    1616.0051  0.043666372  0.043462142            9 
 3085000   0.75831607   -4.7793082    1620.9308  0.043785273  0.043451378            4 
 3086000   0.75685177   -4.7564168    1624.8815  0.043877768  0.043440566            7 
 3087000   0.75864213   -4.7411309    1625.6896  0.043885368  0.043429816            7 
 3088000   0.75342592   -4.7599845    1617.7734  0.043657529  0.043418944            6 
 3089000   0.75570298     -4.76518    1620.7249  0.043723019  0.043408082            8 
 3090000    0.7555095   -4.7571233     1623.335  0.043779262  0.043397344            9 
 3091000   0.74996663   -4.7705217    1623.1506  0.043760126  0.043386615            7 
 3092000   0.74844866   -4.7492435    1619.6244  0.043650937  0.043375944            6 
 3093000   0.76230009   -4.7561817    1621.1046  0.043676705  0.043365276            6 
 3094000   0.76329695    -4.751316    1621.3488  0.043669166  0.043354596            6 
 3095000   0.75031521   -4.8004149    1622.7063  0.043691608    0.0433438            8 
 3096000   0.74681636   -4.7756933    1625.8181  0.043761255  0.043333059           12 
 3097000   0.75237723   -4.7810856    1620.4755  0.043603366  0.043322421            7 
 3098000   0.75883417   -4.7760431    1621.6684  0.043621381  0.043311738            5 
 3099000   0.74518183   -4.7561706    1623.7102  0.043662207  0.043301004            6 
 3100000   0.76283522   -4.7697286    1620.5509  0.043563197  0.043290347            4 
 3101000   0.74196838   -4.7674907    1616.9329  0.043451922  0.043279586            5 
 3102000   0.74920003   -4.7525752    1624.3974  0.043638442  0.043268978            8 
 3103000   0.75215075     -4.78481    1623.8426  0.043609481  0.043258323            4 
 3104000   0.73805699   -4.7656655    1625.9182  0.043651154  0.043247604            8 
 3105000   0.76155986   -4.7715287    1624.9734  0.043611738   0.04323696           13 
 3106000    0.7598019   -4.7590039    1623.7092   0.04356378  0.043226339            9 
 3107000   0.74673107   -4.7744654    1624.5778  0.043573057  0.043215692           10 
 3108000    0.7639827   -4.7834454    1619.0706  0.043411374  0.043205001            5 
 3109000   0.74641469    -4.786334    1627.3466  0.043619239  0.043194329            7 
 3110000   0.75758275   -4.7789991    1626.8525  0.043591974  0.043183651            7 
 3111000   0.75514988   -4.7536219    1626.0542  0.043556578  0.043173016            5 
 3112000   0.76767428   -4.7643679    1625.8121    0.0435361   0.04316241            4 
 3113000   0.74787666   -4.7467597    1629.0239  0.043608092  0.043151866            9 
 3114000   0.74472911   -4.7790205    1628.1351  0.043570302  0.043141265           11 
 3115000   0.76565923   -4.7881865    1624.8745  0.043469088  0.043130667            8 
 3116000   0.74584191   -4.7796943    1627.5461  0.043526586   0.04312005            5 
 3117000   0.77093047   -4.7832238    1632.8569  0.043654605  0.043109474           10 
 3118000   0.74741552   -4.7635822    1627.2837  0.043491654  0.043098902            6 
 3119000   0.75221984    -4.790975    1625.6973  0.043435325  0.043088377           11 
 3120000   0.76417515   -4.7782973    1629.7949  0.043530848  0.043077773            8 
 3121000    0.7557585   -4.7557745    1625.5892  0.043404604  0.043067166           11 
 3122000   0.74648511   -4.7607226     1628.373  0.043465005  0.043056528           13 
 3123000   0.76199429   -4.7649369    1632.6151  0.043564285  0.043045952            8 
 3124000   0.75709467   -4.7856803    1625.4766  0.043359919  0.043035334           10 
 3125000   0.73995292   -4.7543245    1633.1188  0.043549834  0.043024764            4 
 3126000   0.75993856   -4.7688529    1627.6623  0.043390444  0.043014121            5 
 3127000   0.76001279   -4.7745563     1630.317  0.043447315  0.043003649           23 
 3128000   0.75604149   -4.8103833    1625.8201  0.043313621  0.042993082            5 
 3129000    0.7425177   -4.7506486    1633.3725  0.043500918  0.042982474            5 
 3130000   0.75825636   -4.7709712    1628.0878  0.043346321  0.042971862            6 
 3131000   0.75554888   -4.7826626    1629.1491  0.043360724  0.042961168            6 
 3132000   0.77170379   -4.7577141    1632.1138   0.04342576  0.042950541            2 
 3133000   0.75177826    -4.780889    1624.9022  0.043220083  0.042939895            6 
 3134000   0.73691101   -4.7564038    1635.4845  0.043487675  0.042929324            9 
 3135000   0.73592785   -4.7789333    1631.5506  0.043369235  0.042918699            6 
 3136000   0.74946064   -4.7512851    1630.6177  0.043330615  0.042908137           21 
 3137000   0.75823227   -4.7541904    1632.1515  0.043357547   0.04289754            6 
 3138000   0.75658724   -4.7999876    1628.1462  0.043237364  0.042887019            6 
 3139000    0.7422859    -4.758287    1632.5723  0.043341094  0.042876352            3 
 3140000   0.77598113   -4.7797616    1626.7737    0.0431734   0.04286567            4 
 3141000   0.74885455   -4.7875514    1630.5364  0.043259482  0.042855128            4 
 3142000   0.74224558   -4.7790246    1628.7055  0.043197153  0.042844527            6 
 3143000   0.74516923   -4.7873834    1630.0078  0.043217938  0.042833904            8 
 3144000   0.75148695   -4.7823606    1632.4018  0.043267648  0.042823305            7 
 3145000   0.75042351    -4.781015    1632.2022  0.043248601   0.04281272            5 
 3146000   0.74688717   -4.7916514    1637.3959  0.043372429  0.042802192            7 
 3147000   0.75537799   -4.7541804    1633.3275  0.043250914  0.042791637            4 
 3148000   0.74322092   -4.7931997    1630.8749  0.043172248  0.042781056            8 
 3149000   0.74615036   -4.7897802    1628.7476  0.043102245  0.042770452            4 
 3150000   0.73004847   -4.7845063    1635.5969   0.04326976  0.042759817            5 
 3151000   0.74157987     -4.79265    1629.9387  0.043106386   0.04274916            5 
 3152000   0.74492752   -4.7532247    1632.3562  0.043156626  0.042738484            4 
 3153000   0.75233116    -4.782366    1629.9017  0.043078065  0.042727745           10 
 3154000   0.74485438   -4.7997837    1627.8911  0.043011284  0.042717079            5 
 3155000   0.73815319   -4.7721435    1630.1977  0.043058578  0.042706451            4 
 3156000   0.72879797   -4.7815345    1632.3958  0.043102972  0.042695896            7 
 3157000   0.73386463   -4.7841958    1630.2649  0.043033071   0.04268532            5 
 3158000   0.75265985   -4.7876795    1633.7508  0.043111432  0.042674782            4 
 3159000   0.74281373   -4.7862974    1632.5482  0.043066061  0.042664161            8 
 3160000   0.72654948   -4.7813302    1631.4622  0.043023791  0.042653547            5 
 3161000   0.72227764   -4.7781495    1629.8594  0.042967928  0.042642929            5 
 3162000   0.74689023     -4.77589    1635.1648  0.043094159  0.042632352            7 
 3163000   0.75444271   -4.7770651    1633.5288  0.043037432  0.042621714            9 
 3164000   0.73660017    -4.770582    1634.8452  0.043058502  0.042611121           10 
 3165000    0.7564176   -4.7880375    1636.1715  0.043079819  0.042600579           13 
 3166000   0.75998776   -4.7881618    1634.9725  0.043034651   0.04259006           11 
 3167000   0.74328062   -4.7775922    1636.9332  0.043072655  0.042579541            5 
 3168000   0.75087787   -4.8069485    1634.8064  0.043003116  0.042569046            8 
 3169000   0.75429659   -4.7853856    1635.7365  0.043014004  0.042558482            5 
 3170000     0.759123   -4.8024171    1635.2018  0.042986378  0.042547873            3 
 3171000   0.74932598   -4.8072285    1632.0091  0.042888918   0.04253725            8 
 3172000   0.73383362   -4.7843839    1634.8424  0.042949833  0.042526638            6 
 3173000    0.7512689   -4.8161137    1631.9638  0.042860696  0.042516088           13 
 3174000   0.74253991   -4.8093366    1637.0179  0.042979886  0.042505523           11 
 3175000   0.74581015   -4.7852071    1633.9552  0.042885964  0.042494908            8 
 3176000   0.73164969   -4.7745906    1639.5585  0.043019481  0.042484397            5 
 3177000   0.73709479   -4.8014292    1632.5786  0.042822857  0.042473835            6 
 3178000   0.74320854   -4.7671419     1640.948  0.043028844  0.042463384            6 
 3179000   0.74647158   -4.8105155    1635.0163  0.042859817  0.042452909            7 
 3180000   0.73714914    -4.800235    1635.4703  0.042858236  0.042442396            5 
 3181000   0.73150459   -4.7766326    1636.6168  0.042874798  0.042431949            5 
 3182000   0.74590605   -4.7810994    1640.6531   0.04296703  0.042421506            4 
 3183000   0.74976268   -4.7763255    1638.6793  0.042901857  0.042411053            6 
 3184000   0.75126405   -4.8032329    1635.7214  0.042810966  0.042400629            5 
 3185000   0.73461326   -4.8148741    1633.5771  0.042741422  0.042390142            7 
 3186000   0.71756782    -4.778701    1636.7849  0.042811909  0.042379646            8 
 3187000   0.75450346   -4.7645789    1641.1349  0.042912218  0.042369222            5 
 3188000   0.73681396   -4.8159742    1639.2255  0.042848847  0.042358761            8 
 3189000   0.73712876   -4.7701866    1641.8482  0.042903945  0.042348435            7 
 3190000   0.74455379   -4.7961827    1642.3461  0.042903504  0.042338046            4 
 3191000   0.74916947   -4.7665035    1640.5421  0.042842947   0.04232765            4 
 3192000   0.73829496   -4.7964859    1642.3995  0.042878015  0.042317329           10 
 3193000   0.74545095   -4.7893012    1640.2499  0.042808485  0.042307032           11 
 3194000   0.74924835   -4.7631091    1638.8488  0.042758526  0.042296693           10 
 3195000   0.75536287   -4.7819847    1645.6552  0.042922672  0.042286404            6 
 3196000   0.74452858   -4.7771656     1643.466  0.042852158  0.042276076            6 
 3197000   0.73392467    -4.771827    1641.5732  0.042789417  0.042265803            8 
 3198000   0.75282444   -4.7819323    1640.2596  0.042741807  0.042255405           11 
 3199000   0.73491705   -4.7933999    1643.8923  0.042823077  0.042244996            8 
 3200000   0.75280864   -4.8040027    1639.6334  0.042698788  0.042234659            8 
 3201000   0.73914028   -4.7818021    1640.6379  0.042711598  0.042224312            5 
 3202000   0.75240389   -4.7922155    1642.7997   0.04275452  0.042214087            4 
 3203000   0.73422876    -4.779511    1648.2374  0.042882647  0.042203793            5 
 3204000   0.73790464   -4.8240646    1638.7832  0.042623367   0.04219354            9 
 3205000   0.73304942   -4.8066782    1646.0206  0.042798247  0.042183178            9 
 3206000   0.74945978   -4.7863951    1648.4117   0.04284705  0.042172885            7 
 3207000   0.75801717   -4.8008311    1643.6047   0.04270878  0.042162577            6 
 3208000   0.73622571   -4.8133131    1645.9435   0.04275622   0.04215224            7 
 3209000   0.73430571   -4.7900427    1641.5198  0.042628021   0.04214186            8 
 3210000   0.72967163   -4.7950115    1642.3587  0.042636518  0.042131495            7 
 3211000   0.75647936   -4.7889601    1639.0169  0.042536513    0.0421211            6 
 3212000   0.75682334   -4.7731208    1648.7871  0.042776751  0.042110835           12 
 3213000   0.74088444   -4.7903813    1646.3628  0.042700561  0.042100604           12 
 3214000   0.73332114    -4.792132    1645.0895  0.042654259  0.042090375            5 
 3215000   0.73272579   -4.8020497     1649.421  0.042753267   0.04208016            4 
 3216000   0.75573546   -4.7974811    1646.7259  0.042670136  0.042069962           10 
 3217000   0.74527326   -4.8040804    1641.9976  0.042534391  0.042059699            4 
 3218000   0.73812662   -4.7989804    1648.1655  0.042680896  0.042049431            6 
 3219000   0.74058242   -4.7947313    1641.6346  0.042498565  0.042039193            3 
 3220000   0.73867457   -4.8014502    1647.2529  0.042630767  0.042028943            3 
 3221000   0.74159493   -4.8188817    1644.1485  0.042537218  0.042018739            7 
 3222000   0.73576305   -4.7959571    1647.0488  0.042599028  0.042008493           11 
 3223000   0.73086004   -4.7959989    1646.8672  0.042581114  0.041998237            7 
 3224000   0.74092063   -4.8218397    1648.8386  0.042618864  0.041987982            7 
 3225000   0.73354916   -4.8044255    1647.5927  0.042573455  0.041977708            5 
 3226000   0.74749699   -4.7961324    1645.4046  0.042503736  0.041967417           17 
 3227000    0.7423913   -4.7828352    1647.0799  0.042533825  0.041957115            6 
 3228000   0.73083795   -4.8068072    1644.5882  0.042456325  0.041946897            5 
 3229000   0.75846774    -4.801717    1647.9473  0.042529866  0.041936722            7 
 3230000   0.72460886   -4.8050498    1648.6217    0.0425341  0.041926438            5 
 3231000   0.73565345   -4.8173847     1650.459  0.042568323  0.041916168            8 
 3232000   0.73577391   -4.8248818    1654.9317  0.042670474  0.041905922            9 
 3233000   0.73749031   -4.8054165    1644.0454  0.042376672  0.041895777            5 
 3234000   0.73466327   -4.8207426    1646.1091  0.042416748  0.041885515           10 
 3235000   0.73797682   -4.8061311    1649.1636  0.042482319  0.041875319           11 
 3236000   0.74682343   -4.8003919     1649.285  0.042472317  0.041865108            4 
 3237000   0.75780925   -4.7829389    1654.8237  0.042601783  0.041854958            5 
 3238000   0.72832005   -4.7957592     1651.353  0.042499305  0.041844776            5 
 3239000   0.74176439   -4.7939752    1654.3721   0.04256386  0.041834587            9 
 3240000   0.73490595   -4.8176305    1653.0543  0.042516827  0.041824381            9 
 3241000   0.72965952   -4.8038582    1647.8362   0.04236954  0.041814208            4 
 3242000    0.7413325   -4.8260639    1649.2203  0.042392051  0.041804004            9 
 3243000   0.73055403   -4.8152071    1654.1781  0.042506375  0.041793811            7 
 3244000   0.74134084   -4.8254356    1647.0038  0.042308977  0.041783658            6 
 3245000   0.74269525   -4.8109319    1651.0237   0.04239917  0.041773521            6 
 3246000   0.74050146   -4.8434268     1646.317  0.042265276  0.041763258            5 
 3247000   0.72624148   -4.8236428     1651.497  0.042385202   0.04175305            8 
 3248000   0.74638532   -4.8436308    1652.6683  0.042402204  0.041742745            6 
 3249000     0.725812   -4.8324441    1644.7339  0.042185645  0.041732404            5 
 3250000   0.73098686   -4.8111817    1649.5312  0.042295673  0.041722131            5 
 3251000   0.72797624    -4.845204    1652.8472  0.042367661  0.041711907            7 
 3252000   0.72785556   -4.8129097     1649.957   0.04228057  0.041701687            5 
 3253000   0.73024716   -4.8158372    1650.7814  0.042288693  0.041691464            6 
 3254000   0.73634448   -4.8105122    1648.9175  0.042227964  0.041681245           11 
 3255000   0.73151324   -4.8149072    1649.5054   0.04223004  0.041670959            8 
 3256000   0.71770468   -4.8348629     1649.382  0.042213912  0.041660659            4 
 3257000   0.74482748    -4.825375    1652.8321  0.042289225  0.041650404            7 
 3258000   0.72786324    -4.803745    1652.0933  0.042257349  0.041640072            7 
 3259000   0.74180094    -4.829478     1649.062  0.042166871  0.041629785            4 
 3260000    0.7272985   -4.8073976    1653.4635   0.04226645  0.041619499            4 
 3261000   0.73609252     -4.80957    1652.1489  0.042219894  0.041609328            5 
 3262000   0.73047096   -4.8269034    1652.3731   0.04221268  0.041599049           12 
 3263000   0.73028021   -4.8004019    1659.0291  0.042369728  0.041588853            6 
 3264000   0.73946758   -4.7956211     1652.392  0.042187295  0.041578708           12 
 3265000   0.73233443    -4.818545    1650.8583   0.04213523  0.041568546            6 
 3266000   0.73037944     -4.80924    1655.7428  0.042246959  0.041558421            8 
 3267000   0.73408139   -4.8061515     1655.123  0.042218218  0.041548339            6 
 3268000   0.72419029   -4.8118424    1651.8131  0.042120896  0.041538256            8 
 3269000   0.73891774   -4.8233586      1652.63  0.042128837  0.041528091            4 
 3270000   0.73953453   -4.8216794    1649.7926  0.042043643  0.041517916           13 
 3271000   0.74175636   -4.8276331    1649.7807  0.042030489  0.041507731           13 
 3272000    0.7265496   -4.8191202    1649.5817  0.042012575  0.041497467            9 
 3273000   0.73848323   -4.8054138     1656.753  0.042182324   0.04148724           14 
 3274000   0.72095498    -4.799591    1650.9837  0.042022596   0.04147709            6 
 3275000    0.7203929   -4.7887062    1651.0664  0.042011869  0.041466911            8 
 3276000   0.72075734   -4.8254768    1651.2805   0.04200449  0.041456671            7 
 3277000   0.73190772    -4.808811    1653.7024  0.042053261  0.041446488            7 
 3278000   0.70616887   -4.8305619    1649.9046  0.041943884  0.041436259            8 
 3279000   0.73005346   -4.8045496    1656.0127  0.042086325  0.041426009            9 
 3280000   0.72881904   -4.8040563    1657.2771  0.042105618  0.041415779            4 
 3281000   0.73937089   -4.8454167    1652.4148  0.041969287  0.041405556            7 
 3282000   0.72695943   -4.8131732    1653.0815  0.041973428  0.041395367            7 
 3283000   0.69981295   -4.8243971    1654.1786  0.041988491  0.041385174            7 
 3284000   0.72307696   -4.8049307    1654.9295   0.04199476  0.041374984            4 
 3285000   0.72903256    -4.821205    1656.8347  0.042030307  0.041364788            5 
 3286000    0.7117755   -4.8435804    1653.8345  0.041941432  0.041354607            5 
 3287000   0.72610997   -4.8373263    1656.0647  0.041985212  0.041344446            6 
 3288000   0.72003722   -4.8142239    1654.2171  0.041925617  0.041334228            5 
 3289000   0.72547705   -4.8418597    1654.6659  0.041924241  0.041324037            6 
 3290000    0.7214004   -4.8151496    1653.5155  0.041882357  0.041313893            3 
 3291000   0.71816381   -4.8474657    1653.6817   0.04187384  0.041303786           17 
 3292000   0.73774369   -4.8092223    1656.4095  0.041930172  0.041293588            7 
 3293000   0.73453627   -4.8308686    1655.7076  0.041899675  0.041283333            5 
 3294000    0.7266977   -4.8386573    1649.4855  0.041729547  0.041273069            3 
 3295000   0.71985314   -4.8105473    1660.0147  0.041983173  0.041262884            6 
 3296000     0.729057   -4.8369187    1654.2759  0.041825341  0.041252701            8 
 3297000   0.70675515   -4.8229868    1653.9008  0.041803174  0.041242553            9 
 3298000   0.72009204   -4.8632709    1655.5258   0.04183156  0.041232378            8 
 3299000   0.73792469   -4.8168542    1658.3211   0.04188949   0.04122225            8 
 3300000   0.72115214   -4.8769803    1652.1471  0.041720887  0.041212101            6 
 3301000   0.72104768   -4.8374547    1655.1431  0.041783881  0.041201939            8 
 3302000   0.72789579   -4.8431701    1652.9697  0.041716377  0.041191858            7 
 3303000   0.71281664   -4.8143754    1654.5834   0.04174446  0.041181688            8 
 3304000   0.71853246   -4.8244697    1656.5664  0.041781841  0.041171595           15 
 3305000    0.7052548   -4.8308912    1656.4825  0.041767084  0.041161377            7 
 3306000   0.73928015   -4.8222681    1659.8547   0.04183945  0.041151294            9 
 3307000   0.75604083   -4.8552489    1652.3184  0.041636892   0.04114119           26 
 3308000   0.73842512   -4.8144057     1660.383  0.041827464  0.041131124            9 
 3309000    0.7248777   -4.8431703    1658.3771  0.041764308  0.041121098            6 
 3310000   0.70814091   -4.8257975    1661.1476  0.041821441   0.04111101            3 
 3311000   0.73409834    -4.820274    1663.0414  0.041856473  0.041100918            4 
 3312000   0.72557679   -4.8234449    1660.8178  0.041787889  0.041090901           10 
 3313000   0.73232384   -4.8686263    1654.9004  0.041626431  0.041080786            5 
 3314000   0.71329075   -4.8436892    1654.8719  0.041613155  0.041070699            3 
 3315000   0.72801493   -4.8517476    1658.5683  0.041693523  0.041060555            8 
 3316000   0.72858103   -4.8485144    1657.2029  0.041646634   0.04105052            4 
 3317000   0.72496249   -4.8618355    1658.5326  0.041667485  0.041040436            7 
 3318000   0.72580249   -4.8362426    1658.2654  0.041648217  0.041030367            5 
 3319000   0.71166874   -4.8484077    1659.8322  0.041675007  0.041020326            4 
 3320000   0.70688243   -4.8477016    1660.5606  0.041680737  0.041010249            6 
 3321000   0.71368048   -4.8570008    1661.7085  0.041696992  0.041000164            7 
 3322000   0.71215245   -4.7881016    1662.5828  0.041706373  0.040990125            9 
 3323000   0.71917063   -4.8244468    1666.2705  0.041786299  0.040980168            5 
 3324000   0.73281074   -4.8119566    1662.8581  0.041688178  0.040970165            4 
 3325000   0.73821354   -4.8234483    1658.3354   0.04156229  0.040960146           12 
 3326000   0.72346194   -4.8185776    1661.2066  0.041621732   0.04095008            5 
 3327000   0.71835177   -4.8399924    1661.4691  0.041615797  0.040940012            5 
 3328000   0.72084615   -4.8581073    1658.6302  0.041532207  0.040929948            4 
 3329000   0.71636976   -4.8347889    1664.9433  0.041677763  0.040919925            6 
 3330000   0.71593352   -4.8427792      1660.14  0.041545045  0.040909881            5 
 3331000   0.71481708   -4.8514311    1662.6718  0.041595911  0.040899804            4 
 3332000   0.73234652   -4.8555288    1657.9067  0.041464252  0.040889743            4 
 3333000   0.71523909   -4.8441237    1658.7949  0.041474021  0.040879718            5 
 3334000   0.72438582   -4.8265631    1663.3229  0.041574757  0.040869648            6 
 3335000   0.72750045   -4.8305635    1660.1494  0.041482995  0.040859645            7 
 3336000   0.71479908   -4.8243326     1665.021   0.04159225  0.040849661            7 
 3337000   0.71336439   -4.8585827    1661.6141  0.041494709  0.040839623           24 
 3338000   0.72484087   -4.8271935    1667.2518  0.041623023  0.040829617            5 
 3339000     0.723532   -4.8600417    1664.4491  0.041540609  0.040819658            5 
 3340000   0.71842373   -4.8326867    1669.2019  0.041646754  0.040809694            8 
 3341000   0.73395589   -4.8505014    1667.2393  0.041585337  0.040799759            7 
 3342000   0.71475309   -4.8427339    1663.7928  0.041486953  0.040789799           11 
 3343000    0.7145837   -4.8669706    1663.2317  0.041460558  0.040779787            9 
 3344000   0.72460795   -4.8559891    1664.1622  0.041471346  0.040769752            8 
 3345000   0.72186511   -4.8326616    1666.5685  0.041518897  0.040759767            7 
 3346000   0.71376918   -4.8527986    1662.2762  0.041399587  0.040749807            8 
 3347000   0.71266238   -4.8303353    1665.5937  0.041469817  0.040739793            6 
 3348000   0.70537013   -4.8358226    1665.1249  0.041445761   0.04072989            6 
 3349000   0.70720292   -4.8418848    1663.1386  0.041383961  0.040719855            6 
 3350000    0.7224715   -4.8592162    1665.8272  0.041438488  0.040709836           12 
 3351000   0.72206518   -4.8502054    1662.2447  0.041337032  0.040699808           10 
 3352000   0.71607301   -4.8522114    1664.7101  0.041385992  0.040689802            8 
 3353000   0.70787532   -4.8214128    1665.9876  0.041405399  0.040679824            7 
 3354000   0.72537309   -4.8470749    1663.6828  0.041335789  0.040669814            6 
 3355000   0.70452324   -4.8409321    1667.7735  0.041425074  0.040659807            8 
 3356000   0.72360259   -4.8332508    1663.1674  0.041298355  0.040649801            6 
 3357000    0.7000304     -4.86373    1663.9449  0.041305354  0.040639739            9 
 3358000   0.71849601   -4.8508207    1669.6925  0.041435688  0.040629797            9 
 3359000   0.72244064   -4.8394612    1666.1657  0.041335855  0.040619849            5 
 3360000   0.72271108   -4.8317375    1669.4979  0.041406199  0.040609922            3 
 3361000    0.7270054   -4.8323219    1662.0351  0.041208843  0.040599973           10 
 3362000   0.70478078   -4.8250913    1666.4274  0.041305458  0.040590053            6 
 3363000   0.72028804   -4.8499129    1666.5653  0.041296593  0.040580058            4 
 3364000   0.72657976   -4.8479024     1671.725  0.041412134  0.040570136            6 
 3365000    0.7061949   -4.8325191    1667.7024  0.041300207  0.040560159            3 
 3366000    0.7044857   -4.8299941    1663.0775  0.041173438  0.040550201            6 
 3367000   0.71684305    -4.830123    1666.4608  0.041244946  0.040540242            7 
 3368000   0.70074421   -4.8581236    1665.1428  0.041200088  0.040530171           11 
 3369000   0.70138499   -4.8408529    1665.3498  0.041192981  0.040520142           10 
 3370000   0.69466405   -4.8473893    1661.8304  0.041093729  0.040510069            7 
 3371000   0.70843877   -4.8593917    1662.1414  0.041089226  0.040500031            6 
 3372000   0.71043331   -4.8566457    1661.5476  0.041062367  0.040489956           10 
 3373000    0.7242634   -4.8539755    1666.1228  0.041163228  0.040479838           11 
 3374000   0.71636576   -4.8461819    1664.1508  0.041102321   0.04046973           11 
 3375000   0.71855596   -4.8589867    1664.0817  0.041088437  0.040459698            6 
 3376000   0.71413382    -4.864984    1666.3018  0.041131068  0.040449636            4 
 3377000   0.70734931   -4.8365739    1662.2643  0.041019255  0.040439638           10 
 3378000   0.70723142   -4.8647482    1665.0243  0.041075199  0.040429615            4 
 3379000   0.71992406   -4.8163006    1669.4882  0.041173133  0.040419631           12 
 3380000   0.71822663   -4.8355862    1666.0916   0.04107721  0.040409653            5 
 3381000   0.72010283   -4.8576277    1666.3042    0.0410703  0.040399625            5 
 3382000   0.72815081   -4.8519632    1664.0564   0.04100277  0.040389546            8 
 3383000   0.71566666   -4.8800313    1669.2252  0.041117973  0.040379483            6 
 3384000    0.7056677   -4.8409396    1667.9795  0.041075144  0.040369489           16 
 3385000   0.73117641   -4.8600229    1666.6152  0.041029424  0.040359552            4 
 3386000   0.70020501   -4.8328033    1670.5969    0.0411153  0.040349589            6 
 3387000   0.69900699   -4.8882763    1664.6573  0.040957024   0.04033954           20 
 3388000   0.72410767   -4.8693028    1663.3255  0.040912178   0.04032948            6 
 3389000   0.71132063   -4.8451862    1667.9984   0.04101501  0.040319487            8 
 3390000   0.71161565   -4.8608161    1666.3504    0.0409624  0.040309446            8 
 3391000   0.71625449   -4.8614112    1667.1747  0.040970577  0.040299379           13 
 3392000   0.69677885   -4.8693833    1668.1809  0.040983218  0.040289253            8 
 3393000   0.71331875   -4.8692881    1664.3366  0.040876722  0.040279173            7 
 3394000   0.71227715    -4.875008    1659.1643  0.040737681  0.040269079            7 
 3395000   0.71494349   -4.8544614    1670.2447  0.040997662  0.040258947            9 
 3396000   0.69059601   -4.8723455    1664.0198  0.040832837  0.040248875            6 
 3397000      0.70998   -4.8712156    1668.9251  0.040941153  0.040238808            9 
 3398000   0.70731946   -4.8672958    1664.0357  0.040809195  0.040228736            6 
 3399000   0.71267379   -4.8678616    1669.0949  0.040921225  0.040218689            7 
 3400000   0.71472875   -4.8430926    1670.1094  0.040934054  0.040208638            9 
 3401000   0.69703985   -4.8444555    1673.5917  0.041007343  0.040198682           12 
 3402000    0.6915105   -4.8441811    1666.8085  0.040829133  0.040188652            5 
 3403000   0.70474944   -4.8350857    1668.6604  0.040862484   0.04017861            5 
 3404000   0.71315973   -4.8429366    1668.6539  0.040850321  0.040168612           10 
 3405000   0.69847115   -4.8730655    1669.3656  0.040855742  0.040158568            8 
 3406000   0.71232643   -4.8655621    1667.7317   0.04080377  0.040148536           11 
 3407000   0.70048601   -4.8828978    1663.4407  0.040686838  0.040138529            4 
 3408000   0.69654119   -4.8616431    1662.0127  0.040639983  0.040128482           11 
 3409000   0.70177104   -4.9047138    1672.7832  0.040891348  0.040118472            9 
 3410000   0.70658676   -4.8545329    1677.0779  0.040984309  0.040108474            8 
 3411000   0.71551377    -4.893794    1666.7099  0.040718994   0.04009849            6 
 3412000   0.69656183   -4.8555685    1669.5585  0.040776635  0.040088489           21 
 3413000   0.70925595   -4.8597523    1667.8168   0.04072216  0.040078491           12 
 3414000   0.69883126   -4.8539437    1673.8915  0.040858511  0.040068599            7 
 3415000   0.70713421   -4.8701431    1672.6939  0.040817323  0.040058669            6 
 3416000   0.70614083   -4.8762913    1669.4565  0.040726398  0.040048693            7 
 3417000   0.69951897   -4.8649265    1669.0046  0.040703459   0.04003871            7 
 3418000   0.69939649   -4.8890827    1667.8906  0.040664389  0.040028606           13 
 3419000   0.68919019    -4.875437    1669.1091  0.040682195  0.040018514            8 
 3420000   0.70078977   -4.8610309    1669.5955  0.040682151  0.040008425           11 
 3421000    0.7116478   -4.8823265    1670.4355  0.040690723  0.039998422           13 
 3422000    0.6909574   -4.8611746     1672.541  0.040730104  0.039988401            8 
 3423000   0.70319399   -4.8714396    1671.2631  0.040687094  0.039978428            6 
 3424000   0.69063879   -4.8807222    1672.6525  0.040709026  0.039968417           11 
 3425000   0.70564774   -4.8707809    1668.1782  0.040588278  0.039958422            5 
 3426000   0.69302263   -4.8754807    1670.2949  0.040627916  0.039948453           11 
 3427000   0.69306984   -4.8608025     1676.579   0.04076887  0.039938473            6 
 3428000   0.69633156   -4.8777907     1670.178  0.040601372  0.039928509           13 
 3429000   0.69850023   -4.8725624    1664.6495  0.040455173  0.039918498            9 
 3430000   0.71357977   -4.8799401     1668.289  0.040531803   0.03990848            9 
 3431000   0.70487247   -4.8490215    1669.8073  0.040556866  0.039898508            9 
 3432000   0.69613863   -4.8677221    1666.6217  0.040467699  0.039888484            6 
 3433000   0.69730633   -4.8881141    1668.5323   0.04050229  0.039878489            5 
 3434000   0.70768022   -4.8868172     1670.119     0.040529  0.039868466            8 
 3435000   0.68081079   -4.8864134    1673.7774  0.040605953  0.039858461            6 
 3436000   0.71614807   -4.8869095    1670.7908    0.0405217  0.039848399            5 
 3437000    0.6829062   -4.8786883    1669.1279  0.040469594  0.039838352            9 
 3438000    0.7020881   -4.8955039     1670.939  0.040501721  0.039828291           11 
 3439000   0.68871565   -4.8731348     1666.703  0.040387299  0.039818232           10 
 3440000   0.71350233   -4.8669603     1669.006  0.040431348   0.03980816            7 
 3441000   0.70067742   -4.8831729    1666.3542  0.040355376  0.039798106           10 
 3442000   0.71228599   -4.8685015    1672.2889  0.040487336  0.039788039           10 
 3443000   0.70483973   -4.8869919    1668.9657  0.040395142  0.039778063            6 
 3444000   0.69491496   -4.8925987    1670.4238  0.040418695  0.039768027            6 
 3445000    0.7143269   -4.8735002    1673.1798  0.040473629  0.039758026           17 
 3446000   0.69415997   -4.8683745      1672.04   0.04043432  0.039748049            4 
 3447000    0.6939606   -4.8660654    1673.5084  0.040458089  0.039738035            6 
 3448000   0.69114525   -4.8729961    1669.4783  0.040348953  0.039728067            5 
 3449000   0.70841541   -4.8812184    1672.2958  0.040405331  0.039718076           20 
 3450000   0.68451472   -4.8609327    1672.6355  0.040401824  0.039708105            7 
 3451000   0.69529914   -4.8676941      1674.42  0.040433209  0.039698167            6 
 3452000   0.69753581   -4.8687071    1670.4744  0.040326246  0.039688204            6 
 3453000   0.68868081   -4.8801287    1672.7235  0.040368845  0.039678187            5 
 3454000   0.71092371   -4.8763353    1667.5358  0.040231996  0.039668213           15 
 3455000   0.70219228   -4.8716596    1674.7188  0.040393604    0.0396582           11 
 3456000   0.69365114    -4.883068    1669.6139  0.040258823  0.039648227            9 
 3457000   0.69069877   -4.8897521    1671.5995  0.040295041  0.039638277           14 
 3458000   0.70784268   -4.8859194    1670.3169  0.040252479  0.039628344            8 
 3459000   0.69636466   -4.9052899    1674.0826  0.040331565  0.039618339            5 
 3460000   0.69547143   -4.8848076    1674.2092  0.040322957  0.039608246            8 
 3461000   0.70987238   -4.8817348    1671.9375   0.04025661  0.039598254            5 
 3462000   0.68779946   -4.8697314    1674.0804  0.040296563  0.039588194           10 
 3463000   0.67064352   -4.8963188    1672.5427  0.040247924   0.03957825            8 
 3464000   0.69615509   -4.8628467    1677.9034  0.040365266  0.039568306            6 
 3465000   0.68405868   -4.8728747    1676.5659   0.04032145  0.039558396            6 
 3466000   0.68852835   -4.8877728    1673.3246  0.040231887  0.039548443            9 
 3467000   0.70877883   -4.8595044     1677.015  0.040308985  0.039538493            6 
 3468000   0.71655362   -4.8803502    1674.1656  0.040228892  0.039528593           12 
 3469000   0.69408282   -4.8751964    1675.3237  0.040245117  0.039518602           12 
 3470000   0.69504874   -4.8672502    1675.2671  0.040232159  0.039508648            8 
 3471000   0.70265807   -4.8707137    1675.0218  0.040214679  0.039498705            5 
 3472000   0.70327399    -4.893971    1678.7495  0.040292567  0.039488735            5 
 3473000    0.7007432   -4.9024482    1676.4476  0.040225732  0.039478798            6 
 3474000   0.71687705   -4.8815463    1677.3119  0.040234884  0.039468887            5 
 3475000   0.69921768   -4.8781781    1675.1949   0.04017254  0.039459005            8 
 3476000   0.69846329   -4.8968529    1675.4991  0.040168274  0.039449134           12 
 3477000   0.68725367   -4.8930128    1674.8772  0.040141818  0.039439211            9 
 3478000    0.6975631   -4.8898486     1679.534  0.040241853  0.039429262            4 
 3479000   0.68266262   -4.9024461    1671.0142   0.04002621  0.039419312            6 
 3480000   0.70185723   -4.8900942    1677.0507  0.040159261  0.039409347           12 
 3481000   0.69139179   -4.8868266    1675.7336  0.040116191  0.039399487            8 
 3482000   0.68768219    -4.875575    1673.8002  0.040058401  0.039389651            8 
 3483000   0.70200036   -4.8983549    1677.5946  0.040137683  0.039379718            7 
 3484000   0.70194117   -4.8798631    1682.5222  0.040244026  0.039369851            9 
 3485000   0.70188958   -4.8950611    1676.6381  0.040091778   0.03936005            6 
 3486000   0.71131459   -4.8664623    1679.3743  0.040145685  0.039350187           10 
 3487000   0.70557751   -4.8980463    1675.7329  0.040047149  0.039340368            6 
 3488000   0.69918062    -4.891728     1675.383  0.040027309  0.039330442            6 
 3489000   0.69225225    -4.897264     1678.205  0.040083237    0.0393205            6 
 3490000   0.68958092   -4.9032302    1672.9318   0.03994584  0.039310512            8 
 3491000   0.67986251   -4.9150285    1676.7183  0.040024785  0.039300575           12 
 3492000   0.69919204   -4.8918063    1678.2825  0.040050652  0.039290676            7 
 3493000   0.69322231   -4.8941935    1680.0803  0.040082076  0.039280781            8 
 3494000   0.69093772   -4.8998386    1677.3692  0.040005944  0.039270901           13 
 3495000   0.69451343   -4.8962645    1677.0082   0.03998589  0.039261017           15 
 3496000   0.69639047   -4.9000608    1680.9371  0.040068105  0.039251146            6 
 3497000    0.6874718   -4.8692568    1681.7972  0.040077143  0.039241292            6 
 3498000   0.70033543   -4.8918198    1679.7247  0.040016312   0.03923145            7 
 3499000   0.69427014   -4.9122474    1675.4762  0.039903692  0.039221543           11 
 3500000   0.68579979   -4.8610515    1679.8477  0.039996374  0.039211676            8 
 3501000   0.69048559   -4.8960946    1683.6871  0.040076338  0.039201871           11 
 3502000   0.68650994   -4.9159749    1675.8508  0.039878421  0.039192003            7 
 3503000   0.69456793   -4.8994095    1677.5046  0.039906381  0.039182091            5 
 3504000   0.70359844   -4.8999008     1677.842  0.039903016  0.039172148            8 
 3505000   0.70023162   -4.8983088    1680.6045  0.039957311  0.039162223            5 
 3506000   0.69609269   -4.8890979    1679.2893  0.039914654  0.039152344           11 
 3507000   0.68419066   -4.9013539    1675.0996  0.039803716  0.039142452            6 
 3508000   0.68600992   -4.8956719    1678.3699  0.039870055  0.039132543           16 
 3509000   0.68637193    -4.888524    1679.1243  0.039876609  0.039122635           11 
 3510000   0.69993825   -4.9079271    1675.8585  0.039787714  0.039112742           15 
 3511000   0.67967945   -4.9112044    1677.1136  0.039806172  0.039102835            8 
 3512000   0.67759449   -4.8959765    1677.8514  0.039812344  0.039092898           11 
 3513000   0.69848649   -4.8815076    1678.1471  0.039808025  0.039083018            5 
 3514000   0.68234358   -4.8986504    1676.8849  0.039766764  0.039073095            9 
 3515000   0.68433499   -4.8818861    1677.1306  0.039761276  0.039063199           11 
 3516000   0.69094825   -4.8919057    1678.9825  0.039793858  0.039053303            6 
 3517000   0.69218654   -4.8939515    1679.3527  0.039791316   0.03904341            9 
 3518000   0.67654645   -4.8975591    1676.2946  0.039707566  0.039033517            4 
 3519000   0.68329086   -4.8998857    1677.3698  0.039721744    0.0390236           16 
 3520000   0.69566664   -4.9112247    1680.7777  0.039791138  0.039013686            9 
 3521000   0.68312425   -4.9032963    1681.9354  0.039807238   0.03900381            9 
 3522000   0.69519054   -4.9188079    1677.4407  0.039689588  0.038993896            5 
 3523000   0.70777368   -4.8724165    1682.3762  0.039795065  0.038983977           11 
 3524000   0.68742814   -4.8738845    1680.5581  0.039740779  0.038974154            5 
 3525000   0.68823946   -4.9261717    1675.5086  0.039610132  0.038964239           11 
 3526000   0.69280058   -4.9071974    1679.6782  0.039697443  0.038954338            8 
 3527000    0.6999046   -4.9101561    1676.4557  0.039610049  0.038944413            5 
 3528000   0.67419971   -4.9022116    1681.0683  0.039707774  0.038934497            6 
 3529000   0.67357586    -4.919397    1675.9471  0.039575591   0.03892456            8 
 3530000   0.68082483   -4.9115831    1679.6525  0.039651854  0.038914624            8 
 3531000   0.68571623   -4.9091217      1679.47  0.039636316  0.038904708            7 
 3532000   0.68839545   -4.8875166    1681.4661  0.039672191    0.0388949            3 
 3533000    0.6818793   -4.9152365    1678.5108  0.039591253  0.038885094            5 
 3534000   0.68057081   -4.8934886    1678.9237  0.039589787  0.038875244           15 
 3535000   0.68533957    -4.924564    1679.5294  0.039592866  0.038865351           24 
 3536000   0.68809694   -4.9074292    1680.2669  0.039599049  0.038855482            9 
 3537000   0.67554709   -4.8870467    1681.2249  0.039610425  0.038845602            6 
 3538000   0.67267021    -4.884445    1681.8118  0.039613054  0.038835792            7 
 3539000   0.68636419   -4.9051608    1679.2163  0.039540743  0.038825877           10 
 3540000   0.68393917   -4.9324375    1679.0665  0.039526048  0.038815996           11 
 3541000   0.67870208    -4.930807    1681.7282  0.039577525  0.038806136            9 
 3542000   0.69891914   -4.9040632    1678.1206  0.039481474  0.038796283            7 
 3543000   0.67903699   -4.9249405    1684.0038  0.039608708  0.038786509            7 
 3544000   0.69272198   -4.9203709    1680.5058  0.039515279  0.038776707           13 
 3545000   0.69683163   -4.9214569    1680.0633  0.039493732   0.03876691            8 
 3546000   0.69228744   -4.9076499    1679.7183  0.039474485  0.038757032            5 
 3547000   0.67322003   -4.9147858    1677.7416  0.039416915  0.038747162            8 
 3548000   0.68408481   -4.9066634    1680.4382  0.039469142  0.038737262            5 
 3549000   0.68054819   -4.9287576    1680.2424  0.039453423  0.038727328            9 
 3550000   0.68469723   -4.9057966    1686.6672  0.039593128  0.038717483           10 
 3551000    0.6873082   -4.9053511    1678.5649  0.039391836  0.038707599            4 
 3552000   0.67358767   -4.9370316    1682.0323  0.039462094  0.038697722           10 
 3553000   0.68872528   -4.9160434    1679.6469  0.039395039  0.038687857            9 
 3554000   0.68206472    -4.912138    1678.3914  0.039354515  0.038677942           16 
 3555000   0.67326937   -4.9069267    1683.2301   0.03945687  0.038668063           34 
 3556000   0.69597467    -4.919877    1680.3384   0.03937801  0.038658229            5 
 3557000   0.69134229   -4.8861183    1681.6205  0.039396976  0.038648367            5 
 3558000   0.68119833   -4.9216999    1681.0837  0.039373331  0.038638412            9 
 3559000   0.67643392   -4.9169422    1678.0998    0.0392924  0.038628594            7 
 3560000   0.69406257   -4.9102023    1683.7374  0.039413329  0.038618716            6 
 3561000   0.68435401   -4.9239738    1679.4093  0.039300975  0.038608839            5 
 3562000   0.67465917   -4.9204647    1678.7355  0.039274179  0.038598965            9 
 3563000   0.66730283   -4.9394541    1679.4054  0.039278825  0.038589093            3 
 3564000   0.67718594   -4.9365398    1681.4973  0.039316716    0.0385792           16 
 3565000   0.67629412   -4.9226675    1683.3937  0.039350015   0.03856932            6 
 3566000   0.66838966   -4.9147577    1681.8404  0.039302682  0.038559393            7 
 3567000   0.69241922    -4.907673    1682.5385  0.039307972  0.038549545            7 
 3568000   0.68364307    -4.907021    1684.9221  0.039352628  0.038539701            7 
 3569000    0.6743618   -4.9005838    1681.4619  0.039260809  0.038529883            9 
 3570000   0.68567637   -4.9044834     1683.642    0.0393007  0.038520103           11 
 3571000   0.68540992   -4.9148695    1679.3451  0.039189423  0.038510326            6 
 3572000    0.6862636   -4.9255738    1683.1042  0.039266148  0.038500513            9 
 3573000   0.66384647   -4.9098707    1683.4632  0.039263533  0.038490691            9 
 3574000   0.68221686   -4.9190011    1683.5011  0.039253429   0.03848087            7 
 3575000   0.69039219   -4.9349012    1686.2292  0.039306041  0.038471038            5 
 3576000   0.67993655   -4.9177972    1681.8636  0.039193317  0.038461168            7 
 3577000   0.69390032   -4.9117015    1685.0085  0.039255625   0.03845137            8 
 3578000   0.68520646   -4.9097487    1687.3413  0.039298987  0.038441544            7 
 3579000    0.6728928   -4.9286796    1683.8747   0.03920729  0.038431673           14 
 3580000   0.68257564   -4.9252166    1688.0225   0.03929289  0.038421806           14 
 3581000   0.68587917   -4.9040858    1687.9063  0.039279213  0.038411977           10 
 3582000   0.68552392    -4.919861    1688.7688  0.039288312  0.038402217           12 
 3583000   0.68296547   -4.9030594    1683.5016  0.039154841  0.038392416            6 
 3584000   0.66464096   -4.9275717     1682.617  0.039123349  0.038382637           14 
 3585000   0.67643444   -4.9285969    1682.0122  0.039098377  0.038372794           11 
 3586000   0.68799572   -4.9236733    1685.5271  0.039169156  0.038362982           12 
 3587000   0.68506981   -4.9174244    1682.2018  0.039080983  0.038353145           10 
 3588000   0.69051617   -4.9214036    1683.2052  0.039093395  0.038343271            7 
 3589000   0.67520287   -4.9328424    1684.5453  0.039113618  0.038333379            7 
 3590000   0.68011236   -4.9292638    1685.8911  0.039133962  0.038323526            9 
 3591000    0.6580109   -4.9003656    1680.6072  0.039000445  0.038313722            6 
 3592000   0.67042527   -4.9493596    1684.8022  0.039086911  0.038303892           12 
 3593000   0.68099337   -4.9286102    1684.7748  0.039075397  0.038294098           10 
 3594000    0.6952434   -4.9111682    1688.1992  0.039143925  0.038284314            6 
 3595000   0.67724272   -4.9174828    1688.0402  0.039129352  0.038274583           12 
 3596000   0.68308419    -4.928072    1685.5316  0.039060335  0.038264825            8 
 3597000   0.68559347   -4.9245652    1687.2889  0.039090189  0.038255025            5 
 3598000   0.68751462   -4.9507593     1683.936  0.039001667  0.038245222            9 
 3599000   0.67760779   -4.9233635    1685.1921  0.039019915  0.038235371           13 
 3600000   0.68190145    -4.948329    1687.1007  0.039053256  0.038225608           19 
 3601000   0.67382936   -4.9291436    1683.7579  0.038965053  0.038215757            9 
 3602000   0.67415926   -4.9251884    1691.2707  0.039128048  0.038206001            9 
 3603000   0.67533234   -4.9352773    1685.3781  0.038980898   0.03819625            4 
 3604000   0.67832262   -4.9266734    1683.6989  0.038931254  0.038186409            6 
 3605000   0.67035096   -4.9274803    1684.6084  0.038941479  0.038176622           12 
 3606000   0.66865153   -4.9138432    1687.8457  0.039005493  0.038166842            9 
 3607000   0.66898201   -4.9208119    1687.5665   0.03898823  0.038157068            8 
 3608000   0.68711483   -4.9329658    1687.9674  0.038986683  0.038147324            5 
 3609000   0.68430948   -4.9267749    1681.0842  0.038816944   0.03813756           12 
 3610000   0.67837722   -4.9277983    1686.8215  0.038938631   0.03812774           10 
 3611000   0.67039791   -4.9508831    1685.8516  0.038905465  0.038117891            8 
 3612000   0.68449977   -4.9390333    1683.0358  0.038829728  0.038108089            4 
 3613000   0.66513842   -4.9163114    1688.3368  0.038941249  0.038098354            6 
 3614000   0.67230561   -4.9114569    1684.4794  0.038841528  0.038088609            7 
 3615000   0.66815415   -4.9390486    1684.6447  0.038834594  0.038078797            9 
 3616000   0.67757783   -4.9081168    1685.5215  0.038844062  0.038068985            8 
 3617000   0.67378558   -4.9299663    1685.5384  0.038833712  0.038059192            6 
 3618000    0.6657841   -4.9260761    1682.2643  0.038747564  0.038049411            8 
 3619000   0.66613886    -4.947727    1682.9905  0.038753581   0.03803956            9 
 3620000    0.6725053   -4.9133213    1685.6018  0.038802987   0.03802975           13 
 3621000   0.67117454   -4.9318864    1682.4904  0.038720667  0.038019857           10 
 3622000   0.67939519   -4.9651622    1682.0914  0.038700795  0.038009923            8 
 3623000   0.66726539   -4.9440752    1681.7802  0.038682956  0.038000062           17 
 3624000   0.67717607   -4.9296397     1683.712  0.038716703  0.037990206           22 
 3625000   0.67478848   -4.9386891    1680.4405  0.038630817  0.037980411            4 
 3626000   0.66621721   -4.9290114    1681.4808   0.03864407  0.037970529            6 
 3627000    0.6565798   -4.9229951    1689.5898  0.038819728  0.037960658            8 
 3628000   0.68292644   -4.9252364    1686.4032  0.038735834  0.037950904            9 
 3629000   0.67451427   -4.9319918      1687.16  0.038742537   0.03794114            8 
 3630000   0.67354718   -4.9369848    1682.3597  0.038621664  0.037931359            6 
 3631000   0.66308579   -4.9050078     1684.147  0.038652046   0.03792152            6 
 3632000    0.6657595   -4.9635499    1683.7785   0.03863295  0.037911698            8 
 3633000   0.66535593   -4.9240504    1689.6356  0.038756667  0.037901869            8 
 3634000   0.66774961   -4.9356612    1686.2454  0.038668257  0.037892001            7 
 3635000   0.66442183   -4.9481328    1684.3088  0.038613222  0.037882158            4 
 3636000   0.65900431   -4.9347016    1685.6429  0.038633179  0.037872304            5 
 3637000   0.65602127   -4.9533911    1684.2724  0.038591156  0.037862423            9 
 3638000   0.67140529   -4.9432433    1683.9992   0.03857429  0.037852523            7 
 3639000    0.6672114   -4.9429155     1683.625  0.038555119  0.037842662            6 
 3640000   0.64948146   -4.9412368    1687.1433  0.038625076  0.037832853            6 
 3641000   0.67284515   -4.9459228    1684.6447   0.03855728  0.037823073            6 
 3642000   0.68324047   -4.9404522    1688.5711  0.038636534  0.037813273           20 
 3643000   0.66991887   -4.9164924    1694.2861  0.038756659  0.037803585            6 
 3644000   0.67002348   -4.9411173    1688.6826  0.038617878  0.037793839           17 
 3645000   0.68335461   -4.9578372    1684.0348  0.038501024  0.037784043            5 
 3646000   0.67912587   -4.9313827    1689.5089   0.03861558  0.037774263            9 
 3647000   0.68377125   -4.9414935    1685.1632  0.038505693   0.03776453            6 
 3648000   0.65696406   -4.9337239    1685.4144  0.038500877  0.037754758           11 
 3649000   0.65855121   -4.9748925    1680.8189  0.038385377  0.037744969           10 
 3650000   0.64649194   -4.9519655    1689.9819  0.038584061  0.037735209           13 
 3651000   0.65290863    -4.956381    1684.3012  0.038443833  0.037725438           15 
 3652000   0.65307605   -4.9572641     1685.657  0.038464243  0.037715677            5 
 3653000   0.67021492   -4.9538643    1686.6602  0.038476599  0.037705919            6 
 3654000   0.67406123   -4.9453779    1688.1529  0.038500113  0.037696143            8 
 3655000   0.65302155   -4.9388433    1689.3457  0.038516774   0.03768642            9 
 3656000   0.65833128   -4.9292218    1691.6231  0.038558148  0.037676751           14 
 3657000   0.66784497   -4.9561126    1682.6183  0.038342409  0.037666998           20 
 3658000   0.66484509   -4.9464386     1689.339  0.038485032  0.037657228            6 
 3659000   0.68442309   -4.9502186     1687.861  0.038440854  0.037647559           14 
 3660000    0.6784287   -4.9395524    1690.8844  0.038499189  0.037637822            7 
 3661000   0.67037056   -4.9484925    1685.1115  0.038357267  0.037628138            6 
 3662000   0.66224408   -4.9501843    1686.3016  0.038373876  0.037618432            9 
 3663000   0.65479345    -4.949561    1685.7106  0.038349954  0.037608691            7 
 3664000   0.64688762   -4.9461035    1686.6424   0.03836068  0.037598998           13 
 3665000   0.65982908   -4.9519136    1687.6671  0.038373514  0.037589274           11 
 3666000    0.6609696   -4.9581465    1686.8125   0.03834362  0.037579502            8 
 3667000   0.66517658    -4.925401    1689.9766  0.038405067  0.037569767            7 
 3668000   0.65897466   -4.9372287    1685.8758   0.03830143  0.037559964            6 
 3669000   0.64979912   -4.9846435    1686.6356  0.038308249  0.037550177            9 
 3670000   0.66646761   -4.9324018     1683.283  0.038221684   0.03754034            9 
 3671000   0.66535981   -4.9591098     1689.962  0.038362889  0.037530602           16 
 3672000   0.65016234   -4.9304012    1690.5986  0.038366889   0.03752088            5 
 3673000   0.66469145   -4.9472495    1686.8632  0.038271693  0.037511191           13 
 3674000   0.67836525   -4.9640376    1687.8822  0.038284389  0.037501499            9 
 3675000   0.67924175   -4.9522758    1688.5332  0.038288735  0.037491766           10 
 3676000     0.662822   -4.9861437    1685.5548  0.038210799  0.037482004           10 
 3677000   0.66694272   -4.9699127     1690.404  0.038310307   0.03747228            7 
 3678000   0.68406847   -4.9500843    1690.3872   0.03829951  0.037462584            6 
 3679000    0.6702363   -4.9311931     1693.747  0.038365204  0.037452858            6 
 3680000   0.65767268    -4.946769    1687.4299  0.038211729  0.037443146            8 
 3681000   0.66880818   -4.9708652     1687.906  0.038212125  0.037433428           18 
 3682000   0.67094648   -4.9530098    1691.7125  0.038287898  0.037423759           12 
 3683000   0.66479635   -4.9325535    1694.8188  0.038347787  0.037414075            9 
 3684000   0.66155703   -4.9613592    1689.9794  0.038227908  0.037404426           11 
 3685000   0.65880106   -4.9527052    1689.4834  0.038206318  0.037394765            8 
 3686000   0.65257849   -4.9535775     1692.255  0.038258613  0.037385124           10 
 3687000   0.66039848   -4.9898905    1688.3783  0.038160617   0.03737538           13 
 3688000   0.66721631   -4.9650776    1689.6129  0.038178166  0.037365706           15 
 3689000   0.66128923   -4.9446156    1689.4252  0.038163577  0.037356022           12 
 3690000   0.66184121   -4.9796729    1691.3712   0.03819718   0.03734634           13 
 3691000   0.67852697   -4.9493249    1698.3575  0.038344565  0.037336719           11 
 3692000   0.65759699   -4.9374231    1694.7294  0.038252288  0.037327147            7 
 3693000   0.65372958   -4.9799203    1691.8896  0.038177851   0.03731755            5 
 3694000   0.67195974   -4.9677724    1692.8376  0.038188901  0.037307931            8 
 3695000   0.66741931   -5.0008384     1690.417  0.038123974  0.037298301           14 
 3696000   0.67048947   -4.9810648    1688.5097  0.038070655  0.037288655            5 
 3697000   0.64884095   -4.9568932    1691.4478  0.038126584  0.037279027           10 
 3698000   0.66128875   -4.9654363    1692.9284   0.03814964  0.037269382           14 
 3699000   0.65087632   -4.9690229    1694.7858   0.03818117  0.037259747           13 
 3700000   0.65357367   -4.9625442    1691.5409  0.038097769  0.037250063           12 
 3701000   0.64914216   -5.0009942    1691.8415  0.038094242  0.037240404           13 
 3702000   0.65365819   -4.9820443    1683.2414  0.037890361  0.037230754            6 
 3703000   0.66386853   -4.9636668    1692.3616  0.038085372  0.037221095            7 
 3704000   0.63941576   -4.9830536    1691.6078  0.038058131  0.037211481            9 
 3705000   0.65993667   -4.9581899    1690.6849  0.038027101  0.037201833            6 
 3706000    0.6469637   -4.9614013    1695.8089  0.038132058  0.037192231            8 
 3707000   0.65628001   -4.9548672    1698.9207  0.038191725  0.037182715           12 
 3708000   0.65643146   -4.9566357    1692.2961  0.038032545  0.037173166           24 
 3709000   0.65670698   -4.9777676    1693.3613  0.038046223  0.037163538            8 
 3710000   0.65789418   -4.9743127    1684.8787  0.037845434  0.037153963            4 
 3711000   0.64034156    -4.964688    1694.3006  0.038046811  0.037144355            4 
 3712000   0.65698001   -4.9584253    1692.5778  0.037997885   0.03713479            7 
 3713000   0.66240743   -4.9827336    1696.3354  0.038071986   0.03712519            8 
 3714000   0.65151569   -4.9666147    1687.9296  0.037873128  0.037115579            7 
 3715000   0.65537318   -4.9538484    1693.3911  0.037985443  0.037105956           11 
 3716000   0.65080324   -4.9641925    1695.3837  0.038019908  0.037096403            6 
 3717000    0.6436102   -4.9512308    1702.8757  0.038177646  0.037086885           12 
 3718000   0.66070714   -4.9493453    1699.0679   0.03808203  0.037077406           12 
 3719000   0.65832417     -4.96473    1691.9211  0.037911651  0.037067856            7 
 3720000   0.65224475   -4.9514251    1692.6051  0.037916782  0.037058306            8 
 3721000    0.6590768   -4.9737661    1693.0693  0.037916987  0.037048726           14 
 3722000   0.66341066   -4.9446654    1694.1668  0.037931372  0.037039267            5 
 3723000   0.66067267   -4.9711412    1696.3394  0.037969814  0.037029717            4 
 3724000   0.66844624   -4.9811833    1693.0719    0.0378865  0.037020197           18 
 3725000   0.66623968   -4.9698012    1697.9388  0.037985208  0.037010608           10 
 3726000   0.66540856   -4.9880132     1695.397  0.037918165  0.037001063           13 
 3727000   0.64347574   -4.9705673    1698.5068  0.037977523  0.036991554            5 
 3728000   0.64462297   -4.9971055    1689.4208  0.037764234  0.036981998            7 
 3729000    0.6416062   -4.9993009    1697.2106  0.037928188  0.036972364            9 
 3730000    0.6520762   -4.9890739    1697.2016  0.037917821  0.036962802           17 
 3731000   0.65568783   -4.9757516    1694.4221  0.037845575   0.03695323            6 
 3732000   0.66260789   -4.9669393    1695.0196  0.037848776  0.036943673            4 
 3733000   0.64790133   -4.9962694    1695.4772  0.037848852  0.036934066           12 
 3734000   0.66181461   -4.9778262    1694.6002  0.037819144  0.036924465            9 
 3735000   0.64565553   -4.9686124    1696.2884  0.037846684  0.036914925           10 
 3736000   0.66540779   -4.9621326    1693.1595  0.037766761  0.036905387            7 
 3737000   0.65950365   -4.9802866     1696.554  0.037832352  0.036895882            8 
 3738000   0.63912479   -4.9906138    1690.6176  0.037689888  0.036886364           12 
 3739000   0.66082076   -4.9648001    1692.7444  0.037727209  0.036876761            9 
 3740000   0.64845775   -4.9857982    1699.3657  0.037864654  0.036867236           20 
 3741000   0.65784251   -4.9699344    1698.4503  0.037834141  0.036857725           13 
 3742000   0.65467081    -4.967019     1695.506  0.037758462  0.036848223           12 
 3743000   0.66983577   -4.9751243    1697.5447  0.037793764  0.036838747            7 
 3744000   0.65660712   -4.9546639    1697.7207  0.037787586  0.036829268            9 
 3745000   0.66406294   -4.9705384    1698.1461  0.037786962  0.036819884            9 
 3746000   0.66128147   -4.9799327    1699.2534  0.037801508  0.036810437            5 
 3747000   0.64407963   -4.9634522    1697.2771  0.037747467  0.036801014            6 
 3748000   0.65296663   -4.9682872    1699.5678  0.037788326  0.036791584            8 
 3749000   0.65010152   -4.9965956    1695.5008  0.037687846  0.036782074           21 
 3750000   0.64386466   -5.0041664    1691.8588  0.037596862  0.036772604           14 
 3751000   0.64202468   -4.9830549    1699.1695  0.037749255  0.036763104            9 
 3752000    0.6648556   -4.9671024     1701.848  0.037798685  0.036753657           11 
 3753000    0.6508414   -4.9801666    1696.7724  0.037675912  0.036744225            9 
 3754000   0.64465479   -4.9808742    1697.7443  0.037687451  0.036734765            8 
 3755000   0.65275566   -4.9698712    1699.2731  0.037711343  0.036725366           16 
 3756000   0.65586085   -4.9739206    1700.0737  0.037719064  0.036715989           13 
 3757000   0.65776927   -4.9894157    1699.3628  0.037693257  0.036706612           22 
 3758000    0.6549763    -4.975675    1701.9624  0.037740873  0.036697237           14 
 3759000      0.65424   -4.9725513    1702.6524   0.03774613  0.036687886            9 
 3760000   0.66273342   -4.9628226    1700.3077  0.037684125  0.036678537           18 
 3761000   0.64320339   -4.9760721    1702.8859  0.037731231  0.036669169            6 
 3762000   0.64307824   -4.9770315    1698.0906  0.037614979  0.036659786            7 
 3763000   0.64767199   -4.9619786    1702.3963  0.037700334  0.036650381           17 
 3764000   0.66451324   -4.9596426    1699.6235   0.03762893  0.036640956            9 
 3765000   0.63796471   -4.9767814    1699.1405  0.037608244  0.036631614           13 
 3766000   0.65938456   -4.9913486    1701.2367  0.037644643  0.036622247            9 
 3767000   0.64493455   -4.9633124    1700.4293  0.037616788  0.036612889            9 
 3768000   0.64324025   -4.9889915    1699.7508  0.037591798  0.036603527            7 
 3769000   0.65708314   -4.9821157    1701.5124  0.037620775  0.036594107           11 
 3770000    0.6431957   -4.9779819    1702.6701  0.037636387  0.036584772            7 
 3771000   0.65255855   -5.0039263     1695.677  0.037471869   0.03657538            8 
 3772000    0.6520183   -4.9672924    1701.9732  0.037601034  0.036566012            6 
 3773000   0.64971518   -4.9628444    1701.9899  0.037591438   0.03655668            9 
 3774000   0.64940334   -4.9752401    1701.8385  0.037578133  0.036547347           13 
 3775000    0.6451283   -4.9757083    1701.8582  0.037568614  0.036538011           29 
 3776000   0.65882269   -4.9849656    1698.0599  0.037474839  0.036528593            8 
 3777000    0.6424533   -4.9989177    1697.2882   0.03744789  0.036519172            7 
 3778000   0.65415477   -5.0050039    1694.7853  0.037382772  0.036509725            5 
 3779000   0.64232545   -4.9959413    1704.8652  0.037595158  0.036500328           12 
 3780000   0.64359781   -4.9947776    1696.5646  0.037402217  0.036490951            9 
 3781000      0.62039   -5.0076334    1701.3813  0.037498486  0.036481567           18 
 3782000   0.64159214   -4.9746971    1702.5091   0.03751342  0.036472172            9 
 3783000   0.65013749   -5.0150382    1697.2683  0.037388058   0.03646284           11 
 3784000   0.64846574   -5.0080929    1701.2932  0.037466817  0.036453443           11 
 3785000   0.64745423   -4.9972404    1698.0315  0.037385105  0.036444067            6 
 3786000   0.64510553   -5.0031717    1700.0365  0.037419362  0.036434702            7 
 3787000   0.63492927   -4.9751667    1700.3981   0.03741744  0.036425367           15 
 3788000   0.63288687   -5.0183631    1697.5811   0.03734559  0.036416013           10 
 3789000   0.64342487   -5.0240084    1702.2817  0.037439115  0.036406605           12 
 3790000   0.64541557    -5.007719    1699.6216  0.037370748  0.036397189           11 
 3791000   0.64603808   -4.9877363    1698.9278  0.037345639  0.036387849            9 
 3792000    0.6432626   -4.9889104     1700.492  0.037370165  0.036378537           13 
 3793000    0.6532165   -4.9705133    1705.5528  0.037471499  0.036369239            6 
 3794000   0.64134161   -5.0050914       1703.7  0.037420928  0.036359887           30 
 3795000   0.65207039   -5.0073692    1694.2857  0.037204342  0.036350513            7 
 3796000   0.64297416    -4.987702     1704.844  0.037426327  0.036341173           11 
 3797000   0.65066879   -4.9822507    1703.9774   0.03739745   0.03633188           11 
 3798000   0.62806056   -5.0014654    1701.6606   0.03733677  0.036322563           10 
 3799000   0.66693562   -4.9867482    1699.8242  0.037286659  0.036313208           15 
 3800000   0.63582039   -4.9993137     1701.451  0.037312523  0.036303856            6 
 3801000   0.64012743   -5.0461652    1697.6314  0.037218964  0.036294454            8 
 3802000   0.64947413   -4.9835307    1707.4473  0.037424322   0.03628508            5 
 3803000   0.64080837   -5.0031732    1706.0323  0.037383475  0.036275771            8 
 3804000   0.64576511   -4.9634549    1703.1215  0.037309883   0.03626652            7 
 3805000   0.64556389   -4.9893657    1703.2218  0.037302272  0.036257263           25 
 3806000   0.65300709   -5.0013146    1702.5018  0.037276707  0.036247943           17 
 3807000   0.63920432   -4.9898544    1706.7632  0.037360196  0.036238611            8 
 3808000   0.62955177   -5.0017366    1700.9386  0.037222921  0.036229296            8 
 3809000   0.63574494   -4.9906484    1703.3468  0.037265836  0.036219966           13 
 3810000   0.63398131   -4.9968827    1702.8612  0.037245432  0.036210659           13 
 3811000   0.63864229   -5.0311142    1703.1218  0.037241359  0.036201317           13 
 3812000   0.63707041   -5.0115462    1702.8562  0.037225783  0.036191979            8 
 3813000   0.64772189   -5.0050638    1700.9521  0.037174406  0.036182681           16 
 3814000    0.6315206   -5.0101456    1703.4063  0.037218281  0.036173361            6 
 3815000   0.63604171   -5.0042977    1703.0531   0.03720081  0.036164081            7 
 3816000    0.6510592   -5.0005457    1702.8318  0.037186229  0.036154807            3 
 3817000   0.64636353   -5.0113439    1700.8248   0.03713267  0.036145528            6 
 3818000   0.64848829   -4.9771283    1702.9074    0.0371684  0.036136275            5 
 3819000   0.63056292   -4.9849871    1703.7808  0.037177725  0.036127056            9 
 3820000    0.6440007   -4.9915169    1705.0063  0.037194728  0.036117812            8 
 3821000   0.62446552   -4.9760478    1708.0615  0.037251624  0.036108629            8 
 3822000   0.65794126   -5.0132168    1704.0671  0.037154785  0.036099406           10 
 3823000   0.63851658    -5.003928    1704.9427  0.037164154  0.036090196           11 
 3824000   0.64341337   -4.9947376    1708.5525  0.037233101  0.036080986           13 
 3825000   0.64359886   -4.9958912    1707.6764  0.037204279  0.036071793            6 
 3826000   0.63393976   -4.9827716    1708.7611  0.037218181  0.036062635            6 
 3827000   0.64173921   -4.9947682    1704.0194  0.037105204  0.036053424            8 
 3828000   0.64840365   -4.9959128    1708.1803  0.037186092  0.036044261           11 
 3829000   0.63210235   -4.9812489    1703.2904  0.037069958  0.036035042            6 
 3830000   0.63493975   -5.0170453    1704.3184  0.037082645  0.036025853           11 
 3831000   0.65435019   -4.9970464    1708.8093  0.037170654  0.036016637            5 
 3832000   0.65504206   -4.9955888    1704.8585  0.037075038  0.036007446           18 
 3833000   0.65036141   -5.0097377    1705.2576  0.037074041  0.035998255           12 
 3834000   0.63320619   -5.0071612    1705.2475  0.037064153   0.03598905           16 
 3835000   0.63320088   -5.0087151    1702.7316  0.036999817  0.035979822           10 
 3836000   0.63164723   -4.9876755    1710.7594  0.037164569  0.035970666            9 
 3837000   0.63722804   -5.0062874    1703.0205  0.036986805  0.035961489            7 
 3838000   0.63356109   -5.0149393    1708.6232  0.037098819  0.035952225           12 
 3839000    0.6269255   -5.0229935    1707.2373  0.037059072  0.035942973           11 
 3840000   0.65044081   -5.0108987    1703.3638  0.036965359  0.035933743            8 
 3841000     0.622564   -5.0216434    1704.1607  0.036973025  0.035924509            9 
 3842000   0.62136047   -5.0287838     1704.713  0.036975381  0.035915322            6 
 3843000   0.63283827   -4.9953741    1707.3406  0.037022739  0.035906063            8 
 3844000   0.64088298   -5.0193254    1706.2368  0.036989178  0.035896849           12 
 3845000   0.63295451   -5.0155541    1706.9125  0.036994202  0.035887593            8 
 3846000   0.63221133   -4.9968193    1710.9486  0.037072036  0.035878394            9 
 3847000   0.64238713   -5.0353249    1698.8465  0.036800244  0.035869188           11 
 3848000   0.63373494     -5.00084    1703.3426  0.036888049  0.035859951           12 
 3849000   0.63482748   -5.0185833    1706.8354  0.036954088   0.03585071           13 
 3850000   0.64460976   -5.0118776     1707.061  0.036949372  0.035841516           16 
 3851000   0.63562529   -5.0186112     1707.033  0.036939173  0.035832333           11 
 3852000   0.62388645   -5.0046946     1706.858  0.036925797  0.035823135           12 
 3853000   0.64144409   -5.0035734     1706.105  0.036899926  0.035813933           18 
 3854000   0.63501696   -5.0334759    1704.2864   0.03685103   0.03580473           29 
 3855000   0.63776544   -5.0017963    1710.7712  0.036981652  0.035795601            5 
 3856000   0.63696875   -5.0199542    1706.1038  0.036871193  0.035786409            6 
 3857000   0.64583208   -5.0037352      1707.16  0.036884452  0.035777239           12 
 3858000   0.64074776   -5.0157851    1710.5824  0.036948816  0.035768071           21 
 3859000   0.62931493   -4.9900133    1706.8864  0.036859429  0.035758889           19 
 3860000   0.63374187   -4.9854896    1708.1668  0.036877522  0.035749759           12 
 3861000    0.6327477   -5.0227949    1707.1795   0.03684666   0.03574059           19 
 3862000   0.61929919   -5.0167846    1705.0731   0.03679167  0.035731394            8 
 3863000     0.635018   -5.0210694    1704.9969  0.036780501  0.035722223            9 
 3864000    0.6328491   -4.9875121    1708.9465  0.036856163  0.035713044            7 
 3865000    0.6393875    -5.015607    1707.9921  0.036826049  0.035703892            8 
 3866000   0.64344778   -5.0404146    1706.6686  0.036787994  0.035694663           14 
 3867000   0.64613949   -5.0185035    1703.5764  0.036711844  0.035685469           20 
 3868000   0.63519198   -5.0200375     1704.716  0.036726904  0.035676237           10 
 3869000   0.62976207   -5.0131158    1709.2302  0.036814643   0.03566711            8 
 3870000   0.63178381   -5.0090981    1707.4691  0.036767206  0.035657933            7 
 3871000   0.64913533   -5.0308129    1707.5113  0.036758618  0.035648724           18 
 3872000   0.63738492    -5.034256    1704.9426   0.03669384  0.035639518           23 
 3873000   0.64435028   -5.0154903    1710.5618  0.036805272  0.035630331            8 
 3874000   0.63376744   -5.0296211    1706.7799  0.036714418  0.035621185           12 
 3875000    0.6362617   -5.0318861    1707.7252  0.036725273  0.035611999           13 
 3876000   0.62538373   -5.0084405    1706.0022  0.036678753  0.035602794            6 
 3877000   0.63050779   -5.0126513    1710.0951  0.036757267  0.035593681            6 
 3878000   0.62595075   -4.9863886    1709.0511  0.036725355  0.035584577           15 
 3879000   0.63117848   -5.0103579    1710.7899  0.036753242  0.035575498           10 
 3880000   0.63087306   -5.0123989    1714.3109  0.036819392  0.035566429            5 
 3881000   0.63806828   -5.0137842    1711.3767  0.036746901  0.035557344           12 
 3882000   0.61956754    -5.029391    1709.1242  0.036689082  0.035548276            5 
 3883000    0.6299028   -5.0145627    1707.4217  0.036643096  0.035539183            7 
 3884000   0.61371075   -5.0377556    1707.9648  0.036645314  0.035530054            8 
 3885000   0.63165314    -5.040333    1707.4518  0.036624878  0.035520883           15 
 3886000   0.61676758   -5.0145034    1709.1921  0.036652772  0.035511784           24 
 3887000    0.6330053   -4.9855556    1713.6835  0.036739633  0.035502716            8 
 3888000   0.61444468   -5.0318495    1707.1388  0.036589908  0.035493629           17 
 3889000   0.63531784    -5.003164    1712.7661  0.036701083    0.0354845            5 
 3890000   0.63235458   -5.0442991     1704.475  0.036514031  0.035475376           10 
 3891000   0.63108647   -5.0249825    1705.0831  0.036517672  0.035466236            7 
 3892000   0.63667636   -5.0263061    1712.9237  0.036676167  0.035457106           11 
 3893000   0.64033329   -4.9974825    1712.9748  0.036667841  0.035448025           21 
 3894000   0.62683005   -5.0438186    1706.7902   0.03652607  0.035438958            9 
 3895000   0.63360782   -5.0470935    1706.3797   0.03650791  0.035429856           14 
 3896000   0.62118476   -5.0431794    1705.9435  0.036489208  0.035420673           16 
 3897000   0.62530408   -5.0142246    1706.6446  0.036494839  0.035411508            8 
 3898000   0.63154586   -5.0182509     1707.284  0.036499145  0.035402368            5 
 3899000   0.62709207    -5.002951     1709.253  0.036531867  0.035393268            9 
 3900000   0.63386213    -4.993243    1706.6283  0.036466417  0.035384151            7 
 3901000   0.61842931   -5.0188369    1707.2081  0.036469454  0.035375033           13 
 3902000   0.63229582   -5.0321719    1708.5789  0.036489384  0.035365915           10 
 3903000   0.62483998   -5.0354983    1707.9285  0.036466148  0.035356757           11 
 3904000   0.62667407   -5.0290382    1709.1992   0.03648393  0.035347614           17 
 3905000   0.61637547   -5.0294935    1709.3405  0.036477604   0.03533848           14 
 3906000   0.61941457   -5.0188423    1708.3732  0.036447628  0.035329371           34 
 3907000   0.62300253   -5.0451826    1710.6709  0.036487308  0.035320279            8 
 3908000   0.62316677   -5.0182556    1711.5587  0.036496902  0.035311194            9 
 3909000   0.62636699   -5.0337571    1706.3596   0.03637673  0.035302156           13 
 3910000   0.62484407    -5.016132    1712.5655  0.036499691  0.035293052           10 
 3911000    0.6134055   -5.0345952    1708.1992  0.036397323  0.035283966            8 
 3912000   0.62619925   -5.0270194    1707.4328  0.036371694  0.035274877            8 
 3913000   0.62166304   -5.0103082    1712.8935  0.036478692  0.035265805           18 
 3914000   0.61456289   -5.0057765     1706.983  0.036343532  0.035256746           14 
 3915000   0.62521317   -5.0325382    1708.3091  0.036362475  0.035247663           17 
 3916000   0.63063575   -5.0423382    1706.0151  0.036304372  0.035238561           25 
 3917000   0.62877996    -5.038008    1711.5826  0.036413551   0.03522942           10 
 3918000   0.61672746   -5.0590863    1705.5837  0.036276665  0.035220296           15 
 3919000   0.62764033   -5.0386149    1707.7478  0.036313427  0.035211145           13 
 3920000   0.62467896   -5.0273994    1707.8857  0.036307094  0.035202001            9 
 3921000   0.61860482   -5.0534839    1702.3671  0.036180546  0.035192806           11 
 3922000   0.61102689    -5.042955    1702.8654  0.036181911  0.035183633            8 
 3923000   0.62064612   -5.0509838    1704.8775  0.036215429   0.03517448           10 
 3924000   0.62118148   -5.0648586    1705.7661  0.036225071  0.035165324           13 
 3925000   0.63440686   -5.0423569    1712.7112  0.036363296  0.035156197           17 
 3926000   0.62854408   -5.0227228    1712.2848  0.036344981  0.035147126           12 
 3927000   0.61347616   -5.0286607     1708.577  0.036257045  0.035138011           13 
 3928000   0.61647376   -5.0291283    1706.6712  0.036207383  0.035128886            6 
 3929000   0.62469606   -5.0525655    1710.0078  0.036268937  0.035119751           11 
 3930000   0.62095593   -5.0186342    1708.7214  0.036232431  0.035110651           15 
 3931000   0.63156488   -5.0189989    1713.1923  0.036317992  0.035101586            9 
 3932000   0.61101136   -5.0571511    1710.6982  0.036255895  0.035092515           17 
 3933000   0.61484616     -5.04028     1708.797  0.036206395    0.0350834           12 
 3934000   0.60765014   -5.0307931    1711.6221  0.036257034  0.035074311            8 
 3935000   0.61951306   -5.0463262    1705.9794  0.036128323  0.035065198           10 
 3936000   0.61910058   -5.0343571    1713.4415  0.036277133  0.035056124           14 
 3937000    0.6238959   -5.0549976    1710.7259  0.036210437  0.035047045           23 
 3938000   0.62366147   -5.0668496    1708.1714  0.036147185  0.035037975           17 
 3939000   0.60938572    -5.035528    1710.7389  0.036192327  0.035028881           30 
 3940000   0.62401665   -5.0294513    1710.5036  0.036178164  0.035019841           15 
 3941000   0.62717737   -5.0532213    1707.9996  0.036116037  0.035010832           19 
 3942000   0.61468178   -5.0303918    1709.2882  0.036134116  0.035001744           12 
 3943000   0.61985917   -5.0356259    1708.9556  0.036117921  0.034992715            6 
 3944000     0.617112   -5.0325629    1711.0592  0.036153212  0.034983701           15 
 3945000   0.62441379   -5.0461905     1707.799   0.03607518  0.034974626            5 
 3946000   0.61698954   -5.0332695    1710.0082  0.036112692  0.034965595           10 
 3947000   0.61860603   -5.0365697     1715.198  0.036213115  0.034956539            5 
 3948000   0.60998996   -5.0439563    1708.3126  0.036058607    0.0349475            8 
 3949000   0.62282426   -5.0324789    1711.6279  0.036119437   0.03493843           12 
 3950000   0.62630535   -5.0775178    1708.3732  0.036041629  0.034929355           24 
 3951000   0.62605664   -5.0416393     1708.074  0.036026196  0.034920287           11 
 3952000   0.62162935   -5.0415183    1710.2068  0.036062053  0.034911234           10 
 3953000   0.60545366      -5.0232    1710.0431  0.036049479  0.034902188           40 
 3954000   0.62971593   -5.0549725    1709.6367  0.036031797  0.034893133           11 
 3955000   0.59433725   -5.0450849    1710.4103  0.036038988  0.034884077           15 
 3956000   0.61983812   -5.0568716    1704.6473  0.035908479  0.034874991           15 
 3957000   0.61474927   -5.0385379    1712.8807  0.036072798  0.034865935           11 
 3958000   0.61576537   -5.0428344    1711.9829  0.036044781   0.03485686            8 
 3959000   0.61547716   -5.0704511    1709.0525  0.035973995  0.034847795            4 
 3960000   0.62385624   -5.0681705    1704.8384   0.03587623  0.034838632           11 
 3961000   0.60801414   -5.0695852    1705.6487  0.035884219   0.03482946            6 
 3962000   0.60928812   -5.0540396    1708.7807  0.035941038  0.034820386           18 
 3963000    0.6233074   -5.0368558    1709.0243   0.03593709  0.034811267            8 
 3964000   0.62147325   -5.0654438    1706.9157  0.035883696  0.034802162            9 
 3965000   0.61272666   -5.0783631    1704.8329  0.035830872  0.034793011           11 
 3966000    0.6122341   -5.0618444    1712.8762  0.035990843  0.034783935            4 
 3967000   0.61631342   -5.0330647    1711.8227  0.035959639  0.034774869            9 
 3968000   0.61018236   -5.0443692    1709.9777  0.035911829  0.034765833            5 
 3969000   0.61099168   -5.0490917    1708.6208  0.035874292  0.034756795            8 
 3970000   0.62686246   -5.0601641    1709.0129  0.035873487  0.034747745           14 
 3971000   0.60269492   -5.0260427    1712.3399  0.035934271  0.034738691            7 
 3972000   0.60313841   -5.0561634    1706.1517  0.035795394  0.034729665            5 
 3973000   0.61197642   -5.0459389     1707.791  0.035820768  0.034720617           10 
 3974000   0.62458011   -5.0545361     1710.851  0.035875922  0.034711623           13 
 3975000   0.61090244   -5.0332854    1714.1265  0.035935566  0.034702619           17 
 3976000   0.63670059   -5.0628157    1713.8872  0.035921512  0.034693598           25 
 3977000   0.61101538   -5.0447812    1714.8278   0.03593219  0.034684546           14 
 3978000   0.59782575   -5.0691874    1712.2524  0.035869205  0.034675485           13 
 3979000   0.61782306   -5.0703951     1708.215  0.035775635  0.034666396           15 
 3980000    0.6235317    -5.049341     1709.716  0.035798074  0.034657329           10 
 3981000   0.62480374    -5.077488    1712.5906  0.035849254  0.034648258           17 
 3982000   0.61194756   -5.0746801    1711.9572  0.035826997  0.034639233           11 
 3983000   0.61113525   -5.0642924    1708.4038  0.035743656  0.034630179           13 
 3984000   0.61495678   -5.0617067    1714.4273  0.035860678  0.034621185           26 
 3985000   0.61562172   -5.0439212    1709.5909  0.035750543  0.034612146           15 
 3986000   0.61123167   -5.0473533    1709.8893  0.035747811  0.034603071           21 
 3987000   0.60234478   -5.0478898    1710.6349  0.035754429  0.034594056            8 
 3988000   0.63726923   -5.0410288    1709.3801  0.035719244  0.034585095            9 
 3989000   0.61576707    -5.050374    1713.5163  0.035796698  0.034576061           11 
 3990000   0.61784827   -5.0565197    1712.7361   0.03577143  0.034567072            6 
 3991000   0.60836579   -5.0658821    1712.7848  0.035763484  0.034558031           16 
 3992000   0.62455799   -5.0633506    1707.9666  0.035653945  0.034548989           16 
 3993000   0.61940911    -5.075654    1711.9074  0.035727261  0.034539942           16 
 3994000   0.61154716   -5.0688584    1712.5567  0.035731862  0.034530931           34 
 3995000   0.59770371   -5.0537252    1712.7583  0.035727123  0.034521944           17 
 3996000   0.59832959   -5.0626557    1708.6466  0.035632436   0.03451288           37 
 3997000   0.61147243    -5.074271    1712.9568  0.035713386   0.03450387           31 
 3998000   0.61214091   -5.0814935     1711.781  0.035679944  0.034494902           20 
 3999000   0.61584316   -5.0979975    1712.8312  0.035692906  0.034485937           11 
 4000000   0.59809418   -5.0684372    1711.3267   0.03565264  0.034476952            9 
 4001000   0.61091446   -5.0577282    1716.8318  0.035758389  0.034467969            6 
 4002000   0.61631263   -5.0685114    1710.9246  0.035626448  0.034458966           10 
 4003000   0.61536015    -5.067234    1714.9651  0.035701663  0.034449959           12 
 4004000   0.61645256    -5.041614    1714.9125  0.035691652  0.034440991           11 
 4005000   0.61063314   -5.0398998    1713.0688  0.035644378  0.034432024           10 
 4006000   0.61190785   -5.0693963    1713.7214  0.035649056   0.03442302           12 
 4007000   0.60455769   -5.0728466    1707.6308  0.035513494  0.034414042           13 
 4008000   0.61451131   -5.0569826    1711.0512  0.035575749  0.034405054            9 
 4009000   0.60647988   -5.0988552     1712.622  0.035599526  0.034396002           13 
 4010000   0.60522489   -5.0529095    1709.1831  0.035519184  0.034386988           28 
 4011000    0.6136804   -5.1005105    1710.1772  0.035530981  0.034377986           14 
 4012000   0.60944158    -5.075545    1708.7257  0.035491976  0.034368931           17 
 4013000   0.60316385   -5.0524062     1710.864  0.035527535  0.034359918           22 
 4014000   0.60172743     -5.07431    1714.4863  0.035593885  0.034350872            8 
 4015000   0.61348174   -5.0693684    1711.9206  0.035531768   0.03434187           10 
 4016000   0.61281945   -5.0492824    1712.2059  0.035528842  0.034332883           10 
 4017000   0.61172087   -5.0888716    1708.3923  0.035440882  0.034323895           22 
 4018000    0.6149883   -5.0438549     1712.771  0.035522877   0.03431489           24 
 4019000   0.61406195   -5.0602902    1710.0832  0.035458306  0.034305906            7 
 4020000   0.60053663   -5.0885063    1714.3269  0.035537457  0.034296974            6 
 4021000   0.62901885   -5.0529808     1713.779  0.035517265   0.03428804           22 
 4022000   0.60611747   -5.0735539      1715.75   0.03554927  0.034279054            6 
 4023000   0.60823635   -5.0742958    1710.6638  0.035435078  0.034270073           10 
 4024000   0.60293483   -5.0616434    1713.5942  0.035486958  0.034261116            9 
 4025000   0.61038513   -5.0704257    1712.9047  0.035463865  0.034252186            9 
 4026000   0.61571578   -5.0779517    1714.8941  0.035496234  0.034243178           15 
 4027000   0.58576056   -5.0727601     1714.868   0.03548688  0.034234188           13 
 4028000   0.60305137   -5.0739105    1714.1795  0.035463827   0.03422524           32 
 4029000   0.60456878   -5.0526738    1716.1988  0.035496789  0.034216298           13 
 4030000   0.60533747   -5.0643751    1713.2556  0.035427121  0.034207368           17 
 4031000   0.60673625   -5.0705358    1714.0645  0.035435056  0.034198437           10 
 4032000   0.60134677   -5.0905714    1708.9185   0.03531991  0.034189486           15 
 4033000   0.60632891     -5.09338    1712.8459  0.035392304  0.034180548           17 
 4034000   0.61074928   -5.0633579    1712.2384  0.035370981  0.034171599           35 
 4035000   0.59607685   -5.0757473     1712.924  0.035376373  0.034162694           12 
 4036000   0.60205875   -5.0600971     1712.389  0.035356562  0.034153778            6 
 4037000   0.59830417   -5.0687939    1717.7391  0.035458242  0.034144865           12 
 4038000   0.61412446   -5.0807456    1713.4109   0.03536014  0.034135921            9 
 4039000   0.61442337   -5.0642457    1715.7246   0.03539912  0.034126993           23 
 4040000   0.59763333   -5.0746473    1711.4085   0.03530133  0.034118097           44 
 4041000   0.60225083   -5.0816445    1711.7265  0.035299153  0.034109183           36 
 4042000   0.59991127   -5.0810718    1715.8527  0.035375488  0.034100276           13 
 4043000   0.59418764   -5.0765277    1712.0306  0.035287958  0.034091402            6 
 4044000   0.58942542   -5.0568993    1714.6934  0.035334105  0.034082489           26 
 4045000   0.61171554   -5.0824715    1712.4845  0.035279862  0.034073554           18 
 4046000   0.59283293   -5.0852039    1713.8153  0.035298551  0.034064673           31 
 4047000   0.61022366   -5.0607113    1713.6024  0.035285445  0.034055797           13 
 4048000   0.61610469   -5.0648214    1714.1881  0.035288787  0.034046916            9 
 4049000   0.59428364   -5.0888359    1717.0426   0.03533882   0.03403803           16 
 4050000   0.62282748   -5.0621399    1710.5113  0.035195705  0.034029118           30 
 4051000   0.58775836   -5.0943507    1710.4161   0.03518506  0.034020188            6 
 4052000   0.59683734   -5.0814714     1713.772  0.035245394  0.034011292           15 
 4053000   0.60992797   -5.0900687    1711.6941  0.035193974  0.034002412           22 
 4054000   0.60282962   -5.0806248     1714.646  0.035245972  0.033993562           12 
 4055000   0.59895417   -5.1007113    1714.9715  0.035243967  0.033984669           16 
 4056000   0.60266347   -5.0907484    1707.4034  0.035079786   0.03397578            6 
 4057000   0.60871407    -5.062248    1718.2287  0.035293499  0.033966943           17 
 4058000   0.59572448   -5.0973537    1711.4358  0.035145306  0.033958109            8 
 4059000   0.62064532   -5.1014682     1716.926  0.035249363  0.033949284           13 
 4060000   0.61176973   -5.0794277    1719.1936  0.035287225  0.033940489           11 
 4061000    0.6099753   -5.1096571    1710.2657  0.035095332   0.03393161           25 
 4062000   0.60111991   -5.0941739    1713.6927  0.035156999  0.033922785            7 
 4063000   0.58629148   -5.0990717    1716.0281  0.035196245   0.03391395           23 
 4064000   0.61020097   -5.0764756    1714.2549  0.035151224  0.033905105           16 
 4065000   0.58725508   -5.0869713     1720.627  0.035273206   0.03389626           20 
 4066000   0.60639572   -5.0857349    1716.3566  0.035177009  0.033887448            7 
 4067000   0.60436355   -5.0821897    1717.3552   0.03518882  0.033878647            9 
 4068000   0.61293324   -5.0857343    1714.8127  0.035128086  0.033869828            9 
 4069000    0.6083086   -5.0673934    1715.3269  0.035129985  0.033860982           21 
 4070000    0.5976312   -5.0819822    1714.4695  0.035103798  0.033852141           14 
 4071000   0.59578458   -5.0906317    1711.8431  0.035041413  0.033843321           15 
 4072000   0.61286492   -5.1013846    1716.6546  0.035131274  0.033834487           27 
 4073000   0.60391484   -5.0921715    1715.1717   0.03509231   0.03382562           16 
 4074000   0.60330709   -5.0811941    1716.6546  0.035114027  0.033816794           15 
 4075000   0.60533233   -5.0679683    1717.2607  0.035117805  0.033807958            9 
 4076000   0.60907614   -5.0838339    1716.0568  0.035084577  0.033799093           13 
 4077000   0.60536486   -5.0819147    1713.7563   0.03502895  0.033790253           18 
 4078000   0.60422046   -5.0732456    1715.4324   0.03505461  0.033781439           17 
 4079000   0.60311909   -5.0871972    1712.7215  0.034990633  0.033772604           17 
 4080000   0.59677709   -5.0821608    1715.8906  0.035046785  0.033763769            7 
 4081000   0.61276644   -5.1072293    1711.5129  0.034948805   0.03375494           20 
 4082000   0.60596766   -5.1129385     1715.302  0.035017597   0.03374608            8 
 4083000   0.59597882   -5.0992244    1714.8598  0.034999997  0.033737263           15 
 4084000   0.59890195   -5.0964117    1717.1729  0.035038624   0.03372847           23 
 4085000   0.60070279   -5.0943666    1718.8297  0.035063846  0.033719668           12 
 4086000   0.58937798   -5.0910119     1715.762  0.034992698  0.033710914           17 
 4087000   0.59976976   -5.1040998     1717.312  0.035015741  0.033702182            8 
 4088000   0.58875045   -5.0908164    1719.6326   0.03505448  0.033693373            7 
 4089000   0.59855183   -5.1059852    1717.2694  0.034997745  0.033684602           11 
 4090000   0.59826486   -5.0868073    1715.5283  0.034953715  0.033675807           15 
 4091000    0.5979118   -5.1049428     1714.324  0.034920638  0.033666998           10 
 4092000   0.60251378   -5.1110241    1714.9028  0.034923893  0.033658191            9 
 4093000    0.5874568   -5.1144738    1715.3629  0.034924726  0.033649409           26 
 4094000   0.59110022   -5.0888522     1714.395  0.034896496  0.033640627           17 
 4095000   0.59169091   -5.1005256    1716.4703  0.034930205  0.033631857           13 
 4096000   0.60311923   -5.0793169    1719.9174   0.03499181   0.03362311           21 
 4097000   0.59547612   -5.0788571    1717.4696   0.03493348  0.033614411            8 
 4098000   0.59954374   -5.0943355    1718.4239   0.03494436  0.033605715           12 
 4099000   0.59730776   -5.1245023    1719.5587  0.034958906   0.03359698           13 
 4100000   0.58688055   -5.1001889    1720.8054   0.03497572  0.033588239           14 
 4101000   0.60325501    -5.088822    1720.4527  0.034960025  0.033579523           15 
 4102000   0.59297536   -5.1029773    1720.5369  0.034953211  0.033570778           16 
 4103000   0.59364388   -5.1058296    1713.6602  0.034805025  0.033562009            7 
 4104000   0.58534049    -5.101999    1716.8291   0.03486089  0.033553267           25 
 4105000   0.58879863    -5.111023    1716.2153  0.034839938  0.033544501           21 
 4106000   0.60680497   -5.0968124    1715.5003  0.034816941  0.033535724           22 
 4107000   0.59652561   -5.1071616    1716.7037  0.034832882  0.033526971            7 
 4108000   0.59512118   -5.0895975    1715.6415  0.034802855  0.033518217           15 
 4109000   0.59590836   -5.1016765    1717.4149   0.03483035    0.0335095           10 
 4110000   0.58822593   -5.0886323     1718.187  0.034837531   0.03350077           11 
 4111000   0.60286936    -5.119152    1714.5051   0.03475442  0.033492054           16 
 4112000   0.60715406   -5.0965326    1717.9857  0.034816506  0.033483319           29 
 4113000   0.59861966    -5.131114    1710.7192  0.034660815  0.033474598           11 
 4114000   0.59617879   -5.1232049    1717.4591  0.034788914  0.033465809           15 
 4115000   0.59972404   -5.1178658    1720.2562  0.034837103  0.033457041           15 
 4116000   0.60985597   -5.0967453    1719.2993  0.034809266  0.033448294           12 
 4117000   0.59049047   -5.1083775    1716.8403  0.034751039  0.033439558           14 
 4118000   0.58327817    -5.111345    1716.8369  0.034742531  0.033430791            8 
 4119000   0.58186115   -5.1213562    1712.6768   0.03464993  0.033422011            8 
 4120000   0.59761907   -5.1186728    1715.1849  0.034692252  0.033413257            7 
 4121000   0.59633257   -5.1355634    1714.9795   0.03467968  0.033404518           10 
 4122000   0.57993269   -5.1189919    1714.2558  0.034656635  0.033395746           19 
 4123000   0.58912554   -5.1149576     1715.665  0.034676712  0.033387003           16 
 4124000   0.59982376    -5.113852    1714.2063  0.034638827  0.033378277           14 
 4125000   0.59657641    -5.126598    1712.5732  0.034597438  0.033369495           14 
 4126000   0.60178338   -5.1246802    1718.4751  0.034708255  0.033360704           19 
 4127000   0.58368616   -5.1393909    1717.5464  0.034681092  0.033351932           17 
 4128000   0.59209871   -5.1223805    1715.3636  0.034628625  0.033343179           17 
 4129000   0.57706303   -5.1245176    1715.1067  0.034615055   0.03333441           19 
 4130000   0.59399587   -5.1139397    1715.3862  0.034612313  0.033325625           20 
 4131000   0.58770229   -5.0837753    1716.5313  0.034627034  0.033316844           28 
 4132000   0.59515651   -5.1358143    1718.3122  0.034654569  0.033308076           17 
 4133000   0.59139807   -5.1068385     1715.798  0.034595492  0.033299292           19 
 4134000   0.58802993   -5.1133176    1714.4975  0.034560907  0.033290483           14 
 4135000   0.59284564   -5.1232499    1713.4372  0.034531182  0.033281678           18 
 4136000   0.58862631   -5.1177256    1715.2304  0.034558962  0.033272843           18 
 4137000   0.58246266   -5.1047275    1710.2346  0.034449976  0.033264061           11 
 4138000   0.58748053   -5.1079661    1715.4835  0.034547355  0.033255263           18 
 4139000   0.58733851    -5.120616    1716.0675  0.034550767  0.033246475           14 
 4140000   0.58818046    -5.137963    1713.4868  0.034490474  0.033237694           13 
 4141000   0.59237389   -5.1130798    1713.1217  0.034474799  0.033228904           11 
 4142000   0.57577443   -5.1051084    1710.6582  0.034416913   0.03322013           26 
 4143000   0.57980923   -5.0664432    1720.7717  0.034612031   0.03321143           17 
 4144000   0.58884745   -5.0975333    1716.4402  0.034516575  0.033202741            9 
 4145000   0.57272728   -5.0913769    1717.6188  0.034531942  0.033194021           17 
 4146000   0.59548177   -5.1122799     1713.414  0.034439099   0.03318525            8 
 4147000   0.58880645   -5.1104153    1715.5741    0.0344742  0.033176499           13 
 4148000    0.5811945   -5.1319105    1715.4837  0.034464073   0.03316772           15 
 4149000   0.57761596   -5.1241018    1710.3923  0.034353504  0.033158903           23 
 4150000   0.58902219   -5.1138662    1711.8599  0.034374696  0.033150108            8 
 4151000   0.58701259   -5.1045488    1713.0664  0.034390636  0.033141324           11 
 4152000   0.59946688    -5.146533    1711.8646  0.034358233  0.033132543            7 
 4153000   0.58858306   -5.1192482    1714.9318  0.034411505  0.033123773           20 
 4154000   0.60727819   -5.1216626    1714.2774  0.034390094  0.033115016           26 
 4155000   0.58657588   -5.0998839    1716.3272  0.034422929  0.033106303           15 
 4156000   0.59158244   -5.1216877    1715.2911   0.03439387    0.0330976           21 
 4157000   0.59986883   -5.1028473    1718.2702  0.034445316  0.033088873           30 
 4158000   0.59041225   -5.1079072    1718.3919  0.034439473  0.033080179           10 
 4159000   0.59099231   -5.1423224    1714.3714  0.034350633  0.033071477           15 
 4160000   0.59666369   -5.1070933    1713.6993  0.034328912  0.033062746           11 
 4161000   0.58852192   -5.1276171    1715.9323  0.034365384  0.033054018            6 
 4162000   0.56884355   -5.1082056    1716.3957  0.034366405  0.033045286           17 
 4163000   0.59034798   -5.1250522     1717.283   0.03437591  0.033036549           17 
 4164000    0.5988151   -5.1316233    1712.3067  0.034268065  0.033027807           10 
 4165000   0.57295445   -5.1346757    1716.3467   0.03434067  0.033019074           14 
 4166000   0.56551493   -5.1296298    1714.7674  0.034300837  0.033010322           23 
 4167000   0.57802307   -5.1393358    1711.7596  0.034232454  0.033001561            8 
 4168000    0.5794352   -5.1114166    1712.8504   0.03424605  0.032992794           16 
 4169000   0.57470869   -5.1290228    1716.5227   0.03431124  0.032984047           16 
 4170000   0.58251364   -5.1469456    1710.9028  0.034190703  0.032975275           11 
 4171000   0.58421109   -5.1342949    1714.5773  0.034255921   0.03296649           22 
 4172000   0.58885893   -5.1199311     1717.944  0.034314956  0.032957743           13 
 4173000   0.57285346   -5.1081137    1714.2932  0.034233828  0.032949021           11 
 4174000   0.57927196   -5.1141319    1716.7098  0.034273873  0.032940275           17 
 4175000   0.56472031   -5.1118623    1719.7234  0.034325817   0.03293154           12 
 4176000   0.57827411   -5.1321042    1714.2795  0.034208962  0.032922802            9 
 4177000   0.58363804   -5.1157298    1720.1123   0.03431714  0.032914087           13 
 4178000   0.57692603   -5.1035673    1714.7687  0.034202344  0.032905379           12 
 4179000    0.5851906   -5.1308877    1715.6151  0.034211037  0.032896628           19 
 4180000   0.57758093   -5.1315388    1712.4353  0.034139459  0.032887873           18 
 4181000   0.58929458   -5.1394767    1716.0618  0.034203575  0.032879129           10 
 4182000   0.57472146   -5.1379888    1711.7188  0.034108856  0.032870365            9 
 4183000   0.59672689   -5.1125211    1717.9916  0.034225668  0.032861664           11 
 4184000    0.5845012   -5.1166029    1717.9012  0.034215686  0.032852948           14 
 4185000   0.59016138   -5.1196757    1711.2149  0.034074371  0.032844218           14 
 4186000   0.58914164   -5.1288513    1722.1145  0.034283216  0.032835483           23 
 4187000   0.57537905   -5.1408684     1710.296  0.034039806  0.032826745           17 
 4188000   0.57903566   -5.1477401    1715.9181  0.034143548   0.03281803           10 
 4189000   0.58967395   -5.1367185    1715.1561  0.034120237  0.032809324            9 
 4190000    0.5788331   -5.1351777    1719.3547  0.034195598  0.032800611           11 
 4191000   0.58365742   -5.1274543    1714.0922    0.0340828  0.032791865           23 
 4192000   0.57746018   -5.1050336    1719.9603  0.034191323  0.032783174            9 
 4193000   0.57675242   -5.1263185     1716.524  0.034114873  0.032774486           20 
 4194000   0.58352757   -5.1209556    1716.4962  0.034106188  0.032765826            9 
 4195000   0.57942963   -5.1149867    1720.4161  0.034175926  0.032757173           11 
 4196000   0.59024086   -5.1166168    1720.2484   0.03416445  0.032748504            7 
 4197000    0.5973693   -5.1243239    1715.9036  0.034070042  0.032739835           10 
 4198000   0.57835684   -5.1187936    1718.2855   0.03410921  0.032731134            9 
 4199000    0.5819622   -5.1477177    1714.8254  0.034032417   0.03272243           12 
 4200000   0.58730795   -5.1353668    1721.1049  0.034148906  0.032713748           18 
 4201000   0.57745991   -5.1389248    1714.3459  0.034006703  0.032705087            9 
 4202000   0.57611826   -5.1266637    1716.4329  0.034039999   0.03269641           11 
 4203000    0.5755196   -5.1300991    1715.9118  0.034021568  0.032687719            7 
 4204000   0.57139136   -5.1304944    1713.0293  0.033956338   0.03267903            6 
 4205000   0.58752255   -5.1243801    1713.6071  0.033959712  0.032670384           11 
 4206000   0.57727128   -5.1429224    1714.8986  0.033977227  0.032661734           25 
 4207000   0.57084577   -5.1322825    1717.1587  0.034013919  0.032653091           11 
 4208000   0.57707211   -5.1196912    1720.0823  0.034063734  0.032644444           13 
 4209000   0.58563561   -5.1136211    1715.5155  0.033965223  0.032635831            9 
 4210000   0.57243257   -5.1149809    1717.3356  0.033993183  0.032627167           10 
 4211000   0.58362043   -5.1072807    1719.1044  0.034020115  0.032618546            8 
 4212000   0.58857636   -5.1069719    1718.4398  0.033998888  0.032609942           10 
 4213000   0.57377372   -5.1383389      1719.31  0.034008031  0.032601279            9 
 4214000   0.57799143   -5.1413115    1710.3455  0.033822685   0.03259261           11 
 4215000   0.57968577   -5.1535476    1712.8433  0.033864044  0.032583877            6 
 4216000    0.5877764   -5.1310293    1717.1373  0.033940885  0.032575205           21 
 4217000   0.57555809   -5.1352149    1715.3172   0.03389687  0.032566496           15 
 4218000   0.57005158   -5.1465276    1717.7349    0.0339366  0.032557795           16 
 4219000    0.5698346   -5.1467726    1714.1248   0.03385725  0.032549083           24 
 4220000   0.57494216   -5.1504651    1712.2073   0.03381136  0.032540359            9 
 4221000   0.58208463   -5.1297932    1715.6449  0.033871217  0.032531662           20 
 4222000   0.57276361   -5.1376488    1714.9966  0.033850398  0.032522951           13 
 4223000   0.57251047   -5.1189867    1717.7797  0.033897303  0.032514288           15 
 4224000   0.58108833   -5.1388237    1714.0834  0.033816355  0.032505632           14 
 4225000   0.57196737   -5.1400632    1717.7867  0.033881394  0.032496942           14 
 4226000   0.58297332   -5.1096432    1716.7514  0.033852962  0.032488299            8 
 4227000    0.5794118   -5.1215681    1712.0063  0.033751406  0.032479633           18 
 4228000   0.57717536   -5.1563089    1713.3212  0.033769338  0.032470966           25 
 4229000    0.5716896   -5.1522711    1712.6599  0.033748324  0.032462286           26 
 4230000   0.57304429   -5.1324782    1717.5352  0.033836391  0.032453605           13 
 4231000    0.5668782   -5.1281582     1716.222  0.033802528   0.03244491            9 
 4232000   0.58255024   -5.1486936    1714.2907  0.033756512  0.032436174            8 
 4233000   0.58014066   -5.1401651    1716.9678  0.033801241  0.032427496           12 
 4234000   0.59038572   -5.1453696     1715.085    0.0337562  0.032418839           15 
 4235000   0.56923041   -5.1442873     1714.927  0.033745121  0.032410154            6 
 4236000    0.5718286   -5.1442077    1714.4746  0.033728253  0.032401433           10 
 4237000   0.57759319   -5.1600685    1715.6313  0.033743044  0.032392733           15 
 4238000   0.57263482   -5.1721119    1712.8742  0.033680868  0.032383995           12 
 4239000   0.57400904   -5.1541947    1714.2851   0.03370066  0.032375284           10 
 4240000   0.56777864   -5.1382901    1709.1826  0.033592426  0.032366631           21 
 4241000   0.56981689   -5.1685201    1712.7942   0.03365547  0.032357958           17 
 4242000   0.57552371   -5.1681406    1710.3056  0.033598649  0.032349265           18 
 4243000   0.57027263   -5.1466481     1716.336  0.033709167  0.032340597           11 
 4244000   0.58168718   -5.1609477    1713.1477  0.033638622  0.032331902           20 
 4245000   0.57025431   -5.1522936      1713.73  0.033642129  0.032323222           22 
 4246000   0.56899278   -5.1459179    1715.0962  0.033661019   0.03231456            6 
 4247000   0.56008656   -5.1499046    1713.5235  0.033622233  0.032305892           21 
 4248000   0.56854115   -5.1622949    1715.8431  0.033659822  0.032297257           13 
 4249000   0.57342753   -5.1463072    1713.1996  0.033600054  0.032288649           13 
 4250000    0.5658622    -5.167317    1716.6588  0.033659976   0.03227998           10 
 4251000   0.57042856   -5.1594145    1715.8016  0.033635254  0.032271313           25 
 4252000    0.5734269    -5.146377    1713.9227   0.03359052  0.032262666           12 
 4253000   0.58175077   -5.1581324    1716.6439  0.033635941   0.03225401           16 
 4254000   0.57439692   -5.1447292    1716.9021  0.033633093  0.032245368           15 
 4255000    0.5625046   -5.1268992    1712.1949  0.033532998  0.032236745           17 
 4256000   0.58009044   -5.1285223    1716.8747   0.03361675  0.032228129           10 
 4257000   0.58017136   -5.1702937    1715.2262  0.033576584  0.032219544           21 
 4258000   0.56767228   -5.1702419    1715.6496  0.033576984  0.032210941            8 
 4259000   0.58048772    -5.166643    1710.9153  0.033476467  0.032202326           16 
 4260000   0.57429267   -5.1669181    1715.0778  0.033550035  0.032193725           16 
 4261000   0.56878301   -5.1766599    1716.9332  0.033578448  0.032185094           17 
 4262000   0.57791245   -5.1708386    1714.6285  0.033525506  0.032176515            9 
 4263000   0.57037551   -5.1626395    1714.4377  0.033513912  0.032167945           19 
 4264000   0.57164654   -5.1688987    1715.4459  0.033525757  0.032159367           44 
 4265000   0.55259352   -5.1600549    1716.4915  0.033538326  0.032150788           44 
 4266000   0.57246584   -5.1441632    1714.7701  0.033496837  0.032142228           19 
 4267000   0.56928828   -5.1753058    1715.7642  0.033508401  0.032133632           17 
 4268000   0.56674555   -5.1553136    1717.2758  0.033530065   0.03212507           21 
 4269000   0.57322041    -5.149507    1717.9321  0.033535022  0.032116527           16 
 4270000   0.58660413   -5.1485021    1715.6657  0.033482936  0.032107947           19 
 4271000   0.56583386   -5.1597619    1714.9861  0.033461838  0.032099384           50 
 4272000   0.56788044   -5.1587283    1716.8603  0.033490564  0.032090828           18 
 4273000   0.56479779   -5.1362797    1718.2199  0.033509242  0.032082283           25 
 4274000   0.56752734   -5.1588939    1718.2776  0.033502527  0.032073749           15 
 4275000   0.57234007   -5.1376462    1717.6558   0.03348257  0.032065196           39 
 4276000    0.5693898   -5.1489205    1716.4811  0.033451845  0.032056701           12 
 4277000    0.5682642   -5.1577211    1714.8602  0.033412443  0.032048161           15 
 4278000   0.57880794   -5.1354106    1718.0092  0.033465973  0.032039629           12 
 4279000   0.58337195   -5.1461028    1715.9852  0.033418734  0.032031088           19 
 4280000   0.55934277   -5.1457312    1714.8321  0.033388476  0.032022585            7 
 4281000   0.57110872    -5.177135    1717.4888  0.033432392  0.032014022           10 
 4282000   0.56316809    -5.135355    1717.0509  0.033416062  0.032005456            8 
 4283000   0.56092645   -5.1797877    1710.7351  0.033285374  0.031996899           11 
 4284000   0.57347684   -5.1379213    1717.1143  0.033401694  0.031988332           10 
 4285000   0.56424943   -5.1707946     1713.232  0.033318398  0.031979746           14 
 4286000   0.56900077   -5.1831797    1714.1005  0.033327511  0.031971139           42 
 4287000   0.56228237   -5.1665639    1712.6481  0.033291504  0.031962541           24 
 4288000   0.56238067   -5.1824629    1715.4831  0.033338834  0.031953961           14 
 4289000   0.57744501   -5.1772837    1715.0501   0.03332265  0.031945362           15 
 4290000   0.56737663   -5.1645772    1712.8326  0.033271807  0.031936736           12 
 4291000   0.56433372   -5.1545803    1715.6539  0.033318843  0.031928168           25 
 4292000   0.56470932   -5.1864452    1717.0237  0.033337678  0.031919571           10 
 4293000   0.55988495   -5.1592646    1718.1217  0.033351225  0.031910974           14 
 4294000   0.55169531   -5.1600887     1714.202  0.033267389  0.031902381           13 
 4295000   0.57049864   -5.1558363    1714.8413  0.033272046  0.031893805            8 
 4296000   0.56242828   -5.1874672    1711.5922  0.033201277  0.031885227           14 
 4297000   0.57662608    -5.173554    1710.9443  0.033180984  0.031876588           27 
 4298000   0.57059583   -5.1916201    1713.5937  0.033224633  0.031867979           21 
 4299000   0.55653446   -5.1839025    1713.2184  0.033209631  0.031859382           23 
 4300000   0.55928615   -5.1625059    1714.3851  0.033224518   0.03185081           26 
 4301000    0.5632168   -5.1699178    1715.8805  0.033245766  0.031842243           23 
 4302000   0.57061001   -5.1659078    1713.3699  0.033189407  0.031833672           19 
 4303000   0.57843391   -5.1824577    1712.0111  0.033155377  0.031825083           14 
 4304000   0.55541522   -5.1760027    1714.2901  0.033191801  0.031816512           17 
 4305000    0.5689799   -5.1586283    1713.0562  0.033160206  0.031807943           21 
 4306000   0.55528398   -5.1683931    1715.0878  0.033191822  0.031799388           29 
 4307000   0.55139841   -5.1619352    1712.8386  0.033140596  0.031790821           13 
 4308000   0.55883746   -5.1830413    1713.1057  0.033138071  0.031782263           15 
 4309000   0.55572473   -5.1856747    1717.5832  0.033216972  0.031773705           18 
 4310000   0.56441114   -5.1613436    1717.7771  0.033213014  0.031765181           33 
 4311000    0.5635399    -5.156211    1718.2233  0.033213936  0.031756648           39 
 4312000   0.56748208   -5.1619062    1716.4896  0.033172727  0.031748122           16 
 4313000   0.56138549   -5.1531705     1718.189  0.033197871   0.03173961           35 
 4314000   0.55350575   -5.1665101     1711.729  0.033065388  0.031731107           29 
 4315000   0.55719487   -5.1652447    1713.3115  0.033088287  0.031722593           33 
 4316000   0.55753946   -5.1620022    1717.4854  0.033161211  0.031714126           21 
 4317000   0.57377848   -5.1746631    1715.5939  0.033117016  0.031705662           34 
 4318000   0.56169402   -5.1657772    1716.9285  0.033135102   0.03169717           10 
 4319000   0.56190295   -5.1544801    1718.6245  0.033160155  0.031688666           10 
 4320000    0.5698055   -5.1453915    1724.0959  0.033258023  0.031680206            7 
 4321000   0.56231607   -5.1832158    1715.2266  0.033079277   0.03167174           19 
 4322000   0.56631284   -5.1813522    1716.2384  0.033091131   0.03166325           10 
 4323000   0.55085086   -5.1823174     1717.649  0.033110668  0.031654762            9 
 4324000    0.5572184   -5.1518651    1719.4876  0.033138445  0.031646273           25 
 4325000   0.55915858   -5.1718277    1715.9444  0.033062512  0.031637789           24 
 4326000   0.56419774   -5.1642678    1716.7524  0.033070435  0.031629303           15 
 4327000   0.55588534   -5.1729809    1716.6509  0.033060837  0.031620826           12 
 4328000   0.55971296   -5.1546816    1715.1403  0.033024112  0.031612335           22 
 4329000   0.56113619   -5.1889326      1715.33  0.033020135  0.031603826           12 
 4330000   0.56975188   -5.1652332    1717.4551  0.033053409  0.031595342           10 
 4331000    0.5558263   -5.1921354    1712.9311  0.032958729   0.03158684            9 
 4332000    0.5622053   -5.1741269    1717.4149  0.033037376  0.031578331           22 
 4333000   0.56887129    -5.200718    1711.5195  0.032916369  0.031569831           14 
 4334000   0.55467903   -5.1860283    1718.4743  0.033042499  0.031561324            6 
 4335000    0.5756787   -5.1957178    1715.5315  0.032978306  0.031552825           16 
 4336000   0.54859338   -5.2005356    1715.3105  0.032966453  0.031544347           12 
 4337000   0.55764937   -5.1967992    1715.6086   0.03296458  0.031535849           15 
 4338000   0.56205346   -5.1991754    1712.4609  0.032896513  0.031527345           16 
 4339000   0.56055066   -5.1779846     1717.953  0.032994411  0.031518861           26 
 4340000   0.55251447    -5.180329    1720.2097   0.03303014  0.031510385           16 
 4341000   0.55939531   -5.1832711    1718.0628  0.032981317  0.031501906           16 
 4342000   0.56329461   -5.1811116    1713.6571  0.032889165  0.031493399           26 
 4343000   0.56557055   -5.1853146    1716.7546  0.032941028  0.031484947           13 
 4344000   0.57026024   -5.1942811    1715.3061  0.032905657  0.031476483           15 
 4345000   0.54590248   -5.1920107    1714.9473  0.032891202  0.031468022           22 
 4346000   0.56709669    -5.209492    1718.3223  0.032948348  0.031459549           16 
 4347000   0.56261984   -5.1617768     1717.694  0.032928724  0.031451081           11 
 4348000    0.5521833   -5.1878419    1720.0818  0.032966915  0.031442655            9 
 4349000   0.54781222    -5.202736    1720.4315  0.032966036  0.031434253           17 
 4350000   0.56248602   -5.1602811    1715.8759  0.032871187  0.031425884           10 
 4351000   0.57033117   -5.1968086    1718.2836  0.032909745  0.031417492            9 
 4352000   0.55839902   -5.1855418    1716.6531  0.032870962  0.031409075           15 
 4353000   0.56339875   -5.1789157    1717.4066  0.032877834  0.031400689           25 
 4354000     0.549808   -5.1640158    1715.5884  0.032835484  0.031392263           28 
 4355000   0.54372479   -5.2042317    1721.6513  0.032943958  0.031383852           46 
 4356000   0.54045279   -5.2059222    1718.7124  0.032880172  0.031375461           34 
 4357000   0.56165877   -5.2024323    1718.1039  0.032860988  0.031367062           29 
 4358000   0.55980299   -5.1857654    1716.3934  0.032820739   0.03135865           26 
 4359000   0.57139916   -5.1785011    1718.4687  0.032852886   0.03135023           25 
 4360000   0.55414076   -5.1900391    1718.2522  0.032841211  0.031341833            8 
 4361000   0.55296715   -5.1845627    1717.1702  0.032813005  0.031333481           13 
 4362000   0.55297484   -5.1858659    1717.3219  0.032808381  0.031325107           24 
 4363000   0.55813015   -5.1633332    1720.8187   0.03286765  0.031316802            9 
 4364000   0.54639173   -5.1830203    1717.4312  0.032795432  0.031308461           11 
 4365000   0.55082355   -5.1723947    1716.7971  0.032775814  0.031300113           24 
 4366000   0.56342207   -5.1766409    1720.7767  0.032844264  0.031291787           24 
 4367000   0.54915608   -5.1863283    1718.2445  0.032788422  0.031283445           25 
 4368000   0.55538771   -5.2119809     1718.817  0.032791838  0.031275092           40 
 4369000   0.55280526   -5.2124991     1714.359  0.032699302  0.031266732           11 
 4370000   0.54987284   -5.1900478    1721.4849  0.032827706  0.031258394            8 
 4371000   0.55338216   -5.1970404    1722.9504  0.032848135  0.031250069           29 
 4372000   0.56059673   -5.1901246    1716.1722  0.032711426  0.031241737           17 
 4373000   0.54394786   -5.1714517    1720.0669  0.032778162  0.031233419           11 
 4374000   0.55307898    -5.194556    1721.9988  0.032807476  0.031225094           10 
 4375000   0.56011042   -5.1909553    1719.0331  0.032743488   0.03121676            9 
 4376000   0.54545138   -5.1718004     1719.696  0.032748629  0.031208461           28 
 4377000   0.55899342   -5.2149532    1719.4708  0.032736859  0.031200148           10 
 4378000   0.55021442   -5.1945657    1718.9538  0.032719542   0.03119184           17 
 4379000   0.55504546   -5.2143754    1721.5006  0.032760534  0.031183531            8 
 4380000   0.55499486   -5.1969771    1718.8023  0.032701719  0.031175224           14 
 4381000   0.55782201   -5.2201778    1717.7914  0.032675024  0.031166906           15 
 4382000   0.54481484   -5.2098301    1720.4092  0.032717351  0.031158525           16 
 4383000   0.55312991   -5.2134231    1716.5686  0.032636866  0.031150191           22 
 4384000   0.53663356    -5.200544     1719.109  0.032677711  0.031141871           24 
 4385000   0.55976027   -5.1936904     1719.511  0.032677898  0.031133563           24 
 4386000   0.54125388   -5.1926493    1721.3427   0.03270525  0.031125246           19 
 4387000   0.55135808    -5.200398    1718.8486  0.032650418   0.03111695           11 
 4388000   0.55125801   -5.2006552    1715.3154  0.032575878  0.031108634           15 
 4389000   0.54381391   -5.2062798     1717.622  0.032612251  0.031100321           48 
 4390000   0.54732683   -5.1923465    1720.3722  0.032657027  0.031092009           21 
 4391000    0.5516876   -5.2006435    1720.8327   0.03265833  0.031083691           37 
 4392000   0.53508112   -5.2195375    1713.5583  0.032512871  0.031075364           30 
 4393000   0.55341458    -5.199814    1719.1436   0.03261142  0.031067028           31 
 4394000   0.55453407   -5.2040462    1718.1951   0.03258601  0.031058716           13 
 4395000   0.54361564   -5.1902489    1718.2594  0.032579813  0.031050439           19 
 4396000   0.54994379    -5.192727    1716.8627  0.032545925  0.031042152           22 
 4397000   0.53998847   -5.1900598     1722.442  0.032644265  0.031033829           28 
 4398000   0.56278123   -5.1987249    1719.6754  0.032584421  0.031025529           25 
 4399000   0.55058237   -5.2205547    1719.3879  0.032571567  0.031017207           23 
 4400000   0.54081567   -5.1983119    1719.5249   0.03256676  0.031008929           13 
 4401000   0.54632381   -5.1968411    1720.2441  0.032572978  0.031000662           20 
 4402000   0.54714271   -5.2154526    1720.0039   0.03256103  0.030992416           20 
 4403000   0.55568839   -5.1888629    1716.4318  0.032486029  0.030984149           10 
 4404000   0.54516325   -5.2010217    1719.3304    0.0325335  0.030975869           15 
 4405000   0.55009806     -5.21388    1720.1207  0.032541066  0.030967572           18 
 4406000    0.5443144   -5.2075395      1720.51  0.032541043  0.030959293           39 
 4407000   0.54241698   -5.2027059    1717.7035   0.03248059  0.030951013           14 
 4408000   0.55047467    -5.187548    1715.9575  0.032440212  0.030942747           17 
 4409000   0.54716919   -5.2094986    1718.1694  0.032474661  0.030934471           16 
 4410000   0.55158783   -5.2109374    1718.7196  0.032477695  0.030926212           43 
 4411000   0.54895339   -5.2197645    1721.6335  0.032525382  0.030917924           15 
 4412000   0.54643416   -5.2113696    1720.7039  0.032500451   0.03090963           10 
 4413000   0.53884213   -5.1969381    1716.1412  0.032406927  0.030901333           12 
 4414000   0.54193303   -5.2090999     1720.102  0.032474363   0.03089305           18 
 4415000   0.54253673   -5.2220198    1717.7277  0.032422192  0.030884768           30 
 4416000   0.54205218   -5.2175968    1717.1003   0.03240301  0.030876468           20 
 4417000   0.53840816   -5.2223015     1718.259  0.032417534  0.030868163           17 
 4418000   0.54544209   -5.2125077    1714.8043  0.032345033  0.030859846           22 
 4419000   0.54479156   -5.2088452    1715.3296   0.03234762  0.030851539           22 
 4420000   0.54629961   -5.2095844     1721.193  0.032450849  0.030843229           22 
 4421000     0.542193   -5.2135247    1716.6775  0.032358393  0.030834942           33 
 4422000   0.52327873   -5.2265812    1718.5733  0.032386803  0.030826653           11 
 4423000   0.54073526   -5.2136616    1716.7789  0.032345672  0.030818359           33 
 4424000    0.5371641   -5.2053978    1717.2669  0.032347553  0.030810061            9 
 4425000   0.53521873   -5.2131106    1717.9975  0.032354002  0.030801799            8 
 4426000   0.54148192   -5.2129508    1718.6977  0.032359875  0.030793522           25 
 4427000   0.53414812   -5.2107766    1719.8291  0.032373862  0.030785249           21 
 4428000   0.53530723   -5.2054029    1722.2297   0.03241173  0.030776999           14 
 4429000   0.53780019    -5.202528    1717.1445  0.032308731  0.030768777           10 
 4430000    0.5461553   -5.2158229    1717.9616   0.03231681  0.030760543           32 
 4431000   0.54921814   -5.2065153    1718.5101  0.032319832  0.030752282           14 
 4432000   0.53616966    -5.216649    1715.3309  0.032252761  0.030744036            9 
 4433000   0.54759957   -5.2216501    1716.6462  0.032270213  0.030735771           14 
 4434000   0.55047808   -5.2097209    1716.4585  0.032259407  0.030727505           12 
 4435000   0.55224666   -5.2112472    1720.7331  0.032332452   0.03071924           18 
 4436000   0.55164281   -5.2030256    1720.7606   0.03232568  0.030710973           11 
 4437000   0.54581744   -5.2090466    1717.9673  0.032265932  0.030702723           24 
 4438000   0.54513483   -5.2284175    1718.7917  0.032274142  0.030694473           58 
 4439000   0.54173973   -5.2079895    1717.3717  0.032240213  0.030686196           42 
 4440000   0.53782782   -5.1887632    1720.8967  0.032299113  0.030677944           43 
 4441000   0.54298498   -5.2058333    1717.2969   0.03222429  0.030669714           75 
 4442000   0.53350339    -5.211685    1717.9771  0.032229797  0.030661438           32 
 4443000   0.53289272   -5.2063042    1719.0042  0.032241806  0.030653197           25 
 4444000   0.54166067   -5.2187837    1718.4094  0.032223399  0.030644959           11 
 4445000   0.53960329   -5.2142603    1714.9097  0.032150539  0.030636699           29 
 4446000   0.54941075   -5.2277514    1717.5739  0.032193243  0.030628435           42 
 4447000   0.53853345   -5.1989896    1719.3282  0.032218877  0.030620182           19 
 4448000   0.53358071   -5.2352021    1716.9583  0.032167234  0.030611938           31 
 4449000   0.53719568   -5.2212307    1719.9227   0.03221553  0.030603696           25 
 4450000   0.55496121   -5.2262437    1714.4659  0.032106103  0.030595447           37 
 4451000   0.55420889   -5.2219933    1718.8155  0.032180324  0.030587196           15 
 4452000   0.55543671   -5.2367994    1717.2015  0.032142885  0.030578931            8 
 4453000   0.53647138   -5.2239982    1715.1932  0.032098083  0.030570676           10 
 4454000     0.538831   -5.2185785    1717.6843  0.032137485  0.030562446            8 
 4455000   0.54537538   -5.2322511    1720.0129  0.032173829  0.030554224           19 
 4456000   0.53871267   -5.2145279    1718.0995  0.032130826  0.030546027            9 
 4457000   0.52622147   -5.2237049    1718.8705  0.032138032  0.030537861           14 
 4458000   0.54370967   -5.2132708    1722.7319  0.032203004  0.030529695           14 
 4459000   0.53561146   -5.2072997    1719.6292  0.032137796  0.030521516           43 
 4460000   0.53803956   -5.2036699    1715.2374  0.032048532  0.030513321           14 
 4461000   0.53295981     -5.21917    1720.8671  0.032146513  0.030505133           43 
 4462000   0.53995881   -5.2248646    1717.0143  0.032067352  0.030496947           36 
 4463000   0.53339555   -5.2182712    1720.2554  0.032120686  0.030488754           19 
 4464000   0.52556796   -5.2206542    1718.9168  0.032088501  0.030480588           30 
 4465000   0.52640482   -5.2131324    1719.5443  0.032093025  0.030472438           86 
 4466000   0.52629505   -5.2238558    1717.7919   0.03205314  0.030464254           49 
 4467000   0.53534346   -5.2187034    1722.8279  0.032139914   0.03045608           34 
 4468000   0.53669902   -5.2152572    1717.9758  0.032042223  0.030447923           29 
 4469000   0.53749044   -5.2276484    1719.3077  0.032059889  0.030439773           12 
 4470000   0.54820622     -5.22475     1718.466  0.032037025  0.030431608           13 
 4471000   0.54315563   -5.2223653    1717.7176   0.03201591  0.030423453           47 
 4472000   0.53853189   -5.2250726    1720.2652  0.032056224  0.030415306           20 
 4473000   0.52494323   -5.2370412    1719.5191  0.032035157  0.030407155           31 
 4474000   0.53040499   -5.2156268    1721.0856  0.032057175  0.030399022           26 
 4475000   0.52509709   -5.2451579    1717.6851  0.031986688  0.030390845           11 
 4476000    0.5254682     -5.23311    1720.4977  0.032031905  0.030382672           40 
 4477000   0.54234804   -5.2314525    1720.2488  0.032020117  0.030374544           34 
 4478000   0.54642553   -5.2384309    1717.6859  0.031965273  0.030366406           21 
 4479000   0.53506112   -5.2322542    1720.0816   0.03200271   0.03035826           38 
 4480000   0.53277835   -5.2505084    1717.7465   0.03195213  0.030350096           32 
 4481000   0.53263485   -5.2078321    1716.1626  0.031915543  0.030341961           30 
 4482000   0.52283563   -5.2211602    1722.7407  0.032030728  0.030333844           43 
 4483000   0.54203876   -5.2304635    1718.7006  0.031948483  0.030325706           43 
 4484000   0.53881895   -5.2413235    1723.3467  0.032027705  0.030317564           36 
 4485000   0.54461922   -5.2486143    1717.5973  0.031913736  0.030309416           39 
 4486000   0.53022616   -5.2288905    1717.5319  0.031905407  0.030301251           42 
 4487000   0.52602981   -5.2643327    1720.0109  0.031944338  0.030293114           17 
 4488000   0.52830705   -5.2505938    1716.9327  0.031880063   0.03028495           14 
 4489000   0.53478505   -5.2410323    1718.0487  0.031893678  0.030276797           17 
 4490000   0.52472457   -5.2487307    1720.9427  0.031940287  0.030268671           21 
 4491000   0.52023969   -5.2585174    1716.2882  0.031846808  0.030260511           29 
 4492000   0.53971234   -5.2287725    1720.8491  0.031924331  0.030252362           20 
 4493000    0.5351355   -5.2427392      1717.88  0.031862157  0.030244249           14 
 4494000   0.52747796   -5.2366726    1719.3005  0.031881407  0.030236142           26 
 4495000   0.52163465   -5.2320168    1721.5671  0.031916334   0.03022805           35 
 4496000   0.54227842   -5.2288708     1720.086  0.031881784  0.030219944           19 
 4497000   0.51456831   -5.2420915    1721.9639  0.031909493   0.03021185           17 
 4498000   0.52671178    -5.218418    1718.5659  0.031839445  0.030203761           24 
 4499000   0.53378002    -5.246183    1716.3281  0.031790918  0.030195655           10 
 4500000   0.53772499   -5.2596572    1722.7887  0.031903494   0.03018753           19 
 4501000   0.53737184   -5.2344712    1717.6668  0.031801577  0.030179404           12 
 4502000   0.53758422   -5.2483501    1718.9554  0.031818366  0.030171292           23 
 4503000   0.52370112   -5.2347434    1716.6486   0.03176861  0.030163197           36 
 4504000   0.54299925   -5.2451845    1722.6924  0.031873379  0.030155113           54 
 4505000   0.52701985   -5.2271995    1722.1777  0.031856784  0.030147042           23 
 4506000    0.5249541   -5.2336793    1721.6473  0.031839905  0.030138964           16 
 4507000   0.53154899   -5.2575442    1718.7875  0.031779963  0.030130875           29 
 4508000   0.52863234   -5.2437116     1721.516  0.031823351  0.030122799            9 
 4509000   0.53549842   -5.2358679    1719.7963  0.031784511  0.030114748           25 
 4510000   0.53379893   -5.2601604    1719.9052  0.031779474  0.030106683           40 
 4511000    0.5303277   -5.2380463    1718.7181  0.031750501  0.030098624           21 
 4512000    0.5178145   -5.2742813     1719.385  0.031755781  0.030090552           24 
 4513000   0.53576797   -5.2592569    1718.3005  0.031728719    0.0300825           24 
 4514000   0.52248222   -5.2303875    1721.3729   0.03177841  0.030074432           18 
 4515000   0.52496518   -5.2543017    1722.3873  0.031790095   0.03006637           22 
 4516000    0.5290746   -5.2602754    1721.3946  0.031764736  0.030058316           38 
 4517000   0.52983786   -5.2665659    1721.0186  0.031750768  0.030050251           19 
 4518000   0.52514766   -5.2478777    1720.4364  0.031733001  0.030042231           15 
 4519000   0.53425879   -5.2403261    1721.0333  0.031736987  0.030034186           21 
 4520000   0.53071827   -5.2437424    1723.9912  0.031784499  0.030026165            9 
 4521000   0.52301155   -5.2231616    1721.6254   0.03173386  0.030018161           28 
 4522000   0.52678155   -5.2519666    1724.6548   0.03178267  0.030010157           20 
 4523000   0.52708706   -5.2416504    1721.7013  0.031721227  0.030002154           27 
 4524000   0.51488892    -5.244756    1723.1674   0.03174122  0.029994157           10 
 4525000   0.52098033   -5.2509358    1723.9577   0.03174876  0.029986151           27 
 4526000   0.53504437   -5.2405663    1721.0711  0.031688598  0.029978168           17 
 4527000     0.517652   -5.2462294    1721.2158  0.031684262  0.029970165           17 
 4528000   0.53556346   -5.2542285    1723.1013  0.031711965  0.029962192           16 
 4529000   0.51947806   -5.2506214     1721.887  0.031682619  0.029954212           12 
 4530000   0.53560506   -5.2695421     1721.014  0.031659567  0.029946225           16 
 4531000   0.52505253   -5.2449044     1719.618  0.031626903  0.029938229           23 
 4532000   0.54104763   -5.2420859     1720.655  0.031638992  0.029930274           18 
 4533000    0.5128182   -5.2578589    1722.4247  0.031664548  0.029922306            8 
 4534000   0.53765894   -5.2427091    1716.6477  0.031551384  0.029914323           27 
 4535000   0.52200795   -5.2641823    1720.3262  0.031612022  0.029906342           28 
 4536000    0.5387227    -5.269316    1720.0644  0.031600243  0.029898367           43 
 4537000   0.52007693   -5.2726322    1716.8543  0.031534317  0.029890362           36 
 4538000   0.53477938   -5.2568266    1720.8891   0.03160146  0.029882372           42 
 4539000   0.52351937   -5.2593159    1721.3195  0.031602399  0.029874381           18 
 4540000   0.52376091   -5.2559133    1725.6805  0.031675487  0.029866399           18 
 4541000   0.52164878   -5.2605404    1721.3173   0.03158844  0.029858408           44 
 4542000   0.53013301   -5.2573821    1723.6382  0.031624067  0.029850404           37 
 4543000   0.51853446   -5.2636764     1720.945  0.031567705  0.029842425          103 
 4544000   0.53539533    -5.258729    1718.0782  0.031508183  0.029834445           60 
 4545000    0.5227271   -5.2748351    1715.7012  0.031457668   0.02982647           14 
 4546000   0.52756085   -5.2681771    1724.4873  0.031611808  0.029818497           26 
 4547000   0.52665201   -5.2514812    1718.5594  0.031496214  0.029810525           18 
 4548000   0.52378809   -5.2511666    1722.9646  0.031570005  0.029802539           14 
 4549000   0.51040179   -5.2639231    1724.9815  0.031600012   0.02979459           19 
 4550000   0.53173995   -5.2468244    1720.3011  0.031507345  0.029786633           14 
 4551000    0.5264725     -5.25875    1723.0601  0.031550943  0.029778674           14 
 4552000   0.51593914   -5.2548338    1721.3823  0.031513297  0.029770723            8 
 4553000   0.52583073   -5.2543817    1722.2491  0.031522239  0.029762781           15 
 4554000    0.5179151   -5.2544079    1723.6768  0.031541443   0.02975485           14 
 4555000   0.52323208   -5.2592647    1721.9914  0.031503685  0.029746889           22 
 4556000   0.52507318   -5.2576767    1721.9846  0.031496645  0.029738919           48 
 4557000   0.50849967   -5.2412715    1722.4841  0.031498869  0.029730961           56 
 4558000    0.5137191   -5.2525203    1723.2568  0.031506084  0.029723001           41 
 4559000    0.5184979   -5.2647056     1718.425  0.031410854  0.029715039           28 
 4560000   0.53502307    -5.261331    1717.9397  0.031395097  0.029707071           56 
 4561000   0.51394109   -5.2640067    1721.3521  0.031450561  0.029699112           72 
 4562000   0.52515463   -5.2564476    1719.3739  0.031407531  0.029691164           32 
 4563000   0.52347755   -5.2618145    1719.9775  0.031411672  0.029683198           47 
 4564000    0.5228564   -5.2529468    1716.8079  0.031346917  0.029675238           29 
 4565000   0.51397677   -5.2545941    1724.8491  0.031486839  0.029667303           28 
 4566000    0.5288353   -5.2682048    1720.3129  0.031397154  0.029659379           51 
 4567000   0.52367917   -5.2536692    1720.8154  0.031399449  0.029651445           24 
 4568000   0.52286021    -5.255792    1719.4434  0.031367546  0.029643495           33 
 4569000   0.51720016   -5.2420175    1721.7339  0.031402457  0.029635535           34 
 4570000   0.53136404    -5.244519    1720.1685  0.031367041  0.029627581           22 
 4571000   0.49998955   -5.2455135      1721.87  0.031391199  0.029619648           29 
 4572000   0.51762805   -5.2428207    1722.1751  0.031389893  0.029611717            9 
 4573000   0.52960476    -5.260356    1718.8872  0.031323115   0.02960377            9 
 4574000   0.51356731   -5.2554406    1723.9074  0.031407729  0.029595828           29 
 4575000   0.51208673   -5.2704071    1720.6205  0.031340993   0.02958787           38 
 4576000   0.51545368   -5.2559541    1718.4122  0.031293929  0.029579909           37 
 4577000    0.5254666   -5.2595911     1722.388  0.031359478  0.029571963           10 
 4578000   0.52526598   -5.2595104    1722.9097  0.031362126  0.029564025           26 
 4579000   0.51285796   -5.2694273    1717.9103  0.031264291  0.029556084           34 
 4580000   0.50637808   -5.2644288      1721.83  0.031328785  0.029548144           13 
 4581000   0.51799797   -5.2624762    1718.3557  0.031258744  0.029540194           10 
 4582000   0.52159199   -5.2553409    1724.3307   0.03136059  0.029532242           26 
 4583000   0.52302578   -5.2638823    1716.6411  0.031213927  0.029524288           19 
 4584000   0.51548309   -5.2577672    1722.2481  0.031309048   0.02951632           14 
 4585000   0.52814407   -5.2464942     1722.143  0.031300309  0.029508391           13 
 4586000   0.51770014   -5.2706163    1721.6358  0.031284268  0.029500477           22 
 4587000   0.50693601   -5.2679526    1722.0601  0.031285155  0.029492543           15 
 4588000   0.52141958    -5.268982    1720.3226  0.031246778  0.029484596           11 
 4589000   0.50990488   -5.2568751    1720.5738   0.03124453  0.029476636           10 
 4590000   0.52220278   -5.2718479    1718.5119  0.031200289  0.029468681           15 
 4591000    0.5128312    -5.252018    1718.5846  0.031194811  0.029460732           16 
 4592000   0.52016154   -5.2629319    1717.5282  0.031168849    0.0294528           19 
 4593000   0.51576799   -5.2673554    1720.2272   0.03121103  0.029444882           23 
 4594000   0.51076933   -5.2593141    1715.6841  0.031121828   0.02943694           21 
 4595000   0.51731759   -5.2680828    1721.7014  0.031224182     0.029429           32 
 4596000   0.50329245   -5.2755045    1719.7458   0.03118193  0.029421062           32 
 4597000   0.52151367   -5.2652469    1717.1935  0.031128878  0.029413135           50 
 4598000   0.51613082   -5.2806578    1721.2375  0.031195401  0.029405213           40 
 4599000   0.52687521   -5.2500147    1719.7615  0.031161875   0.02939729           39 
 4600000   0.51675774   -5.2736056    1717.6406  0.031116677  0.029389364           32 
 4601000    0.5025305   -5.2663917    1718.7656  0.031130291   0.02938143           29 
 4602000   0.51014768   -5.2834008    1717.1696  0.031094625  0.029373493           15 
 4603000   0.51842119   -5.2724871    1717.3548  0.031091224   0.02936554           19 
 4604000   0.49855553   -5.2885841    1714.5914  0.031034452  0.029357569           43 
 4605000   0.50593288   -5.2683552    1716.0293  0.031053733  0.029349606           19 
 4606000   0.51223266   -5.2737859    1718.7433  0.031096095   0.02934165           64 
 4607000   0.51988292   -5.2557666    1714.9653  0.031021006  0.029333697           40 
 4608000   0.51981885   -5.2850665    1719.8529  0.031102664  0.029325774           20 
 4609000   0.52017265   -5.2924115    1717.5155  0.031053654  0.029317823           40 
 4610000   0.51119721   -5.2791425    1720.9567  0.031109124  0.029309852           12 
 4611000   0.52464344   -5.2769873    1720.2934  0.031090388  0.029301917           20 
 4612000   0.51637092   -5.2798133    1714.9843  0.030987719  0.029294015           39 
 4613000   0.50625172   -5.2893835    1722.1404  0.031110276  0.029286083           16 
 4614000   0.51560711   -5.2921604    1715.9842  0.030992345  0.029278134           37 
 4615000   0.51575745   -5.2720852    1719.3561  0.031046518   0.02927022           27 
 4616000    0.5106031   -5.2734628    1718.3228  0.031021137  0.029262297           19 
 4617000   0.49295091   -5.2890193    1717.9694  0.031008039   0.02925437           28 
 4618000   0.52370818   -5.2796261    1716.6166  0.030976913  0.029246459           35 
 4619000   0.51852125   -5.2744442    1718.1139  0.030997219  0.029238547           13 
 4620000   0.50004426   -5.2656892    1717.2484  0.030974899  0.029230645           41 
 4621000   0.52255577   -5.2923469    1716.8934  0.030961794   0.02922273           18 
 4622000   0.51181435   -5.2742371    1719.0618   0.03099419  0.029214789           16 
 4623000   0.51182873   -5.2891407    1716.7599  0.030945993  0.029206843           35 
 4624000   0.50256463   -5.2936493    1714.4999   0.03089857  0.029198902           15 
 4625000    0.5025899   -5.2915956    1716.6992  0.030931517  0.029190969           16 
 4626000   0.51617911    -5.298464    1716.2642  0.030916995  0.029183041           36 
 4627000   0.51180281   -5.2869905    1721.7238  0.031008642  0.029175121           12 
 4628000    0.5114722   -5.2821953    1714.8996  0.030879062  0.029167223           14 
 4629000   0.49326604   -5.2923281    1719.4923  0.030955072  0.029159331           13 
 4630000   0.50708697   -5.2898951    1718.9169  0.030938029  0.029151437           11 
 4631000   0.52206753   -5.3015995    1718.6245  0.030926086  0.029143523           26 
 4632000    0.5077614   -5.2859748     1718.665  0.030920139  0.029135592           35 
 4633000   0.49912446   -5.3067985    1714.8708  0.030845218  0.029127686           16 
 4634000   0.51684387   -5.2807766    1717.4381   0.03088473  0.029119784           21 
 4635000   0.49836491    -5.295294    1716.0587  0.030853266  0.029111886           14 
 4636000   0.50922246   -5.3094411    1716.3861  0.030852497  0.029103987           23 
 4637000   0.51170169   -5.3050861    1715.6916  0.030833362  0.029096094           12 
 4638000   0.51297788   -5.2910872    1716.0457  0.030833077  0.029088203           13 
 4639000   0.52225317   -5.2949922    1716.8451  0.030840789  0.029080318           15 
 4640000   0.49919591   -5.2990178     1718.377  0.030861655  0.029072421           40 
 4641000   0.50521313   -5.2892216    1717.1668  0.030833275  0.029064506           32 
 4642000   0.50122073    -5.292125     1717.055  0.030824627  0.029056627           42 
 4643000   0.51013604   -5.3022635    1714.1152  0.030765223  0.029048736           51 
 4644000   0.51254264   -5.2885802    1718.4132  0.030835723   0.02904083          129 
 4645000   0.50803056   -5.2816015     1712.421  0.030721581  0.029032912           30 
 4646000   0.51115377   -5.3035113    1717.8973  0.030813195  0.029024992           52 
 4647000   0.51245077   -5.2946866    1714.2289  0.030740781  0.029017086           28 
 4648000   0.50139846   -5.3018607    1717.6769  0.030795986  0.029009187           14 
 4649000   0.50507371   -5.3001316     1717.517  0.030786496   0.02900129           22 
 4650000   0.51119446   -5.3184167    1714.9608  0.030734065  0.028993377           44 
 4651000   0.51037479   -5.2953084    1717.1381  0.030766467  0.028985499           22 
 4652000   0.51091784   -5.3080428    1714.1668  0.030706628  0.028977618           11 
 4653000   0.50467298   -5.2799702    1715.6429  0.030726465  0.028969751           21 
 4654000   0.50750295    -5.292945    1716.7125  0.030739015  0.028961899           35 
 4655000     0.506711   -5.2817715    1713.6612  0.030677787  0.028954046           16 
 4656000   0.51110515   -5.2942392    1715.4266  0.030702795  0.028946219           45 
 4657000   0.50659264   -5.3128076    1718.0021  0.030742289  0.028938363           78 
 4658000   0.50171308   -5.3036644    1715.6772  0.030694096  0.028930484           58 
 4659000   0.50993164   -5.3113091    1715.6782  0.030687526  0.028922611           30 
 4660000   0.51830943   -5.3061362    1714.0514  0.030651849  0.028914717           30 
 4661000   0.50446236   -5.2992599    1720.2259  0.030755665  0.028906854           19 
 4662000   0.50171375   -5.3121164    1716.0912  0.030675161  0.028898993            8 
 4663000   0.50357729   -5.3059549    1713.5125  0.030622498  0.028891094           16 
 4664000   0.50405727    -5.316583     1718.312  0.030701687  0.028883214           21 
 4665000    0.5004637   -5.3068168    1715.8231  0.030650645  0.028875337           21 
 4666000   0.51284682   -5.3129201    1715.5547  0.030639283  0.028867471           30 
 4667000    0.5152741   -5.3171477    1715.0289  0.030623329  0.028859605           40 
 4668000   0.50383192   -5.3298978    1716.1437   0.03063667  0.028851718           51 
 4669000   0.49822412   -5.3172669    1718.3801  0.030670024  0.028843832           15 
 4670000   0.51519238   -5.3033755    1714.5951  0.030595916  0.028835979           57 
 4671000   0.50952725   -5.3028168     1717.236   0.03063648  0.028828116           54 
 4672000   0.49985477   -5.3118493    1716.5821   0.03061826  0.028820237           68 
 4673000   0.51036014   -5.2949877    1713.7638  0.030561448  0.028812363           21 
 4674000   0.51237589   -5.3104685    1716.6153  0.030605749  0.028804518           31 
 4675000   0.50132685   -5.3130375    1715.5313  0.030579881  0.028796665           33 
 4676000   0.50386373   -5.3202906    1716.0614  0.030582788  0.028788806          114 
 4677000    0.5019731   -5.3066202    1713.7435  0.030534949   0.02878096           41 
 4678000   0.49066936   -5.3074019    1712.7812   0.03051128  0.028773082          101 
 4679000   0.50258613   -5.3032843     1714.058  0.030527499  0.028765188           87 
 4680000   0.49278995   -5.3098586    1716.8689  0.030571027  0.028757305          122 
 4681000   0.50618468   -5.3081133    1717.8436  0.030581849  0.028749453           42 
 4682000   0.49282169   -5.3230603    1715.6098  0.030535558   0.02874161           75 
 4683000   0.51046022   -5.3205612    1714.6945   0.03051275  0.028733754           65 
 4684000   0.51308918   -5.3094268    1712.6102  0.030469154  0.028725897           86 
 4685000   0.50001292   -5.3184777    1711.7407  0.030447184  0.028718025           81 
 4686000   0.50365113   -5.3227805    1713.6292   0.03047427  0.028710155           88 
 4687000   0.49672269   -5.3282654    1711.6305  0.030432232  0.028702276          160 
 4688000   0.50296688   -5.3202287    1712.1188  0.030434422  0.028694408          119 
 4689000   0.50478961   -5.3177581    1713.7343  0.030456642  0.028686562          130 
 4690000   0.50371075   -5.3259042    1714.0591  0.030455919  0.028678714          145 
 4691000   0.48383138   -5.3387055    1717.6257  0.030512785  0.028670857          129 
 4692000   0.49476029   -5.3176269     1713.478  0.030432615  0.028663004          125 
 4693000   0.48971563   -5.3204897    1714.7363  0.030448474  0.028655162          214 
 4694000   0.49905519   -5.3308621    1712.6217  0.030404447  0.028647322          124 
 4695000   0.50600536   -5.3284019    1712.3664   0.03039344  0.028639473          150 
 4696000   0.49874816    -5.321739    1716.9871  0.030468964   0.02863166          211 
 4697000   0.48412185   -5.3316978    1711.6628  0.030368015  0.028623816          171 
 4698000   0.50150281   -5.3097279     1714.433  0.030410688  0.028615982          138 
 4699000   0.49179694   -5.3147315    1718.6806  0.030479544  0.028608173          137 
 4700000   0.50272936   -5.3009307    1716.1465  0.030428129  0.028600362          139 
 4701000   0.49634729   -5.3259132    1712.8294  0.030362856  0.028592556          163 
 4702000   0.50749224   -5.3225323     1714.452  0.030385155  0.028584736          167 
 4703000   0.50432613   -5.3207301    1713.3562  0.030359278  0.028576906          156 
 4704000   0.50315249   -5.3247766    1716.8446  0.030414623  0.028569105          127 
 4705000   0.50665855   -5.3050085      1714.92  0.030374071  0.028561285          128 
 4706000    0.4967248   -5.3340284     1712.047  0.030316742  0.028553461          104 
 4707000   0.48901812   -5.3303302    1714.4676  0.030353156  0.028545623          116 
 4708000   0.49454259   -5.3285099    1713.7456  0.030333928  0.028537802          135 
 4709000   0.49768582   -5.3525084     1712.721  0.030309354   0.02852997          126 
 4710000   0.49871064   -5.3179189    1716.9276  0.030377347  0.028522149          118 
 4711000   0.49274245   -5.3492396    1712.1157  0.030285779  0.028514329          117 
 4712000   0.49903684    -5.319824    1715.3695  0.030336897  0.028506523          141 
 4713000     0.497317   -5.3424713     1712.667  0.030282675  0.028498693          151 
 4714000   0.49136154   -5.3319055    1713.3543  0.030288401  0.028490881          136 
 4715000   0.49159593   -5.3297247    1716.0062  0.030328847  0.028483064          214 
 4716000   0.50300314   -5.3280882    1710.4379  0.030224023  0.028475265          122 
 4717000   0.48431176   -5.3340586    1713.3617  0.030269268  0.028467449          130 
 4718000   0.50094041   -5.3237192    1710.6848  0.030215572  0.028459645          144 
 4719000   0.48971096   -5.3286072    1712.2486  0.030236783  0.028451833          139 
 4720000   0.49827967   -5.3275845    1717.3926  0.030321197  0.028444022          142 
 4721000   0.48240859   -5.3338947    1712.9865     0.030237  0.028436228          164 
 4722000    0.4930688   -5.3108832    1715.5708  0.030276204  0.028428444          210 
 4723000   0.50945744   -5.3294657    1717.4721  0.030303341  0.028420681          143 
 4724000   0.49695069     -5.31114    1716.7532  0.030284244  0.028412903          261 
 4725000   0.49604964   -5.3141668    1715.2671  0.030251624   0.02840513          208 
 4726000   0.49212525   -5.3231331    1712.4976  0.030196389  0.028397336          291 
 4727000   0.49724229   -5.3293729    1713.9742  0.030216033  0.028389536          252 
 4728000   0.50289732   -5.3264572    1713.2163  0.030196283   0.02838175          250 
 4729000   0.49823835   -5.3293306    1714.2384  0.030207909  0.028373981          205 
 4730000   0.49244079   -5.3192847    1718.9329  0.030284229  0.028366233           73 
 4731000   0.49107172   -5.3253525    1710.4828  0.030128986  0.028358493          103 
 4732000   0.49378026   -5.3185379    1716.9727   0.03023691  0.028350764           66 
 4733000   0.49456801   -5.3206279    1713.8106  0.030174847  0.028343033           19 
 4734000   0.49232936   -5.3213671    1715.8219  0.030203878  0.028335299           33 
 4735000    0.4962228   -5.3218869    1713.8359  0.030162546  0.028327566           57 
 4736000   0.47974884    -5.324525    1718.2257   0.03023342  0.028319831           36 
 4737000    0.5048901   -5.3383954    1712.1044  0.030119352  0.028312102           97 
 4738000   0.49677579   -5.3186486    1714.0822  0.030147781  0.028304353          101 
 4739000   0.48880213   -5.3353601    1715.3355  0.030163457  0.028296587          177 
 4740000   0.48871467   -5.3243069       1713.5  0.030124825  0.028288843           84 
 4741000   0.48448349   -5.3332872    1711.3082  0.030079945  0.028281093          103 
 4742000   0.49464037   -5.3375251    1713.9767  0.030120496  0.028273333          107 
 4743000   0.49482382   -5.3456386    1716.8523  0.030164668  0.028265598           68 
 4744000    0.4935907   -5.3249877    1713.3426  0.030096659  0.028257854          186 
 4745000   0.48422415   -5.3436067    1716.1778  0.030140109  0.028250122          157 
 4746000   0.49742879   -5.3136323    1714.4246  0.030102974  0.028242376          101 
 4747000   0.49482656   -5.3323412    1717.2252  0.030145798  0.028234648          107 
 4748000   0.50000938   -5.3342599    1714.0496  0.030083712  0.028226908           87 
 4749000   0.49154175   -5.3365267    1714.4651  0.030084668  0.028219182          146 
 4750000   0.49514175   -5.3443269    1710.1744  0.030003059  0.028211427          163 
 4751000   0.49551423   -5.3334496    1712.4857  0.030037286  0.028203709           52 
 4752000    0.4945404   -5.3307942    1713.9269  0.030056237  0.028195976           60 
 4753000   0.48310291   -5.3462247    1715.5371  0.030078145  0.028188238          105 
 4754000   0.48810445   -5.3261248    1711.9675  0.030009247  0.028180474           92 
 4755000   0.48874241   -5.3442114       1713.3  0.030026288  0.028172726          161 
 4756000    0.4827482   -5.3525663    1712.3116  0.030002657  0.028165006          203 
 4757000   0.48329737   -5.3439034    1715.3715  0.030049953   0.02815727           97 
 4758000   0.49664879   -5.3487614     1711.578  0.029977196  0.028149542          103 
 4759000   0.48197616   -5.3373833    1714.5416  0.030022792  0.028141817           83 
 4760000    0.4960795   -5.3558675    1713.0173  0.029989798  0.028134081           75 
 4761000   0.50253724   -5.3487072    1713.5575  0.029992955  0.028126364           87 
 4762000   0.49170494    -5.338109    1711.1662  0.029944809   0.02811865           65 
 4763000    0.4902394   -5.3343345    1715.6808   0.03001751  0.028110944           65 
 4764000   0.48874808   -5.3481353    1711.1988  0.029932808  0.028103238           69 
 4765000   0.49475398   -5.3589686    1709.4415  0.029895794  0.028095539           78 
 4766000   0.49888798   -5.3552331    1714.4157  0.029976495  0.028087832           67 
 4767000   0.49537917   -5.3462043    1713.9538  0.029962131  0.028080112           86 
 4768000   0.47471611    -5.327293    1712.5001  0.029930441  0.028072401          101 
 4769000    0.4913708   -5.3341511    1710.0342  0.029881075  0.028064691          164 
 4770000   0.49152966   -5.3392846    1714.4624  0.029952174   0.02805698          122 
 4771000   0.47705144   -5.3346019    1714.0356   0.02993844  0.028049298           78 
 4772000   0.48340999   -5.3391879    1711.1004   0.02988091  0.028041613          176 
 4773000   0.48906532   -5.3385091    1709.2228  0.029841867   0.02803394           91 
 4774000   0.49267113    -5.327346    1716.0281  0.029954408  0.028026255           99 
 4775000   0.49225599   -5.3423417     1713.264  0.029899895  0.028018564          153 
 4776000   0.49022322   -5.3407128    1713.1337  0.029891361  0.028010882          135 
 4777000   0.49096161   -5.3432848    1713.7097  0.029895152  0.028003201          126 
 4778000   0.48306781   -5.3741856    1708.1556  0.029792025    0.0279955          147 
 4779000   0.47541715   -5.3688459    1716.0349  0.029923186  0.027987787          176 
 4780000   0.48239794   -5.3287921     1714.965  0.029898274  0.027980118          169 
 4781000   0.49130858   -5.3382927     1715.671  0.029904326  0.027972441          108 
 4782000   0.48138338   -5.3319157    1712.4805  0.029842474  0.027964765          200 
 4783000   0.47535825   -5.3338505    1713.5463  0.029854803  0.027957092          192 
 4784000   0.48287773   -5.3675772    1710.1595  0.029789568  0.027949418          197 
 4785000   0.47573858   -5.3531595    1712.0828  0.029816837  0.027941745          108 
 4786000   0.47368645   -5.3558772    1712.8506  0.029823975  0.027934058          222 
 4787000   0.48522242   -5.3496319     1713.733  0.029833107  0.027926366          154 
 4788000   0.48475229   -5.3412858    1712.1914  0.029800046  0.027918699          140 
 4789000   0.48229988   -5.3371933    1714.0005  0.029825303  0.027911046          138 
 4790000   0.49445033   -5.3446708    1714.3504  0.029825164   0.02790339          153 
 4791000   0.47396331   -5.3370142    1716.9156  0.029863556  0.027895726          131 
 4792000   0.48503696   -5.3520346    1715.7177  0.029836494  0.027888061          143 
 4793000   0.48444379   -5.3470859    1711.9643  0.029765009  0.027880411          176 
 4794000   0.48363656   -5.3471344    1713.7985  0.029790684  0.027872745          134 
 4795000   0.48945438   -5.3568871    1711.5485  0.029745368  0.027865077           90 
 4796000   0.49147507   -5.3606677    1712.1123  0.029748963  0.027857404          180 
 4797000   0.47843415   -5.3534634    1711.9864  0.029740574  0.027849729           95 
 4798000   0.48566486   -5.3705001    1709.7672  0.029695832  0.027842067          142 
 4799000   0.47953046   -5.3576033    1707.7888   0.02965529  0.027834388          136 
 4800000   0.49109473   -5.3712754    1711.5378  0.029714197  0.027826709          162 
 4801000   0.48083584   -5.3461666    1712.7695  0.029729389  0.027819053          154 
 4802000   0.47284669   -5.3543672    1709.8622  0.029672743  0.027811379          126 
 4803000   0.47689794    -5.347196    1713.3671  0.029727378  0.027803728          130 
 4804000   0.47640461    -5.364388     1708.658  0.029639501  0.027796045          139 
 4805000   0.48064718   -5.3788218    1710.8699  0.029671694  0.027788372          198 
 4806000   0.47970804   -5.3688469    1710.9538  0.029666976  0.027780712          186 
 4807000   0.47999025   -5.3598697    1711.9028  0.029677256  0.027773063          158 
 4808000    0.4851622    -5.350178    1714.6557  0.029718797  0.027765411          154 
 4809000   0.48437974   -5.3669078    1712.9259  0.029682642  0.027757773          178 
 4810000   0.47612271   -5.3689944    1711.0522   0.02964401  0.027750126          111 
 4811000   0.47193122    -5.370544    1708.3515  0.029591067  0.027742457          138 
 4812000   0.48837735   -5.3721346    1710.7259  0.029626038  0.027734813          171 
 4813000    0.4873805    -5.354393    1711.6998  0.029636744  0.027727168          159 
 4814000   0.46921955   -5.3481036    1710.5627  0.029610905  0.027719522          194 
 4815000   0.47043545    -5.357843    1711.1444  0.029614821  0.027711883          193 
 4816000   0.48293188   -5.3606792     1713.089   0.02964232  0.027704267          183 
 4817000   0.46612417   -5.3755248    1710.1475  0.029585279  0.027696629          255 
 4818000   0.49201885   -5.3749888    1711.0186  0.029594207  0.027688991          194 
 4819000   0.48203042   -5.3592328    1716.4221  0.029681505   0.02768136          184 
 4820000   0.47836697   -5.3474129     1715.804  0.029664661  0.027673727          144 
 4821000   0.47330081   -5.3663408     1710.986  0.029575226  0.027666098          189 
 4822000    0.4833138   -5.3645607     1712.275   0.02959137   0.02765848          212 
 4823000    0.4832635    -5.355044    1710.8727  0.029561005  0.027650845          168 
 4824000   0.48357511    -5.379965    1713.4908  0.029600103  0.027643233          224 
 4825000   0.47558535   -5.3548386    1708.2978   0.02950428  0.027635608          171 
 4826000   0.49194408   -5.3617397    1713.0533  0.029580281  0.027627991          193 
 4827000    0.4841314   -5.3767122    1709.6697  0.029515739  0.027620362          191 
 4828000   0.48459407    -5.375992    1707.3729  0.029469982  0.027612734          179 
 4829000   0.48140681   -5.3938598    1707.4877  0.029465861  0.027605115          179 
 4830000   0.48149899    -5.385572    1711.1015  0.029522109  0.027597484          157 
 4831000   0.48092851   -5.3720043    1708.8472  0.029477114  0.027589852          198 
 4832000   0.48410083    -5.364561     1707.354   0.02944526  0.027582214          217 
 4833000   0.47951219   -5.3829336      1710.91  0.029500483  0.027574579          255 
 4834000   0.48129672   -5.3804697     1708.924  0.029460143  0.027566945          224 
 4835000   0.47635217    -5.364808    1706.9577  0.029420161  0.027559306          256 
 4836000   0.47363005   -5.3660571    1708.2039   0.02943555  0.027551666          175 
 4837000   0.47162044    -5.376324    1708.1077  0.029427808  0.027544025          296 
 4838000   0.47521943   -5.3734575    1710.8979  0.029469785  0.027536388          164 
 4839000   0.48591928   -5.3621153    1707.0411  0.029397278  0.027528755          215 
 4840000   0.47427644   -5.3672322    1709.5125  0.029433756  0.027521124          190 
 4841000      0.48162   -5.3703879    1710.1761  0.029439098  0.027513491          206 
 4842000   0.46841798   -5.3562953    1707.5312  0.029387498  0.027505874          238 
 4843000   0.47427841   -5.3766616    1710.8938   0.02943929  0.027498255          219 
 4844000   0.47772236   -5.3613495    1710.5983   0.02942813  0.027490645          204 
 4845000    0.4696079   -5.3763885    1709.8991  0.029410029   0.02748304          206 
 4846000   0.48126851   -5.3803733    1708.8695  0.029386254  0.027475431          266 
 4847000   0.47541298    -5.376707    1710.0546  0.029400567  0.027467808          182 
 4848000   0.47806529    -5.366384    1705.7385  0.029320313  0.027460203          202 
 4849000   0.46271636   -5.3692541    1708.6541  0.029364372  0.027452583          167 
 4850000   0.47289305   -5.3838608    1705.5118  0.029304326  0.027444971          171 
 4851000   0.47356892   -5.3809221    1708.8352  0.029355377  0.027437348          168 
 4852000   0.48265854    -5.369605    1705.2931   0.02928849  0.027429725          178 
 4853000   0.47353187   -5.3756803    1704.3472  0.029266213   0.02742211          229 
 4854000   0.47416249   -5.3773606    1711.5789  0.029384338  0.027414493          219 
 4855000   0.48091699   -5.3788856    1709.2533  0.029338368  0.027406884          178 
 4856000   0.47722168    -5.373604    1708.7053  0.029322922  0.027399266          139 
 4857000   0.47311455     -5.38001    1705.3826  0.029259875  0.027391644          179 
 4858000   0.46507309   -5.3805002    1707.9458  0.029297822  0.027384037          196 
 4859000   0.48793309   -5.3906895    1708.4905  0.029301134  0.027376423          204 
 4860000   0.48857141   -5.3697428    1708.6056  0.029297078  0.027368814          227 
 4861000   0.47823296   -5.3622382    1707.7627  0.029276602  0.027361214          242 
 4862000    0.4650735   -5.3912396    1705.2647  0.029227765  0.027353595          216 
 4863000   0.47589843   -5.3870501    1704.6604  0.029211399  0.027345976          180 
 4864000   0.47324374   -5.3839478    1709.1591  0.029282469  0.027338374          194 
 4865000   0.47249491   -5.3905448    1709.8962  0.029289075  0.027330777          282 
 4866000    0.4682739   -5.3742564    1705.6328  0.029210042  0.027323191          175 
 4867000   0.46823354   -5.4044192    1707.8964  0.029242799  0.027315588          224 
 4868000    0.4686108   -5.3879651    1706.0544  0.029205259  0.027307996          177 
 4869000   0.46818159   -5.3794018    1707.1314  0.029217694  0.027300392          181 
 4870000    0.4693568   -5.3818441    1707.8566  0.029224103  0.027292779          230 
 4871000   0.46246389   -5.3718296    1709.8781  0.029252687  0.027285167          268 
 4872000    0.4631846   -5.4081161    1705.1177  0.029165259  0.027277548          269 
 4873000   0.47190212   -5.3994434    1705.8419  0.029171659  0.027269937          356 
 4874000   0.47528903   -5.3907427    1709.5069  0.029228336  0.027262329          359 
 4875000   0.46629539   -5.3863993    1705.8352  0.029159576  0.027254731          361 
 4876000   0.47011468   -5.3869153    1708.3721  0.029196953  0.027247123          365 
 4877000   0.47306084   -5.3794301    1707.0738  0.029168781  0.027239518          387 
 4878000     0.470138   -5.3791283    1709.1142  0.029197659  0.027231936          375 
 4879000   0.47043793   -5.3831104    1706.8041  0.029152219   0.02722434          363 
 4880000   0.47556219   -5.3998035    1705.6225  0.029126067  0.027216764          372 
 4881000   0.47653599   -5.3980648    1701.8277  0.029055312  0.027209169          435 
 4882000   0.47880319   -5.3870067    1705.3436  0.029109375  0.027201573          373 
 4883000   0.47566466   -5.4062409      1701.63  0.029040037  0.027193968          447 
 4884000   0.46580988   -5.4032703    1704.1718  0.029077461  0.027186364          412 
 4885000   0.46792835   -5.3876504    1703.3537  0.029057552  0.027178767          422 
 4886000   0.47324863   -5.3955676    1705.4189  0.029086828  0.027171193          354 
 4887000   0.46259285   -5.3767986    1704.4191  0.029063827  0.027163611          424 
 4888000   0.46629341   -5.3963198    1707.4767  0.029110008  0.027156038          489 
 4889000   0.47232314   -5.3993204    1708.1408  0.029115374  0.027148459          463 
 4890000   0.46802243   -5.4101151    1703.5349  0.029030928   0.02714087          464 
 4891000    0.4722675   -5.3957982    1706.3612  0.029073148  0.027133292          450 
 4892000   0.46830715   -5.4008045      1703.48  0.029018124  0.027125706          404 
 4893000   0.47133074   -5.4071887    1707.4728  0.029080197   0.02711812          392 
 4894000   0.46843403   -5.4116212    1703.5212  0.029006968  0.027110539          407 
 4895000   0.46954125   -5.3871535    1702.1173  0.028977141  0.027102954          538 
 4896000    0.4704024    -5.412206    1706.8671  0.029052068  0.027095383          697 
 4897000    0.4647592   -5.3945835     1702.657  0.028974491  0.027087792          606 
 4898000   0.46184173   -5.4066244     1704.052   0.02899231  0.027080209          747 
 4899000   0.46991888   -5.4019218    1704.1673  0.028988353  0.027072624          604 
 4900000   0.46795557   -5.4085097    1703.0515  0.028963461  0.027065029          613 
 4901000   0.47083832   -5.4064928    1703.4922  0.028965045  0.027057439          601 
 4902000   0.46807755   -5.4146954    1703.4975  0.028959226  0.027049867          544 
 4903000   0.45956287   -5.4007745    1704.5313   0.02897089   0.02704228          588 
 4904000   0.46091067   -5.3973621    1701.7323   0.02891742  0.027034708          611 
 4905000   0.47378108   -5.4149783    1704.6509  0.028961109   0.02702713          695 
 4906000   0.46296284   -5.4049448    1700.9044  0.028891568  0.027019553          567 
 4907000   0.47004818   -5.4058948    1705.8221  0.028969195  0.027011984          757 
 4908000   0.47468419    -5.411608    1703.8355  0.028929562  0.027004407          694 
 4909000   0.46609947   -5.4122478    1703.8591   0.02892407  0.026996842          714 
 4910000   0.47505758   -5.3992752    1703.7053  0.028915569   0.02698927          580 
 4911000   0.48222861   -5.4040964    1705.7203  0.028943872  0.026981709          707 
 4912000   0.46290148   -5.4081084    1705.2108  0.028929336  0.026974155          751 
 4913000   0.46536066   -5.4160968    1702.3654  0.028875185  0.026966582          695 
 4914000    0.4593053   -5.4094767    1701.7148  0.028858276   0.02695901          770 
 4915000   0.46333596   -5.4267833    1701.4249  0.028847488   0.02695143          718 
 4916000   0.46399602    -5.425199    1701.7803  0.028847646  0.026943861          823 
 4917000   0.46483998   -5.4170035    1700.3222  0.028817066  0.026936293          899 
 4918000   0.46906897   -5.4158618     1701.883  0.028837654  0.026928697          879 
 4919000   0.46778987   -5.4218023    1701.5039   0.02882537  0.026921112          984 
 4920000   0.45593777   -5.4279435    1701.1449   0.02881343  0.026913535          946 
 4921000     0.464621   -5.4080729    1701.5831  0.028814995  0.026905968         1004 
 4922000   0.45800972   -5.4302108    1703.7997   0.02884667  0.026898385          968 
 4923000   0.46520205   -5.4147496    1699.7735  0.028772657    0.0268908          927 
 4924000   0.46496226   -5.4332558    1700.4205  0.028777764  0.026883215          932 
 4925000    0.4619702   -5.4323878    1703.5267  0.028824478  0.026875621          884 
 4926000   0.45729887   -5.4336932    1699.8663  0.028756704  0.026868036          990 
 4927000   0.46271899   -5.4316582    1698.2739  0.028723934   0.02686044         1024 
 4928000   0.46334434   -5.4160077    1699.4462   0.02873793  0.026852839         1013 
 4929000   0.46317231   -5.4406575    1700.4821  0.028749613  0.026845237         1006 
 4930000   0.45477487   -5.4258096    1698.0605  0.028702849  0.026837647         1009 
 4931000   0.46244423   -5.4454156    1701.4122  0.028753671  0.026830064         1119 
 4932000   0.47104129    -5.422983    1700.1879  0.028727154  0.026822468         1030 
 4933000   0.45629972   -5.4124274    1702.9303  0.028767659  0.026814879         1030 
 4934000   0.47112067    -5.434812    1702.6242  0.028756659  0.026807308         1099 
 4935000   0.44971463   -5.4201041    1699.1925  0.028692882  0.026799742         1120 
 4936000   0.47154924    -5.434569    1699.3159  0.028689153  0.026792179         1018 
 4937000   0.46572689   -5.4285252     1699.381  0.028684441   0.02678461         1044 
 4938000   0.46359768   -5.4383756    1701.4246  0.028713119  0.026777037         1135 
 4939000   0.45985854    -5.435733    1697.9465  0.028648621  0.026769485         1180 
 4940000   0.45338342   -5.4456135    1703.1473  0.028730555  0.026761919         1123 
 4941000   0.46397282   -5.4519755     1697.217  0.028624721  0.026754345         1280 
 4942000   0.46176218   -5.4295437    1699.1789  0.028652011  0.026746779         1310 
 4943000   0.46927409   -5.4327812    1699.3386  0.028648907  0.026739213         1236 
 4944000   0.46373242   -5.4102762    1703.1105   0.02870669  0.026731657         1287 
 4945000   0.45602961   -5.4351241    1696.7793  0.028594191  0.026724101         1309 
 4946000   0.45609063   -5.4357151    1699.9746  0.028642246   0.02671654         1240 
 4947000    0.4672994   -5.4372056    1698.0369  0.028603816   0.02670898         1249 
 4948000    0.4535759   -5.4330685    1699.1454  0.028616704   0.02670142         1253 
 4949000   0.46820603   -5.4405755     1700.988  0.028641948  0.026693851         1384 
 4950000   0.45922012    -5.426619    1701.5374  0.028645411  0.026686287         1346 
 4951000    0.4484151   -5.4496377    1699.6745  0.028608269  0.026678727         1288 
 4952000   0.45682153   -5.4317152    1698.8838  0.028589187  0.026671171         1280 
 4953000    0.4547117   -5.4491753    1695.9902   0.02853473  0.026663589         1391 
 4954000   0.44960584   -5.4390601    1695.1136  0.028514224  0.026656008         1412 
 4955000   0.45718824   -5.4472015    1698.6885  0.028568592  0.026648437         1359 
 4956000    0.4613176   -5.4416883    1698.7691  0.028564183  0.026640867         1447 
 4957000   0.45519901   -5.4374239    1698.6901  0.028557093  0.026633298         1345 
 4958000   0.45732203   -5.4448424     1695.297  0.028494302  0.026625714         1408 
 4959000   0.45075438   -5.4493918    1698.2032  0.028537393  0.026618137         1336 
 4960000   0.44640444   -5.4539962    1696.3561  0.028500607   0.02661057         1356 
 4961000   0.45474279   -5.4379708    1699.6218  0.028549718  0.026603002         1391 
 4962000   0.46017914   -5.4494087    1698.7446  0.028529233  0.026595442         1363 
 4963000   0.45324649   -5.4408211    1695.2198  0.028464298  0.026587884         1422 
 4964000   0.45085978   -5.4576236    1699.1618  0.028524742  0.026580332         1386 
 4965000   0.45840254   -5.4456701    1698.1574  0.028502138  0.026572786         1378 
 4966000   0.45094309   -5.4523886    1697.3316  0.028482542  0.026565241         1384 
 4967000   0.45157722    -5.461331    1699.3413  0.028510525  0.026557707         1298 
 4968000   0.45538929   -5.4521848    1699.5742  0.028508692  0.026550177         1408 
 4969000   0.45102778   -5.4547079    1699.7931  0.028506626  0.026542628         1454 
 4970000    0.4494714   -5.4573982    1694.8521  0.028418043  0.026535085         1520 
 4971000   0.45617886   -5.4624602    1696.9018  0.028446687  0.026527544         1516 
 4972000   0.45499772      -5.4585    1696.5325  0.028434776   0.02651999         1548 
 4973000   0.46700943   -5.4496396    1699.0137  0.028470636  0.026512427         1615 
 4974000    0.4445687   -5.4596497    1697.4176  0.028438172   0.02650487         1635 
 4975000   0.44934776    -5.461691    1694.3318  0.028380767  0.026497306         1664 
 4976000   0.45208403   -5.4495734    1697.3258  0.028425205  0.026489756         1578 
 4977000   0.45196673    -5.456503    1698.0012  0.028430801  0.026482209         1644 
 4978000   0.45897873   -5.4483298    1696.5375  0.028400587  0.026474664         1590 
 4979000   0.45085407   -5.4686115    1694.1867  0.028355538  0.026467097         1651 
 4980000   0.45413788   -5.4679999    1692.9189   0.02832863  0.026459539         1811 
 4981000   0.43474679   -5.4563984    1693.1016  0.028325998   0.02645197         1801 
 4982000   0.45284011   -5.4877883    1693.2962  0.028323569  0.026444399         1826 
 4983000   0.45532034   -5.4809235    1695.7646  0.028359165  0.026436811         1965 
 4984000   0.46023216   -5.4835262    1694.7858  0.028337109  0.026429226         1916 
 4985000   0.45507325   -5.4839588    1689.4255  0.028241818  0.026421635         1874 
 4986000   0.44591414   -5.4941941    1692.8661  0.028293658  0.026414049         1929 
 4987000   0.44960213   -5.4731296    1691.1009  0.028258488  0.026406456         1935 
 4988000   0.45162278   -5.4934702    1691.9417  0.028266869  0.026398861         1956 
 4989000   0.45665283   -5.4804141    1692.9457  0.028277973  0.026391258         2022 
 4990000   0.45879641   -5.4802133    1689.4879  0.028214561  0.026383654         2057 
 4991000   0.44542374   -5.4823611    1693.0024  0.028267589  0.026376058         2016 
 4992000   0.44288768   -5.4943862    1692.4903  0.028253377   0.02636845         2111 
 4993000    0.4519756   -5.4970604    1690.6656  0.028217264   0.02636085         2080 
 4994000   0.45160118   -5.4938428    1689.1318   0.02818602  0.026353236         2331 
 4995000   0.45780409   -5.5041125    1691.2007  0.028214893  0.026345616         2270 
 4996000   0.46305301   -5.5059135    1691.8033  0.028219298  0.026337988         2305 
 4997000   0.44917512   -5.4983449    1689.4179  0.028173869  0.026330365         2338 
 4998000   0.43914081   -5.4806637    1691.4705  0.028202456  0.026322726         2263 
 4999000   0.45045235   -5.5023677    1688.4974  0.028147253  0.026315101         2293 
 5000000   0.46238078   -5.5049863    1690.4284  0.028173806  0.026307466         2310 
 5001000   0.45580873   -5.5042413    1688.4073  0.028134495  0.026299825         2357 
 5002000   0.45507601   -5.5057742    1689.6943  0.028150312  0.026292188         2450 
 5003000   0.45827858   -5.5262943    1685.0203  0.028066832  0.026284557         2419 
 5004000   0.44888859   -5.5141092    1686.9235  0.028092917  0.026276914         2505 
 5005000   0.45026517   -5.5349822    1690.7446  0.028150926  0.026269286         2527 
 5006000   0.45827647   -5.5074907    1686.7742  0.028079208  0.026261643         2538 
 5007000   0.45023127   -5.5141994    1684.0403  0.028028099     0.026254         2619 
 5008000   0.45018692   -5.5300258    1685.8694  0.028052939   0.02624635         2624 
 5009000   0.46362856    -5.534226    1685.4327  0.028040073  0.026238702         2634 
 5010000    0.4531071    -5.533116    1686.1694   0.02804673  0.026231044         2756 
 5011000   0.45364972    -5.541089    1682.3257  0.027977212  0.026223395         2750 
 5012000    0.4522454   -5.5514478    1683.8076  0.027996269  0.026215727         2855 
Loop time of 12502.8 on 48 procs for 5000000 steps with 4000 atoms

Performance: 69104.439 tau/day, 399.910 timesteps/s
99.4% CPU use with 48 MPI tasks x no OpenMP threads

MPI task timing breakdown:
Section |  min time  |  avg time  |  max time  |%varavg| %total
---------------------------------------------------------------
Pair    | 881.36     | 939.69     | 1001.9     | 104.2 |  7.52
Neigh   | 85.231     | 88.245     | 92.136     |  17.5 |  0.71
Comm    | 813.17     | 869.85     | 930.64     | 114.9 |  6.96
Output  | 14.254     | 14.259     | 14.339     |   0.3 |  0.11
Modify  | 10455      | 10479      | 10514      |  11.8 | 83.81
Other   |            | 112.1      |            |       |  0.90

Nlocal:        83.3333 ave          92 max          71 min
Histogram: 1 1 2 2 7 9 12 10 1 3
Nghost:        2341.92 ave        2367 max        2315 min
Histogram: 3 3 6 3 6 10 7 2 3 5
Neighs:        15916.9 ave       18660 max       13836 min
Histogram: 2 8 3 6 10 9 6 2 1 1
FullNghs:      31834.1 ave       35882 max       26277 min
Histogram: 1 1 2 4 5 12 14 5 2 2

Total # of neighbors = 1528035
Ave neighs/atom = 382.00875
Neighbor list builds = 269750
Dangerous builds = 1

#clear
#
#next RN
#
#jump SELF
Total wall time: 3:28:26
