
units lj                  # Use reduced LJ style units
atom_style atomic         # Uncharged point particles
atom_modify map hash      # Needed for indexing of clusters etc
                          # Used to be able to find where atoms are in relation to each other.

lattice fcc 1.0 spacing 1 1 1
Lattice spacing in x,y,z = 1.5874011 1.5874011 1.5874011
region box block 0 10 0 10 0 10 units lattice
create_box 2 box
Created orthogonal box = (0.0000000 0.0000000 0.0000000) to (15.874011 15.874011 15.874011)
  3 by 4 by 4 MPI processor grid
create_atoms 1 box
Created 4000 atoms
  using lattice units in orthogonal box = (0.0000000 0.0000000 0.0000000) to (15.874011 15.874011 15.874011)
  create_atoms CPU = 0.002 seconds
set type 1 type/fraction 2 0.29 78393
Setting atom values ...
  1200 settings made for type/fraction
mass 1 1.0
mass 2 1.0
pair_style lj/cut  3.5
pair_modify tail  yes
pair_coeff 1  1  1.0  1.0   # Intearaction between 1 and 1 set with epsilon = 1 and sigma = 1
pair_coeff 1  2  1.5  0.8
pair_coeff 2  2  0.5  0.88

write_data data.0
System init for write_data ...
Neighbor list info ...
  update every 1 steps, delay 10 steps, check yes
  max neighbors/atom: 2000, page size: 100000
  master list distance cutoff = 3.8
  ghost atom cutoff = 3.8
  binsize = 1.9, bins = 9 9 9
  1 neighbor lists, perpetual/occasional/extra = 1 0 0
  (1) pair lj/cut, perpetual
      attributes: half, newton on
      pair build: half/bin/atomonly/newton
      stencil: half/bin/3d
      bin: standard
WARNING: Not all mixed pair coeffs generated from mixing. Use write_data with 'pair ij' option to store all pair coeffs. (../write_data.cpp:312)


#############################
#   M E L T   S Y S T E M   #
#############################

velocity all create 2.4 5833274 mom yes dist gaussian # Assign velocities
                                                    # Temperature 2.4, random number seed, zero linear momentum
                                                                                # Gaussian distribution

timestep 0.002   # simulation timestep
thermo 1000       # output thermodynamic data every 1000 steps bf 100

# Define a fix  in this case with index 1 applied to all
# particles in the simulation. This fix is for simulations
# in the anisotropic NPT ensemble. Note that we use the MTK
# correction.
fix 1 all npt temp 2.4 2.4 0.1 iso 5.68 5.68 0.5 mtk yes tchain 5 pchain 5 # Use NPT ensemble
                                                                         # Set temperature and pressure and damping
                                                                         # Numbers of thermostats in chain and in barostat
run 10000          # run for 10000 steps
Per MPI rank memory allocation (min/avg/max) = 3.642 | 3.644 | 3.648 Mbytes
Step Temp E_pair E_mol TotEng Press Volume 
       0          2.4   -6.4756105            0   -2.8765105   -3.9602485         4000 
    1000    2.3732082   -5.0408111            0   -1.4818888    5.6517939    4143.4523 
    2000    2.3837046   -5.0103047            0   -1.4356416    5.5189588    4181.5494 
    3000    2.4727195   -4.9420789            0   -1.2339268    5.7497644    4189.3734 
    4000    2.3962917   -4.9607684            0   -1.3672295    5.6314794    4192.5324 
    5000    2.4205343   -4.9764551            0   -1.3465614    5.7270913    4178.7313 
    6000    2.3692387   -4.9578831            0   -1.4049135    5.5560875    4197.3656 
    7000    2.3613442   -4.9660767            0   -1.4249458    5.7047635    4172.2462 
    8000    2.3921676   -5.0112583            0   -1.4239039    5.5081808    4175.6681 
    9000    2.3874723   -4.9796704            0   -1.3993573    5.5364601    4188.8927 
   10000    2.4474734   -4.8878373            0    -1.217545    5.6604576    4221.2704 
Loop time of 2.44486 on 48 procs for 10000 steps with 4000 atoms

Performance: 706787.917 tau/day, 4090.208 timesteps/s
99.5% CPU use with 48 MPI tasks x no OpenMP threads

MPI task timing breakdown:
Section |  min time  |  avg time  |  max time  |%varavg| %total
---------------------------------------------------------------
Pair    | 1.0437     | 1.1147     | 1.3322     |   4.8 | 45.59
Neigh   | 0.20377    | 0.212      | 0.24636    |   1.7 |  8.67
Comm    | 0.63442    | 0.84229    | 0.96346    |   6.6 | 34.45
Output  | 0.00024582 | 0.00025041 | 0.00032004 |   0.0 |  0.01
Modify  | 0.20366    | 0.26065    | 0.32658    |   7.9 | 10.66
Other   |            | 0.01497    |            |       |  0.61

Nlocal:        83.3333 ave          91 max          75 min
Histogram: 2 4 2 6 7 7 11 3 3 3
Nghost:        1592.60 ave        1619 max        1560 min
Histogram: 1 1 5 4 4 14 9 4 4 2
Neighs:        9047.71 ave       10159 max        8101 min
Histogram: 5 4 6 5 8 5 4 6 3 2

Total # of neighbors = 434290
Ave neighs/atom = 108.57250
Neighbor list builds = 908
Dangerous builds = 236

# Equilibrate just above the melting temperature to avoid step fn in T

fix 1 all npt temp 1.25 1.25 0.1 iso 5.68 5.68 0.5 mtk yes tchain 5 pchain 5
run 2000
Per MPI rank memory allocation (min/avg/max) = 3.643 | 3.645 | 3.649 Mbytes
Step Temp E_pair E_mol TotEng Press Volume 
   10000    2.4474734   -4.8878373            0    -1.217545    5.6604576    4221.2704 
   11000    1.2464756   -6.8280959            0     -4.95885    5.7957758    3359.8555 
   12000    1.2479475   -6.8741788            0   -5.0027255    5.9432248    3335.7041 
Loop time of 0.579456 on 48 procs for 2000 steps with 4000 atoms

Performance: 596421.129 tau/day, 3451.511 timesteps/s
99.6% CPU use with 48 MPI tasks x no OpenMP threads

MPI task timing breakdown:
Section |  min time  |  avg time  |  max time  |%varavg| %total
---------------------------------------------------------------
Pair    | 0.24647    | 0.2728     | 0.3174     |   2.7 | 47.08
Neigh   | 0.036803   | 0.03932    | 0.046301   |   0.8 |  6.79
Comm    | 0.17065    | 0.21516    | 0.24307    |   3.4 | 37.13
Output  | 5.1603e-05 | 5.3199e-05 | 6.9903e-05 |   0.0 |  0.01
Modify  | 0.04033    | 0.047306   | 0.052817   |   1.7 |  8.16
Other   |            | 0.004818   |            |       |  0.83

Nlocal:        83.3333 ave          90 max          76 min
Histogram: 1 3 5 4 6 13 4 6 3 3
Nghost:        1852.42 ave        1890 max        1819 min
Histogram: 2 4 5 9 5 9 8 3 2 1
Neighs:        11458.1 ave       12865 max       10014 min
Histogram: 2 3 5 6 10 5 4 6 4 3

Total # of neighbors = 549991
Ave neighs/atom = 137.49775
Neighbor list builds = 142
Dangerous builds = 11

#############################
# L I N E A R  Q U E N C H  #
#############################

# Define solid atoms. This closely follows ten Wolde  Ruiz-Montero and Frenkel  Faraday Discuss  1996  104  93-110
# Compute components of the per-atom q6 vector
compute q6 all orientorder/atom degrees 1 6 components 6 nnn NULL cutoff 1.3 # compute the Q6 parameter.
                                                                             # Use all neighbours within 1.3 unit cell.

# get number of connections
compute coord_number all coord/atom orientorder q6 0.5

# An atom is solid if it has 8 or more connections (of a possible 14)
variable is_solid atom c_coord_number>=8
group solid dynamic all var is_solid    # Must be dynamic to update
dynamic group solid defined

# do clustering
compute cluster solid cluster/atom 1.3 # Create a cluster where all atoms within are solid and max 1.3 units from another member

# define chunks one chunk per cluster
compute clus_chunks solid chunk/atom c_cluster nchunk every compress yes  # Says which atoms are in which chunk

# count the size of each chunk
compute size_chunks solid property/chunk clus_chunks count


# Find the maximum entry in the vector of chunk sizes
variable max_n equal max(c_size_chunks)


# Thermo style which includes this variable
# thermo_style custom step temp pe vol v_max_n

thermo ${N}  # Print the thermo information every 100 steps
thermo 1000  

# Reset the npt fix at a lower temperature (below freezing)
fix 1  all npt temp  ${temp} ${temp}  0.1  iso  5.68  5.68  0.5  mtk yes tchain  5  pchain  5
fix 1  all npt temp  0.45 ${temp}  0.1  iso  5.68  5.68  0.5  mtk yes tchain  5  pchain  5
fix 1  all npt temp  0.45 0.45  0.1  iso  5.68  5.68  0.5  mtk yes tchain  5  pchain  5

dump dmp2 all dcd ${N} traj.dcd
dump dmp2 all dcd 1000 traj.dcd


compute msd all msd com yes
variable twopoint equal c_msd[4]/6/(step*dt+1.0e-6)
fix 9 all vector 10 c_msd[4]
variable fit equal slope(f_9)/6/(10*dt)
thermo_style custom step temp pe c_msd[4] v_twopoint v_fit v_max_n

fix 1 all npt temp 1.25 ${temp} 0.1 iso 5.68 5.68 0.5 mtk yes tchain 5 pchain 5
fix 1 all npt temp 1.25 0.45 0.1 iso 5.68 5.68 0.5 mtk yes tchain 5 pchain 5
run 500000 # 5000000  # Run for this many steps
Neighbor list info ...
  update every 1 steps, delay 10 steps, check yes
  max neighbors/atom: 2000, page size: 100000
  master list distance cutoff = 3.8
  ghost atom cutoff = 3.8
  binsize = 1.9, bins = 8 8 8
  4 neighbor lists, perpetual/occasional/extra = 1 3 0
  (1) pair lj/cut, perpetual
      attributes: half, newton on
      pair build: half/bin/atomonly/newton
      stencil: half/bin/3d
      bin: standard
  (2) compute orientorder/atom, occasional
      attributes: full, newton on
      pair build: full/bin/atomonly
      stencil: full/bin/3d
      bin: standard
  (3) compute coord/atom, occasional
      attributes: full, newton on
      pair build: full/bin/atomonly
      stencil: full/bin/3d
      bin: standard
  (4) compute cluster/atom, occasional
      attributes: full, newton on
      pair build: full/bin/atomonly
      stencil: full/bin/3d
      bin: standard
Per MPI rank memory allocation (min/avg/max) = 9.808 | 9.816 | 9.823 Mbytes
Step Temp PotEng c_msd[4] v_twopoint v_fit v_max_n 
   12000    1.2479475   -6.8741788 1.8388348e-30 1.2769685e-32 8.3333333e+20            1 
   13000    1.2248032   -6.8636225   0.50622032 0.0032450019  0.041198447            2 
   14000    1.2457725   -6.8868888   0.96189587 0.0057255705  0.039305787            2 
   15000    1.2497589   -6.8551046    1.4505529 0.0080586269   0.03972966            2 
   16000    1.2470634   -6.8504105    1.9017134 0.0099047569  0.039366198            2 
   17000    1.2297385   -6.8326276    2.3503099  0.011521127  0.038868456            1 
   18000       1.2365   -6.8996871    2.8768563  0.013318779  0.039111869            2 
   19000    1.2286246   -6.8598155    3.3222944  0.014571466  0.039402804            1 
   20000    1.2297262   -6.8748705     3.811646  0.015881858  0.039342035            1 
   21000    1.2295403   -6.9061384    4.3206827  0.017145566  0.039410352            2 
   22000    1.2332757   -6.8834118    4.8302386  0.018296358  0.039660739            1 
   23000    1.2376739   -6.9034321     5.206303  0.018863416  0.039568247            2 
   24000    1.2722088    -6.854032    5.6191632  0.019510983  0.039362425            2 
   25000    1.2297331   -6.8583694    5.9912464  0.019970821  0.038978658            6 
   26000    1.2077764   -6.9172466     6.472133  0.020744016  0.038661685            2 
   27000    1.2198562   -6.9654244    6.9151659  0.021343104   0.03846707            1 
   28000    1.1948276   -6.9078029    7.2842848  0.021679419  0.038226525            1 
   29000    1.2504674   -6.9219224    7.6657571  0.022028037  0.037927852            4 
   30000    1.2225481   -6.9482666    8.1132539  0.022536816  0.037650319            1 
   31000      1.22114   -6.9233758     8.610966  0.023147758  0.037510971            2 
   32000    1.2047609   -6.9178598    8.9799718  0.023385343  0.037334923       -1e+20 
   33000    1.2027069   -6.9023406    9.4205311   0.02378922  0.037193463            1 
   34000    1.2120882   -6.9267056    9.8428142  0.024124544  0.037052691            2 
   35000    1.2392111   -6.9249404    10.252242  0.024410099  0.036932628            1 
   36000    1.1964834   -6.9363844    10.776876  0.024946473  0.036857552            1 
   37000     1.206056   -6.9339519    11.256204  0.025351811  0.036838434            1 
   38000    1.1683824   -6.9206612    11.672092  0.025596693  0.036831654            2 
   39000    1.2419427   -6.9571621    12.004925  0.025651548  0.036782329            1 
   40000    1.2051875   -6.9265469    12.407712    0.0258494  0.036719769            4 
   41000    1.1996224   -6.9398447    12.808234  0.026032995  0.036622622            1 
   42000     1.190771   -6.9636437    13.124155  0.026039991   0.03650115            2 
   43000    1.1792003   -6.9704735    13.600208  0.026356993  0.036388189            2 
   44000    1.1897326    -6.968337    13.926653  0.026376237  0.036265549            4 
   45000    1.2049009   -6.9877295    14.250981  0.026390705  0.036134071            3 
   46000    1.1899209   -6.9602393    14.630584  0.026504682  0.035977249            1 
   47000    1.1913762    -6.985571    14.978859   0.02655826  0.035835761            2 
   48000    1.1828178   -6.9570285    15.438758  0.026803399  0.035694342            1 
   49000    1.1616362   -6.9946377     15.85766   0.02696881  0.035579387            3 
   50000    1.1918981   -6.9712969    16.344673  0.027241121  0.035496998            1 
   51000    1.1860206   -6.9806777    16.706496  0.027298196  0.035427854            3 
   52000    1.1704234   -6.9576325     17.26096  0.027661795  0.035362698            1 
   53000    1.1865569   -6.9658107     17.68477  0.027806242  0.035317643            2 
   54000    1.1910841   -6.9744369    18.092667  0.027920783  0.035278301            2 
   55000    1.1799445   -6.9980793    18.441614  0.027941839  0.035236695            1 
   56000    1.1778959   -7.0362463    18.802645  0.027980126  0.035184056            1 
   57000    1.2051395   -6.9967452    19.158986  0.028010213   0.03511654            2 
   58000    1.1601833   -6.9779601    19.703768  0.028310012  0.035056146            1 
   59000    1.1790158   -7.0391544    20.061952   0.02833609  0.035034991            2 
   60000    1.1657415   -7.0150479    20.508549  0.028484095  0.035001949            1 
   61000    1.1734239   -7.0143917    20.879055  0.028523299  0.034967015            1 
   62000    1.1813019   -7.0732269    21.146518  0.028422738  0.034921205            1 
   63000      1.17776    -7.044348    21.590107  0.028558343  0.034867703            1 
   64000    1.1751793   -7.0628194    21.991294  0.028634497  0.034829955            1 
   65000    1.1765863   -7.0230163    22.398453  0.028715966  0.034793806            2 
   66000    1.1798435   -7.0185371     22.80296  0.028791616  0.034742174            1 
   67000    1.1488222   -7.0713542    23.125763  0.028763386  0.034699905            1 
   68000    1.1862853   -7.0328714    23.561148  0.028873956  0.034656718            1 
   69000    1.1424736   -7.0567719     23.79309  0.028735616  0.034606496            2 
   70000    1.1545124   -7.0553782    24.146239  0.028745522  0.034541086            1 
   71000    1.1242593   -7.0772029    24.612507  0.028887919  0.034486733            1 
   72000    1.1558833   -7.0239419    24.874979  0.028790485  0.034426016            1 
   73000    1.1441616   -7.1113442    25.279881  0.028858311  0.034361204            2 
   74000    1.1570178   -7.0633117    25.700118  0.028941575  0.034303073            2 
   75000    1.1439742   -7.0580497    26.189706  0.029099673  0.034256076            1 
   76000    1.1545821   -7.0734912    26.428954  0.028979116  0.034207701            1 
   77000    1.1352408   -7.0477608    26.782472  0.028985359  0.034153948            2 
   78000    1.1377024   -7.1174014    27.152443  0.029009021  0.034089046            1 
   79000    1.1437873   -7.1182354    27.417124  0.028921016  0.034029275            2 
   80000    1.1652484    -7.101664    27.828553  0.028988076  0.033965844            1 
   81000    1.1284934   -7.0468236    28.178168  0.028989885  0.033901459            2 
   82000    1.1094073   -7.0812198    28.333343  0.028794048  0.033827449            2 
   83000    1.1606928     -7.13919    28.705086  0.028820367  0.033749191            2 
   84000    1.1532432   -7.0914868    29.078173  0.028847393  0.033672753            2 
   85000    1.1332386   -7.1080508    29.424301  0.028847354  0.033597925            1 
   86000    1.1230752   -7.1235464    29.766664  0.028843667  0.033521016            2 
   87000    1.1423732   -7.1117485     30.20944  0.028936245  0.033455706            1 
   88000    1.1060432   -7.0720963     30.55756  0.028937083  0.033385111            2 
   89000    1.1437146   -7.1387343    30.755893  0.028797653  0.033312797            2 
   90000    1.1192387   -7.0963275    31.282718  0.028965479  0.033245094            2 
   91000    1.0879084   -7.1170534    31.516578  0.028861335  0.033179033            2 
   92000    1.1052301    -7.144589    31.780236  0.028786446  0.033112838            2 
   93000    1.1134291   -7.1092209    32.129932  0.028790262    0.0330326            2 
   94000    1.1372579   -7.1495969    32.362259  0.028689946    0.0329559            1 
   95000    1.1316805    -7.140749    32.659995  0.028649118  0.032882704            2 
   96000    1.1069333   -7.1303403    32.869198   0.02853229  0.032798608            2 
   97000    1.0960523   -7.1788713    33.198318  0.028520891  0.032705807            2 
   98000     1.122559   -7.1578044    33.440322  0.028435648  0.032608414            2 
   99000    1.1219957   -7.1819883    33.678577  0.028348971  0.032514459            1 
  100000    1.1088074   -7.1195422    34.037737  0.028364781  0.032426034            2 
  101000     1.126774   -7.1572328    34.326695  0.028322355  0.032333667            1 
  102000    1.1121951   -7.1950143    34.587853   0.02825805    0.0322417            2 
  103000    1.1124711   -7.1796709    35.091898  0.028391503   0.03215857            2 
  104000    1.0933957   -7.1601414    35.387317  0.028355222  0.032078573            2 
  105000    1.0797838   -7.1964931    35.581594   0.02823936  0.031997379            1 
  106000    1.0821677   -7.1887825    35.875195   0.02820377  0.031912635            2 
  107000     1.110279   -7.1538876    36.162329  0.028163808  0.031828647            2 
  108000    1.0739759   -7.1720167     36.65079   0.02827993  0.031751551            1 
  109000    1.1098941   -7.1417273    36.985286  0.028276212  0.031679652            2 
  110000    1.0750011   -7.1704669    37.341527  0.028289035  0.031608271            2 
  111000    1.1237986    -7.194333    37.558034  0.028196722  0.031539424            2 
  112000    1.0974585   -7.1691961    38.060229  0.028318623  0.031472818            4 
  113000    1.0711837   -7.2071604    38.245064  0.028204324  0.031405802            3 
  114000    1.1189419   -7.2014124    38.421387  0.028085809  0.031333791            1 
  115000    1.0718445   -7.1934634    38.670148  0.028021846  0.031260118            2 
  116000    1.0967381   -7.2085601    38.798438  0.027872441  0.031183755            2 
  117000    1.0575975   -7.2084963    39.207513  0.027925579  0.031104163            4 
  118000    1.0994677   -7.2343655      39.3456  0.027786441  0.031027048            1 
  119000    1.0779766   -7.2109786    39.779275  0.027856635  0.030947458            1 
  120000    1.0627784   -7.2113441     40.06467  0.027822688  0.030870806            2 
  121000       1.0709   -7.1978909    40.633394  0.027984431  0.030801044            3 
  122000    1.0860066   -7.1969464    40.738211  0.027826647  0.030731383            2 
  123000    1.0670713   -7.2369569     40.93838   0.02773603  0.030663248            1 
  124000    1.0633575   -7.2105914    41.373148  0.027804535  0.030596472            3 
  125000    1.0786671   -7.2369399    41.676723  0.027784482  0.030530794            3 
  126000     1.072054   -7.2434374    42.080294  0.027830882  0.030469503            3 
  127000    1.0444562   -7.2570074    42.121024  0.027638467  0.030406508            2 
  128000    1.0578723   -7.2519995    42.448416  0.027635687  0.030337957            2 
  129000    1.0660892   -7.2483217    42.728109  0.027602138  0.030269943            2 
  130000    1.0630512   -7.2466921     42.85597  0.027471776  0.030197551            2 
  131000    1.0670358   -7.3292752    42.717121  0.027173741  0.030121853            3 
  132000     1.062237   -7.3205096    42.873466  0.027066582  0.030039156            3 
  133000    1.0673165   -7.2963918    43.203643  0.027069951  0.029953254            2 
  134000    1.0543521   -7.2948688    43.386355  0.026981564  0.029865369            2 
  135000    1.0617199   -7.2811372    43.524009  0.026866672  0.029780934            1 
  136000    1.0497888   -7.2803923    43.515591  0.026663965  0.029689335            1 
  137000    1.0487075   -7.2955192    43.782889  0.026631927  0.029595714            1 
  138000    1.0499392   -7.2939122    44.166935  0.026670854   0.02950517            4 
  139000    1.0328955   -7.2639502    44.404495    0.0266214  0.029414788            3 
  140000    1.0438495   -7.2873418    44.683186  0.026597134  0.029324396            2 
  141000    1.0442436   -7.3058508     44.88732  0.026529149  0.029235068            1 
  142000    1.0360485   -7.3183879    45.045767  0.026435309  0.029146109            2 
  143000    1.0190091   -7.3546313    45.366172  0.026437163  0.029057387            2 
  144000    1.0386578   -7.2600045    45.571389  0.026372332   0.02896845            2 
  145000    1.0497219   -7.3387024    45.736031  0.026285075  0.028881703            4 
  146000    1.0136932   -7.3256663     45.86683  0.026179697  0.028793459            1 
  147000    1.0279185   -7.3229065    46.371791  0.026287863  0.028707913            1 
  148000    1.0231184   -7.3585977    46.536669  0.026203079  0.028623248            2 
  149000    1.0021194   -7.3597108    46.695756  0.026116195  0.028541968            4 
  150000    1.0200838   -7.3290708    47.238068  0.026243371  0.028463459            1 
  151000    1.0410196    -7.350167    47.435422  0.026178489   0.02838769            1 
  152000    1.0256252   -7.3399556    47.700141  0.026151393  0.028311429            2 
  153000    1.0269142   -7.3549734    47.712501  0.025987201  0.028234686            3 
  154000    1.0155421   -7.3343554    48.053427  0.026002937  0.028156095            1 
  155000    1.0075863   -7.3458826    48.151263  0.025887776  0.028079924            1 
  156000    1.0353157   -7.3347324    48.408919  0.025859465  0.028003047            3 
  157000    1.0480221   -7.3618118    48.255848  0.025613507  0.027923416            4 
  158000    1.0197059   -7.3192182    48.656255  0.025662581  0.027842046            2 
  159000      1.00293   -7.3628316    48.795087  0.025573945  0.027762789            1 
  160000    1.0067473   -7.3134348    49.324703  0.025689949  0.027685183            2 
  161000    1.0243324   -7.3789575     49.41674  0.025578023  0.027608308            2 
  162000   0.98450972   -7.3317407    49.616862  0.025523077  0.027530541            2 
  163000    1.0119251   -7.3865449    49.749191  0.025434147  0.027454437            2 
  164000    1.0037056   -7.3637705    49.970247  0.025391386  0.027378677            2 
  165000    1.0171892   -7.3817228    50.200206  0.025353639  0.027300425            1 
  166000    1.0098991    -7.395393     50.38994  0.025296155  0.027223876            2 
  167000    1.0188998   -7.3669055    50.905869   0.02540213   0.02715098            2 
  168000    1.0037248   -7.3976932     51.08169   0.02533814   0.02708169            3 
  169000    1.0017564   -7.4119544    51.341133   0.02531614  0.027012485            3 
  170000    1.0003751   -7.4202404    51.491661   0.02524101  0.026943711            5 
  171000    1.0025402   -7.3622265    51.936727  0.025310296  0.026875949            4 
  172000   0.97904806   -7.3720344    52.229423  0.025304953  0.026809112            4 
  173000    0.9798861   -7.3923191      52.2715   0.02517895  0.026744676            1 
  174000   0.99900352   -7.4252531     52.66947  0.025224842  0.026682143            1 
  175000   0.98423866   -7.4391978    52.721915  0.025105674  0.026619386            2 
  176000   0.99427582    -7.449122    53.019273  0.025103822  0.026555811            1 
  177000   0.98244886    -7.417728    53.010098  0.024957673  0.026490972            1 
  178000   0.98299336   -7.4337261    53.047707  0.024835069  0.026424507            1 
  179000    1.0054539   -7.4427817    53.190023   0.02476258  0.026356507            1 
  180000    0.9879384   -7.4335445     53.62423  0.024826032  0.026288353            1 
  181000   0.97844587   -7.4622882    53.755959   0.02474952  0.026224617            4 
  182000   0.97080687   -7.4291376    54.050422  0.024748361  0.026158605            2 
  183000   0.98877249   -7.4472853    54.117093  0.024643485  0.026093863            2 
  184000    1.0020325   -7.4797812    54.291856  0.024588703  0.026028601            2 
  185000    0.9620914   -7.4759515     54.50667  0.024552554  0.025963467            2 
  186000   0.96388277    -7.467743    54.670713  0.024494047  0.025898598            1 
  187000   0.94899844   -7.4637601    54.957988  0.024491082  0.025833938            2 
  188000   0.96719032   -7.4847381    55.070554  0.024410706  0.025768355            4 
  189000   0.96077601   -7.4722171    55.369304  0.024413273   0.02570269            2 
  190000   0.96205559   -7.4865673    55.258231  0.024236066  0.025636396            1 
  191000    0.9835005   -7.4636117    55.387062  0.024165385  0.025568764            2 
  192000   0.96625944   -7.4984889    55.434975  0.024060319  0.025500728            4 
  193000   0.94311574   -7.5093081    55.749127  0.024071298   0.02543294            2 
  194000   0.97393842   -7.5047432    55.910275  0.024016441  0.025364953            1 
  195000   0.96188544    -7.505964    55.970002  0.023918804  0.025296635            2 
  196000   0.95446746   -7.5036145    56.062216  0.023835976  0.025228341            2 
  197000   0.95517467   -7.5009249     56.49079  0.023896273   0.02516105            1 
  198000   0.95083985   -7.4593698    56.923311  0.023957622  0.025096827            1 
  199000   0.93902501   -7.5031197    56.736024  0.023758804  0.025032577            1 
  200000   0.94201775   -7.4775081    57.114293  0.023797622  0.024967691            3 
  201000   0.95051249   -7.5004033     57.07663  0.023663611  0.024901308            4 
  202000   0.94712431   -7.5325368    57.116145  0.023562766  0.024833977            2 
  203000   0.95082436   -7.5666456    57.069569  0.023427573  0.024766942            2 
  204000   0.93547352   -7.5466464     57.22279  0.023375323  0.024699338            3 
  205000   0.93602867   -7.5038994    57.673699  0.023444593  0.024631635            1 
  206000   0.95586731   -7.5542865    57.643254  0.023318468  0.024564566            3 
  207000   0.94733231   -7.5423401    57.741589  0.023245406  0.024497021            4 
  208000   0.93339719   -7.5755139    57.933153  0.023210398  0.024429032            3 
  209000   0.92050047   -7.5201216    57.967194  0.023112916  0.024360065            2 
  210000   0.95419196   -7.5771875    58.078775  0.023047133   0.02429115            3 
  211000   0.94987647   -7.5544407     58.12115   0.02295464  0.024222168            4 
  212000   0.93912906   -7.5648508    58.180192  0.022869572  0.024152035            2 
  213000   0.95069814   -7.6029845    58.192196    0.0227669  0.024080898            2 
  214000   0.93308573   -7.5792423    58.462289  0.022765689  0.024010065            2 
  215000   0.92360429   -7.5843488    58.521431  0.022682725  0.023940006            2 
  216000   0.91745055   -7.5495255    58.776259  0.022676026  0.023870467            1 
  217000   0.92527752   -7.6065748    58.764654  0.022567071  0.023801245            2 
  218000   0.93316414   -7.5759925     59.05033  0.022572756  0.023731745            3 
  219000   0.93820703   -7.6148567    58.980947  0.022443283    0.0236622            4 
  220000   0.93806971   -7.6140264     59.16019  0.022409163  0.023592086            2 
  221000   0.90421473   -7.5665451    59.369103   0.02238654  0.023523418            2 
  222000   0.92341885   -7.5894569    59.452903  0.022317156  0.023455423            2 
  223000   0.91355595   -7.5505225    59.968316  0.022409685  0.023389149            2 
  224000   0.90722446   -7.5826523    59.882906  0.022277867  0.023322141            2 
  225000     0.878961   -7.5785635    60.040771  0.022237322  0.023254073            2 
  226000   0.90621863   -7.6023763    60.006499   0.02212629  0.023186644            1 
  227000    0.8803427   -7.6325515    60.076371  0.022054468  0.023119366            4 
  228000   0.91298405   -7.6044888    60.465185  0.022099848  0.023051755            1 
  229000   0.90732096   -7.6447705    60.343638  0.021959111  0.022984294            2 
  230000   0.90734531   -7.6519276    60.265074  0.021835172  0.022917071            3 
  231000   0.89283178   -7.6312288    60.663271  0.021884297  0.022849238            1 
  232000   0.89440931    -7.648428    60.561947  0.021753573  0.022781901            2 
  233000   0.89770379   -7.6340424    60.725908  0.021718851  0.022714181            3 
  234000   0.87476447   -7.6481617    60.728762  0.021627052  0.022646547            2 
  235000   0.90440585   -7.6867078    60.919132  0.021602529  0.022579451            1 
  236000   0.87947979   -7.6319506    61.305894  0.021647561  0.022512694            1 
  237000   0.88585038   -7.6747423    61.292731  0.021551593  0.022447389            2 
  238000   0.88250725   -7.6739843     61.45137  0.021516586  0.022382069            2 
  239000   0.87915447   -7.6555025    61.486272  0.021438728    0.0223171            2 
  240000    0.8790968   -7.6783231    61.632014  0.021400005  0.022252233            1 
  241000   0.88398218   -7.6604023    61.741605  0.021349103  0.022187655            3 
  242000    0.8925394   -7.6832942    61.825021  0.021289608  0.022123134            3 
  243000   0.88176385   -7.6204555    62.118669  0.021302698  0.022059342            2 
  244000   0.86816638   -7.6745299     62.11846  0.021215321  0.021995442            1 
  245000   0.85582173   -7.7114157    62.287817  0.021186332  0.021931499            2 
  246000   0.86142095   -7.7053236    62.273557  0.021095378  0.021867651            1 
  247000   0.88973286   -7.7142915    62.292504  0.021016364  0.021803721            5 
  248000   0.86495768   -7.7283731    62.196411  0.020899332  0.021739355            1 
  249000   0.87022561   -7.7357743    62.357811  0.020869415  0.021674536            3 
  250000   0.84875693   -7.6887325    62.467103  0.020822368   0.02160922            2 
  251000   0.87276208   -7.6909139    62.537744  0.020762863  0.021544069            1 
  252000    0.8841805   -7.6966599    62.517474  0.020673768  0.021479355            4 
  253000   0.87775302    -7.731776    62.524581  0.020594394  0.021414486            2 
  254000   0.85635882   -7.7160476    62.663896  0.020559021  0.021349917            1 
  255000   0.86272402   -7.6916096    62.920048  0.020562107  0.021284628            2 
  256000   0.87109629   -7.7331172     62.88728   0.02047112   0.02122009            4 
  257000   0.86407572   -7.7118637    63.087535  0.020456399  0.021155077            4 
  258000   0.84839551   -7.7337966    63.086588  0.020376805  0.021091528            5 
  259000   0.86108088     -7.73254     63.31597  0.020371934  0.021027483            2 
  260000   0.84965313   -7.7292527    63.495918  0.020351256  0.020964578            4 
  261000   0.84885173   -7.7625169    63.649613  0.020322354  0.020902853            3 
  262000   0.85191639   -7.7352013     63.82559   0.02030076  0.020841869            2 
  263000   0.83581129   -7.7336592    63.865404  0.020236186  0.020781499            2 
  264000   0.85158289    -7.721464    64.090192   0.02023049  0.020722011            2 
  265000   0.83355956   -7.7526647    64.194791  0.020187041  0.020662672            2 
  266000   0.85290727   -7.7427067    64.203516  0.020113884   0.02060309            1 
  267000   0.85854238   -7.7437226    64.395629  0.020098511  0.020543636            2 
  268000     0.831452   -7.7733717    64.397748  0.020024175  0.020484664            2 
  269000   0.85866854   -7.7643225    64.734157  0.020053952  0.020426394            5 
  270000   0.83197876   -7.7859077    64.608432  0.019940874  0.020368113            3 
  271000   0.82581317    -7.793767    64.720493   0.01990175  0.020309331            2 
  272000     0.832257   -7.7683119    64.794794  0.019851346  0.020250615            8 
  273000   0.83065437   -7.7754716    64.813516  0.019784346  0.020191959            1 
  274000   0.83739096    -7.772331    64.897928  0.019737813  0.020133546            3 
  275000   0.80101926   -7.7863442    65.008325  0.019699492  0.020074505            2 
  276000   0.83339745   -7.8074084    64.787106  0.019561324  0.020015103            3 
  277000   0.81549647   -7.7958315    64.883352  0.019519661  0.019955087            3 
  278000   0.82077254   -7.7819233    65.160815  0.019532618  0.019896571            1 
  279000   0.81190342   -7.7931107    65.254992  0.019490738  0.019838763            2 
  280000   0.83343923   -7.8196341    65.489724  0.019490989  0.019781506            2 
  281000   0.81215949   -7.8656961    65.558776  0.019442104  0.019725337            3 
  282000   0.83572036   -7.8574383    65.473089   0.01934784  0.019668663            3 
  283000   0.79498561   -7.8450084    65.713018  0.019350123  0.019612193            4 
  284000   0.81991511   -7.8410899    65.607798  0.019251115  0.019555895            3 
  285000   0.81745219   -7.8493334    65.662229  0.019199482  0.019499827            3 
  286000   0.78751534   -7.8720925    65.551759  0.019100163  0.019442955            2 
  287000   0.81370041   -7.8595542    65.745334  0.019089818  0.019386171            4 
  288000   0.80852276   -7.8692829    65.931031  0.019077266  0.019329788            2 
  289000   0.80472433   -7.8488533    66.041782   0.01904319  0.019273521            3 
  290000   0.80108214   -7.8652787    66.042201  0.018977644  0.019216877            1 
  291000    0.8097317   -7.8929187    66.073599   0.01892142  0.019160063            2 
  292000   0.79810486   -7.8737465    66.104523  0.018865446  0.019103126            2 
  293000   0.78662453   -7.8697816    66.146545  0.018813011   0.01904693            2 
  294000   0.79762327   -7.8772443    66.091143  0.018733317   0.01899071            4 
  295000   0.78480723   -7.8738092    66.165124  0.018690713  0.018934407            1 
  296000   0.78576372   -7.9051814    66.403689  0.018694732  0.018878718            2 
  297000   0.80762588   -7.8773349    66.383493   0.01862612  0.018823475            2 
  298000   0.77925289   -7.8976613    66.487574  0.018592722  0.018768665            2 
  299000   0.80866675    -7.890153    66.667852  0.018580784  0.018713979            1 
  300000   0.79404543   -7.9245653     66.49928  0.018472022  0.018658805            2 
  301000   0.78508996   -7.8669106    66.568793  0.018429898  0.018603588            2 
  302000   0.78704591   -7.8830313    66.801515  0.018433089  0.018548561            1 
  303000   0.80069113   -7.9291763     66.76594   0.01836247   0.01849448            1 
  304000   0.77792835   -7.9377502    66.642579  0.018268251  0.018439898            2 
  305000   0.80630268   -7.9157505    66.745344  0.018236433  0.018385198            1 
  306000   0.78110467   -7.9494256    66.617971  0.018142149  0.018329861            3 
  307000   0.77211074   -7.9598977    66.659764  0.018094399  0.018274858            3 
  308000   0.78131121   -7.9395728    66.724258    0.0180531  0.018219752            3 
  309000   0.77497684   -7.9608581     66.78123   0.01801004  0.018164411            2 
  310000   0.77981243   -7.9480879    66.951596  0.017997741  0.018109368            2 
  311000   0.76191809    -7.980574    67.087652  0.017976327  0.018054449            1 
  312000   0.76994849   -7.9450718      66.9478  0.017881357  0.018000137            1 
  313000   0.75841772    -7.960365    67.037669  0.017848155  0.017945749            2 
  314000   0.77384567   -7.9691234     67.16757  0.017825788  0.017891481            4 
  315000   0.76258028   -7.9517583    67.184668  0.017773722  0.017837265            1 
  316000   0.74421555   -7.9693136    67.195305  0.017720281  0.017782954            2 
  317000   0.76589873   -7.9647991    67.128041  0.017646698  0.017728456            4 
  318000   0.75028277    -7.976084    67.117075  0.017588332  0.017674028            1 
  319000   0.75695098   -7.9691172    67.110113  0.017531377    0.0176197            4 
  320000   0.74610692   -7.9732146    67.255841  0.017514542  0.017565666            5 
  321000   0.74689105   -8.0072182    67.406582  0.017499113  0.017512337            1 
  322000   0.75561479   -8.0040106    67.371382  0.017435658  0.017458841            1 
  323000   0.74817094   -8.0163734    67.258758  0.017352621  0.017405411            1 
  324000   0.73109306   -7.9881497     67.46696  0.017352613  0.017351832            6 
  325000   0.74834473   -8.0062758    67.323323  0.017262391  0.017298742            6 
  326000   0.75247327   -8.0302055    67.379176  0.017223716  0.017245046            3 
  327000   0.74031164   -8.0432976    67.368858  0.017168414  0.017191459            1 
  328000   0.74912531   -8.0263989    67.280256  0.017093561  0.017137475            4 
  329000    0.7500005   -8.0043639    67.365275  0.017063139   0.01708392            2 
  330000   0.75772319   -8.0253209    67.280147  0.016989936  0.017030217            2 
  331000   0.73279109   -8.0137928    67.251046  0.016931281  0.016976139            4 
  332000   0.73746737   -8.0691892    67.172543  0.016860578  0.016922408            2 
  333000    0.7438629   -8.0413471    67.328783  0.016849045  0.016868775            5 
  334000   0.71910461   -8.0373158    67.335187  0.016800196    0.0168151            2 
  335000   0.75095241   -8.0469001    67.321675  0.016746685  0.016761571            2 
  336000   0.73283966   -8.0219393    67.382447  0.016711916  0.016708732            1 
  337000   0.72722752   -8.0555478    67.490451  0.016689033  0.016656154            4 
  338000   0.72465614   -8.0501368    67.605808  0.016668099  0.016603687            3 
  339000   0.73572456   -8.0675848    67.576359  0.016611691  0.016551814            2 
  340000   0.71634607   -8.0792581    67.659505  0.016583212  0.016499972            2 
  341000   0.73688841   -8.0569012    67.681484  0.016539952   0.01644838            3 
  342000   0.72285219   -8.0763497    67.764165  0.016511736  0.016396793            3 
  343000   0.72715194   -8.0726116     67.69942  0.016447867  0.016345409            2 
  344000   0.72888877   -8.0859232    67.660674  0.016390667  0.016294338            4 
  345000   0.71389141   -8.0664047    67.722956  0.016358202  0.016242781            2 
  346000   0.70371944    -8.087339    67.594724   0.01628004  0.016191413            1 
  347000   0.71678401   -8.0774436    67.799378  0.016282271  0.016140271            2 
  348000   0.72459155   -8.0854865    67.814583  0.016239124  0.016089472            2 
  349000    0.7242559   -8.0824676    68.072821  0.016254255  0.016039115            5 
  350000   0.72475934    -8.108043    67.815489  0.016146545  0.015989024            3 
  351000   0.71103271   -8.0897688    67.940482  0.016130219  0.015938541            4 
  352000   0.70790881   -8.1051355     67.86543  0.016066626  0.015888182            4 
  353000   0.70153067   -8.1160673    67.879742  0.016024491  0.015838234            2 
  354000   0.69567749   -8.1434975    68.036219  0.016016059  0.015788789            4 
  355000   0.70146659   -8.1456717    68.002422   0.01596301  0.015739342            4 
  356000    0.7089127   -8.1136592      68.1197  0.015945623  0.015690009            2 
  357000   0.70120977    -8.116498    68.169344  0.015912545   0.01564103            2 
  358000   0.70116431   -8.1184295    68.268837  0.015891256  0.015592095            2 
  359000   0.70789252   -8.1308787    68.112841   0.01581078  0.015543254            2 
  360000    0.6985049   -8.1550467    68.062943  0.015755311  0.015494327            2 
  361000   0.70061183   -8.1272039    68.191833   0.01574142  0.015445624            3 
  362000   0.69021767   -8.1406813    68.058834  0.015667319  0.015396631            1 
  363000   0.70037887   -8.1610922    68.001606  0.015611021  0.015347708            2 
  364000   0.69382255   -8.1669165    67.965548  0.015559878  0.015298677            2 
  365000   0.69336836   -8.1551852    68.007304  0.015526782  0.015249831            2 
  366000   0.69120379   -8.1548502    67.979154   0.01547795  0.015201336            2 
  367000   0.69201463   -8.1587444    67.980054   0.01543598  0.015152821            1 
  368000   0.68403879   -8.1405973    68.139616  0.015430167  0.015104393            2 
  369000   0.67796346   -8.1916208    68.215761  0.015405547  0.015056662            2 
  370000   0.67997575   -8.1821796    67.923081  0.015297991  0.015008704            3 
  371000   0.70572632   -8.1648241    68.160645  0.015310118  0.014960999            2 
  372000   0.65099645   -8.1868385    68.192744  0.015276152  0.014913493            2 
  373000   0.67148846   -8.1877706    68.184779  0.015233418  0.014866139            5 
  374000   0.67283829   -8.2089939    68.234644  0.015203798  0.014818719            1 
  375000   0.67773476   -8.2211555    68.176218  0.015150271  0.014771519            1 
  376000   0.66140467   -8.2071322    68.101751  0.015093473  0.014724287            2 
  377000   0.66763797     -8.19888    68.059971  0.015044202   0.01467723            2 
  378000    0.6774384   -8.2068435    68.114506  0.015016425  0.014630213            1 
  379000   0.67700472   -8.2106237    68.059007  0.014964601  0.014583178            2 
  380000    0.6761975   -8.2124383    68.134026  0.014941672  0.014536447            2 
  381000   0.66094895    -8.259683    67.922963  0.014856291  0.014489402           11 
  382000   0.67253675   -8.2408621    68.045316  0.014844092  0.014442559            7 
  383000   0.64375334   -8.2441521    67.941979   0.01478285  0.014395827            3 
  384000   0.65642872   -8.2392734    68.194897   0.01479924  0.014349344            2 
  385000    0.6371643   -8.2397391    68.056097  0.014730757  0.014303035            2 
  386000   0.65988768    -8.280723    67.995028   0.01467941   0.01425668            2 
  387000   0.63763539   -8.2511254    68.077866  0.014659317  0.014210518            3 
  388000   0.64240874   -8.2554352    67.947773  0.014593594  0.014164249            2 
  389000   0.64332947   -8.2681923    68.013625  0.014570185  0.014118224            1 
  390000   0.63762331   -8.2768634    68.006223  0.014531244  0.014072295            2 
  391000   0.65647574   -8.2553579    68.164459  0.014527804   0.01402646            2 
  392000   0.63625067   -8.2681956    67.909899  0.014436628   0.01398083            2 
  393000   0.63023823   -8.2833819    68.062452  0.014432242  0.013935161            2 
  394000   0.62105874   -8.2711966    68.006991  0.014383881  0.013889687            3 
  395000   0.64419229    -8.278165    68.052973  0.014357167  0.013844362            4 
  396000   0.63554342   -8.3038077    67.958149  0.014300957  0.013799248            2 
  397000   0.61700662   -8.2996492    67.906014  0.014253991  0.013754095            1 
  398000   0.63730411   -8.3031495    67.987923  0.014235327  0.013709234            1 
  399000   0.62447726   -8.2863766    67.950401  0.014191813  0.013664389            2 
  400000   0.63014724   -8.3121882     68.03951  0.014174898   0.01361964            4 
  401000   0.62784869   -8.3108926    68.012512  0.014133938  0.013575012            3 
  402000   0.62421975   -8.2989953    67.921444  0.014079901   0.01353055            2 
  403000   0.61744627   -8.3350502    67.945328  0.014049902  0.013486192            3 
  404000   0.61774364   -8.3185968    67.874664   0.01400055  0.013441913            2 
  405000   0.63005646   -8.3029513    67.864473  0.013963883  0.013397862            2 
  406000   0.60575742   -8.3336316    67.759575  0.013907959   0.01335386            3 
  407000    0.6182215   -8.3280712    67.830419  0.013888292  0.013309976            2 
  408000   0.62145207   -8.3198889    67.852844  0.013858833  0.013266344            3 
  409000   0.62170804   -8.3142187    67.888617  0.013832237  0.013222701            1 
  410000     0.606017   -8.3207687     67.93474  0.013807874  0.013179096            4 
  411000   0.62135473   -8.3320117    67.834752  0.013754005  0.013135739            3 
  412000   0.60425218   -8.3312434     67.91201  0.013736248   0.01309248            3 
  413000   0.60222669   -8.3560108    67.873495  0.013695217  0.013049285            1 
  414000   0.60211498    -8.366008     67.61718  0.013610543  0.013006067            3 
  415000   0.60603242   -8.3583203    67.818034  0.013618079  0.012963109            4 
  416000   0.60461987   -8.3597408    67.643558  0.013550392   0.01292027            3 
  417000   0.59398069   -8.3580198    67.672067  0.013523594   0.01287753            1 
  418000   0.59413397   -8.3566814    67.836396  0.013524002   0.01283489            1 
  419000   0.59840921   -8.3529444    67.648013  0.013454259  0.012792369            2 
  420000   0.59928448   -8.3635409    67.713685  0.013435255  0.012750156            2 
  421000   0.59022867   -8.3904888    67.715361  0.013403674  0.012708088            2 
  422000   0.58668083   -8.3729025    67.863965  0.013401257  0.012666097            1 
  423000   0.58118122   -8.3688853    67.701751  0.013337618  0.012624217            1 
  424000   0.59295831   -8.3801485    67.690116  0.013303875  0.012582438            6 
  425000   0.59068061   -8.3895811    67.694767  0.013273484  0.012540891            4 
  426000    0.5837399   -8.3872172    67.705884    0.0132445    0.0124994            1 
  427000   0.56605793   -8.3946374    67.668688  0.013206223  0.012458123            2 
  428000   0.57591072   -8.3832575    67.655276  0.013172756  0.012416947            2 
  429000   0.57828123    -8.420322    67.669331  0.013144781  0.012375919            3 
  430000   0.56876139   -8.4080185    67.610284  0.013102768  0.012335076            4 
  431000   0.56928853   -8.4018872    67.698104  0.013089347  0.012294323            3 
  432000   0.57471984   -8.4048453    67.654725   0.01305068  0.012253828            2 
  433000   0.58500233   -8.4178248    67.606655  0.013011289   0.01221341            4 
  434000    0.5741334    -8.406761    67.667979  0.012993083  0.012173133            4 
  435000   0.57862202   -8.4213626    67.660043  0.012961694  0.012132933            4 
  436000   0.58291059   -8.4439638    67.563672  0.012913546  0.012092931            2 
  437000   0.55816183   -8.4081584    67.636289  0.012897843  0.012053063            2 
  438000   0.57098288   -8.4290485    67.781354  0.012895996  0.012013332            3 
  439000   0.55706893   -8.4397159     67.56458  0.012825471  0.011973778            2 
  440000   0.55731199   -8.4358085    67.508891  0.012785775  0.011934187            5 
  441000    0.5520515   -8.4255479    67.560084  0.012766456  0.011894847            2 
  442000   0.54934858   -8.4447821    67.576735  0.012740712  0.011855609            3 
  443000    0.5470776   -8.4462012    67.654931  0.012726661  0.011816657            4 
  444000   0.57466306   -8.4474959    67.546834  0.012677709  0.011777712            3 
  445000   0.55399242   -8.4566019    67.496252  0.012639747   0.01173897            3 
  446000   0.56181796   -8.4560302    67.588463  0.012628637  0.011700259            5 
  447000   0.54362447    -8.456457    67.609384  0.012604285  0.011661787            4 
  448000   0.55200635   -8.4499883    67.494816  0.012554839  0.011623455            4 
  449000    0.5502019   -8.4668544    67.554381  0.012537933  0.011585206            5 
  450000   0.55049398   -8.4452534    67.657466   0.01252916  0.011547242            2 
  451000   0.55013925   -8.4669308    67.502455  0.012472737  0.011509328            3 
  452000   0.54568813   -8.4529493    67.446693  0.012434862  0.011471531            2 
  453000   0.53150629   -8.4738654    67.428086  0.012403989   0.01143383            4 
  454000   0.55735714   -8.4455173    67.474131   0.01238512  0.011396181            4 
  455000   0.54063018   -8.4626593    67.435571  0.012350837  0.011358794            3 
  456000   0.54436607    -8.486051    67.568851  0.012348109  0.011321479            1 
  457000   0.53321917   -8.4834923    67.378875  0.012286447  0.011284355            6 
  458000    0.5266968   -8.4963073    67.339072  0.012252379  0.011247228            1 
  459000   0.52295657   -8.4795835    67.412674  0.012239048  0.011210229            2 
  460000   0.52788446    -8.495523    67.481558   0.01222492  0.011173304            3 
  461000   0.53357712   -8.4634292    67.394777  0.012182715  0.011136726            3 
  462000   0.52880275    -8.489309    67.436657  0.012163899  0.011100255            4 
  463000   0.51543896   -8.4920618    67.223638  0.012099287  0.011064025            3 
  464000   0.53521791    -8.501757    67.432742  0.012110766  0.011027825            2 
  465000   0.52654652   -8.4823776    67.297647   0.01206051  0.010991809            4 
  466000   0.52800997    -8.507002    67.361033  0.012045964  0.010955881            2 
  467000   0.51887695   -8.5046962    67.353264  0.012018784  0.010920084            3 
  468000   0.52080281   -8.5334255    67.316056  0.011986477  0.010884408            4 
  469000   0.51580021   -8.5100919    67.252309  0.011949593   0.01084889            4 
  470000    0.5080102   -8.5016802    67.354673  0.011942318  0.010813517            2 
  471000    0.5239958   -8.5227182    67.346449  0.011915508  0.010778302            2 
  472000   0.52054294   -8.5175587    67.379095  0.011896027  0.010743224            2 
  473000   0.50719295   -8.5116409    67.416547  0.011877475  0.010708355            3 
  474000   0.51295116   -8.5204435    67.221754   0.01181817  0.010673517            6 
  475000   0.51658519   -8.5363526    67.267586  0.011801331  0.010638799            3 
  476000   0.50249143   -8.5312169    67.319285  0.011785589  0.010604237            4 
  477000   0.49375714   -8.5182201    67.209325  0.011741671  0.010569865            3 
  478000   0.49839407   -8.5175687    67.277408  0.011728976  0.010535529            6 
  479000   0.49928016   -8.5506044    67.223516  0.011695114  0.010501421            6 
  480000   0.49751009   -8.5381124    67.130314  0.011654568  0.010467405            4 
  481000   0.50174299   -8.5364111    67.304511  0.011660518  0.010433491            6 
  482000    0.5025312   -8.5535692    67.231963  0.011623783   0.01039969            5 
  483000   0.48985721   -8.5517226    67.206855  0.011595386  0.010366069            7 
  484000   0.50725201   -8.5733255    67.297558  0.011587045  0.010332523            4 
  485000   0.49999661   -8.5821643    67.164742  0.011540334  0.010299121            2 
  486000   0.48451805   -8.5607213    67.166833  0.011516947  0.010265845            3 
  487000   0.49550805   -8.5505986     67.27129  0.011511172   0.01023275            6 
  488000   0.48876606   -8.5461042    67.131646  0.011463737  0.010199791            5 
  489000    0.4850838   -8.5472841    67.236606  0.011458181  0.010166865            5 
  490000   0.49426899   -8.5834856    67.139112  0.011418216  0.010134119            4 
  491000   0.47297886    -8.556089    67.192754  0.011404066  0.010101484            2 
  492000   0.49741986   -8.5679723    67.199104  0.011381962  0.010069001            3 
  493000   0.47522493   -8.5713152    67.239462  0.011365697  0.010036645            3 
  494000   0.47854439   -8.5513264    67.189652  0.011334287  0.010004394            6 
  495000   0.47664056   -8.5718732    66.996175  0.011278817  0.009972267            3 
  496000   0.47781039   -8.5637743    67.112965    0.0112757  0.009940293            7 
  497000   0.47244534   -8.5954956    67.103583  0.011251439 0.0099083835            2 
  498000   0.48007122   -8.5786618    67.061624  0.011221825 0.0098766882            4 
  499000   0.47647174   -8.5969934    67.248477  0.011230541 0.0098450201            3 
  500000   0.46359373   -8.5908906     67.04824  0.011174707 0.0098135766            1 
  501000   0.46217612   -8.5909741    67.135246  0.011166874 0.0097821823            3 
  502000   0.45419703   -8.6037495    67.183635  0.011152662 0.0097509178            3 
  503000   0.45986103   -8.5844096    67.026415  0.011104443 0.0097198007            4 
  504000   0.46836283   -8.6022004    67.061541  0.011088218 0.0096887573            3 
  505000   0.46327891   -8.6075444    67.026175  0.011060425 0.0096578692            2 
  506000    0.4588689   -8.6018808    67.065798  0.011045092  0.009627096            3 
  507000   0.46174785   -8.5965452    66.990281  0.011010894 0.0095964579            2 
  508000   0.45304908   -8.6085342    67.039889  0.010997357  0.009565927            3 
  509000   0.46003094   -8.6149681    67.010907  0.010971006 0.0095355213            2 
  510000   0.45888065   -8.6124393    67.022937   0.01095146 0.0095052674            3 
  511000   0.45308025   -8.6077018    66.950425  0.010918204 0.0094750752            2 
  512000   0.43799838   -8.6210091    67.038599   0.01091123 0.0094450697            3 
Loop time of 1183.38 on 48 procs for 500000 steps with 4000 atoms

Performance: 73010.984 tau/day, 422.517 timesteps/s
99.4% CPU use with 48 MPI tasks x no OpenMP threads

MPI task timing breakdown:
Section |  min time  |  avg time  |  max time  |%varavg| %total
---------------------------------------------------------------
Pair    | 74.478     | 80.014     | 86.775     |  34.7 |  6.76
Neigh   | 7.7609     | 8.1183     | 8.4197     |   5.5 |  0.69
Comm    | 73.982     | 81.014     | 86.881     |  36.1 |  6.85
Output  | 0.83229    | 0.83305    | 0.84872    |   0.3 |  0.07
Modify  | 1000.3     | 1003       | 1005.3     |   3.6 | 84.76
Other   |            | 10.42      |            |       |  0.88

Nlocal:        83.3333 ave          89 max          75 min
Histogram: 2 0 2 6 2 13 4 13 0 6
Nghost:        2045.15 ave        2070 max        2021 min
Histogram: 2 3 5 6 9 7 8 4 2 2
Neighs:        13262.8 ave       14685 max       11624 min
Histogram: 1 3 3 6 10 4 10 5 4 2
FullNghs:      26525.4 ave       28561 max       23612 min
Histogram: 1 1 2 6 4 13 7 7 3 4

Total # of neighbors = 1273219
Ave neighs/atom = 318.30475
Neighbor list builds = 26791
Dangerous builds = 0

#clear
#
#next RN
#
#jump SELF
Total wall time: 0:19:46
