
units lj                  # Use reduced LJ style units
atom_style atomic         # Uncharged point particles
atom_modify map hash      # Needed for indexing of clusters etc
                          # Used to be able to find where atoms are in relation to each other.

lattice fcc 1.0 spacing 1 1 1
Lattice spacing in x,y,z = 1.5874011 1.5874011 1.5874011
region box block 0 10 0 10 0 10 units lattice
create_box 2 box
Created orthogonal box = (0.0000000 0.0000000 0.0000000) to (15.874011 15.874011 15.874011)
  3 by 4 by 4 MPI processor grid
create_atoms 1 box
Created 4000 atoms
  using lattice units in orthogonal box = (0.0000000 0.0000000 0.0000000) to (15.874011 15.874011 15.874011)
  create_atoms CPU = 0.002 seconds
set type 1 type/fraction 2 0.79 78393
Setting atom values ...
  3145 settings made for type/fraction
mass 1 1.0
mass 2 1.0
pair_style lj/cut  3.5
pair_modify tail  yes
pair_coeff 1  1  1.0  1.0   # Intearaction between 1 and 1 set with epsilon = 1 and sigma = 1
pair_coeff 1  2  1.5  0.8
pair_coeff 2  2  0.5  0.88

write_data data.0
System init for write_data ...
Neighbor list info ...
  update every 1 steps, delay 10 steps, check yes
  max neighbors/atom: 2000, page size: 100000
  master list distance cutoff = 3.8
  ghost atom cutoff = 3.8
  binsize = 1.9, bins = 9 9 9
  1 neighbor lists, perpetual/occasional/extra = 1 0 0
  (1) pair lj/cut, perpetual
      attributes: half, newton on
      pair build: half/bin/atomonly/newton
      stencil: half/bin/3d
      bin: standard
WARNING: Not all mixed pair coeffs generated from mixing. Use write_data with 'pair ij' option to store all pair coeffs. (../write_data.cpp:312)


#############################
#   M E L T   S Y S T E M   #
#############################

velocity all create 2.4 9622624 mom yes dist gaussian # Assign velocities
                                                    # Temperature 2.4, random number seed, zero linear momentum
                                                                                # Gaussian distribution

timestep 0.002   # simulation timestep
thermo 1000       # output thermodynamic data every 1000 steps bf 100

# Define a fix  in this case with index 1 applied to all
# particles in the simulation. This fix is for simulations
# in the anisotropic NPT ensemble. Note that we use the MTK
# correction.
fix 1 all npt temp 2.4 2.4 0.1 iso 5.68 5.68 0.5 mtk yes tchain 5 pchain 5 # Use NPT ensemble
                                                                         # Set temperature and pressure and damping
                                                                         # Numbers of thermostats in chain and in barostat
run 10000          # run for 10000 steps
Per MPI rank memory allocation (min/avg/max) = 3.642 | 3.644 | 3.648 Mbytes
Step Temp E_pair E_mol TotEng Press Volume 
       0          2.4   -3.7530074            0  -0.15390738    -3.337815         4000 
    1000    2.4024615   -3.1399309            0   0.46286046    5.7260329    3782.4954 
    2000    2.4109539   -3.0707925            0   0.54473425    5.6607984    3828.5108 
    3000    2.3876832   -3.1660761            0   0.41455336    5.8931752     3748.242 
    4000    2.3958659    -3.196409            0   0.39649142    5.9513644    3710.3069 
    5000    2.4739724   -3.1874542            0   0.52257677    5.3642912    3796.3685 
    6000    2.3748531   -3.1620298            0   0.39935923    5.4651097    3783.8506 
    7000    2.3928578   -3.1501961            0   0.43819322    5.6081005    3793.7448 
    8000     2.361452    -3.192792            0   0.34850052    5.5752949    3745.6928 
    9000    2.4544133   -3.1304228            0   0.55027672    5.7404102    3781.8939 
   10000    2.3490165   -3.1303548            0   0.39228909    5.4996968    3791.6105 
Loop time of 2.65256 on 48 procs for 10000 steps with 4000 atoms

Performance: 651445.145 tau/day, 3769.937 timesteps/s
99.6% CPU use with 48 MPI tasks x no OpenMP threads

MPI task timing breakdown:
Section |  min time  |  avg time  |  max time  |%varavg| %total
---------------------------------------------------------------
Pair    | 1.159      | 1.2336     | 1.4441     |   5.4 | 46.51
Neigh   | 0.21345    | 0.22369    | 0.2558     |   2.2 |  8.43
Comm    | 0.6929     | 0.92635    | 1.0236     |   7.4 | 34.92
Output  | 0.00024309 | 0.00024972 | 0.00031526 |   0.0 |  0.01
Modify  | 0.2111     | 0.25344    | 0.30594    |   4.3 |  9.55
Other   |            | 0.01518    |            |       |  0.57

Nlocal:        83.3333 ave          91 max          73 min
Histogram: 1 0 0 9 3 12 13 6 3 1
Nghost:        1706.19 ave        1728 max        1681 min
Histogram: 2 5 3 4 9 4 6 4 7 4
Neighs:        10067.4 ave       11131 max        8468 min
Histogram: 1 0 0 3 9 13 9 6 4 3

Total # of neighbors = 483234
Ave neighs/atom = 120.80850
Neighbor list builds = 911
Dangerous builds = 237

# Equilibrate just above the melting temperature to avoid step fn in T

fix 1 all npt temp 1.25 1.25 0.1 iso 5.68 5.68 0.5 mtk yes tchain 5 pchain 5
run 2000
Per MPI rank memory allocation (min/avg/max) = 3.644 | 3.646 | 3.649 Mbytes
Step Temp E_pair E_mol TotEng Press Volume 
   10000    2.3490165   -3.1303548            0   0.39228909    5.4996968    3791.6105 
   11000    1.2326793   -4.6441917            0   -2.7956351    5.9650069    2880.4507 
   12000    1.2168462    -4.629041            0   -2.8042281    5.7702098    2892.8519 
Loop time of 0.640663 on 48 procs for 2000 steps with 4000 atoms

Performance: 539441.386 tau/day, 3121.767 timesteps/s
99.6% CPU use with 48 MPI tasks x no OpenMP threads

MPI task timing breakdown:
Section |  min time  |  avg time  |  max time  |%varavg| %total
---------------------------------------------------------------
Pair    | 0.29413    | 0.31276    | 0.3482     |   2.3 | 48.82
Neigh   | 0.04148    | 0.043356   | 0.049073   |   0.8 |  6.77
Comm    | 0.19325    | 0.23605    | 0.25682    |   3.0 | 36.84
Output  | 5.0321e-05 | 5.2011e-05 | 6.6281e-05 |   0.0 |  0.01
Modify  | 0.040851   | 0.043608   | 0.046218   |   0.8 |  6.81
Other   |            | 0.004841   |            |       |  0.76

Nlocal:        83.3333 ave          91 max          78 min
Histogram: 4 2 6 13 9 4 8 0 0 2
Nghost:        2042.38 ave        2071 max        2015 min
Histogram: 1 5 3 6 7 12 8 3 2 1
Neighs:        13197.3 ave       14634 max       12033 min
Histogram: 3 2 5 15 5 6 6 1 3 2

Total # of neighbors = 633469
Ave neighs/atom = 158.36725
Neighbor list builds = 144
Dangerous builds = 16

#############################
# L I N E A R  Q U E N C H  #
#############################

# Define solid atoms. This closely follows ten Wolde  Ruiz-Montero and Frenkel  Faraday Discuss  1996  104  93-110
# Compute components of the per-atom q6 vector
compute q6 all orientorder/atom degrees 1 6 components 6 nnn NULL cutoff 1.3 # compute the Q6 parameter.
                                                                             # Use all neighbours within 1.3 unit cell.

# get number of connections
compute coord_number all coord/atom orientorder q6 0.5

# An atom is solid if it has 8 or more connections (of a possible 14)
variable is_solid atom c_coord_number>=8
group solid dynamic all var is_solid    # Must be dynamic to update
dynamic group solid defined

# do clustering
compute cluster solid cluster/atom 1.3 # Create a cluster where all atoms within are solid and max 1.3 units from another member

# define chunks one chunk per cluster
compute clus_chunks solid chunk/atom c_cluster nchunk every compress yes  # Says which atoms are in which chunk

# count the size of each chunk
compute size_chunks solid property/chunk clus_chunks count


# Find the maximum entry in the vector of chunk sizes
variable max_n equal max(c_size_chunks)


# Thermo style which includes this variable
# thermo_style custom step temp pe vol v_max_n

thermo ${N}  # Print the thermo information every 100 steps
thermo 1000  

# Reset the npt fix at a lower temperature (below freezing)
fix 1  all npt temp  ${temp} ${temp}  0.1  iso  5.68  5.68  0.5  mtk yes tchain  5  pchain  5
fix 1  all npt temp  0.45 ${temp}  0.1  iso  5.68  5.68  0.5  mtk yes tchain  5  pchain  5
fix 1  all npt temp  0.45 0.45  0.1  iso  5.68  5.68  0.5  mtk yes tchain  5  pchain  5

dump dmp2 all dcd ${N} traj.dcd
dump dmp2 all dcd 1000 traj.dcd


compute msd all msd com yes
variable twopoint equal c_msd[4]/6/(step*dt+1.0e-6)
fix 9 all vector 10 c_msd[4]
variable fit equal slope(f_9)/6/(10*dt)
thermo_style custom step temp pe c_msd[4] v_twopoint v_fit v_max_n

fix 1 all npt temp 1.25 ${temp} 0.1 iso 5.68 5.68 0.5 mtk yes tchain 5 pchain 5
fix 1 all npt temp 1.25 0.45 0.1 iso 5.68 5.68 0.5 mtk yes tchain 5 pchain 5
run 500000 # 5000000  # Run for this many steps
Neighbor list info ...
  update every 1 steps, delay 10 steps, check yes
  max neighbors/atom: 2000, page size: 100000
  master list distance cutoff = 3.8
  ghost atom cutoff = 3.8
  binsize = 1.9, bins = 8 8 8
  4 neighbor lists, perpetual/occasional/extra = 1 3 0
  (1) pair lj/cut, perpetual
      attributes: half, newton on
      pair build: half/bin/atomonly/newton
      stencil: half/bin/3d
      bin: standard
  (2) compute orientorder/atom, occasional
      attributes: full, newton on
      pair build: full/bin/atomonly
      stencil: full/bin/3d
      bin: standard
  (3) compute coord/atom, occasional
      attributes: full, newton on
      pair build: full/bin/atomonly
      stencil: full/bin/3d
      bin: standard
  (4) compute cluster/atom, occasional
      attributes: full, newton on
      pair build: full/bin/atomonly
      stencil: full/bin/3d
      bin: standard
Per MPI rank memory allocation (min/avg/max) = 9.835 | 9.841 | 9.847 Mbytes
Step Temp PotEng c_msd[4] v_twopoint v_fit v_max_n 
   12000    1.2168462    -4.629041            0            0 8.3333333e+20            2 
   13000    1.2236825   -4.6714848    0.7672003 0.0049179504  0.063878782            1 
   14000     1.276148   -4.6784754    1.5237955  0.009070211  0.063847077            2 
   15000    1.2607329   -4.6656796    2.3494203  0.013052334  0.064967803            2 
   16000    1.2447572   -4.6487246    3.1312174  0.016308423  0.065407181            3 
   17000    1.2565965   -4.6585853    3.8880374  0.019059006  0.065369444            2 
   18000    1.2478119   -4.6849427    4.5869697   0.02123597  0.064926864            2 
   19000    1.2312414   -4.6747606     5.294529  0.023221618  0.063941807            2 
   20000    1.2206255   -4.7089691      6.06526  0.025271916   0.06329385            3 
   21000    1.2163232    -4.688523    6.7504389  0.026787455  0.062877298            2 
   22000    1.2369693   -4.6846701    7.4975851  0.028399943  0.062391683            3 
   23000    1.2284383   -4.7178504     8.257661  0.029919061  0.062291335            2 
   24000    1.2130368   -4.7269298    9.0698235  0.031492442  0.062386717            1 
   25000    1.2046555   -4.6449548    9.9435441  0.033145146  0.062683515            1 
   26000    1.2371077   -4.7388611    10.696855  0.034284793  0.063003501            1 
   27000    1.2358512   -4.7102295     11.47978  0.035431418  0.063189639            3 
   28000     1.252977   -4.6819486    12.197173  0.036301111  0.063233902            1 
   29000    1.2470288   -4.7167598    12.933994  0.037166648  0.063316286            1 
   30000    1.2310012    -4.709185    13.569931  0.037694252  0.063253884            5 
   31000    1.2344922    -4.708954    14.234352  0.038264387  0.063093135            3 
   32000    1.2164548   -4.7206843    15.135775  0.039416081  0.062964794            2 
   33000    1.2216889   -4.7052615    15.725785  0.039711577  0.062868696            1 
   34000    1.1944943   -4.6964449    16.390226  0.040172121  0.062688903            3 
   35000    1.2056057   -4.7199303    17.157972  0.040852314  0.062464613            3 
   36000    1.1966677   -4.7407275     17.94888  0.041548333  0.062359759            3 
   37000    1.1903931   -4.7444421    18.683879  0.042080808  0.062297174            4 
   38000    1.2231625   -4.6867499    19.500415  0.042764067  0.062264778            1 
   39000    1.2141225   -4.7296388    20.155739  0.043067818  0.062218372            5 
   40000    1.1917506    -4.758894    20.832691  0.043401439   0.06212946            3 
   41000    1.2041799   -4.7201648    21.515324  0.043730333  0.062018037            1 
   42000    1.2033564   -4.7564868    22.201891  0.044051371  0.061899416            3 
   43000    1.2321564   -4.7066276    22.918778  0.044416236  0.061795896            3 
   44000     1.202601   -4.7433787    23.741617  0.044965183  0.061691629            2 
   45000    1.2243824   -4.7236968    24.428808  0.045238534  0.061602029            2 
   46000    1.2416711   -4.7556084    25.312476  0.045855934  0.061566952            3 
   47000     1.180924   -4.7819199    26.030186  0.046152812  0.061580442            3 
   48000    1.2026523    -4.774911    26.498052  0.046003562  0.061500642            1 
   49000    1.2041431   -4.7611502    27.030271  0.045969849  0.061357226            3 
   50000     1.194808    -4.800102    27.842658   0.04640443   0.06123435            2 
   51000    1.1590687   -4.7608403    28.470156  0.046519862  0.061106453            2 
   52000    1.2016737   -4.7567722    29.068775  0.046584574  0.060984537            1 
   53000    1.2077762   -4.7735683    29.800087  0.046855482  0.060832484            2 
   54000    1.1753343   -4.7530537    30.340292  0.046821438  0.060676051            1 
   55000    1.1669863   -4.8291808    31.050373  0.047046019  0.060531264            4 
   56000    1.1637976   -4.7842287      31.7557  0.047255505  0.060392521            2 
   57000    1.1736157   -4.8035234    32.476518  0.047480289  0.060274119            2 
   58000    1.1705645   -4.8193285     33.12567  0.047594353  0.060171231            1 
   59000    1.1840201   -4.8233457    33.799607  0.047739557  0.060080219            2 
   60000    1.1614473    -4.806424    34.556146  0.047994647  0.059975972            2 
   61000    1.1751719   -4.7835531    35.147414  0.048015592  0.059880632            3 
   62000    1.1600619   -4.7802425    36.114334  0.048540771  0.059830871            4 
   63000    1.1709622   -4.8214413    36.868956   0.04876846  0.059791536            1 
   64000    1.1854214   -4.7974713    37.621611  0.048986472  0.059733863            2 
   65000    1.1628631   -4.8369555    38.079935  0.048820429  0.059660681            2 
   66000    1.1740179   -4.8093152    38.674682  0.048831669  0.059574339            2 
   67000    1.1462624   -4.8441553    39.437755  0.049051934  0.059502396            2 
   68000    1.1507114   -4.8284169     39.96025  0.048970895  0.059427684            2 
   69000    1.1675333   -4.8223421    40.686752  0.049138589  0.059346946            3 
   70000    1.1594175   -4.8251553    41.322853  0.049193872  0.059268814            1 
   71000    1.1484216   -4.8488496    41.985889  0.049279212   0.05917964            3 
   72000     1.173485   -4.8398975    42.563782  0.049263636  0.059111916            2 
   73000    1.1644873   -4.8069377    43.336457  0.049470841  0.059034276            3 
   74000    1.1450896   -4.8648622    43.604337  0.049103983  0.058923203            1 
   75000    1.1610424   -4.8608014    44.201694  0.049112993  0.058799386            4 
   76000    1.1355856   -4.8440867    44.701021  0.049014277  0.058673568            3 
   77000    1.1626298   -4.8547016    45.351483  0.049081691  0.058539344            1 
   78000    1.1646139   -4.8359367    45.961426  0.049104087   0.05840949            2 
   79000     1.154473   -4.8723098    46.223338  0.048758795  0.058277908            1 
   80000    1.1410359   -4.8524266    46.982518  0.048940123  0.058135634            3 
   81000    1.1456692    -4.854456    47.324979   0.04868825  0.057988638            2 
   82000    1.1294004   -4.8357381    48.251956   0.04903654  0.057848063            7 
   83000    1.1510424     -4.87972    48.823791   0.04901987   0.05771643            2 
   84000     1.143986   -4.8893789    49.637046  0.049243101  0.057591772            3 
   85000    1.1269193   -4.8895782    50.193902  0.049209707  0.057489734            2 
   86000    1.1240363   -4.8716885    50.747215  0.049173658  0.057385079            3 
   87000    1.1527489   -4.8664847    51.393663  0.049227646    0.0572738            5 
   88000    1.1322808   -4.8567165    52.079602  0.049317805  0.057158141            2 
   89000    1.1341726   -4.8999471    52.094322  0.048777455  0.057029233            2 
   90000    1.1197852   -4.8907599    52.864105  0.048948245  0.056887093            3 
   91000    1.1227071   -4.8763344    53.720591   0.04919468  0.056763358            2 
   92000    1.1144374     -4.92924    53.978889  0.048893921  0.056644315            2 
   93000     1.153378   -4.9151056    54.486194  0.048822754  0.056518985            2 
   94000    1.1186884   -4.8778189    55.464676  0.049170812   0.05640219            3 
   95000    1.1220477   -4.9074947    56.219184  0.049315074  0.056295193            2 
   96000    1.1376931   -4.9466969    56.420709  0.048976309  0.056181759            3 
   97000    1.1145629   -4.9455735     57.13039  0.049081091  0.056069213            2 
   98000    1.1401909   -4.8802844    57.801477  0.049150915  0.055962611            3 
   99000    1.1083225   -4.9307559    57.837747  0.048684972  0.055847938            5 
  100000    1.1111322   -4.9153099    58.522775  0.048768979  0.055723124            2 
  101000    1.1146316   -4.9566871    58.902038  0.048599041  0.055596589            6 
  102000    1.1206214   -4.9262964    59.558224   0.04865868  0.055465944            4 
  103000    1.1253646   -4.9234294    60.112577   0.04863477  0.055340739            4 
  104000    1.1286616    -4.951735    60.703153  0.048640347  0.055216322            3 
  105000    1.1185498   -4.9571172    61.295276  0.048647044  0.055087987            3 
  106000    1.1088407   -4.9531354    61.724326  0.048525413  0.054965679            4 
  107000    1.0903382   -4.9491719    62.498785  0.048675066  0.054850893            6 
  108000    1.0950935   -4.9528563    62.957776   0.04857853   0.05473729            4 
  109000    1.0963027   -4.9581072    63.164709  0.048291062   0.05461802            3 
  110000    1.0815975    -4.931684    63.860131  0.048378887  0.054497958            2 
  111000    1.1195862    -4.943367    64.521801   0.04843979  0.054387538            1 
  112000    1.0701016    -4.966338    64.982789  0.048350289  0.054272066            3 
  113000    1.0657569    -4.974508    65.618603    0.0483913  0.054155909            3 
  114000    1.0694267   -4.9278618    66.157702  0.048360893  0.054039291            2 
  115000    1.0835559   -4.9866142    66.362571  0.048088819  0.053923592            1 
  116000    1.0623352   -4.9637459    67.140614  0.048233199  0.053816274            4 
  117000    1.1117189   -4.9869763    67.898688  0.048360888  0.053705965            3 
  118000    1.0924844   -4.9756468    68.241532  0.048193172   0.05359734            3 
  119000    1.0943786   -4.9766592    68.618674  0.048052293  0.053485346            3 
  120000    1.0628896   -4.9578766    69.345076  0.048156302  0.053378555            5 
  121000    1.1073086   -4.9894999     69.72922  0.048022879  0.053275212            3 
  122000    1.0916895    -4.976872    70.558834  0.048195925   0.05317577            4 
  123000    1.0611113   -4.9747821     71.40891   0.04838002  0.053084142            2 
  124000     1.068578   -5.0062498    71.474823  0.048034155  0.052995922            4 
  125000    1.0691534   -5.0280823    72.323557  0.048215705  0.052905601            2 
  126000    1.0647737   -4.9830557    72.869078  0.048193835   0.05281902            2 
  127000    1.0484163   -4.9789995    73.702954  0.048361518  0.052734906            4 
  128000    1.0520515   -5.0236024    73.849665  0.048079209  0.052651355            1 
  129000    1.0483753   -5.0223628    74.308253  0.048002747  0.052567486            3 
  130000    1.0665159   -5.0344607    74.682193    0.0478732  0.052477472            2 
  131000    1.0406063   -5.0133808    75.188512  0.047829842  0.052389494            3 
  132000    1.0516047    -5.044322     75.91912  0.047928737  0.052305935            2 
  133000    1.0530985   -5.0408121    76.472607  0.047915167   0.05222408            4 
  134000    1.0741776   -5.0131274    77.104893  0.047950804   0.05213839            4 
  135000    1.0758948   -5.0497349    77.208092  0.047659316  0.052051816            6 
  136000    1.0442095   -5.0248881     77.46812  0.047468211  0.051957458            3 
  137000    1.0636793   -5.0132054     78.14034   0.04753062  0.051863707            2 
  138000    1.0340622    -5.042757     78.37892  0.047330265  0.051766638            3 
  139000    1.0405259   -5.0408402    78.940792  0.047326614  0.051669027            4 
  140000    1.0505368   -5.0594345    79.337582  0.047224751  0.051572978            2 
  141000    1.0337741   -5.0720827    79.405621  0.046930036  0.051464559            4 
  142000    1.0471215   -5.0301066    80.355635  0.047157063  0.051359702            2 
  143000    1.0265043   -5.0753738    80.179442  0.046724616  0.051254129            4 
  144000    1.0203111   -5.0326712    81.022302  0.046887906  0.051145975            4 
  145000     1.035856   -5.0281762    81.791893  0.047006835    0.0510425            3 
  146000    1.0292749   -5.0582265    81.878894  0.046734529  0.050937529            4 
  147000    1.0433125   -5.0479685    82.262138  0.046633865   0.05083518            7 
  148000      1.03169   -5.0755452    82.703025  0.046567019   0.05073288            4 
  149000    1.0362069   -5.0476685    82.783431  0.046299458  0.050629231            3 
  150000    1.0253525   -5.0956168     83.36825  0.046315694  0.050522194            3 
  151000    1.0247302   -5.1056403    83.784458  0.046238663     0.050411            4 
  152000    1.0269149   -5.0617857     84.57292  0.046366732  0.050298571            2 
  153000    1.0255182   -5.1062848    84.306789   0.04591873  0.050181109            6 
  154000    1.0134104   -5.0804782    84.701983  0.045834406  0.050063779            7 
  155000    1.0268423   -5.0947456      85.6047  0.046024032   0.04994726            4 
  156000    1.0317094   -5.0868781      85.7421  0.045802404  0.049833266            2 
  157000    1.0129348   -5.1040365     85.87786  0.045582728  0.049720986            3 
  158000    1.0209565   -5.0767819    86.731148  0.045744276  0.049604646            3 
  159000    1.0075671   -5.1069944    86.969773  0.045581642  0.049487791            2 
  160000     1.026454   -5.1019498    87.175403  0.045403856  0.049372444            3 
  161000    1.0041783    -5.127094    87.854425  0.045473304  0.049258377            3 
  162000    1.0087346   -5.1098502    88.311227  0.045427586  0.049146678            3 
  163000    1.0226953   -5.1138339    88.616622  0.045305021  0.049035057            2 
  164000   0.98561023   -5.0859754    89.242776  0.045346939  0.048921817            5 
  165000    1.0030407   -5.1380932    89.418232  0.045160723  0.048812106            3 
  166000    1.0104249   -5.1149017    90.107404  0.045234641  0.048705781            3 
  167000    1.0089029   -5.1605229    90.362507  0.045091071  0.048601066            2 
  168000     1.002144   -5.1322764    91.130333  0.045203538  0.048498891            3 
  169000   0.99502872   -5.1653764    91.430852  0.045084246  0.048398197            3 
  170000   0.99552883   -5.1266095    91.798352  0.044999192  0.048294922            3 
  171000   0.99327343   -5.1601471    92.050548  0.044858941  0.048190384            2 
  172000   0.98804187   -5.1227888    92.621881  0.044874942  0.048087072            2 
  173000   0.96545007   -5.1683812     92.22434  0.044424056  0.047977364            9 
  174000   0.97084531   -5.1851568    92.653897  0.044374472  0.047867421            5 
  175000   0.99440484   -5.1591381    93.023781  0.044297038  0.047754209            4 
  176000   0.98949437   -5.1756785    93.466099  0.044254782  0.047646024            6 
  177000    0.9901322   -5.1726956    93.911228  0.044214326  0.047535821            7 
  178000   0.98838244   -5.1665265    94.232605  0.044116388  0.047428504            3 
  179000   0.97638021    -5.159006    95.062986  0.044256511  0.047322762            2 
  180000   0.97561633   -5.1645279    95.146836  0.044049461  0.047218237            3 
  181000   0.96706925   -5.1590311    95.407082  0.043925912  0.047116121            6 
  182000   0.97342348    -5.179753     96.52071  0.044194464  0.047016736            5 
  183000   0.95549138   -5.2190825    96.330227  0.043866224  0.046919838            6 
  184000   0.96387678   -5.2255748    96.911932  0.043891274  0.046817489            4 
  185000   0.95368051   -5.2196558    97.631608  0.043978202   0.04672039            6 
  186000   0.96589926    -5.190457    97.807666  0.043820639  0.046623793            5 
  187000   0.96338194   -5.1812961    98.000398  0.043672191  0.046525382            3 
  188000   0.97495468   -5.2296068    97.637572  0.043279065  0.046420853            6 
  189000   0.96546134   -5.2085725    98.030312  0.043223242  0.046315836            5 
  190000   0.97446206   -5.1796211    98.629713  0.043258646   0.04621048            4 
  191000   0.95205011   -5.2073083    99.036006  0.043209426  0.046104362            5 
  192000   0.94589523   -5.2125628    99.505253  0.043188044   0.04599678            4 
  193000   0.97451151   -5.2198098    99.745132  0.043067846  0.045892558            3 
  194000   0.94485547   -5.2048019    100.29606  0.043082499  0.045790488            5 
  195000   0.99259566   -5.2094052    100.66504  0.043019248  0.045687975           11 
  196000   0.95042868   -5.2117146    100.87016  0.042886971  0.045587927            2 
  197000   0.96265883   -5.2120613    101.62824   0.04298995  0.045487183            6 
  198000   0.96657928    -5.229594    101.81397  0.042850999  0.045390761            2 
  199000   0.98363665   -5.2159239    102.09876  0.042754925  0.045291492            5 
  200000   0.96009855   -5.2582019    102.22476  0.042593651  0.045192114            3 
  201000   0.96241463   -5.2495976    102.63399  0.042551405  0.045092121            9 
  202000   0.95975525   -5.2066803    102.75356   0.04239008  0.044988527            4 
  203000   0.96303153   -5.2238435    102.84752  0.042219836  0.044885648            5 
  204000   0.95071786   -5.2364377    103.52173  0.042288289   0.04478233            6 
  205000   0.92613501   -5.2507661    103.63573  0.042128344  0.044679876            3 
  206000   0.94175954   -5.2529724    103.93937  0.042046672   0.04457841            6 
  207000   0.93860051   -5.2371712    104.59784  0.042108632  0.044478369            7 
  208000   0.92031796   -5.2443619    104.86301  0.042012422  0.044377636            4 
  209000   0.95893865   -5.2647041    105.55995  0.042089292   0.04427982           12 
  210000   0.90893701   -5.2570903    105.91341   0.04202913  0.044185735            3 
  211000   0.91368293   -5.2681947    105.95243  0.041845352  0.044090207            6 
  212000    0.9335152   -5.2344816    106.27129  0.041773307  0.043992662            5 
  213000    0.9227364    -5.320909    106.28271  0.041581657  0.043895558            3 
  214000   0.92684745   -5.2642338    106.64459  0.041528268  0.043797869            3 
  215000   0.91782561   -5.3029632    106.70486  0.041358473  0.043699904            2 
  216000    0.9455761   -5.3059788    107.18782  0.041353324  0.043600669            3 
  217000   0.92392583   -5.3046679    107.77958  0.041390008  0.043501675            3 
  218000   0.93451769   -5.2602303    107.97807  0.041276022  0.043405837            6 
  219000   0.92802217   -5.2803972    108.54695  0.041304013  0.043310616            2 
  220000   0.93425338   -5.2989918    109.07123  0.041314859  0.043215785            4 
  221000   0.92330163   -5.3444991     108.8224  0.041034088  0.043121078            7 
  222000   0.89613857    -5.318024    109.08876  0.040949234  0.043026171            2 
  223000   0.91562133   -5.3311674    109.27945  0.040836864  0.042931864            4 
  224000   0.88223728   -5.3425014    109.91502  0.040891005  0.042837871            3 
  225000   0.90641549   -5.2852561     110.4787  0.040918038  0.042745135            8 
  226000   0.90788138   -5.3275987     110.5866  0.040776769  0.042651199            5 
  227000   0.90253409   -5.3354585    110.20004  0.040455229  0.042556054            5 
  228000   0.89558988   -5.3301718    110.88838   0.04052938  0.042460555            3 
  229000   0.89838423    -5.363521    110.95717  0.040377427  0.042365233            2 
  230000   0.90146706    -5.320691    111.34806  0.040343501   0.04226954            5 
  231000   0.90499096    -5.350984    111.83622  0.040344958  0.042176846            8 
  232000   0.88868761   -5.3320432    112.07289  0.040256068  0.042083131            4 
  233000   0.87684589   -5.3526412    111.53326  0.039890292  0.041986793            4 
  234000   0.89033316   -5.3665683    112.11878  0.039928341  0.041889002            2 
  235000   0.88475225   -5.3808566    112.50313  0.039894727  0.041791886            4 
  236000    0.8955652   -5.3433521    112.57342  0.039750502  0.041695415            2 
  237000   0.90568206   -5.3595641    112.90459  0.039699221  0.041599836            8 
  238000   0.86771663   -5.3833337    113.39968  0.039705769  0.041506805            8 
  239000   0.88776758   -5.4109225    113.75634  0.039663995  0.041413142            5 
  240000   0.88631593   -5.3855088    113.88773   0.03954435  0.041317877            8 
  241000    0.9014254   -5.3808511    113.75611  0.039334753  0.041222753            6 
  242000   0.90408956   -5.3704287    114.17436  0.039316239  0.041126621            4 
  243000    0.8720029   -5.3495225    114.17629  0.039155108  0.041028441            4 
  244000   0.86671842   -5.4021715    114.45585  0.039090113  0.040932679            5 
  245000   0.86124712   -5.4141857    114.66835   0.03900284  0.040836282            5 
  246000   0.89027151   -5.4039854    114.82194   0.03889632  0.040739064            5 
  247000   0.89892112   -5.3886216    114.55651  0.038649293  0.040640541            5 
  248000   0.86851058   -5.4160305    114.90871  0.038611798  0.040542456            7 
  249000   0.87095064   -5.3841553    115.90514  0.038790207  0.040444723            5 
  250000   0.85939068   -5.3883686    115.68234  0.038560779  0.040348424            3 
  251000   0.87292673   -5.4245236    115.90628  0.038481502  0.040251167            4 
  252000   0.87279848   -5.4424671    116.17359  0.038417192  0.040153817            4 
  253000   0.86420762   -5.4344859    116.33324  0.038317932   0.04005694            5 
  254000     0.862889   -5.4223879    116.87771  0.038345704   0.03995991            4 
  255000   0.86665318   -5.4313182    116.51438  0.038076594  0.039863407            5 
  256000   0.85377243   -5.4473191    116.69394   0.03798631  0.039765189            6 
  257000   0.85937059   -5.4062066    117.43007  0.038077196  0.039667367            8 
  258000   0.85675427    -5.464393    117.35796  0.037906317  0.039570641            4 
  259000   0.86318867   -5.4619603    117.30693  0.037743542  0.039474988            4 
  260000   0.84397359   -5.4446089    117.66004  0.037711553  0.039379287            4 
  261000   0.85290641    -5.463243     117.9513  0.037660058   0.03928451            6 
  262000   0.83590124   -5.4272056    118.71176  0.037758192  0.039189728            7 
  263000   0.83704071   -5.4458528    118.57964  0.037572764   0.03909541            4 
  264000   0.85446473   -5.4743318    118.38376  0.037368611  0.039000715            6 
  265000   0.83089162   -5.4840571    118.41354  0.037236963  0.038905079            6 
  266000   0.82552978   -5.4736264    118.96944  0.037271129  0.038809121            8 
  267000   0.84698676   -5.4642044    119.11498  0.037176959  0.038713993            7 
  268000   0.83898445   -5.4775618    119.30922  0.037098639  0.038618033            5 
  269000   0.85770804   -5.4691076    119.61127  0.037054296  0.038521505            4 
  270000   0.84336773   -5.4737111    119.72115  0.036950973  0.038426666            4 
  271000   0.83610622   -5.4984326    120.48829  0.037050519  0.038332961            4 
  272000   0.83570814   -5.4879827     120.5512   0.03693358  0.038239533            6 
  273000   0.84329378   -5.4602259    120.98132  0.036929585   0.03814858            4 
  274000   0.82399492   -5.4993046    120.89033  0.036767133  0.038058115            6 
  275000   0.80972654   -5.4779309    121.38578  0.036783571  0.037967032            6 
  276000   0.81737955   -5.4798952    121.23237  0.036603977   0.03787531            9 
  277000   0.83173714   -5.4883293    121.49768  0.036551649  0.037784392            5 
  278000   0.83550493   -5.4958317    121.82039  0.036516904  0.037693457            3 
  279000    0.8295845   -5.4594432    121.69849  0.036349609  0.037602026            5 
  280000   0.81378771   -5.4934768     121.8911  0.036277113  0.037511382            4 
  281000    0.8042698   -5.5158658     122.4381  0.036310233  0.037418361            5 
  282000    0.8247059   -5.5214235    121.97801   0.03604551  0.037325194            3 
  283000   0.80852395   -5.4895644    122.55939  0.036089336  0.037231861            9 
  284000   0.79057723   -5.5299662    122.26287  0.035875254  0.037138531            7 
  285000   0.80370957   -5.5489112     122.6001  0.035847984   0.03704597            4 
  286000   0.81749144    -5.536361     122.4826  0.035688404  0.036953988            7 
  287000   0.80240482   -5.5305189    123.12006  0.035749146  0.036862756           14 
  288000   0.81863756    -5.515561    122.94627  0.035574732  0.036772361            5 
  289000   0.80141471   -5.5587675    123.23696  0.035535456  0.036681719            5 
  290000   0.80883228   -5.5240943    123.90172  0.035603943  0.036591425            4 
  291000   0.80536283   -5.5664097    123.55715  0.035382918  0.036501482            6 
  292000   0.79500357   -5.5851114    124.11261  0.035420266  0.036411999            9 
  293000   0.81564914   -5.5562983     124.1893  0.035321189   0.03632332            5 
  294000   0.79139951   -5.5402137    124.36663  0.035251313  0.036234274            6 
  295000   0.79104378   -5.6136054    124.22773   0.03509258  0.036144726           10 
  296000   0.79076451   -5.5846512    124.61628  0.035083413  0.036054957           10 
  297000   0.80510881   -5.5753802    124.68899  0.034985687  0.035965916           14 
  298000   0.79612689   -5.5494008    124.76851  0.034890524  0.035876831            8 
  299000   0.76266062    -5.574665    125.06342  0.034856027  0.035787844            7 
  300000   0.78536472   -5.5991431    125.10294  0.034750817  0.035700036            5 
  301000   0.77401007   -5.5913215    125.46995  0.034736974  0.035613334            8 
  302000   0.79725381    -5.581945    125.44639   0.03461545  0.035525436           12 
  303000     0.790021    -5.611267    125.80414  0.034599599  0.035437535           12 
  304000   0.77233917   -5.5789975    126.02174  0.034545434  0.035350474            4 
  305000   0.78667684   -5.6145711    125.78173  0.034366592  0.035263386            5 
  306000   0.76006221    -5.595278    126.31676  0.034399989  0.035176476            6 
  307000   0.78264076   -5.6119688    126.19833  0.034255789  0.035089835           10 
  308000   0.77959222   -5.6116245    126.03677  0.034100859   0.03500297            5 
  309000   0.79055857   -5.6041601    126.63981  0.034153131  0.034916842            7 
  310000   0.78771131   -5.6404584    126.84955  0.034099342  0.034831517            5 
  311000   0.76848175    -5.628294    126.86048  0.033992625  0.034746744            7 
  312000   0.79449922    -5.633026    126.91482  0.033898188   0.03466073            7 
  313000     0.762634   -5.6452846    127.11953   0.03384439  0.034574599            6 
  314000   0.76978222   -5.6536889    127.10089  0.033731659  0.034489572            5 
  315000   0.74386804   -5.6523656    127.13433  0.033633421  0.034404302            4 
  316000    0.7715572   -5.6285522    127.59925   0.03364959  0.034319543           10 
  317000   0.74555581   -5.6454418    127.87955  0.033617126  0.034235736           17 
  318000   0.76940125   -5.6656977    128.02322  0.033549062  0.034151658            6 
  319000    0.7356512   -5.6476035    127.62208  0.033339102  0.034066582            4 
  320000    0.7770657   -5.6613482    128.19795  0.033384883  0.033982236            8 
  321000   0.76316479   -5.6563786    128.00661  0.033231207   0.03389811           14 
  322000   0.77000673   -5.6557381     128.5491  0.033268401  0.033814453            8 
  323000   0.75550047   -5.6724729    128.63745  0.033188196  0.033730473            9 
  324000   0.74754828   -5.6795526     127.9655  0.032912938  0.033645604           14 
  325000   0.73532518   -5.7033625    128.39379  0.032921484  0.033560627            3 
  326000   0.73875917   -5.6775014    128.97265  0.032968468  0.033476546            9 
  327000   0.74608889   -5.6579845    129.36878  0.032968598  0.033393293            5 
  328000   0.74958053   -5.6866636    128.81291  0.032726856  0.033311363           11 
  329000   0.72635384   -5.6633472    129.15514  0.032714069  0.033228706            4 
  330000   0.74604564   -5.6661116    129.38274  0.032672408  0.033145809           10 
  331000   0.73886915   -5.6898623    129.53096  0.032611018  0.033063057            4 
  332000   0.73987953   -5.7036495    129.41968  0.032484859  0.032980421            4 
  333000   0.73106218   -5.7129001     129.5524   0.03242052  0.032898249           13 
  334000   0.73429008     -5.72344    129.39614  0.032284467  0.032816214            5 
  335000   0.74123681   -5.6904423    130.28469  0.032409126  0.032734536            6 
  336000   0.73836848   -5.6917593    129.79364  0.032190883  0.032652554           18 
  337000   0.72098156   -5.7087737    130.17768  0.032190326  0.032570501            9 
  338000   0.72740774   -5.7461984    129.88356  0.032022573  0.032488961            8 
  339000   0.72252983    -5.715881    130.27861  0.032025223  0.032407737            3 
  340000   0.72581649   -5.7218299    130.60189  0.032010267  0.032327156            8 
  341000   0.73332334    -5.723974    130.98915  0.032011032  0.032248463           13 
  342000   0.72729436   -5.7420047    131.08024   0.03193963  0.032169679           10 
  343000   0.71086321   -5.7409508    130.75559  0.031767636    0.0320907            8 
  344000   0.73066791   -5.7732557     131.1115  0.031761506  0.032012258           11 
  345000   0.72710207   -5.7576104     130.9873  0.031639444  0.031932944           12 
  346000    0.7098127   -5.7275663    131.16089  0.031589809  0.031853436            5 
  347000   0.71812446   -5.7604295    131.50686  0.031581859  0.031774172           13 
  348000   0.70491156   -5.7731606    131.39596  0.031464549  0.031695111           14 
  349000   0.72016782   -5.7766574    131.46229  0.031390233  0.031615775           14 
  350000    0.7115142    -5.800269    131.29384  0.031260438  0.031536019           26 
  351000   0.72493009   -5.7603331    131.44033  0.031206156   0.03145663           10 
  352000   0.68097344   -5.7631689    131.86749   0.03121863  0.031378171            5 
  353000   0.69694611    -5.782681    131.73369  0.031098604   0.03129958           10 
  354000   0.69702871   -5.7736254     131.9156  0.031053577  0.031221582            6 
  355000   0.69303979   -5.7932956     131.7176  0.030919625  0.031142992            7 
  356000   0.70143616   -5.8033625    131.79241  0.030850283  0.031063635           15 
  357000   0.69148202   -5.7787191     132.2109  0.030861554  0.030985533           13 
  358000   0.69925689    -5.789423    132.13343  0.030757315  0.030907546           10 
  359000   0.69030632   -5.7918386    132.31521  0.030713837  0.030829945           10 
  360000   0.68570218   -5.8061323    132.25791  0.030615257  0.030752773            7 
  361000   0.69546642   -5.7903268    132.57964  0.030604719  0.030675717           12 
  362000   0.68632392   -5.8092943    132.73615  0.030556204  0.030598902            5 
  363000   0.66985825   -5.8147996    132.46931  0.030410769  0.030521531           10 
  364000   0.70586714   -5.8135311    132.68639  0.030376922  0.030444848           18 
  365000   0.69257975   -5.8145895    133.18711  0.030408016  0.030368247            8 
  366000   0.69910925   -5.8113782    133.03377   0.03029002   0.03029184            5 
  367000   0.68364184   -5.8286271    133.05004  0.030211182  0.030215546           11 
  368000   0.67450179   -5.8219525    132.90326  0.030095846  0.030138888           10 
  369000   0.67703029   -5.8660316    132.59173  0.029943933  0.030061782           18 
  370000   0.66775798   -5.8664652    132.81432  0.029913136   0.02998479           12 
  371000   0.65850789   -5.8567145    133.09938  0.029896537  0.029907902           12 
  372000   0.67751762    -5.848876    132.73678  0.029734941  0.029831271           16 
  373000   0.65125859   -5.8565261    132.81513  0.029672727  0.029754733            9 
  374000     0.658357   -5.8796257    133.19234  0.029677438  0.029677924            6 
  375000   0.67110533   -5.8597162    132.75711  0.029501579  0.029600761           19 
  376000   0.67726078   -5.8662691    133.12345   0.02950431  0.029523748            9 
  377000   0.67301315   -5.8653047    133.04617  0.029408968  0.029447073            7 
  378000   0.66012682   -5.8715425    133.29994  0.029387112  0.029370724           11 
  379000   0.67144231   -5.8817892    133.21397   0.02929067  0.029294701           17 
  380000   0.66607084   -5.8675782    133.59128  0.029296333  0.029218773            7 
  381000   0.64321285   -5.8671161    133.59749  0.029220799  0.029142803           12 
  382000   0.65222255   -5.8740751    133.62785  0.029150927  0.029067522           21 
  383000   0.65903975   -5.8926821    133.81575  0.029115699  0.028992778           28 
  384000    0.6516852   -5.8908677    133.59411  0.028991777  0.028918333           21 
  385000   0.66627554    -5.907287    133.70031  0.028939462  0.028843133           11 
  386000   0.63628475   -5.9203191     133.7664  0.028878756  0.028768248           18 
  387000   0.64238094   -5.9070038    133.76038  0.028802839  0.028693456           14 
  388000   0.65596773   -5.9244368    133.57734  0.028689292   0.02861847           18 
  389000   0.64756367   -5.9208569    133.73024  0.028648296  0.028543412            9 
  390000   0.65120687   -5.9287295    133.92621  0.028616711  0.028468539            8 
  391000   0.65726024   -5.9128494    133.58735  0.028471302  0.028393527           10 
  392000   0.64875271   -5.8984819    133.98409  0.028483012    0.0283192           13 
  393000   0.64548119   -5.9096733     134.3909  0.028496798  0.028245345           11 
  394000   0.63538342   -5.9281351    134.37897  0.028421947  0.028171514           13 
  395000   0.65316737   -5.9130283    133.93855  0.028257078  0.028097763            8 
  396000   0.63142127   -5.9333706    133.88634  0.028174735  0.028023826           10 
  397000   0.63242231   -5.9488627    133.56423  0.028036151  0.027949725           22 
  398000   0.62530646   -5.9784087     133.8717  0.028030087  0.027875449           49 
  399000   0.63271671   -5.9670481    134.07959  0.028003257  0.027801476           20 
  400000    0.6157267   -5.9331833    134.43205  0.028006678  0.027727674            8 
  401000   0.64236206   -5.9727014    134.06915  0.027861419  0.027654314           35 
  402000   0.61717402   -5.9568357    134.59735  0.027901607  0.027581137           13 
  403000   0.62466597   -5.9724928    134.22769  0.027755933  0.027508096           12 
  404000    0.6108182   -5.9734988    134.02467  0.027645353  0.027435144           10 
  405000   0.60548731   -5.9663077    134.26204  0.027625933  0.027362129           12 
  406000   0.61417142   -5.9707614    134.37402  0.027580875  0.027288805           16 
  407000   0.61963713   -5.9777827    133.94476  0.027425218  0.027215577           20 
  408000   0.60981719   -5.9606308    134.15929  0.027401815  0.027142479            8 
  409000    0.6121099   -5.9731258    134.03821  0.027310148  0.027069174           11 
  410000   0.61222598    -5.987809    133.87765  0.027210905  0.026995376           13 
  411000   0.59814793   -6.0005519    133.66736  0.027102059  0.026921473            6 
  412000   0.60736528    -6.012367    133.94789   0.02709302  0.026847639           24 
  413000   0.61875346   -6.0091846    133.86097   0.02700988  0.026773955           10 
  414000   0.61488586   -6.0331312    133.51812  0.026875628  0.026700374           13 
  415000    0.6164974    -6.000477    133.95982  0.026899562  0.026627063           10 
  416000   0.58913972   -6.0186749     133.8538  0.026813663  0.026553822           28 
  417000   0.60785565    -6.008766    134.00611  0.026779798  0.026480735           16 
  418000   0.60027881   -6.0092851    134.15846  0.026746104  0.026408308           23 
  419000   0.59561098   -6.0271744    134.13126  0.026676862  0.026336034           16 
  420000   0.59894363     -6.02327     133.8339  0.026554344  0.026263775           14 
  421000   0.59888552   -6.0240167    134.17379  0.026558549  0.026191333           21 
  422000    0.5864863   -6.0431624    134.18585  0.026497996  0.026119108           27 
  423000   0.58700681   -6.0251843    133.90006   0.02637905  0.026046499           45 
  424000   0.59327425   -6.0633312    133.82774  0.026302622  0.025974088           25 
  425000   0.58586672   -6.0792052    133.85101  0.026245296  0.025901445           26 
  426000   0.59420412   -6.0641974    133.61916  0.026138333  0.025829251           47 
  427000    0.5827744   -6.0696235    133.77823  0.026108164  0.025756948           46 
  428000   0.57564711   -6.0560615    133.63284  0.026018856  0.025684767           42 
  429000   0.57698133   -6.0672615    133.47379   0.02592731  0.025612781           84 
  430000   0.58794692   -6.0771749    133.55578  0.025882903  0.025540643           26 
  431000   0.57366281   -6.0768865    133.66958  0.025844853  0.025468808           20 
  432000   0.58206315   -6.0887882    133.46841  0.025746221  0.025397195           42 
  433000   0.58100074   -6.0774059    133.91105  0.025771949  0.025325909           24 
  434000   0.58344353   -6.0975544    133.71405  0.025674741   0.02525444           69 
  435000   0.59041088   -6.0948452    133.43368  0.025562007   0.02518335           35 
  436000   0.57088247    -6.101333    133.54352  0.025524373  0.025112449           47 
  437000   0.56527992   -6.0954441    133.65737  0.025487676  0.025041727           48 
  438000   0.55796815   -6.0911994    133.65891  0.025429778  0.024971157           44 
  439000    0.5633706   -6.1023315    133.62784  0.025365953  0.024900914           14 
  440000   0.56037731   -6.1150535    133.72618  0.025326928  0.024830696           27 
  441000   0.57045463   -6.1171043    134.08901   0.02533806  0.024760453           42 
  442000   0.57969566   -6.1108741    133.52553  0.025174497  0.024690532           27 
  443000   0.57308147   -6.1030262     133.6566  0.025142326  0.024620915           42 
  444000   0.55508393   -6.1221989    133.33619   0.02502556  0.024551437           59 
  445000    0.5607723   -6.1319035    133.57725  0.025014466  0.024481827           33 
  446000    0.5584865   -6.1328558    133.52925  0.024949411  0.024412282           44 
  447000   0.55136947   -6.1374493    133.40122  0.024869728   0.02434283           37 
  448000   0.56214133   -6.1081445    133.67449  0.024865047  0.024273793           23 
  449000   0.56382632   -6.1482931    133.54493  0.024785623  0.024204775           16 
  450000   0.55127321   -6.1378274    133.56488  0.024734238  0.024135666           60 
  451000   0.53969263   -6.1538931    133.35099  0.024639872  0.024066609           49 
  452000   0.54077709   -6.1527013    133.40633  0.024595562  0.023997482           34 
  453000   0.55481339   -6.1470169    133.62973  0.024582363  0.023928692           37 
  454000   0.54737812   -6.1453233    133.49045  0.024502652  0.023860132           54 
  455000   0.54632031   -6.1303593    133.38768  0.024429978  0.023791801           37 
  456000   0.54463343   -6.1603751    133.27408  0.024355643  0.023723642           38 
  457000   0.53298743   -6.1518328    133.17828   0.02428488  0.023655482           36 
  458000   0.52502729   -6.1497763    133.33145  0.024259725  0.023587754           23 
  459000   0.54145331   -6.1695013    133.08835  0.024162736  0.023519982           30 
  460000   0.54165542   -6.1977824    133.15555  0.024122382  0.023452447           24 
  461000   0.53033017   -6.1960995    133.28849  0.024094088  0.023384855           19 
  462000   0.53057654   -6.1984508    133.54662  0.024088495  0.023317559           24 
  463000    0.5230332   -6.2016288    133.04035  0.023945347  0.023250455           20 
  464000   0.52511393   -6.2077393    133.13463  0.023910673  0.023183382           20 
  465000    0.5268214   -6.1990017    133.27476  0.023884365  0.023116639           20 
  466000   0.53123176   -6.1942693    133.07164  0.023796788  0.023049959           27 
  467000     0.517221   -6.1985091    133.36753  0.023798631  0.022983582           18 
  468000   0.51916266   -6.1933102    133.15555  0.023710033   0.02291733           45 
  469000   0.51425392   -6.2136424    133.38112   0.02369956  0.022851084           28 
  470000   0.52159209   -6.2204672    133.17516  0.023612617  0.022785101           56 
  471000   0.52441827   -6.2170034    133.00794  0.023532898  0.022719382           59 
  472000   0.51378992   -6.2292377    133.30929  0.023536245  0.022653985           39 
  473000   0.50040189   -6.1877646    133.41191  0.023504564  0.022588985           37 
  474000   0.51213224   -6.2213282    133.33533  0.023441514  0.022524226           29 
  475000   0.50765557   -6.2351186    132.89517  0.023314942  0.022459551           45 
  476000   0.51392217   -6.2207953    133.07096  0.023296736  0.022395151           45 
  477000   0.50007649   -6.2387391    133.21356   0.02327281  0.022330818           34 
  478000   0.50780791   -6.2507608    132.90922  0.023171063  0.022266594          110 
  479000   0.50992577   -6.2441426    133.09739  0.023155427  0.022202511           60 
  480000   0.49884115   -6.2509571    133.12299  0.023111631  0.022138683           43 
  481000   0.50446627   -6.2574284    132.89995  0.023024939   0.02207495           20 
  482000   0.50052688   -6.2596369    132.78492  0.022957282  0.022011354           45 
  483000   0.49843743   -6.2784302    132.87693  0.022925626  0.021947793           47 
  484000   0.49408869   -6.2774917    132.77801  0.022861228  0.021884515           49 
  485000   0.50113829   -6.2516193    132.76487  0.022811834  0.021821447           30 
  486000   0.49267313   -6.2549472    132.88305   0.02278516  0.021758392           43 
  487000   0.49040585   -6.2763576    132.87625  0.022737209  0.021695526           15 
  488000   0.48564326   -6.2930631     132.5874  0.022641291  0.021632923           25 
  489000   0.49336497   -6.2865386    133.09128  0.022680859   0.02157031           22 
  490000   0.48731318   -6.2846566    132.80112  0.022585224  0.021507959           27 
  491000   0.47821771   -6.2956373    132.56089  0.022498453  0.021445897           35 
  492000   0.47830055   -6.2958704    132.83316  0.022498842  0.021383947           40 
  493000   0.47423458   -6.3051697    132.92506  0.022468739  0.021322181           59 
  494000   0.47435963   -6.2932684    132.31772  0.022320803  0.021260543           35 
  495000    0.4767155   -6.3102477    132.53196  0.022311778  0.021199111           52 
  496000   0.47655487   -6.3143004    132.54957  0.022269753  0.021137793           36 
  497000   0.46920667   -6.3035118    132.50877  0.022218104  0.021076516           26 
  498000   0.47058575   -6.3092068    132.53603   0.02217805  0.021015447           30 
  499000   0.47259575   -6.3036669    132.40456  0.022111649  0.020954553           29 
  500000   0.46920895   -6.3121232    132.52019  0.022086698   0.02089381           55 
  501000   0.47099601   -6.3151545    132.55348  0.022048151   0.02083329           39 
  502000   0.45770956   -6.3284403    132.39047   0.02197717   0.02077293           53 
  503000   0.46418665   -6.3253617    132.47761  0.021947914  0.020712708           31 
  504000   0.46966041   -6.3178198    132.33473  0.021880742  0.020652649           44 
  505000   0.45190591   -6.3323091    132.31099  0.021833496  0.020592683           30 
  506000   0.45971992   -6.3329043    132.59809   0.02183763  0.020532899           68 
  507000   0.44872583   -6.3408762    132.55632  0.021787692  0.020473254           42 
  508000   0.45572288   -6.3398165    132.40937  0.021720697  0.020413963           26 
  509000   0.46771685   -6.3252608      132.124  0.021631304  0.020354794           54 
  510000   0.46116381   -6.3417478    132.49017   0.02164872  0.020295825           59 
  511000   0.45809838   -6.3453923    132.22249  0.021562702  0.020237054           69 
  512000    0.4556749   -6.3591818    132.29503  0.021532395  0.020178489           64 
Loop time of 1278.32 on 48 procs for 500000 steps with 4000 atoms

Performance: 67588.764 tau/day, 391.139 timesteps/s
99.4% CPU use with 48 MPI tasks x no OpenMP threads

MPI task timing breakdown:
Section |  min time  |  avg time  |  max time  |%varavg| %total
---------------------------------------------------------------
Pair    | 89.853     | 95.832     | 103.66     |  33.8 |  7.50
Neigh   | 8.721      | 9.0287     | 9.4036     |   6.2 |  0.71
Comm    | 83.252     | 89.453     | 95.968     |  33.3 |  7.00
Output  | 0.934      | 0.9348     | 0.95666    |   0.3 |  0.07
Modify  | 1065       | 1070.8     | 1073.4     |   4.6 | 83.77
Other   |            | 12.24      |            |       |  0.96

Nlocal:        83.3333 ave          90 max          78 min
Histogram: 3 6 5 6 5 13 3 2 3 2
Nghost:        2368.27 ave        2383 max        2352 min
Histogram: 3 1 2 10 6 8 5 7 3 3
Neighs:        16243.3 ave       19495 max       14326 min
Histogram: 7 9 6 6 4 7 3 4 1 1
FullNghs:      32486.1 ave       35493 max       30397 min
Histogram: 3 7 8 6 9 7 2 1 4 1

Total # of neighbors = 1559334
Ave neighs/atom = 389.83350
Neighbor list builds = 26887
Dangerous builds = 0

#clear
#
#next RN
#
#jump SELF
Total wall time: 0:21:21
