
units lj                  # Use reduced LJ style units
atom_style atomic         # Uncharged point particles
atom_modify map hash      # Needed for indexing of clusters etc
                          # Used to be able to find where atoms are in relation to each other.

lattice fcc 1.0 spacing 1 1 1
Lattice spacing in x,y,z = 1.5874011 1.5874011 1.5874011
region box block 0 10 0 10 0 10 units lattice
create_box 2 box
Created orthogonal box = (0.0000000 0.0000000 0.0000000) to (15.874011 15.874011 15.874011)
  3 by 4 by 4 MPI processor grid
create_atoms 1 box
Created 4000 atoms
  using lattice units in orthogonal box = (0.0000000 0.0000000 0.0000000) to (15.874011 15.874011 15.874011)
  create_atoms CPU = 0.003 seconds
set type 1 type/fraction 2 0.0 78393
Setting atom values ...
  0 settings made for type/fraction
mass 1 1.0
mass 2 1.0
pair_style lj/cut  3.5
pair_modify tail  yes
pair_coeff 1  1  1.0  1.0   # Intearaction between 1 and 1 set with epsilon = 1 and sigma = 1
pair_coeff 1  2  1.5  0.8
pair_coeff 2  2  0.5  0.88

write_data data.0
System init for write_data ...
Neighbor list info ...
  update every 1 steps, delay 10 steps, check yes
  max neighbors/atom: 2000, page size: 100000
  master list distance cutoff = 3.8
  ghost atom cutoff = 3.8
  binsize = 1.9, bins = 9 9 9
  1 neighbor lists, perpetual/occasional/extra = 1 0 0
  (1) pair lj/cut, perpetual
      attributes: half, newton on
      pair build: half/bin/atomonly/newton
      stencil: half/bin/3d
      bin: standard
WARNING: Not all mixed pair coeffs generated from mixing. Use write_data with 'pair ij' option to store all pair coeffs. (../write_data.cpp:312)


#############################
#   M E L T   S Y S T E M   #
#############################

velocity all create 2.4 6229865 mom yes dist gaussian # Assign velocities
                                                    # Temperature 2.4, random number seed, zero linear momentum
                                                                                # Gaussian distribution

timestep 0.002   # simulation timestep
thermo 1000       # output thermodynamic data every 1000 steps bf 100

# Define a fix  in this case with index 1 applied to all
# particles in the simulation. This fix is for simulations
# in the anisotropic NPT ensemble. Note that we use the MTK
# correction.
fix 1 all npt temp 2.4 2.4 0.1 iso 5.68 5.68 0.5 mtk yes tchain 5 pchain 5 # Use NPT ensemble
                                                                         # Set temperature and pressure and damping
                                                                         # Numbers of thermostats in chain and in barostat
run 10000          # run for 10000 steps
Per MPI rank memory allocation (min/avg/max) = 3.642 | 3.644 | 3.648 Mbytes
Step Temp E_pair E_mol TotEng Press Volume 
       0          2.4   -8.3859253            0   -4.7868253   -2.2405722         4000 
    1000    2.3673149   -4.4811735            0  -0.93108891    5.4341652    5181.8809 
    2000    2.3649254   -4.3215987            0  -0.77509738    5.6339746    5264.2834 
    3000     2.361173   -4.3823631            0  -0.84148901     5.489186    5243.3719 
    4000    2.4525905   -4.3286775            0  -0.65071149    6.1453119    5181.4251 
    5000    2.3639587   -4.3122308            0  -0.76717926    5.7708209    5241.4161 
    6000    2.4252102   -4.3708506            0  -0.73394468     5.614368    5238.0468 
    7000    2.3908048   -4.3937638            0  -0.80845308    5.5103104    5229.7172 
    8000    2.3457693   -4.3976092            0  -0.87983494    5.2702917    5263.6303 
    9000    2.4067105   -4.3864032            0  -0.77723999    5.7435994    5204.7784 
   10000    2.4216282   -4.3628005            0  -0.73126637    5.8093347    5210.2268 
Loop time of 2.25916 on 48 procs for 10000 steps with 4000 atoms

Performance: 764885.564 tau/day, 4426.421 timesteps/s
99.4% CPU use with 48 MPI tasks x no OpenMP threads

MPI task timing breakdown:
Section |  min time  |  avg time  |  max time  |%varavg| %total
---------------------------------------------------------------
Pair    | 0.80688    | 0.89725    | 0.95294    |   3.3 | 39.72
Neigh   | 0.16437    | 0.17191    | 0.18192    |   0.8 |  7.61
Comm    | 0.68081    | 0.76197    | 0.83345    |   4.2 | 33.73
Output  | 0.00024146 | 0.00024972 | 0.00049483 |   0.0 |  0.01
Modify  | 0.36068    | 0.41396    | 0.48497    |   5.0 | 18.32
Other   |            | 0.01382    |            |       |  0.61

Nlocal:        83.3333 ave          92 max          77 min
Histogram: 1 3 11 4 12 5 10 1 0 1
Nghost:        1377.42 ave        1408 max        1340 min
Histogram: 1 1 2 7 6 8 14 4 4 1
Neighs:        7303.44 ave        8615 max        6248 min
Histogram: 1 0 9 11 9 11 3 2 1 1

Total # of neighbors = 350565
Ave neighs/atom = 87.641250
Neighbor list builds = 909
Dangerous builds = 253

# Equilibrate just above the melting temperature to avoid step fn in T

fix 1 all npt temp 1.25 1.25 0.1 iso 5.68 5.68 0.5 mtk yes tchain 5 pchain 5
run 2000
Per MPI rank memory allocation (min/avg/max) = 3.642 | 3.644 | 3.648 Mbytes
Step Temp E_pair E_mol TotEng Press Volume 
   10000    2.4216282   -4.3628005            0  -0.73126637    5.8093347    5210.2268 
   11000    1.2540588   -5.7930794            0   -3.9124614    5.6248032    4366.6029 
   12000    1.2164299   -5.8314288            0   -4.0072401    5.6028818    4348.1723 
Loop time of 0.432387 on 48 procs for 2000 steps with 4000 atoms

Performance: 799284.290 tau/day, 4625.488 timesteps/s
99.7% CPU use with 48 MPI tasks x no OpenMP threads

MPI task timing breakdown:
Section |  min time  |  avg time  |  max time  |%varavg| %total
---------------------------------------------------------------
Pair    | 0.18621    | 0.20342    | 0.2141     |   1.2 | 47.05
Neigh   | 0.029918   | 0.031227   | 0.032319   |   0.3 |  7.22
Comm    | 0.13565    | 0.14773    | 0.17073    |   1.6 | 34.17
Output  | 4.9676e-05 | 5.0941e-05 | 6.4449e-05 |   0.0 |  0.01
Modify  | 0.040916   | 0.045643   | 0.049591   |   1.1 | 10.56
Other   |            | 0.004313   |            |       |  1.00

Nlocal:        83.3333 ave          92 max          75 min
Histogram: 1 2 7 3 12 13 4 3 2 1
Nghost:        1555.19 ave        1571 max        1539 min
Histogram: 3 2 3 7 8 9 5 7 2 2
Neighs:        8758.60 ave        9966 max        7688 min
Histogram: 1 3 4 10 11 9 6 1 2 1

Total # of neighbors = 420413
Ave neighs/atom = 105.10325
Neighbor list builds = 142
Dangerous builds = 6

#############################
# L I N E A R  Q U E N C H  #
#############################

# Define solid atoms. This closely follows ten Wolde  Ruiz-Montero and Frenkel  Faraday Discuss  1996  104  93-110
# Compute components of the per-atom q6 vector
compute q6 all orientorder/atom degrees 1 6 components 6 nnn NULL cutoff 1.3 # compute the Q6 parameter.
                                                                             # Use all neighbours within 1.3 unit cell.

# get number of connections
compute coord_number all coord/atom orientorder q6 0.5

# An atom is solid if it has 8 or more connections (of a possible 14)
variable is_solid atom c_coord_number>=8
group solid dynamic all var is_solid    # Must be dynamic to update
dynamic group solid defined

# do clustering
compute cluster solid cluster/atom 1.3 # Create a cluster where all atoms within are solid and max 1.3 units from another member

# define chunks one chunk per cluster
compute clus_chunks solid chunk/atom c_cluster nchunk every compress yes  # Says which atoms are in which chunk

# count the size of each chunk
compute size_chunks solid property/chunk clus_chunks count


# Find the maximum entry in the vector of chunk sizes
variable max_n equal max(c_size_chunks)


# Thermo style which includes this variable
# thermo_style custom step temp pe vol v_max_n

thermo ${N}  # Print the thermo information every 100 steps
thermo 1000  

# Reset the npt fix at a lower temperature (below freezing)
fix 1  all npt temp  ${temp} ${temp}  0.1  iso  5.68  5.68  0.5  mtk yes tchain  5  pchain  5
fix 1  all npt temp  0.45 ${temp}  0.1  iso  5.68  5.68  0.5  mtk yes tchain  5  pchain  5
fix 1  all npt temp  0.45 0.45  0.1  iso  5.68  5.68  0.5  mtk yes tchain  5  pchain  5

dump dmp2 all dcd ${N} traj.dcd
dump dmp2 all dcd 1000 traj.dcd


compute msd all msd com yes
variable twopoint equal c_msd[4]/6/(step*dt+1.0e-6)
fix 9 all vector 10 c_msd[4]
variable fit equal slope(f_9)/6/(10*dt)
thermo_style custom step temp pe c_msd[4] v_twopoint v_fit v_max_n

fix 1 all npt temp 1.25 ${temp} 0.1 iso 5.68 5.68 0.5 mtk yes tchain 5 pchain 5
fix 1 all npt temp 1.25 0.45 0.1 iso 5.68 5.68 0.5 mtk yes tchain 5 pchain 5
run 500000 # 5000000  # Run for this many steps
Neighbor list info ...
  update every 1 steps, delay 10 steps, check yes
  max neighbors/atom: 2000, page size: 100000
  master list distance cutoff = 3.8
  ghost atom cutoff = 3.8
  binsize = 1.9, bins = 9 9 9
  4 neighbor lists, perpetual/occasional/extra = 1 3 0
  (1) pair lj/cut, perpetual
      attributes: half, newton on
      pair build: half/bin/atomonly/newton
      stencil: half/bin/3d
      bin: standard
  (2) compute orientorder/atom, occasional
      attributes: full, newton on
      pair build: full/bin/atomonly
      stencil: full/bin/3d
      bin: standard
  (3) compute coord/atom, occasional
      attributes: full, newton on
      pair build: full/bin/atomonly
      stencil: full/bin/3d
      bin: standard
  (4) compute cluster/atom, occasional
      attributes: full, newton on
      pair build: full/bin/atomonly
      stencil: full/bin/3d
      bin: standard
Per MPI rank memory allocation (min/avg/max) = 9.727 | 9.733 | 9.737 Mbytes
Step Temp PotEng c_msd[4] v_twopoint v_fit v_max_n 
   12000    1.2164299   -5.8314288 1.0203916e-30 7.0860523e-33 8.3333333e+20            3 
   13000    1.2201237   -5.8381086   0.56595215 0.0036278983  0.046612824            2 
   14000    1.2347183   -5.8526412    1.1213248 0.0066745522  0.046641425            3 
   15000    1.2689921   -5.8606492    1.6669481 0.0092608223  0.046330727            6 
   16000    1.2581459   -5.8764422     2.270831  0.011827244  0.046640266            3 
   17000    1.2335526   -5.8446113    2.8635749  0.014037131  0.047076342            5 
   18000    1.2360364   -5.8725398     3.377391  0.015636069  0.047051091            3 
   19000    1.2248196    -5.848384    3.8622226  0.016939573  0.046665339            3 
   20000    1.2447158   -5.8756312    4.4011528  0.018338136  0.046003171            3 
   21000    1.2320866   -5.9051096     4.929151  0.019560123  0.045759132            3 
   22000    1.2260204   -5.8459357    5.5137386  0.020885373  0.045500157            8 
   23000    1.2254022   -5.8769754    6.1181018  0.022167035  0.045628738            4 
   24000     1.223666   -5.9082767    6.6307565   0.02302346  0.045749885            3 
   25000    1.2204101   -5.8723408    7.2065307  0.024021769  0.045803315            2 
   26000    1.2446118    -5.873295    7.7618539  0.024877736  0.045840701            3 
   27000    1.2161959   -5.8533143    8.3284923  0.025705223  0.045941587            3 
   28000    1.2437017   -5.8385302    8.8583646   0.02636418  0.045966818            6 
   29000    1.2499682   -5.8730137    9.2887799  0.026691896  0.045884397            2 
   30000    1.2081196   -5.8692881    9.7873235  0.027187009  0.045661649            3 
   31000    1.2013926   -5.9394545    10.376673  0.027894282  0.045508637            3 
   32000     1.226731   -5.9067905    11.068749  0.028824866  0.045493372            6 
   33000    1.1968487   -5.8425411    11.561119  0.029194745  0.045541892            2 
   34000    1.2117525   -5.8950017    11.922664  0.029222215  0.045424511            6 
   35000    1.2195238   -5.9104427    12.376062  0.029466814  0.045246015            5 
   36000    1.1726185   -5.8855817     12.84461  0.029732893  0.045058002            3 
   37000    1.1936346   -5.8988351    13.285753  0.029922867  0.044838948            3 
   38000    1.1903932   -5.9133014    13.670088  0.029978262  0.044582624            2 
   39000    1.2293156   -5.9057072    14.348078  0.030658286  0.044373645            3 
   40000    1.2193691   -5.8605888    14.894416  0.031030033  0.044274657            3 
   41000    1.1844396   -5.9448827    15.467265   0.03143753   0.04419015            7 
   42000    1.2483363   -5.9147051    15.907242  0.031561988  0.044118835            3 
   43000    1.1772751   -5.9355158    16.399794  0.031782547  0.044009148            2 
   44000    1.2085875   -5.9285609    16.882018  0.031973519  0.043891892            5 
   45000    1.1963262   -5.9640737    17.329672  0.032091984  0.043770277            3 
   46000    1.2020433   -5.9314314    17.883222  0.032397141  0.043667147            3 
   47000    1.2083049   -5.9195982    18.291485  0.032431711  0.043569336            3 
   48000    1.1940507   -5.9866973      18.7168  0.032494443  0.043436718            4 
   49000    1.1901011   -5.9031209    19.129029  0.032532362  0.043295786            3 
   50000    1.1760962   -5.8972269    19.576528  0.032627546  0.043141677            4 
   51000     1.177932   -5.9652114    20.096815  0.032837933  0.043003522            4 
   52000    1.1637421   -5.9382049    20.578346  0.032978119  0.042894274            6 
   53000    1.1858456   -5.9874535    20.874919    0.0328222  0.042756633            8 
   54000    1.1954243   -5.9686613    21.269959   0.03282401  0.042595288            6 
   55000    1.1870509   -5.9290458    21.905873  0.033190716  0.042447421            3 
   56000    1.2062006   -5.9551371    22.383383  0.033308605   0.04232238            4 
   57000    1.1569022   -5.9458491    22.954764  0.033559596  0.042218344            6 
   58000    1.2027405   -5.9898214    23.450771  0.033693636  0.042136941           12 
   59000    1.1770614   -5.9816157    23.741244   0.03353283  0.042042849            6 
   60000    1.1617704   -5.9368971    24.246578  0.033675802  0.041935062            3 
   61000     1.157524   -5.9995041    24.768733  0.033837067  0.041855352            4 
   62000    1.1772321   -5.9830294    25.230756  0.033912306  0.041777184            2 
   63000    1.1577947   -5.9831366    25.853565  0.034197837  0.041711465            4 
   64000     1.184369    -5.997024    26.242453   0.03416986  0.041639276            4 
   65000    1.1707994   -6.0033358    26.377654  0.033817504   0.04154976            5 
   66000    1.1644051   -5.9612468    26.862098   0.03391679  0.041429284            2 
   67000    1.1637705   -5.9543562    27.416408   0.03410001  0.041329849            3 
   68000    1.1304176   -5.9615525    27.917581  0.034212722  0.041249496            5 
   69000    1.1420231   -5.9990386    28.244774  0.034112046  0.041169371            3 
   70000    1.1738573   -5.9831509    28.573942  0.034016598  0.041071366            2 
   71000    1.1643647    -6.028966    28.915061  0.033937865  0.040962761            4 
   72000    1.1596092   -6.0189691    29.435096  0.034068398  0.040847975            5 
   73000    1.1361565   -6.0010808    29.873763  0.034102469  0.040735621            3 
   74000    1.1099585   -5.9907322    30.289202  0.034109461  0.040635334            4 
   75000    1.1446449   -6.0016209    30.717782  0.034130868  0.040542472            3 
   76000     1.141331    -6.036664    31.015591  0.034008323  0.040446243            4 
   77000    1.1270308   -5.9863685    31.678519  0.034284111  0.040353572            3 
   78000    1.1137756   -5.9880939    32.212606  0.034415177  0.040273738            6 
   79000    1.1553081   -6.0606906    32.556406    0.0343422  0.040202235            3 
   80000    1.1523058   -6.0388119    32.986777  0.034361225  0.040129762            6 
   81000    1.1364564   -6.0425885    33.353189   0.03431398  0.040045657            7 
   82000    1.1244925    -6.019667    33.647271  0.034194381  0.039958262            6 
   83000    1.1370288    -6.022871    34.065994  0.034202805   0.03986363            4 
   84000    1.1321859   -6.0292955    34.505646  0.034231792  0.039768957            2 
   85000     1.138437   -6.0150412    35.013524  0.034326984  0.039688585            2 
   86000    1.1365918   -6.0564972    35.396617  0.034299047  0.039610094            3 
   87000    1.1314447   -6.0123056    35.761007  0.034253838  0.039523359            5 
   88000    1.1498144   -6.0509621    35.851448  0.033950235  0.039429007            4 
   89000    1.1273518   -6.0551785    36.239139  0.033931778  0.039324406            5 
   90000    1.1258804   -6.0499422    36.653238  0.033938183  0.039215893            5 
   91000    1.1176062    -6.057266    37.102984  0.033977092  0.039107202            3 
   92000    1.1109571   -6.0431866    37.400659  0.033877408  0.039010067            4 
   93000    1.1341952   -6.0464934    37.836209  0.033903412  0.038917621            4 
   94000    1.1134233   -6.0734523    38.340365  0.033989685    0.0388297            6 
   95000     1.105242   -6.0828332    39.036482  0.034242528  0.038753521            4 
   96000    1.1070693   -6.0582969    39.468177   0.03426057  0.038685278            6 
   97000    1.0935264   -6.0803523    39.764653  0.034162073   0.03861749            5 
   98000    1.1433898   -6.0207865    40.305116  0.034273057  0.038549838            4 
   99000    1.1120468   -6.0622598    40.531359  0.034117306  0.038479524            3 
  100000    1.1275543   -6.0652389     40.84653  0.034038775  0.038403016            4 
  101000    1.0992597   -6.1024634    41.261147   0.03404385  0.038327232            5 
  102000     1.093418   -6.0751258    41.524205  0.033925004   0.03824986            6 
  103000    1.0945718   -6.0974539    42.029822   0.03400471  0.038174952            7 
  104000    1.1023147   -6.0882479    42.353434  0.033937046  0.038095018            7 
  105000    1.1189357   -6.0869869    42.844095   0.03400325  0.038016797            2 
  106000     1.095009   -6.0813867    43.298833  0.034039963  0.037947437            3 
  107000    1.1092213   -6.1006914    43.662115  0.034004762  0.037880532            5 
  108000    1.0921452   -6.1266136    44.210195  0.034112805  0.037822983            3 
  109000    1.0736025   -6.1081552    44.600412  0.034098174  0.037768292            5 
  110000    1.0816908   -6.1140657    45.165614  0.034216374  0.037715257            4 
  111000    1.1055292    -6.097168    45.350557  0.034046965  0.037660204            4 
  112000    1.0771035   -6.1064773    45.821578  0.034093436  0.037604162            5 
  113000    1.0684191   -6.0964111    46.235259  0.034096799   0.03754294            6 
  114000    1.0825987   -6.1045086    46.255802   0.03381272  0.037479817            4 
  115000    1.0975531   -6.1389936    46.641128  0.033797919   0.03741471            4 
  116000    1.0911942   -6.1359161    47.157974  0.033877855  0.037352045            4 
  117000    1.0732644   -6.1133733     47.50851   0.03383797  0.037291256            4 
  118000    1.0867885    -6.125865    47.996995  0.033896183  0.037228984            8 
  119000      1.08188   -6.1179672    48.372987  0.033874641  0.037171868            7 
  120000    1.0824903   -6.1631687    48.986825  0.034018628  0.037120586           11 
  121000    1.0890262   -6.1469815      49.5107  0.034098278  0.037076709            2 
  122000    1.0464511   -6.1049991    49.464262  0.033787064  0.037027079            7 
  123000    1.0806702    -6.156878    50.064768   0.03391922  0.036976062            5 
  124000    1.0555541   -6.1740248    50.067918  0.033647795  0.036919121            2 
  125000    1.0766828   -6.1400047    50.458266  0.033638844  0.036858992            8 
  126000    1.0937405   -6.1565162    50.659002  0.033504631  0.036794479            5 
  127000    1.0734563   -6.1246406    51.103388  0.033532407  0.036730673            4 
  128000    1.0728639   -6.1515289    51.593203  0.033589325  0.036667782            5 
  129000    1.0624268   -6.1683536    51.966654  0.033570189  0.036606998            7 
  130000    1.0515029   -6.1831119    52.227765  0.033479337   0.03654609            6 
  131000    1.0531143    -6.193343    52.736302  0.033547266  0.036487148            2 
  132000     1.047268   -6.1287889    53.094249  0.033519096  0.036429972            5 
  133000    1.0625838   -6.1963425    53.473826  0.033504903  0.036372023            5 
  134000    1.0621618   -6.1748069    53.811854  0.033465083  0.036312733            3 
  135000    1.0453134    -6.226619    53.897848  0.033270276  0.036249604            5 
  136000    1.0388565   -6.1735614     54.41374  0.033341753    0.0361855            3 
  137000    1.0641707   -6.1438048    54.761657   0.03331001  0.036124214            7 
  138000    1.0667613   -6.1884543    55.140389  0.033297336  0.036062582            7 
  139000    1.0522939    -6.166813      55.2584  0.033128537  0.035998853            4 
  140000    1.0420287   -6.1715925    55.613577  0.033103319  0.035933329            4 
  141000    1.0649861   -6.1731661    55.880773  0.033026461  0.035867955            7 
  142000     1.047872   -6.2213143    56.136599  0.032944014  0.035799682            8 
  143000    1.0514622   -6.2130171    56.610245  0.032989653  0.035732225            8 
  144000    1.0349253   -6.2293921    56.779296  0.032858389  0.035667704            5 
  145000    1.0531117   -6.1939783    57.220157  0.032885147  0.035599747            8 
  146000    1.0326775    -6.209054    57.730411  0.032951148  0.035536462           10 
  147000    1.0685334   -6.2057341    57.809459  0.032771802  0.035474394           11 
  148000    1.0194351    -6.237395    58.065892  0.032694759  0.035408164            8 
  149000    1.0539481   -6.2302482    58.466127  0.032699176  0.035341092            4 
  150000    1.0194057   -6.2226049    58.742304  0.032634613  0.035275569            5 
  151000    1.0300556   -6.2187067    59.086681  0.032608544  0.035209188            4 
  152000    1.0471871   -6.2502375    59.169345  0.032439334  0.035142149            5 
  153000     1.013227   -6.2164401    59.405882  0.032356145  0.035068379           16 
  154000    1.0297994   -6.2143173    59.541031  0.032219172  0.034990403            9 
  155000    1.0333355    -6.215369    59.864501  0.032185216  0.034909873            5 
  156000    1.0244345   -6.2135607    59.960257  0.032030052  0.034830088            5 
  157000     1.027587   -6.2351211    60.423969   0.03207217  0.034749731            3 
  158000    1.0020436   -6.1957728    60.590685  0.031957112  0.034668545            6 
  159000    1.0080652   -6.2431997     60.78976  0.031860461  0.034586855            7 
  160000    1.0049517   -6.2586425    61.127952  0.031837475  0.034506571            5 
  161000    1.0146075   -6.2324907    61.732411  0.031952594  0.034431054            7 
  162000    1.0203707   -6.2349553    61.917807  0.031850723  0.034355672            8 
  163000    1.0092667   -6.2816957    62.090507  0.031743613  0.034280517           15 
  164000   0.99758675   -6.2700365    62.323518  0.031668454  0.034204536            6 
  165000    1.0107825   -6.2984262    62.490561   0.03156089  0.034124726            5 
  166000    1.0029436   -6.2929545    62.770612  0.031511351  0.034044046           10 
  167000   0.98627582    -6.267947    63.137112  0.031505545  0.033965242            6 
  168000   0.99812635   -6.2469363    63.555795  0.031525692  0.033888532            8 
  169000    1.0071822   -6.2415218    63.846877  0.031482681   0.03381448            4 
  170000   0.98154595   -6.2778692     63.92823  0.031337368  0.033739099            9 
  171000     1.000207   -6.2549587    64.019813  0.031198739  0.033661757            6 
  172000   0.98922954   -6.2702334    64.329326  0.031167309  0.033581228            9 
  173000    1.0132862   -6.2660306    64.681391  0.031156739  0.033501854            4 
  174000   0.97512886    -6.277983    64.809002  0.031038794  0.033423375            5 
  175000   0.99182292   -6.2927611    64.973522  0.030939772  0.033344363            9 
  176000   0.98096389   -6.2944695    65.127831  0.030837041  0.033265583            6 
  177000   0.96538463   -6.3074611    65.719887  0.030941566  0.033184846            5 
  178000   0.98057233   -6.2994001    65.766165  0.030789403  0.033104568            3 
  179000   0.98644489   -6.3055018    65.988306  0.030720813   0.03302584           14 
  180000   0.98573749   -6.2967606     66.38478  0.030733695  0.032950078            8 
  181000   0.96989995   -6.2803421    66.823653  0.030765954  0.032874513            6 
  182000   0.95132518   -6.2825861     67.34044  0.030833535  0.032800795            5 
  183000   0.98228453   -6.2820055    67.437585  0.030709283   0.03272757           10 
  184000   0.97003788   -6.2974686    67.627206  0.030628264  0.032655409           13 
  185000     0.969235   -6.3167241    67.819607  0.030549372  0.032580669           16 
  186000   0.97291828   -6.3097464    67.774521  0.030364929  0.032504794            9 
  187000   0.96797426    -6.341808    68.014598  0.030309536   0.03242701            9 
  188000   0.94308547   -6.3551744    68.605372  0.030410182  0.032351193           11 
  189000   0.95864222   -6.3066799    68.870422  0.030366147  0.032277315            7 
  190000   0.93290878   -6.3005426    69.072731  0.030295058  0.032201679            8 
  191000   0.94478815   -6.3571556    69.308498   0.03023931  0.032125955            5 
  192000   0.95674189   -6.3355998    69.515608  0.030171705  0.032052428           11 
  193000   0.96025352   -6.3283817    69.663509  0.030079235  0.031978442           20 
  194000   0.95641494   -6.3515663    69.658767  0.029922151  0.031903629           12 
  195000    0.9668121   -6.3567621    69.698354  0.029785621  0.031827465           11 
  196000   0.95808754   -6.3362656    70.007833  0.029765235   0.03174844            9 
  197000   0.95712938   -6.3473643    70.125787  0.029664039    0.0316704            9 
  198000   0.93263076   -6.3573579    70.096653  0.029501958  0.031589636            7 
  199000   0.94952091   -6.3782764    70.173583  0.029385922  0.031506745           15 
  200000   0.94128733   -6.3600034    70.424389  0.029343495  0.031423567           13 
  201000   0.94427402   -6.3667967     70.63873  0.029286372  0.031339853            9 
  202000   0.98552136   -6.3832912    70.765133  0.029193537  0.031256428            7 
  203000   0.95313337   -6.3698355    70.996302  0.029144623  0.031172418            5 
  204000   0.97130364   -6.3935182    71.275652  0.029115871  0.031089449           16 
  205000   0.94137028   -6.3954083    71.668775  0.029133648  0.031008239            9 
  206000   0.93139718   -6.3998869    71.732011  0.029017804  0.030928237            5 
  207000   0.93642933   -6.3912138    71.710136  0.028868815  0.030846403            9 
  208000   0.94104113   -6.3697084    71.991976  0.028842939  0.030763857           16 
  209000   0.94393044   -6.3874974    72.154655  0.028769798  0.030680302           15 
  210000     0.922897   -6.3962613    72.369483  0.028718049  0.030597721            8 
  211000   0.93564297     -6.39405    72.537296  0.028648221  0.030516661            5 
  212000    0.9370779   -6.3899279    72.934927   0.02866939  0.030436469           19 
  213000   0.94536887   -6.4487399    72.944208  0.028538423  0.030357191            9 
  214000   0.93373041   -6.4095015    73.375253  0.028572918  0.030278912            4 
  215000   0.90436956   -6.3977963    73.431688  0.028461894  0.030200361            4 
  216000   0.91072822   -6.3852351    73.887047  0.028505805  0.030122132            6 
  217000   0.92522555   -6.4284689    73.936497  0.028393432  0.030045709            4 
  218000    0.9052438    -6.405033    73.843154  0.028227505  0.029968153           12 
  219000   0.92292634   -6.3865832     74.19618  0.028232945  0.029889559            4 
  220000   0.90695394    -6.470516     74.22232  0.028114515  0.029812147            7 
  221000   0.91143766   -6.4353547    74.559187  0.028114324  0.029733919           12 
  222000   0.89729989     -6.41553    74.597127  0.028001925  0.029655362            6 
  223000   0.93216448   -6.4609076    74.913711   0.02799466  0.029577203            5 
  224000   0.90416455   -6.4313766    75.207467  0.027978968  0.029499525            6 
  225000   0.90768466   -6.4356714    75.265364  0.027876061  0.029423227            6 
  226000   0.90513877   -6.4373898    75.238785  0.027742915  0.029347194            7 
  227000   0.90013085   -6.4370016    75.679884   0.02778263  0.029269668           10 
  228000   0.89461401   -6.4584672    75.633603  0.027643861  0.029191416            9 
  229000   0.91377311   -6.4301345    75.807138  0.027586295  0.029114038           15 
  230000   0.88704014   -6.4368352    75.960459  0.027521905  0.029037063           12 
  231000   0.89635659   -6.4362411    75.786818  0.027340122  0.028958481           17 
  232000   0.90120169   -6.4599579    76.228581  0.027380956  0.028879857            9 
  233000   0.91375983    -6.489882    76.117914  0.027223861  0.028800276           17 
  234000   0.89618403   -6.4941842    76.409175  0.027211244  0.028721699           22 
  235000   0.90081024   -6.5039334    76.630466  0.027173924  0.028643331           15 
  236000   0.88204304   -6.4672066    76.624019  0.027056504   0.02856502           11 
  237000   0.89291763   -6.4899037    76.788692  0.027000243  0.028486583           15 
  238000   0.88833974   -6.4690414    77.275665  0.027057305  0.028410293            6 
  239000    0.8849654   -6.4870803    77.064849  0.026870589  0.028333225           11 
  240000   0.88757527   -6.5295996     77.46117   0.02689624  0.028256986           20 
  241000    0.8993792   -6.5059022    77.517568  0.026804138  0.028180889           19 
  242000    0.8972452   -6.4886435    77.827666   0.02680016  0.028105171            9 
  243000   0.87145088   -6.4998249    77.736306  0.026658541  0.028029176           33 
  244000   0.86669204   -6.4881288    78.124657  0.026681918  0.027953178            9 
  245000   0.86499462   -6.5289406     77.83218  0.026473531  0.027878014           15 
  246000   0.86286135    -6.496991    78.451881   0.02657584  0.027801446           13 
  247000   0.87163658   -6.5102928    78.363948  0.026438579  0.027725315           15 
  248000   0.87160539   -6.5015633    78.318934  0.026316846   0.02764934           12 
  249000   0.85466764   -6.5132278      78.3365  0.026217035  0.027573378           23 
  250000   0.86557526   -6.5071965    78.615614  0.026205205  0.027496382           17 
  251000   0.86642612    -6.500618    78.917491  0.026201026  0.027420944           17 
  252000   0.87703528   -6.4950772    79.039891   0.02613753   0.02734666            6 
  253000   0.86731581   -6.5075279    79.085177  0.026049136  0.027272366           15 
  254000   0.85159792   -6.5373752    79.031422  0.025928944   0.02719691           41 
  255000   0.86954353   -6.5347255    79.242922   0.02589638  0.027120315           19 
  256000   0.83266484   -6.5218645    79.322166  0.025821018   0.02704462           40 
  257000    0.8709072   -6.5361456    79.598964    0.0258103  0.026969974           12 
  258000   0.85085851   -6.5593485    79.790269  0.025772051  0.026895219           26 
  259000   0.86117207   -6.5416428    79.864168  0.025696322  0.026820051           22 
  260000   0.84952242   -6.5136579    79.842483  0.025590539  0.026745014            9 
  261000    0.8634661    -6.531929    79.871215  0.025501665  0.026669648            6 
  262000   0.85651989   -6.5877947    79.786006  0.025377228  0.026593978           16 
  263000   0.85597731   -6.5573461    80.154533  0.025397507  0.026517784           24 
  264000    0.8486875   -6.5646334    79.978271  0.025245666  0.026441678           10 
  265000   0.83529729   -6.5708288    80.065458  0.025177817  0.026365469            7 
  266000   0.83494921    -6.566245    80.322513  0.025163694  0.026290151           10 
  267000   0.83201788   -6.5308574    80.761051  0.025206321  0.026216263            7 
  268000   0.84138329   -6.5189704    80.747037  0.025107909  0.026142601           15 
  269000   0.84011434   -6.5683033     80.77851  0.025024322  0.026068251           11 
  270000   0.82527037   -6.5531297    80.480903  0.024839785  0.025992765           22 
  271000   0.82742377   -6.5922727    80.538745  0.024765912  0.025916419           20 
  272000   0.84556455   -6.5881616    80.818672  0.024760622  0.025840743           22 
  273000   0.81253366   -6.6005945    81.089595  0.024752624  0.025766267           31 
  274000    0.8168492   -6.5817848    81.145034  0.024679147  0.025691796           25 
  275000   0.81983217   -6.5835363    81.344914  0.024649974  0.025617704            7 
  276000   0.83186932   -6.5968691    81.455575  0.024594075   0.02554386           18 
  277000   0.82406566   -6.5830256    81.477939  0.024512015  0.025470432            9 
  278000   0.82346696   -6.6092477    81.628747  0.024469049  0.025397101           17 
  279000   0.80739499   -6.6207372    81.649391  0.024387512  0.025323636           12 
  280000   0.82727905   -6.6041305    81.786247  0.024341145  0.025250056           14 
  281000   0.81375971   -6.5985882    81.667762  0.024219384   0.02517624           28 
  282000   0.82026988   -6.6187709    81.690695  0.024140276  0.025101839           26 
  283000   0.82097406   -6.6329484    81.993482  0.024144135  0.025027882           10 
  284000   0.81161147   -6.6112866    81.945095  0.024044922  0.024954807           24 
  285000   0.80577127   -6.6194867    82.233975  0.024045022  0.024881954           27 
  286000   0.81578451   -6.6284639    82.065987  0.023912001   0.02480908           32 
  287000   0.82248832   -6.6210995    82.020957  0.023815609  0.024735627           27 
  288000   0.81305265    -6.647601    82.106115  0.023757556  0.024661181           19 
  289000   0.81086785   -6.6312095    81.990493  0.023642011   0.02458678           24 
  290000   0.78826876   -6.6412593    82.126646  0.023599611  0.024513133           26 
  291000   0.80584006   -6.6345766    82.332539  0.023577474  0.024439886           26 
  292000   0.80173932   -6.6261873    82.438866  0.023527074  0.024366965           23 
  293000    0.8074445   -6.6352768    82.619615  0.023498184  0.024294628           32 
  294000   0.80519329    -6.643296    82.589223  0.023409644  0.024222711           30 
  295000   0.79280429   -6.6513891     82.87067  0.023409794  0.024151181           15 
  296000   0.77184127   -6.6313077    82.942471  0.023350921  0.024079859           15 
  297000   0.77723342   -6.6259295    82.920406  0.023266107  0.024009688           28 
  298000   0.80085069   -6.6292521    83.046625  0.023223329  0.023938411           35 
  299000   0.79042598   -6.6602248    82.985414  0.023128599  0.023867522           34 
  300000   0.78374067    -6.682014    83.059074  0.023071965  0.023796317           18 
  301000   0.78415074   -6.6339793    83.055707  0.022994382  0.023725416           17 
  302000   0.79316833   -6.6773472    83.443538  0.023025259  0.023655244           21 
  303000   0.80578362   -6.6931256    83.446407  0.022950057   0.02358553           36 
  304000   0.78285728   -6.6683318    83.598774  0.022916331  0.023516017           13 
  305000   0.78677667   -6.6836914    83.626832  0.022848861  0.023446062           17 
  306000   0.78237489    -6.688402    83.573031   0.02275954  0.023376208           44 
  307000   0.79700974   -6.6797711     83.61825  0.022697679  0.023306831           17 
  308000    0.7768991   -6.6828266    83.872339  0.022692732  0.023237757           16 
  309000   0.77668297   -6.6943285    83.745991  0.022585219  0.023168803           18 
  310000   0.77948284   -6.7033028    83.850064   0.02254034  0.023099367           16 
  311000   0.77227156   -6.6921937    84.052569  0.022522125  0.023030728           15 
  312000   0.76229693   -6.6867376    84.080375  0.022457365  0.022962891           46 
  313000    0.7753258   -6.7310375    83.830344  0.022319048  0.022894342           15 
  314000   0.77412435   -6.7265473    83.899117   0.02226622    0.0228251           25 
  315000   0.77565294   -6.7134661    83.987697  0.022218968   0.02275658           11 
  316000   0.76075081   -6.7131716    84.315321  0.022235053  0.022688328           26 
  317000    0.7767493   -6.7329076    84.204162  0.022135689  0.022620646           28 
  318000   0.78123624   -6.7397812    84.098569  0.022038409  0.022552929           25 
  319000   0.76856089   -6.7610733    84.231875  0.022004147   0.02248511          121 
  320000   0.75090561   -6.7345246     84.11558  0.021905099  0.022417215           21 
  321000   0.73376216    -6.742665    84.423334  0.021916753  0.022349953           41 
  322000   0.74747532   -6.7426658    84.538071  0.021878383  0.022282887           36 
  323000   0.74519831   -6.7674525    84.440813  0.021785555  0.022216304           35 
  324000   0.75309235    -6.738973    84.707717  0.021786964  0.022149839           72 
  325000   0.73047301   -6.7240459    84.608033  0.021694367  0.022083525           33 
  326000    0.7365826   -6.7577303    84.792205  0.021674899  0.022017398           20 
  327000   0.73469591   -6.7358563    84.895873  0.021635034  0.021951751           29 
  328000   0.74076601   -6.7430663    84.959914  0.021585344  0.021886674          104 
  329000   0.72191632   -6.7652354    85.042986  0.021540777  0.021821577           53 
  330000   0.72639547   -6.7637249    85.082185    0.0214854  0.021756787          156 
  331000   0.74336046   -6.7681234    85.306126   0.02147687  0.021692393           72 
  332000   0.73590799   -6.7911293    84.991803  0.021333284  0.021627798           54 
  333000   0.73293468    -6.779839    85.190556  0.021318958  0.021563561           34 
  334000   0.73864428   -6.7761645     85.12915  0.021239808  0.021498899           26 
  335000   0.72747517    -6.822133    85.124625   0.02117528  0.021434011           52 
  336000    0.7374833   -6.8026357    85.157286  0.021120359  0.021369153           41 
  337000   0.73802261   -6.7893619    85.138574   0.02105306  0.021304616           20 
  338000   0.74140257   -6.8169774    85.161376  0.020996395  0.021240167           48 
  339000   0.72319271   -6.8127792    85.166466  0.020935709  0.021176034           70 
  340000   0.72087338    -6.788197    85.129662  0.020865113  0.021111864           79 
  341000   0.71648743    -6.806758    85.234212  0.020829475  0.021047493          114 
  342000   0.73126295   -6.8191916    85.347378  0.020796145  0.020983618          109 
  343000   0.73042954   -6.8138431    85.378255  0.020743016  0.020919649           72 
  344000    0.7196416   -6.8549162    85.275503  0.020657825  0.020856033          142 
  345000   0.72157106   -6.8272394    85.125109   0.02056162  0.020792262          136 
  346000   0.73188579   -6.8152684    85.374712   0.02056231  0.020728838           82 
  347000    0.7195992    -6.824084    85.454046  0.020522105  0.020665151          120 
  348000   0.70731516   -6.8327919    85.387665  0.020447238  0.020601533          157 
  349000   0.70837718   -6.8352171    85.583447  0.020435398    0.0205386          179 
  350000   0.70287132   -6.8406813    85.620562  0.020385848  0.020475913          172 
  351000   0.71550254    -6.861519    85.771968  0.020363715  0.020413464          201 
  352000   0.70821412   -6.8569631    85.543023  0.020251663  0.020351165          230 
  353000   0.69946014   -6.8371402    85.732095  0.020238927  0.020288906          286 
  354000   0.71431236   -6.8391228    85.533223  0.020134939  0.020226692          351 
  355000   0.70809588   -6.8595891    85.711688  0.020120115  0.020164805          407 
  356000    0.6965265   -6.8477412    85.445613  0.020001314  0.020102459          535 
  357000   0.70444557   -6.8740208    85.528588  0.019964656  0.020040415          545 
  358000   0.69307459   -6.8789947    85.809415  0.019974258  0.019978982          452 
  359000   0.70614024   -6.8811918    85.550787  0.019858586  0.019917161          508 
  360000   0.67725837   -6.8692095    85.736958  0.019846518  0.019855696          581 
  361000   0.69083314   -6.8955368    85.826598  0.019812234  0.019794763          678 
  362000   0.69449219   -6.9043834    85.936782  0.019782869  0.019734093          662 
  363000   0.67944441   -6.9175846     85.98327  0.019739043  0.019673279          659 
  364000   0.69602904   -6.9229348    85.817666  0.019646902  0.019612458          801 
  365000   0.66821264   -6.9088356    85.524756    0.0195262  0.019551794          806 
  366000   0.68765735   -6.9163211    85.718383  0.019516936  0.019490938          830 
  367000   0.68043951   -6.9202526    85.809204  0.019484379  0.019430272          948 
  368000   0.69186218   -6.9214704    85.661923   0.01939808  0.019369724          850 
  369000   0.67202303   -6.9375717    85.858071  0.019389808  0.019309495          849 
  370000   0.68720191    -6.946692    85.861794  0.019338242  0.019249321          883 
  371000    0.6842457   -6.9426925    85.967995  0.019309972  0.019189653         1019 
  372000   0.68350533   -6.9803817    85.826082  0.019226273  0.019129944         1226 
  373000   0.68835305   -6.9832345    85.752362  0.019158258  0.019070024         1371 
  374000   0.67542404   -7.0006918    85.786638   0.01911467   0.01901029         1234 
  375000   0.65779603   -7.0113186    85.877483  0.019083885  0.018950733         1369 
  376000   0.67647905   -7.0183107    85.784511  0.019012524  0.018891399         1452 
  377000   0.67588654   -7.0291424    85.733523  0.018950823  0.018832154         1660 
  378000    0.6619025   -7.0368781    85.764203  0.018907452  0.018772725         1566 
  379000   0.65055553    -7.039304    85.659398   0.01883452  0.018713424         1679 
  380000   0.66790036   -7.0228911    85.687019  0.018791013  0.018654247         1669 
  381000   0.66655046   -7.0415058    85.564926  0.018714988  0.018594895         1722 
  382000   0.65089744   -7.0654818    85.646129  0.018683711  0.018535492         1816 
  383000   0.65394401   -7.0821013    85.645543    0.0186348  0.018476096         1986 
  384000   0.66260446   -7.0632706    85.586388  0.018573435  0.018416931         2035 
  385000   0.65437095   -7.0724786    85.621298  0.018532748  0.018357866         2125 
  386000   0.66315637   -7.0868275    85.389063  0.018434599  0.018298734         2227 
  387000   0.64092003   -7.1041737    85.407066  0.018390841  0.018239737         2294 
  388000   0.63998788   -7.1424827    85.571387  0.018378734  0.018181052         2461 
  389000   0.63661058   -7.1173213    85.530072  0.018322638  0.018122504         2421 
  390000   0.65469339   -7.1391289    85.441303  0.018256689  0.018063969         2603 
  391000   0.64836808   -7.1465356    85.452804  0.018212447  0.018005645         2671 
  392000   0.63942044    -7.162904    85.350862  0.018144316  0.017947223         2816 
  393000   0.64677579   -7.1960589    85.437898  0.018116603  0.017889086         2954 
  394000   0.64638179   -7.1894835    85.286914  0.018038687  0.017831016         2896 
  395000   0.64955286   -7.2199247    85.360958  0.018008641  0.017772946         2951 
  396000    0.6322133    -7.224794    85.287151  0.017947633  0.017714927         3031 
  397000    0.6215779   -7.2297745    85.340313  0.017913584  0.017657144         3061 
  398000   0.62443795     -7.22711     85.28302  0.017856579  0.017599465         3033 
  399000   0.62678311   -7.2078742    85.224847  0.017799676  0.017541918         3086 
  400000   0.63434662   -7.2144608    85.300764  0.017770992  0.017484631         3166 
  401000   0.62171236   -7.2310655      85.3936  0.017745968  0.017427436         3179 
  402000   0.64036923   -7.2255888    85.128341  0.017646837  0.017370291         3213 
  403000   0.62294186   -7.2323768    85.247473  0.017627683   0.01731323         3162 
  404000    0.6342704   -7.2630966    85.217146  0.017577794  0.017256182         3300 
  405000   0.62427183   -7.2585294    85.102126  0.017510725  0.017199292         3307 
  406000   0.63670303   -7.2712637    85.170556  0.017481641  0.017142594         3333 
  407000   0.61911106   -7.2796085    85.017137  0.017407276  0.017085862         3349 
  408000   0.62469524   -7.2597179    84.998601  0.017360825   0.01702936         3427 
  409000   0.60880684   -7.2941362    85.063516  0.017331605  0.016972974         3450 
  410000   0.61478986   -7.2987236    85.133765  0.017303611  0.016916754         3440 
  411000   0.59962603    -7.319763    85.042733  0.017243052  0.016860687         3399 
  412000   0.62021013   -7.3149967    85.039445  0.017200535  0.016804705         3440 
  413000   0.61363539   -7.3106398     84.90761  0.017132286  0.016748996         3463 
  414000    0.6034424   -7.2939318    85.005708   0.01711065  0.016693411         3448 
  415000   0.60804409   -7.3067251    84.905713   0.01704934  0.016638058         3498 
  416000   0.60072898   -7.2944041    84.918737  0.017010965   0.01658281         3500 
  417000   0.58962955   -7.3030956    84.911554  0.016968736  0.016527742         3513 
  418000   0.60539561   -7.3210836    84.946761   0.01693516  0.016472876         3556 
  419000   0.59724033   -7.3201112    85.012824  0.016907881  0.016418135         3526 
  420000    0.6024592   -7.3321321    84.922953  0.016849792  0.016363625         3524 
  421000    0.5901398   -7.3160888    84.795955  0.016784631  0.016309384         3458 
  422000   0.58195458   -7.3054078    85.038542  0.016792761  0.016255251         3469 
  423000   0.60118073   -7.3249775    84.906367  0.016727023  0.016201248         3552 
  424000   0.60613604   -7.3229537    84.764479  0.016659685  0.016147452         3479 
  425000   0.59249321    -7.319454    84.799751  0.016627402  0.016093809         3490 
  426000   0.57985781   -7.3405399    84.980356    0.0166237  0.016040323         3547 
  427000   0.58153382   -7.3482736    84.801793   0.01654992  0.015987087         3530 
  428000   0.58985886    -7.347281    84.891585  0.016528735  0.015934056         3560 
  429000   0.57818972   -7.3646004      84.8085  0.016474068  0.015881171         3529 
  430000   0.57652851   -7.3469742    84.769492  0.016428196  0.015828421         3541 
  431000   0.58037059   -7.3400253    84.833787  0.016402511  0.015775876         3572 
  432000    0.5688177   -7.3607575    84.745823  0.016347574  0.015723538         3589 
  433000    0.5692688   -7.3593205    84.849257  0.016329726   0.01567128         3591 
  434000   0.56621363   -7.3641119    84.868196  0.016295737  0.015619335         3601 
  435000   0.56542747   -7.3969982    84.648674  0.016216221  0.015567508         3573 
  436000   0.58230497   -7.3772779    84.913381  0.016229622  0.015515921         3551 
  437000   0.57156256   -7.3697082    84.735267  0.016158518  0.015464538         3624 
  438000   0.56083566   -7.3644921    84.678831  0.016110889  0.015413362         3580 
  439000     0.562561   -7.3699367    84.728095  0.016083541    0.0153624         3552 
  440000     0.562513   -7.3734292    84.773278  0.016055545  0.015311664         3580 
  441000    0.5689156   -7.3791582    84.701065  0.016005492  0.015261083         3623 
  442000   0.57108409   -7.3823775     84.71313  0.015971555  0.015210569         3614 
  443000   0.56246338   -7.3849374    84.838809  0.015959144  0.015160325         3569 
  444000   0.55705167   -7.3611819    84.628936  0.015883809  0.015110165         3573 
  445000      0.55838   -7.3668788    84.434236  0.015811655  0.015060201         3622 
  446000   0.55177339    -7.387612    84.722504  0.015830064   0.01501047         3533 
  447000    0.5487034   -7.3986858    84.720557  0.015794287  0.014960837         3566 
  448000    0.5457033   -7.3940466    84.587112   0.01573421  0.014911435         3621 
  449000   0.55344563    -7.406002    84.648386  0.015710539  0.014862242         3601 
  450000   0.53710086   -7.3951682    84.600109  0.015666687  0.014813213         3565 
  451000    0.5398769   -7.4037248    84.618818  0.015635406  0.014764352         3603 
  452000   0.53990146   -7.4226996    84.634687   0.01560374  0.014715698         3589 
  453000   0.54436775   -7.4087161    84.744669  0.015589527  0.014667225         3609 
  454000   0.53668633   -7.4038736    84.516002  0.015513216  0.014618965         3587 
  455000   0.53543043   -7.4235141     84.45048  0.015467121   0.01457073         3603 
  456000   0.53584585   -7.4230708    84.621827  0.015464515  0.014522755         3565 
  457000   0.53777054   -7.4401193    84.615734  0.015429565  0.014475057         3531 
  458000    0.5522827   -7.4289381    84.620011  0.015396654  0.014427481         3588 
  459000    0.5323656   -7.4199882    84.710629  0.015379562  0.014380191         3612 
  460000   0.53249166   -7.4137235    84.532797  0.015313913  0.014332903         3629 
  461000   0.53384274   -7.4066513    84.362476  0.015249905  0.014285949         3626 
  462000    0.5363152   -7.4568106    84.528695  0.015246879   0.01423906         3643 
  463000   0.51828905   -7.4502528    84.740551  0.015252079  0.014192383         3610 
  464000   0.53750028   -7.4239349    84.473317  0.015171214  0.014145881         3582 
  465000   0.52519896   -7.4372254    84.425785  0.015130069  0.014099559         3596 
  466000   0.53573877   -7.4393864    84.489892  0.015109065  0.014053394         3632 
  467000   0.52679522   -7.4330624    84.521076  0.015082276  0.014007454         3588 
  468000    0.5199404   -7.4406497    84.321482  0.015014509  0.013961679         3624 
  469000   0.52621013   -7.4486489    84.323555  0.014982863  0.013916053         3626 
  470000   0.51240399   -7.4414717    84.388444   0.01496249  0.013870564         3583 
  471000   0.52335353   -7.4561109    84.382542  0.014929678  0.013825283         3647 
  472000   0.51332793   -7.4555108    84.426694  0.014905843  0.013780205         3619 
  473000     0.522267   -7.4603241    84.382615  0.014866564  0.013735224         3630 
  474000   0.51349816   -7.4742226    84.337314  0.014827235   0.01369046         3643 
  475000   0.51563929   -7.4700082    84.420079   0.01481054  0.013645855         3606 
  476000   0.50675535   -7.4486119     84.22798  0.014745795  0.013601395         3638 
  477000   0.51806065   -7.4618444    84.255537  0.014719696  0.013557095         3639 
  478000   0.50088027   -7.4729219    84.235767  0.014685454  0.013512977         3620 
  479000   0.50169387   -7.4870539    84.281264  0.014662711  0.013468974         3642 
  480000   0.50578867   -7.4901474     84.23094  0.014623427  0.013425155         3635 
  481000    0.4940247    -7.480102    84.201188   0.01458787  0.013381494         3679 
  482000    0.5044478   -7.5023128    84.269959  0.014569495  0.013338023         3660 
  483000   0.49059218     -7.48729    84.286341  0.014542157  0.013294735         3692 
  484000   0.49282437   -7.5006523    84.373602  0.014527135  0.013251582         3686 
  485000   0.49229171   -7.5027145    84.247919  0.014475587  0.013208654         3666 
  486000   0.49495055   -7.4990003    84.231664  0.014443015  0.013165869         3657 
  487000   0.49050693   -7.5137231    84.286573  0.014422754  0.013123245         3645 
  488000   0.49081635   -7.5045775    84.346734  0.014403472   0.01308079         3676 
  489000   0.48283568   -7.5042929    84.203458  0.014349601  0.013038503         3633 
  490000    0.4838306    -7.515559    84.311865  0.014338753  0.012996393         3655 
  491000   0.48076248   -7.5186225    84.335554   0.01431357  0.012954495         3639 
  492000    0.4727364   -7.5175626    84.187612  0.014259419  0.012912742         3634 
  493000   0.48578454   -7.5148184    84.061696  0.014209212  0.012871165         3621 
  494000   0.48332632    -7.509191    84.263869  0.014214553  0.012829772         3675 
  495000    0.4668802    -7.514854    84.309822  0.014193573  0.012788549         3604 
  496000   0.47528851   -7.5199427    84.158041  0.014139456  0.012747478         3670 
  497000   0.47139022   -7.5112721    84.074533  0.014097004  0.012706523         3659 
  498000   0.47819467   -7.5197574    84.044167  0.014063616  0.012665826         3666 
  499000   0.47749457   -7.5311731    84.092331  0.014043476  0.012625182         3689 
  500000    0.4658674   -7.5285707    84.164277   0.01402738  0.012584784         3643 
  501000   0.46666375   -7.5293432    84.198584  0.014005087  0.012544521         3650 
  502000   0.45948171   -7.5261819    84.199175  0.013977287    0.0125044         3646 
  503000   0.46594565   -7.5461337    84.241038  0.013956434  0.012464477         3644 
  504000   0.46158028   -7.5456064    84.134429  0.013911116  0.012424701         3639 
  505000   0.45278892   -7.5431415    84.058566   0.01387105  0.012385106         3639 
  506000   0.46237385   -7.5452199    84.208804   0.01386838   0.01234563         3680 
  507000   0.46261697   -7.5607603    84.051369  0.013815149  0.012306335         3675 
  508000   0.46213525   -7.5467269    84.018984  0.013782642  0.012267196         3659 
  509000   0.45177697   -7.5558018     83.98758  0.013750422   0.01222819         3673 
  510000   0.44478243   -7.5486823    84.087346  0.013739762  0.012189358         3682 
  511000   0.45436402   -7.5355769    84.049915   0.01370677  0.012150715         3665 
  512000   0.44582263   -7.5565627    84.083435  0.013685455  0.012112162         3652 
Loop time of 1062.11 on 48 procs for 500000 steps with 4000 atoms

Performance: 81347.836 tau/day, 470.763 timesteps/s
99.4% CPU use with 48 MPI tasks x no OpenMP threads

MPI task timing breakdown:
Section |  min time  |  avg time  |  max time  |%varavg| %total
---------------------------------------------------------------
Pair    | 62.473     | 66.587     | 69.4       |  15.5 |  6.27
Neigh   | 6.6167     | 6.7474     | 6.8734     |   2.6 |  0.64
Comm    | 58.681     | 62.352     | 66.833     |  22.3 |  5.87
Output  | 0.99314    | 0.99363    | 1.0021     |   0.1 |  0.09
Modify  | 906.25     | 913.29     | 916.45     |   8.3 | 85.99
Other   |            | 12.14      |            |       |  1.14

Nlocal:        83.3333 ave          91 max          78 min
Histogram: 4 4 6 15 3 4 8 2 1 1
Nghost:        1726.10 ave        1741 max        1711 min
Histogram: 3 1 3 7 8 7 7 9 2 1
Neighs:        10348.8 ave       11307 max        9712 min
Histogram: 8 3 7 9 7 2 7 2 0 3
FullNghs:      20696.5 ave       22607 max       19337 min
Histogram: 4 4 7 9 8 6 6 0 3 1

Total # of neighbors = 993431
Ave neighs/atom = 248.35775
Neighbor list builds = 27020
Dangerous builds = 0

#clear
#
#next RN
#
#jump SELF
Total wall time: 0:17:45
