
units lj                  # Use reduced LJ style units
atom_style atomic         # Uncharged point particles
atom_modify map hash      # Needed for indexing of clusters etc
                          # Used to be able to find where atoms are in relation to each other.

lattice fcc 1.0 spacing 1 1 1
Lattice spacing in x,y,z = 1.5874011 1.5874011 1.5874011
region box block 0 10 0 10 0 10 units lattice
create_box 2 box
Created orthogonal box = (0.0000000 0.0000000 0.0000000) to (15.874011 15.874011 15.874011)
  3 by 4 by 4 MPI processor grid
create_atoms 1 box
Created 4000 atoms
  using lattice units in orthogonal box = (0.0000000 0.0000000 0.0000000) to (15.874011 15.874011 15.874011)
  create_atoms CPU = 0.002 seconds
set type 1 type/fraction 2 0.17 78393
Setting atom values ...
  712 settings made for type/fraction
mass 1 1.0
mass 2 1.0
pair_style lj/cut  3.5
pair_modify tail  yes
pair_coeff 1  1  1.0  1.0   # Intearaction between 1 and 1 set with epsilon = 1 and sigma = 1
pair_coeff 1  2  1.5  0.8
pair_coeff 2  2  0.5  0.88

write_data data.0
System init for write_data ...
Neighbor list info ...
  update every 1 steps, delay 10 steps, check yes
  max neighbors/atom: 2000, page size: 100000
  master list distance cutoff = 3.8
  ghost atom cutoff = 3.8
  binsize = 1.9, bins = 9 9 9
  1 neighbor lists, perpetual/occasional/extra = 1 0 0
  (1) pair lj/cut, perpetual
      attributes: half, newton on
      pair build: half/bin/atomonly/newton
      stencil: half/bin/3d
      bin: standard
WARNING: Not all mixed pair coeffs generated from mixing. Use write_data with 'pair ij' option to store all pair coeffs. (../write_data.cpp:312)


#############################
#   M E L T   S Y S T E M   #
#############################

velocity all create 2.4 9580093 mom yes dist gaussian # Assign velocities
                                                    # Temperature 2.4, random number seed, zero linear momentum
                                                                                # Gaussian distribution

timestep 0.002   # simulation timestep
thermo 1000       # output thermodynamic data every 1000 steps bf 100

# Define a fix  in this case with index 1 applied to all
# particles in the simulation. This fix is for simulations
# in the anisotropic NPT ensemble. Note that we use the MTK
# correction.
fix 1 all npt temp 2.4 2.4 0.1 iso 5.68 5.68 0.5 mtk yes tchain 5 pchain 5 # Use NPT ensemble
                                                                         # Set temperature and pressure and damping
                                                                         # Numbers of thermostats in chain and in barostat
run 10000          # run for 10000 steps
Per MPI rank memory allocation (min/avg/max) = 3.642 | 3.644 | 3.648 Mbytes
Step Temp E_pair E_mol TotEng Press Volume 
       0          2.4   -7.2317907            0   -3.6326907   -3.4668638         4000 
    1000    2.3775631    -4.770038            0   -1.2045849     5.846602     4554.376 
    2000    2.3562686   -4.7771296            0   -1.2436102     5.320971     4609.106 
    3000    2.3845028   -4.7290242            0   -1.1531642    5.6557439    4610.0881 
    4000     2.423234   -4.7747227            0   -1.1407805    5.9124717    4548.9721 
    5000    2.4106085      -4.7984            0   -1.1833912    5.7204723    4564.7126 
    6000    2.4256071   -4.7217619            0   -1.0842608    5.6356024    4612.6136 
    7000    2.4250177   -4.8360755            0   -1.1994584    5.4874317    4567.2308 
    8000     2.421562   -4.8564298            0   -1.2249949    5.4578956     4567.442 
    9000    2.4093946   -4.7402841            0   -1.1270957    5.6137614    4607.0158 
   10000    2.4221637   -4.7696122            0   -1.1372749    5.7518717    4571.4742 
Loop time of 2.32331 on 48 procs for 10000 steps with 4000 atoms

Performance: 743766.273 tau/day, 4304.203 timesteps/s
99.6% CPU use with 48 MPI tasks x no OpenMP threads

MPI task timing breakdown:
Section |  min time  |  avg time  |  max time  |%varavg| %total
---------------------------------------------------------------
Pair    | 0.9306     | 1.012      | 1.0855     |   3.5 | 43.56
Neigh   | 0.19149    | 0.20216    | 0.21226    |   1.0 |  8.70
Comm    | 0.74196    | 0.82083    | 0.89534    |   4.0 | 35.33
Output  | 0.00024183 | 0.00024799 | 0.00031158 |   0.0 |  0.01
Modify  | 0.24431    | 0.2737     | 0.30003    |   2.5 | 11.78
Other   |            | 0.01442    |            |       |  0.62

Nlocal:        83.3333 ave          93 max          74 min
Histogram: 2 1 6 6 10 7 7 7 1 1
Nghost:        1501.23 ave        1526 max        1468 min
Histogram: 3 3 3 4 6 5 5 7 8 4
Neighs:        8341.77 ave        9348 max        7350 min
Histogram: 3 3 7 6 7 5 7 3 3 4

Total # of neighbors = 400405
Ave neighs/atom = 100.10125
Neighbor list builds = 906
Dangerous builds = 214

# Equilibrate just above the melting temperature to avoid step fn in T

fix 1 all npt temp 1.25 1.25 0.1 iso 5.68 5.68 0.5 mtk yes tchain 5 pchain 5
run 2000
Per MPI rank memory allocation (min/avg/max) = 3.642 | 3.644 | 3.648 Mbytes
Step Temp E_pair E_mol TotEng Press Volume 
   10000    2.4221637   -4.7696122            0   -1.1372749    5.7518717    4571.4742 
   11000    1.2373848   -6.4365716            0   -4.5809584    5.5725692    3754.1538 
   12000    1.2403358   -6.5100503            0   -4.6500116    5.7647603    3717.2518 
Loop time of 0.480712 on 48 procs for 2000 steps with 4000 atoms

Performance: 718933.552 tau/day, 4160.495 timesteps/s
99.7% CPU use with 48 MPI tasks x no OpenMP threads

MPI task timing breakdown:
Section |  min time  |  avg time  |  max time  |%varavg| %total
---------------------------------------------------------------
Pair    | 0.20993    | 0.23591    | 0.25722    |   2.4 | 49.07
Neigh   | 0.030579   | 0.033527   | 0.035937   |   0.6 |  6.97
Comm    | 0.13552    | 0.16176    | 0.19246    |   3.1 | 33.65
Output  | 4.9083e-05 | 5.0026e-05 | 6.332e-05  |   0.0 |  0.01
Modify  | 0.041664   | 0.045182   | 0.048696   |   1.0 |  9.40
Other   |            | 0.004288   |            |       |  0.89

Nlocal:        83.3333 ave          93 max          74 min
Histogram: 3 2 3 8 10 8 8 1 2 3
Nghost:        1720.10 ave        1748 max        1686 min
Histogram: 1 3 4 8 2 9 7 5 5 4
Neighs:        10265.2 ave       11818 max        8975 min
Histogram: 2 3 9 5 10 7 7 1 2 2

Total # of neighbors = 492731
Ave neighs/atom = 123.18275
Neighbor list builds = 142
Dangerous builds = 10

#############################
# L I N E A R  Q U E N C H  #
#############################

# Define solid atoms. This closely follows ten Wolde  Ruiz-Montero and Frenkel  Faraday Discuss  1996  104  93-110
# Compute components of the per-atom q6 vector
compute q6 all orientorder/atom degrees 1 6 components 6 nnn NULL cutoff 1.3 # compute the Q6 parameter.
                                                                             # Use all neighbours within 1.3 unit cell.

# get number of connections
compute coord_number all coord/atom orientorder q6 0.5

# An atom is solid if it has 8 or more connections (of a possible 14)
variable is_solid atom c_coord_number>=8
group solid dynamic all var is_solid    # Must be dynamic to update
dynamic group solid defined

# do clustering
compute cluster solid cluster/atom 1.3 # Create a cluster where all atoms within are solid and max 1.3 units from another member

# define chunks one chunk per cluster
compute clus_chunks solid chunk/atom c_cluster nchunk every compress yes  # Says which atoms are in which chunk

# count the size of each chunk
compute size_chunks solid property/chunk clus_chunks count


# Find the maximum entry in the vector of chunk sizes
variable max_n equal max(c_size_chunks)


# Thermo style which includes this variable
# thermo_style custom step temp pe vol v_max_n

thermo ${N}  # Print the thermo information every 100 steps
thermo 1000  

# Reset the npt fix at a lower temperature (below freezing)
fix 1  all npt temp  ${temp} ${temp}  0.1  iso  5.68  5.68  0.5  mtk yes tchain  5  pchain  5
fix 1  all npt temp  0.45 ${temp}  0.1  iso  5.68  5.68  0.5  mtk yes tchain  5  pchain  5
fix 1  all npt temp  0.45 0.45  0.1  iso  5.68  5.68  0.5  mtk yes tchain  5  pchain  5

dump dmp2 all dcd ${N} traj.dcd
dump dmp2 all dcd 1000 traj.dcd


compute msd all msd com yes
variable twopoint equal c_msd[4]/6/(step*dt+1.0e-6)
fix 9 all vector 10 c_msd[4]
variable fit equal slope(f_9)/6/(10*dt)
thermo_style custom step temp pe c_msd[4] v_twopoint v_fit v_max_n

fix 1 all npt temp 1.25 ${temp} 0.1 iso 5.68 5.68 0.5 mtk yes tchain 5 pchain 5
fix 1 all npt temp 1.25 0.45 0.1 iso 5.68 5.68 0.5 mtk yes tchain 5 pchain 5
run 2000000 # 5000000  # Run for this many steps
Neighbor list info ...
  update every 1 steps, delay 10 steps, check yes
  max neighbors/atom: 2000, page size: 100000
  master list distance cutoff = 3.8
  ghost atom cutoff = 3.8
  binsize = 1.9, bins = 9 9 9
  4 neighbor lists, perpetual/occasional/extra = 1 3 0
  (1) pair lj/cut, perpetual
      attributes: half, newton on
      pair build: half/bin/atomonly/newton
      stencil: half/bin/3d
      bin: standard
  (2) compute orientorder/atom, occasional
      attributes: full, newton on
      pair build: full/bin/atomonly
      stencil: full/bin/3d
      bin: standard
  (3) compute coord/atom, occasional
      attributes: full, newton on
      pair build: full/bin/atomonly
      stencil: full/bin/3d
      bin: standard
  (4) compute cluster/atom, occasional
      attributes: full, newton on
      pair build: full/bin/atomonly
      stencil: full/bin/3d
      bin: standard
Per MPI rank memory allocation (min/avg/max) = 9.766 | 9.774 | 9.781 Mbytes
Step Temp PotEng c_msd[4] v_twopoint v_fit v_max_n 
   12000    1.2403358   -6.5100503            0            0 8.3333333e+20            1 
   13000    1.2414355   -6.4459284   0.56468205 0.0036197566  0.045917448            3 
   14000    1.2399202   -6.4793661     1.061674 0.0063194881  0.044003059            2 
   15000    1.2323535   -6.4496539    1.5994294 0.0088857186  0.043252259            2 
   16000    1.2407168   -6.4933103    2.1472106  0.011183388  0.044119283            2 
   17000    1.2547869   -6.4734347    2.6800926  0.013137709  0.044568863            1 
   18000    1.2402673    -6.460988    3.1970988  0.014801383  0.044206141            1 
   19000    1.2292275   -6.4775923    3.6585458  0.016046253  0.043926172            1 
   20000    1.2524076   -6.4474291    4.2100111  0.017541712  0.043666447            2 
   21000    1.2505462   -6.4896551    4.6787568  0.018566495  0.043384024            2 
   22000    1.2402206   -6.4890788    5.1887148  0.019654222  0.043228978            1 
   23000    1.2520965   -6.4584281     5.658793  0.020502873  0.042929877            2 
   24000    1.2312972   -6.4471346    6.2392227  0.021663967   0.04281403            2 
   25000    1.2267969   -6.4706931    6.8179751  0.022726583  0.042997392            2 
   26000    1.2533564   -6.5085525     7.365783  0.023608278  0.043161326            2 
   27000    1.2627911    -6.454181    7.8745454  0.024304152  0.043329904            3 
   28000    1.2416818   -6.4669755    8.3386003  0.024817262  0.043349363            1 
   29000     1.230477   -6.4319632    8.7619156  0.025177918  0.043236765            1 
   30000    1.2349594   -6.4502569    9.2604532  0.025723481  0.043055082            2 
   31000    1.2549438   -6.4789074    9.7815129  0.026294389  0.042911191            2 
   32000     1.248488   -6.4459545    10.204705  0.026574753  0.042752074            3 
   33000    1.2700662   -6.5350132    10.728458  0.027092066  0.042624908            1 
   34000    1.2761842   -6.4405886    11.213878  0.027484994  0.042517764            3 
   35000    1.2460299   -6.5074917    11.768377  0.028019944  0.042467807            1 
   36000    1.2627569   -6.4835312    12.356994  0.028604153  0.042475814            3 
   37000    1.2164797   -6.5196489    12.809447  0.028850105  0.042481798            4 
   38000    1.2632078   -6.4902354     13.40912  0.029405964  0.042520561            2 
   39000    1.2344779   -6.4684524    13.930886  0.029766849   0.04257974            3 
   40000    1.2447921   -6.4287531    14.405856    0.0300122  0.042608252            5 
   41000    1.2420549    -6.457404    14.869557  0.030222676  0.042619825            3 
   42000    1.2231278    -6.512352     15.38601  0.030527797  0.042605949            3 
   43000    1.2401273   -6.4551127    15.828729  0.030675831  0.042573791            3 
   44000    1.2454018   -6.4768604    16.304656  0.030880029  0.042529726            1 
   45000    1.1952356   -6.4989773    17.029755  0.031536582  0.042534624            1 
   46000    1.2076189    -6.482994     17.54299  0.031780779  0.042582449            1 
   47000    1.2351703    -6.464947    17.945987  0.031819125  0.042594023            2 
   48000    1.2631138    -6.501208    18.487422  0.032096218    0.0425834            2 
   49000    1.2154216   -6.4568623    18.972528  0.032266204   0.04257258            2 
   50000    1.2430724    -6.494712    19.348593  0.032247655  0.042547195            3 
   51000    1.2400181   -6.4803458    19.726928  0.032233543  0.042488385            1 
   52000    1.2357246   -6.4996627    20.141956  0.032278775  0.042394307            1 
   53000    1.2444375   -6.5135323    20.599934  0.032389833  0.042300418            1 
   54000    1.2151523   -6.4850878    21.057775  0.032496566  0.042192857            2 
   55000    1.2088184   -6.5401709    21.403373  0.032429352   0.04206116            2 
   56000    1.2355903   -6.4915047    22.002063  0.032741164    0.0419471            2 
   57000     1.232526   -6.4635696    22.563035  0.032986893  0.041865943            1 
   58000    1.2333046   -6.4522034    22.898013  0.032899444  0.041797096            3 
   59000     1.245208    -6.515355    23.392429  0.033040154  0.041722446            3 
   60000    1.2070459   -6.5133179    23.748753  0.032984379  0.041631525            2 
   61000     1.223965   -6.5151976    24.023554  0.032819062  0.041516678            1 
   62000    1.2165951    -6.509766    24.546334  0.032992384  0.041395535            1 
   63000    1.2356277    -6.457433    25.019366  0.033094399  0.041281744            1 
   64000    1.2211801   -6.4634247    25.569115  0.033293118  0.041187605            2 
   65000    1.2535925     -6.52517    26.003923  0.033338362  0.041098044            2 
   66000    1.2067255   -6.4802484    26.386721  0.033316567  0.041007474            1 
   67000    1.2199381   -6.4870534    26.915917  0.033477508  0.040922105            2 
   68000    1.2544525   -6.4865778    27.446123  0.033634954  0.040842376            4 
   69000    1.2397473    -6.491505    27.917388  0.033716652   0.04076863            2 
   70000    1.2501609   -6.4824455     28.29324  0.033682428   0.04070461            6 
   71000    1.2027209   -6.5315725    28.762855  0.033759219  0.040644748            5 
   72000     1.243374   -6.5109269    29.263765  0.033870098  0.040588124            1 
   73000    1.2332907   -6.5085164    29.812974  0.034033075  0.040541213            5 
   74000    1.2181494   -6.4804739     30.48699  0.034332196  0.040514074            1 
   75000    1.2090743   -6.4977814    31.099912  0.034555458  0.040495689            2 
   76000    1.2204388    -6.488253    31.465072  0.034501175  0.040472726            5 
   77000     1.232455   -6.4717618    31.983046  0.034613685  0.040457822            2 
   78000    1.2078985   -6.5172273    32.325814  0.034536126  0.040438144            2 
   79000     1.233284   -6.5001176    33.000181  0.034810317  0.040414609            1 
   80000    1.2542385   -6.4941696    33.498801  0.034894584  0.040408439            1 
   81000    1.2394096   -6.5007246    34.028098  0.035008331   0.04040475            2 
   82000    1.2544878   -6.5373314    34.448907  0.035009051  0.040410584            2 
   83000    1.2487741   -6.4841664     35.00268  0.035143253  0.040404376            2 
   84000    1.2367097   -6.5134038    35.437693  0.035156441  0.040403461            1 
   85000    1.2504905   -6.4691819    36.206135  0.035496211  0.040410462            2 
   86000    1.2101433   -6.5285256    36.537055  0.035404123  0.040423961            2 
   87000    1.2136881   -6.5440051    37.154721  0.035588813  0.040446725            3 
   88000    1.2191423   -6.5007143    37.795888  0.035791561  0.040474645            1 
   89000    1.2219691   -6.5499164    38.056115  0.035633066  0.040502825            2 
   90000    1.2132631    -6.545652    38.759845  0.035888745  0.040529318            3 
   91000    1.1868915   -6.4951565    39.204646  0.035901691  0.040558217            1 
   92000    1.2204698   -6.5116427    39.586145  0.035857015   0.04057809            3 
   93000    1.2162935   -6.4937065    39.964738  0.035810697  0.040587159            1 
   94000    1.2048674   -6.5017013    40.483042  0.035889221  0.040590765            2 
   95000    1.2130522   -6.5570521    40.966361  0.035935404  0.040598754            1 
   96000    1.1919266   -6.5046641    41.629965  0.036137122  0.040610008            1 
   97000    1.2030863    -6.470448    42.191974    0.0362474  0.040628785            1 
   98000     1.186574    -6.538684    42.674858  0.036288144  0.040648184            5 
   99000    1.2348974    -6.530733    43.171146  0.036339348  0.040673675            1 
  100000    1.2352726   -6.5612959    43.653572  0.036377977  0.040696562            2 
  101000    1.2340037   -6.4661526    44.139224  0.036418502  0.040712064            3 
  102000    1.2059041   -6.5002341    44.714248  0.036531248  0.040727879            3 
  103000    1.2439442   -6.5375271     45.15594  0.036533932  0.040745923            4 
  104000    1.2121124   -6.5498301    45.515542  0.036470787  0.040759834            3 
  105000    1.2178979   -6.5153905    46.115239  0.036599396  0.040773305            4 
  106000    1.2151655   -6.5201911    46.549294  0.036595357  0.040784463            2 
  107000    1.2363552   -6.5286357    47.074202  0.036662151  0.040788006            3 
  108000    1.1957282   -6.5601534    47.286514  0.036486508  0.040790274            1 
  109000    1.2196823   -6.5385084    48.070454  0.036751111  0.040796124            2 
  110000    1.1954281   -6.4979782    48.759148  0.036938749  0.040813193            2 
  111000    1.2153832   -6.5019921    49.150875  0.036900056    0.0408261            3 
  112000    1.2356728   -6.5277254    49.755856  0.037020726  0.040836126            2 
  113000    1.2244382   -6.5643281    49.900171  0.036799536  0.040849002            3 
  114000    1.1940868   -6.5178936    50.517141  0.036927735  0.040858511            2 
  115000    1.1767184   -6.5169537    50.794578  0.036807665  0.040860703            2 
  116000    1.2018532   -6.5426753    51.406414  0.036929895  0.040858837            3 
  117000    1.2036246    -6.526711    51.618013  0.036764966   0.04084861            2 
  118000    1.2369229   -6.5192972    51.932306  0.036675357  0.040835617            2 
  119000    1.2047498   -6.5144795    52.555467  0.036803548  0.040819057           13 
  120000    1.2020649   -6.5549279    53.076348  0.036858575  0.040806809            1 
  121000    1.2198417   -6.4897215    53.628485  0.036934218   0.04079446            4 
  122000    1.1878641   -6.5334706    53.921129  0.036831372  0.040783534            1 
  123000     1.224636    -6.542801    54.523741  0.036940204  0.040769486            2 
  124000    1.1936266   -6.5490389    54.692576  0.036755763  0.040755355            2 
  125000    1.2063914   -6.5819845    55.443352  0.036962235  0.040739521            1 
  126000    1.1990314   -6.5471763    55.919037   0.03698349  0.040728503            3 
  127000    1.1969957   -6.5402826    56.564453  0.037115782  0.040723469            4 
  128000    1.2212494   -6.5221446    57.056767  0.037146332  0.040719546            1 
  129000    1.2196141   -6.5550225    57.569344  0.037189499  0.040719268            1 
  130000    1.2028593   -6.5678947    58.190386   0.03730153  0.040719033            2 
  131000     1.214563   -6.5449705    58.558096  0.037250697   0.04071833            2 
  132000    1.1828803   -6.5617046    59.004695  0.037250439  0.040721987            2 
  133000    1.1999268   -6.5403328    59.922018  0.037545124  0.040728951            2 
  134000    1.2087112   -6.5470539    60.413392  0.037570518  0.040735247            2 
  135000    1.1975618   -6.5211773    60.689192  0.037462464  0.040741991            1 
  136000    1.2128084   -6.4857114    61.271627  0.037543889  0.040748536            1 
  137000    1.1794532   -6.5133923    61.495174  0.037405823  0.040743285            2 
  138000    1.2394294   -6.5351103    61.732596  0.037278138  0.040733549            3 
  139000    1.1703261   -6.5644109    61.886896  0.037102456  0.040722255            3 
  140000    1.1774312    -6.525849    62.533023  0.037222037  0.040707199            3 
  141000    1.1847539   -6.5198352    62.930064  0.037192709  0.040691959            2 
  142000    1.2236324   -6.5270498    63.695593  0.037380043    0.0406791            1 
  143000    1.2169983   -6.5234607     64.09465  0.037351195  0.040668065            1 
  144000    1.1748771    -6.605984     64.23006  0.037170173  0.040652945            1 
  145000    1.1953113   -6.5892607    64.623713  0.037140065  0.040632584            2 
  146000    1.1974097   -6.5714769    64.972436  0.037084723   0.04060992            3 
  147000    1.2215624   -6.5631014    65.420719  0.037086575  0.040585735            2 
  148000    1.1978087   -6.5489145    65.717215  0.037002936  0.040560852            2 
  149000    1.1967908   -6.5403908    66.349336  0.037108129  0.040540456            1 
  150000    1.1926828    -6.550445    66.753468   0.03708526  0.040518404            6 
  151000    1.1922099   -6.5894919     67.21293  0.037093228   0.04049979            2 
  152000    1.2021307   -6.5893718    67.549366  0.037033643  0.040474169            2 
  153000    1.1713238   -6.5789968    67.914339  0.036990381  0.040447467            2 
  154000    1.1808927   -6.5352016    68.599539  0.037120962  0.040424706            3 
  155000    1.2079591   -6.5547548      69.1541  0.037179624  0.040407986            2 
  156000     1.183287   -6.5658996    69.784979  0.037278301  0.040394843            2 
  157000    1.1797543   -6.5876635    70.428732  0.037382554  0.040382045            2 
  158000    1.1923991   -6.5539062     71.00985  0.037452452  0.040370592            2 
  159000    1.2088764   -6.5749934    71.546581  0.037498208   0.04036152            8 
  160000    1.1919794   -6.5653769    71.702911  0.037345266  0.040351744            2 
  161000    1.1926116   -6.5750116    71.899902   0.03721527  0.040341489            2 
  162000    1.1950975   -6.5859038    72.619828  0.037355879  0.040327524            1 
  163000    1.1851357   -6.5656556     73.18326  0.037414754  0.040312747            1 
  164000    1.1815256   -6.5867266    73.440652  0.037317404  0.040300843            2 
  165000    1.2080303   -6.5761341    74.265559  0.037507858  0.040288897            2 
  166000    1.1882595   -6.5744464    74.836978  0.037568764  0.040275931            1 
  167000    1.1774662   -6.5402108    75.082809  0.037466472   0.04026274            1 
  168000    1.2067097   -6.5433579    75.621084  0.037510458  0.040252236            2 
  169000    1.1755912   -6.5994984    76.020127   0.03748527  0.040245275            1 
  170000    1.1841009   -6.5688741    76.694328  0.037595259  0.040239184            3 
  171000    1.1956387    -6.557136    77.443094  0.037740299  0.040232367            1 
  172000    1.1742082   -6.5429316    77.440478  0.037519611  0.040224224            4 
  173000    1.2112027    -6.591259    77.417539  0.037291685    0.0402111            2 
  174000    1.1884791   -6.6070129    78.106925  0.037407531  0.040197048            3 
  175000    1.1695875   -6.5771543    78.604324   0.03743063  0.040180654            3 
  176000    1.1958861   -6.5988669    78.566458  0.037200028  0.040159633            6 
  177000    1.1798946    -6.576381    79.324619  0.037346807  0.040137215            1 
  178000    1.1913523   -6.5702997    79.787238  0.037353576  0.040116402            2 
  179000    1.1586151   -6.5746009     79.96316  0.037226797  0.040095127            8 
  180000    1.1773705   -6.6064431    80.301447  0.037176596  0.040071585            1 
  181000    1.1988172   -6.5755632    80.697488   0.03715354  0.040049358            1 
  182000    1.1592505   -6.6013603    81.434529  0.037286872  0.040027294            2 
  183000    1.1764431   -6.6162383    81.650706   0.03718156   0.04000366            5 
  184000    1.2068982   -6.5949651    82.079898  0.037173867  0.039983072            5 
  185000    1.2150565   -6.6057086     82.31237  0.037077644   0.03995824            3 
  186000    1.1904232    -6.604365    82.640691  0.037025399  0.039932455            3 
  187000    1.1714206   -6.5496283    83.015975  0.036994641  0.039905328            3 
  188000    1.1727577   -6.5339049     83.62161  0.037066316  0.039879942            2 
  189000    1.1722473   -6.5873442     84.05621  0.037061821  0.039853257            2 
  190000    1.1679442   -6.5933059    84.427002  0.037029387  0.039830021            3 
  191000    1.1811099   -6.5552813    85.473025  0.037291896  0.039808802            2 
  192000    1.1480575   -6.6021802    85.617461  0.037160356  0.039785955            3 
  193000    1.1840857   -6.6297852    86.133469  0.037190617  0.039765567            2 
  194000    1.1836192   -6.5683642    86.504558  0.037158315  0.039745607            3 
  195000    1.1816341   -6.6231906    87.031372  0.037192894   0.03972567            3 
  196000    1.1596752   -6.6210999    87.344925  0.037136448   0.03970477            1 
  197000    1.1798901   -6.5852817    87.629994  0.037068525   0.03968399            4 
  198000    1.1878829     -6.52997    88.223119  0.037130942  0.039661553            1 
  199000    1.1809542   -6.5898011    88.327861  0.036988217  0.039637419           13 
  200000    1.1800204   -6.5736993      88.5988  0.036916167  0.039611663            2 
  201000    1.1547267   -6.5611717    89.184322  0.036975258  0.039585143            2 
  202000    1.1929857   -6.5574977    89.369582   0.03686864  0.039557553            3 
  203000    1.1616264   -6.6246546    89.704088  0.036824338  0.039528835            1 
  204000    1.1831966   -6.6171112    90.356782   0.03691045  0.039500319            4 
  205000    1.1803528   -6.6482547    90.302726  0.036708425   0.03947261            2 
  206000    1.1935403   -6.6260438      90.9874  0.036807201  0.039444958            3 
  207000    1.1852025   -6.6108782    91.232077  0.036727889  0.039416558            3 
  208000    1.1674114   -6.5929607    91.887579  0.036813934  0.039389279            1 
  209000    1.1614348   -6.6083313    92.210058  0.036766371  0.039360443            1 
  210000    1.1737001   -6.6131719    92.879426  0.036856915  0.039331198            3 
  211000    1.2006767   -6.6099363    93.264478  0.036834312  0.039303614            3 
  212000    1.1783618   -6.5673896    93.680794  0.036824211  0.039276949            1 
  213000    1.1661674   -6.5923532    93.969011  0.036764089  0.039251576            4 
  214000    1.1749723   -6.6000314    94.706653  0.036879538  0.039226539            3 
  215000    1.1585171   -6.6369295    95.227286  0.036909801  0.039203105            2 
  216000    1.1859036   -6.5894158    96.136189  0.037089579  0.039181178            3 
  217000    1.1758927   -6.6455064     96.04196  0.036882473  0.039158562            2 
  218000    1.1580811   -6.6258929     96.72517  0.036974453   0.03913705            2 
  219000    1.1332814   -6.6270736    96.956854   0.03689378  0.039119001            5 
  220000    1.1750099   -6.6150501    97.442319  0.036909969  0.039100936            2 
  221000    1.1753094   -6.6155324     98.23844  0.037043152   0.03908474            2 
  222000    1.1552744   -6.6056894    98.723282  0.037058289  0.039071011            2 
  223000    1.1574847   -6.6406164    99.498902  0.037181951  0.039057288            2 
  224000    1.1857814    -6.603882    99.863664  0.037151661  0.039044829            4 
  225000     1.149089   -6.6366143    100.19388  0.037108844   0.03903304            5 
  226000     1.158273   -6.6326434    100.55115  0.037076384  0.039019367            2 
  227000    1.1591712   -6.5933383    101.46442   0.03724832  0.039005288            5 
  228000     1.183028   -6.6166556    101.19969  0.036988191  0.038991299            2 
  229000    1.1550822   -6.6573142    101.54383  0.036951905  0.038975311            2 
  230000    1.1546094   -6.6373398    102.13067  0.037003864  0.038957966            2 
  231000    1.1674862   -6.5894029    102.42419  0.036949562  0.038940091            3 
  232000    1.1596148   -6.6606834    102.37336  0.036772042  0.038921637            3 
  233000    1.1629358   -6.6767197    103.34532  0.036961845  0.038903227            2 
  234000    1.1882007   -6.5628346    103.93127  0.037012559  0.038885188            1 
  235000    1.1577304   -6.6370036    103.82685  0.036818031  0.038866668            3 
  236000    1.1688868   -6.6084371    103.60971  0.036585348  0.038846688            3 
  237000    1.1508118   -6.6071567    104.31247  0.036678083  0.038824328            3 
  238000    1.1456301   -6.6539448     104.7263  0.036668874  0.038801494            2 
  239000    1.1778624   -6.6243726    105.20082  0.036680901  0.038777163            2 
  240000    1.1643061   -6.6268316     105.5474  0.036648401  0.038753325            2 
  241000    1.1406347   -6.6205703    106.12612  0.036696446  0.038730189            1 
  242000    1.1527454   -6.6290431    106.40503  0.036640852  0.038708068            2 
  243000    1.1313287    -6.622338    106.67693   0.03658331  0.038685341            1 
  244000    1.1631311   -6.6325443      107.265  0.036634222  0.038663095            4 
  245000    1.1375594    -6.635517    107.44922  0.036547354  0.038641312            2 
  246000    1.1374808   -6.6464688    107.95404  0.036569797  0.038618622            1 
  247000    1.1662364   -6.6594917    108.10388  0.036472294  0.038595655            4 
  248000    1.1575442   -6.6852298    108.29312  0.036388819  0.038570943            2 
  249000    1.1555335   -6.6308852    109.00443  0.036480735  0.038544958            2 
  250000    1.1726125   -6.6301223    109.54086   0.03651362  0.038521869            2 
  251000    1.1617321   -6.6468477    109.64856  0.036403906  0.038501238            2 
  252000    1.1436718   -6.6646371    110.77162  0.036630827  0.038480788            2 
  253000    1.1615579   -6.6943867    111.03148  0.036571634  0.038461456            2 
  254000    1.1513637   -6.6552919    111.65941  0.036633664  0.038441862            2 
  255000    1.1362615   -6.6662118    112.02224  0.036608576  0.038423765            2 
  256000    1.1538235   -6.6370011    112.67424  0.036677811  0.038406068            3 
  257000    1.1717802   -6.6389306    112.78664  0.036571543  0.038388705            3 
  258000    1.1437646   -6.6192537    113.68891  0.036721225  0.038370562            3 
  259000    1.1489126   -6.6399185    113.39585  0.036485152  0.038352034            3 
  260000    1.1696829   -6.6645119    114.12108  0.036577269  0.038333877            2 
  261000    1.1455386   -6.6304494    114.86768  0.036675506  0.038317292            2 
  262000    1.1680057   -6.6449142    114.87237  0.036537013  0.038299334            3 
  263000    1.1616619   -6.6290367    115.45526  0.036582781  0.038282343            2 
  264000    1.1414433   -6.6771334    115.78036  0.036546832  0.038265098            7 
  265000    1.1523999   -6.6603956    116.18442  0.036535981  0.038246366            4 
  266000    1.1494976   -6.6830275    116.23782  0.036415358  0.038227002            1 
  267000    1.1434035   -6.6345992    116.48589  0.036356396  0.038206294            2 
  268000    1.1470395   -6.6486514    116.97938  0.036374184  0.038183747            1 
  269000    1.1452726   -6.6575841     117.2669  0.036328037  0.038162073            4 
  270000    1.1603608   -6.6274111    117.29239  0.036201354  0.038139192            2 
  271000    1.1316587   -6.6699993    118.07864  0.036309545  0.038116821            1 
  272000    1.1366285   -6.6407124    118.74434  0.036380008  0.038096153            2 
  273000    1.1274769   -6.6253458    119.12507  0.036362964  0.038077062            2 
  274000    1.1526038    -6.641057    119.33079  0.036292819  0.038057469            3 
  275000    1.1591452   -6.6497476    119.92374  0.036340528  0.038036466            1 
  276000    1.1504075   -6.6451801    119.96469  0.036221223  0.038014776            4 
  277000    1.1624964   -6.6396311    120.17899  0.036154932  0.037992286            3 
  278000    1.1766941   -6.6698179    120.34995  0.036076124  0.037971132            2 
  279000    1.1491423   -6.6464758    120.98949  0.036137841  0.037949744            3 
  280000    1.1551279   -6.6676539    121.29099  0.036098508  0.037927722            2 
  281000    1.1485876    -6.644065    121.93632  0.036161425  0.037907006            2 
  282000    1.1390306   -6.6761448    122.72643  0.036266675  0.037887023            2 
  283000    1.1855846   -6.6745561    123.31702  0.036312431  0.037868085            1 
  284000     1.143558   -6.6851059     123.0416  0.036103756  0.037847493            3 
  285000    1.1426436   -6.6735468    123.19246  0.036021186  0.037825699            2 
  286000    1.1302202    -6.675322    123.78038  0.036066545  0.037803391            2 
  287000    1.1526583   -6.6755101    124.21455  0.036066942  0.037780288            1 
  288000    1.1377981    -6.668297    124.27317  0.035958671  0.037759278            2 
  289000    1.1355216   -6.6762817    124.82673  0.035993868  0.037737984            5 
  290000    1.1654404   -6.6854441    125.16408  0.035966689  0.037714877            1 
  291000    1.1439949    -6.650411     125.8396  0.036036542  0.037692971            2 
  292000    1.1504877   -6.6678388    126.48252  0.036096609  0.037671958            3 
  293000    1.1602148   -6.6803758    126.81922  0.036069175  0.037650192            8 
  294000    1.1280834   -6.6984253    126.63281  0.035893653  0.037630478            2 
  295000    1.1518719   -6.6985207    127.37408  0.035981378  0.037609817            3 
  296000    1.1203938   -6.6641938    128.21645  0.036096972  0.037590322            2 
  297000    1.1459682   -6.7059856     128.4135  0.036030724  0.037571831            2 
  298000    1.1053523   -6.7231949    128.70473  0.035991254  0.037552169            3 
  299000    1.1409884   -6.6537661    129.21879  0.036014156  0.037530907            2 
  300000    1.1602618   -6.6861554    128.93343  0.035814843  0.037509691            1 
  301000     1.145793   -6.6988789    129.58251  0.035875556  0.037489167            2 
  302000    1.1336249   -6.7047332    129.87199  0.035836643  0.037468292            3 
  303000    1.1319807   -6.6968422    130.42504  0.035870473  0.037447456            3 
  304000    1.1185424   -6.6733109    130.24704  0.035703685  0.037427388            4 
  305000    1.1353715   -6.6659282     131.5705  0.035948225  0.037406788            3 
  306000    1.1060299   -6.6842019    131.62308  0.035845065  0.037385497            2 
  307000    1.0969667   -6.6817111    131.75292  0.035763552  0.037362974            3 
  308000    1.1104255   -6.6747403    132.56802  0.035867971   0.03734149            2 
  309000    1.1273074   -6.6833585    132.27852   0.03567382  0.037320009            3 
  310000    1.1413879   -6.6719567    133.42978  0.035868222  0.037299586            1 
  311000    1.1194999   -6.7056047    132.78831  0.035581005  0.037278707            5 
  312000    1.1638264   -6.7190599    133.27138  0.035595989  0.037256988            1 
  313000    1.1170306   -6.6833412    134.18503  0.035725514  0.037236506            2 
  314000    1.1172101   -6.6325218    134.61891  0.035726888  0.037215985            4 
  315000    1.1480115   -6.6842275    134.86598   0.03567883  0.037194238            2 
  316000    1.1262191   -6.7028396     134.6154  0.035499843  0.037171625            2 
  317000    1.1435193   -6.7260547    135.09966  0.035515158  0.037148362            3 
  318000    1.1204906   -6.6994945    135.59862   0.03553423   0.03712565            5 
  319000    1.1424308   -6.7030134    135.61041  0.035425916  0.037102611            4 
  320000    1.1437592   -6.7185384    136.79156  0.035622803  0.037080182            2 
  321000    1.1394332   -6.6966143    136.76802  0.035505716  0.037058781            4 
  322000    1.1323508   -6.6920049    137.56902  0.035602748  0.037037465            1 
  323000    1.1383806   -6.6968687    138.20461  0.035656504  0.037016512            8 
  324000      1.11922   -6.6882069    138.26194  0.035561199  0.036995493            2 
  325000    1.1449305   -6.7122536    138.41759   0.03549169  0.036975123            3 
  326000    1.1211691   -6.6744903    138.91302  0.035509464  0.036953166            2 
  327000    1.1259579   -6.6841399    138.41942   0.03527508  0.036930125            2 
  328000    1.1274938   -6.6967136     138.9752   0.03530874  0.036906432            2 
  329000    1.1232897   -6.7249172    139.24285  0.035269213   0.03688126            3 
  330000    1.1109547   -6.7206096    139.98607  0.035350018  0.036856685            1 
  331000    1.1076618    -6.692487    140.35788  0.035336828  0.036833805            4 
  332000    1.1210191   -6.6879736    140.91031  0.035369054  0.036811489            1 
  333000    1.1043927   -6.6959671    140.84986  0.035247712  0.036788813            2 
  334000    1.1204245   -6.6872598    141.25085  0.035242229  0.036765736            2 
  335000    1.1503435   -6.7157775    141.52676  0.035205661  0.036741979            4 
  336000    1.1152169   -6.7481087    141.81166  0.035171543  0.036717934            3 
  337000    1.1279598   -6.7000691    142.63285   0.03527024  0.036694311            2 
  338000    1.1186514   -6.7116748    143.02913  0.035263591  0.036672989            2 
  339000    1.1180022   -6.7251547    143.57688  0.035294218  0.036651765            2 
  340000    1.1287144   -6.7289915    144.02876  0.035301166  0.036631328            1 
  341000    1.1370031   -6.6963474    144.47577  0.035306885  0.036610341            3 
  342000    1.1419302   -6.7336806    144.71944  0.035263023  0.036589965            3 
  343000    1.1061786   -6.7257605    145.27166  0.035294379  0.036570166            2 
  344000    1.0987409   -6.6814748    145.61907  0.035275938  0.036551056            3 
  345000    1.0941872   -6.7111052    146.31971  0.035342924   0.03653251            1 
  346000    1.1268435   -6.7249911    146.83138  0.035364013  0.036514739            2 
  347000    1.1157544   -6.7128139    147.48111  0.035418134  0.036497859            1 
  348000    1.0979075   -6.6829666    147.55416  0.035333852  0.036480566            2 
  349000    1.1067054   -6.7075022    148.37304  0.035428137  0.036464007            3 
  350000    1.1098648   -6.7111151     148.2603   0.03530007  0.036447797            5 
  351000    1.1071378   -6.7545724    148.05446  0.035150633  0.036429897            1 
  352000    1.1018454   -6.7350702    148.91635  0.035254818  0.036411833            1 
  353000    1.1094352   -6.7183173    149.53055  0.035299941  0.036393572            1 
  354000    1.1024532   -6.7400002    149.10368  0.035099736   0.03637541            9 
  355000    1.1165585     -6.73904    149.79107  0.035162224  0.036357223            4 
  356000    1.1257356   -6.7003522    149.68504  0.035038634  0.036338557            2 
  357000    1.1241209   -6.7319287    150.54526  0.035141284  0.036320413            2 
  358000     1.115259   -6.6842644    151.43785  0.035250896   0.03630247            2 
  359000    1.1033537   -6.7125746    151.56801  0.035182918  0.036285421            2 
  360000    1.0915576   -6.7105992    151.94698  0.035172912  0.036267201            2 
  361000    1.0920527   -6.6975558    152.41511  0.035183544   0.03624948            4 
  362000    1.1087276    -6.726755    152.05909  0.035004394  0.036231237            4 
  363000    1.1022777   -6.7358357    153.09299  0.035145314  0.036212308            2 
  364000    1.1126576   -6.7160812    153.01621  0.035031184  0.036193946            1 
  365000    1.1072517   -6.7543581    153.57101  0.035061874  0.036174843            2 
  366000    1.0914091   -6.7064349    153.49139  0.034947948  0.036155246            5 
  367000    1.0844717   -6.7216298    153.64329  0.034887214  0.036136076            2 
  368000    1.1377276   -6.7140363    154.39449  0.034962521  0.036117809            2 
  369000    1.0939004   -6.7781078    154.52464  0.034897163  0.036098741            3 
  370000    1.0930699   -6.7359408    155.34112  0.034986739  0.036079508            3 
  371000    1.1351421   -6.7297146    155.40199  0.034906107  0.036061116            2 
  372000    1.1059062    -6.755878    156.20794  0.034992817   0.03604314            2 
  373000    1.0953484   -6.7083065    155.99198  0.034850754   0.03602517            3 
  374000    1.0938915   -6.7223485    156.87097  0.034953425  0.036007643            3 
  375000    1.0856475   -6.7075128     157.1893  0.034930955  0.035989227            3 
  376000    1.1143877    -6.755863    157.41414  0.034887885  0.035971041            2 
  377000    1.1031197   -6.6980844    158.02913  0.034931285  0.035952761            3 
  378000    1.0897774   -6.7396498    158.45656  0.034933105  0.035935073            3 
  379000    1.0996738   -6.7597095    158.00469  0.034741577  0.035916602            1 
  380000    1.0988233   -6.7410442    158.01942  0.034653381  0.035896559            1 
  381000    1.1130664   -6.7073531    158.73477   0.03471889  0.035876858            1 
  382000    1.1017342   -6.7063641    159.17358   0.03472373  0.035857267            2 
  383000    1.0681239   -6.7193824    158.85517  0.034563787  0.035836842            2 
  384000     1.105074   -6.7596513    159.05854  0.034517913  0.035815882            2 
  385000    1.1123397   -6.7806069    159.65919  0.034558266  0.035794713            2 
  386000    1.1011426   -6.7401772    160.20471  0.034586509  0.035774067            2 
  387000    1.1106654   -6.7698803    160.42954  0.034545552  0.035752965            3 
  388000    1.1288006   -6.7060817    161.66462  0.034721782  0.035732225            2 
  389000    1.1194925   -6.7262872    161.13305  0.034518648  0.035712714            2 
  390000    1.1090667   -6.7530812    161.86634  0.034586825  0.035692906            6 
  391000    1.0943281   -6.7344228    162.54884  0.034643828  0.035673872            3 
  392000    1.0816499   -6.7438386    162.50922  0.034547027  0.035654899            2 
  393000     1.114723   -6.7225164    163.47678  0.034664288  0.035636428            1 
  394000    1.1117528   -6.7287942      163.485  0.034578046  0.035616985            3 
  395000    1.0948306    -6.756716    163.49376  0.034492354  0.035597737            3 
  396000    1.1245958   -6.7408251    164.00629  0.034513109  0.035578333            2 
  397000    1.0882239   -6.7064493    164.64891  0.034561064  0.035559207            3 
  398000    1.0899198   -6.7437653     164.4302  0.034428434  0.035539502            2 
  399000    1.0899931    -6.711913    164.73796  0.034406425  0.035519984            2 
  400000    1.0770675   -6.8062899    165.45204  0.034469175  0.035500527            1 
  401000    1.1087503   -6.7412907    165.42335  0.034377255  0.035481082            3 
  402000    1.1085379   -6.7791701    165.23187  0.034252046  0.035461354            2 
  403000    1.1078067    -6.758305    165.54197  0.034231177  0.035440897            2 
  404000    1.0898953   -6.7655085    166.58641  0.034361883  0.035419971            6 
  405000    1.0843775   -6.7911284    167.05605  0.034373674  0.035399085            2 
  406000    1.1097933    -6.775931    166.59034  0.034193419  0.035378316            2 
  407000    1.0899598   -6.7237502    167.60753  0.034317676  0.035358105            3 
  408000    1.1163062   -6.7173039    167.49433  0.034210444  0.035337699            2 
  409000    1.0796409   -6.7298149    167.71287  0.034171326  0.035316606            3 
  410000    1.0735858   -6.7989946     168.4601  0.034239857  0.035295647            2 
  411000    1.0877474   -6.7802676    167.78711  0.034020094  0.035274637            2 
  412000    1.0815756   -6.8076265    168.93352  0.034169401  0.035253427            3 
  413000    1.0737468   -6.7395474    169.46359  0.034193622  0.035232416            4 
  414000    1.0931292   -6.7861123    169.52441   0.03412327   0.03521177            3 
  415000    1.1243441    -6.762504    170.05884  0.034148362  0.035191444            3 
  416000     1.098016   -6.7712029    170.07935  0.034070382    0.0351709            3 
  417000    1.0918024   -6.7434487    170.70903  0.034114514   0.03515038            3 
  418000    1.0779002    -6.786338    171.26434  0.034143608  0.035130908            3 
  419000    1.0904332   -6.7824211    171.17996  0.034045338  0.035110679            1 
  420000    1.0628974   -6.8147104    171.09713  0.033947844  0.035090273            9 
  421000    1.0932798   -6.7955649    171.75969  0.033998354  0.035069681            1 
  422000    1.0771234   -6.7603803    172.18925  0.034002617  0.035050156            5 
  423000    1.0765106   -6.7961346    172.32986  0.033949934  0.035029835            3 
  424000    1.1071204   -6.7934265    173.06621  0.034014586  0.035010281            1 
  425000    1.0943265   -6.7767742    173.56367  0.034032093   0.03499074            4 
  426000    1.0712969   -6.7621152    173.95061  0.034027898  0.034971328            2 
  427000     1.089738   -6.8428785    173.65772  0.033891047   0.03495139            1 
  428000    1.0606751   -6.7810378    174.62598  0.034000386  0.034931607            1 
  429000    1.0846369   -6.7761127    174.49023  0.033894761  0.034912503            2 
  430000    1.0728449   -6.8293975    174.15162  0.033750313   0.03489313            3 
  431000    1.0831211   -6.8014071     175.4612  0.033925212  0.034873162            6 
  432000    1.1094012   -6.7708315    175.83672   0.03391912   0.03485419            2 
  433000    1.0937984   -6.7602145    176.24938  0.033920204  0.034835248            2 
  434000    1.0696455    -6.780623    176.18301  0.033829302  0.034816183            2 
  435000    1.0751444   -6.7646609    177.22898  0.033951912  0.034797271            3 
  436000    1.0769217   -6.7573869    177.92933  0.034007899  0.034779294            3 
  437000    1.0774903   -6.8161095    177.65324   0.03387743  0.034760594            3 
  438000    1.0663114   -6.7648708    178.25008  0.033913638  0.034742162            3 
  439000    1.0695052   -6.7768075    178.15753  0.033818818  0.034723587            4 
  440000      1.07767   -6.7933635    178.45419  0.033798142  0.034705325            2 
  441000    1.0744337   -6.7772972    178.88147  0.033802244  0.034686192            2 
  442000    1.0946485   -6.7707174    179.20313  0.033786412  0.034667373            5 
  443000    1.0823326    -6.860845    178.77927  0.033630411  0.034649062            3 
  444000    1.0880504   -6.8395517    179.71923  0.033731086  0.034630432            2 
  445000    1.0613997   -6.7704354     180.3081  0.033765561  0.034612333            3 
  446000    1.0867196   -6.7937168    180.37294  0.033701969  0.034594854            1 
  447000    1.0642777   -6.8063319    180.59853  0.033668629  0.034576454            2 
  448000    1.0717734   -6.7963488    181.01333  0.033670634  0.034557426            2 
  449000    1.0670453   -6.8013269    180.79738  0.033555563  0.034538226            2 
  450000     1.068709   -6.7859886    181.35423  0.033584116  0.034518024            3 
  451000     1.075478   -6.8015135    181.36398  0.033511452   0.03449781            2 
  452000    1.0856803   -6.8153389     181.6196  0.033484439  0.034477255            4 
  453000     1.061948   -6.7963153     181.8133  0.033446155  0.034456931            2 
  454000    1.0554525   -6.8028514     181.6006  0.033333444  0.034436459            3 
  455000    1.0784531   -6.7959607    182.03129  0.033339064  0.034415648            2 
  456000    1.0837131   -6.8336493    183.22709  0.033484483   0.03439433            2 
  457000    1.0783291   -6.7870932    182.99964  0.033369737  0.034374119            3 
  458000    1.0612565   -6.7759978    184.21698  0.033518373  0.034354476            1 
  459000    1.0709348   -6.7954978    184.29746   0.03345996  0.034334998            5 
  460000    1.0783224   -6.8283452    184.23421  0.033375762  0.034315354            3 
  461000    1.0520623   -6.7768305    184.49517  0.033350537  0.034295724            3 
  462000    1.0766235   -6.7937126    185.26972   0.03341806  0.034276448            4 
  463000    1.0564138   -6.8141524    184.96726  0.033291443  0.034256309            2 
  464000    1.0830523   -6.7991883    185.88071  0.033383748  0.034236523            3 
  465000    1.0583961   -6.8130123    185.70616  0.033280674  0.034216672            2 
  466000     1.060128   -6.8235969    185.88108  0.033240537  0.034196711            3 
  467000    1.0906896   -6.8091353    186.83517  0.033339609   0.03417696            2 
  468000     1.070795   -6.8287197     186.6713  0.033239191  0.034156967            3 
  469000    1.0436541    -6.762237    186.73935   0.03318041  0.034136631            2 
  470000    1.0801294   -6.7921348    187.37681  0.033222838  0.034116435            2 
  471000    1.0475623    -6.798375    188.25689  0.033308013  0.034096334            3 
  472000    1.0601109   -6.8243217    187.28931  0.033066616  0.034075914            2 
  473000    1.0707444   -6.8165129    187.48637  0.033031425  0.034055463            2 
  474000    1.0613121   -6.8201217    188.50097  0.033140114  0.034034939            2 
  475000    1.0765817   -6.8150134    188.01897  0.032985785  0.034014143            1 
  476000    1.0660882   -6.8061685    188.56844  0.033012682  0.033992597            3 
  477000    1.0697822   -6.7968455    189.43834  0.033095448  0.033971593            2 
  478000    1.0394636   -6.7761374    189.24988  0.032993354  0.033950993            3 
  479000    1.0667375   -6.8196296    190.28678  0.033104868  0.033930987            4 
  480000    1.0706216   -6.8300929    190.19118  0.033019301  0.033911124            3 
  481000    1.0656286    -6.818001    191.14625  0.033116121  0.033891264            5 
  482000    1.0559414   -6.8226767     190.5112  0.032937621  0.033871294            2 
  483000    1.0651906   -6.7680318    191.46064  0.033033236  0.033851416            2 
  484000    1.0489645   -6.8387108    191.70037  0.033006262  0.033831757            2 
  485000    1.0530693   -6.8036875    191.84259  0.032962644  0.033811852            2 
  486000    1.0687397   -6.7994015    192.17269  0.032951422  0.033791649            3 
  487000    1.0594753   -6.8124656     192.5445  0.032947382  0.033771848            3 
  488000    1.0810965   -6.8298582    192.48123  0.032869063  0.033752454            2 
  489000    1.0746012   -6.8320798     192.9725  0.032885565  0.033732823            4 
  490000    1.0501802   -6.8098394    193.46928  0.032902939  0.033713391            2 
  491000    1.0566562   -6.7803606    193.76113  0.032885461  0.033693584            4 
  492000    1.0430958   -6.8188562    194.54416  0.032951247  0.033674381            3 
  493000    1.0476386   -6.8043713    194.33788   0.03284954  0.033654979            2 
  494000    1.0692711   -6.8529807    194.34589  0.032784395  0.033635155            3 
  495000    1.0569724   -6.8314648    195.45025  0.032904083  0.033615668            2 
  496000    1.0645256   -6.8006138      194.991  0.032760585  0.033596208            2 
  497000    1.0267428   -6.8385569    195.14881  0.032721128  0.033576826            4 
  498000    1.0514587   -6.8250179      195.866  0.032775434  0.033557315            1 
  499000    1.0756904   -6.8568027    196.04806  0.032740157  0.033537478            2 
  500000    1.0556467   -6.8243587    196.58121  0.032763536  0.033517636            6 
  501000    1.0375568   -6.8387837    196.01503  0.032603964  0.033497888            2 
  502000    1.0569887   -6.8480558    196.31176  0.032588273  0.033478102            2 
  503000    1.0404538   -6.8046874    197.20232  0.032671027  0.033458649            2 
  504000     1.015252   -6.8332395    196.98244  0.032569848  0.033438474            4 
  505000    1.0726573   -6.7931794    197.94541  0.032664259   0.03341833            2 
  506000    1.0656882   -6.8232526    197.71967  0.032562529  0.033398344            3 
  507000    1.0478209   -6.8056709    198.24104  0.032583997  0.033378271            2 
  508000    1.0456979   -6.8172562    198.32972  0.032534403  0.033358141            3 
  509000    1.0608044   -6.8324881    198.64605  0.032522274  0.033338085            2 
  510000    1.0616861   -6.8470333    198.45758   0.03242771  0.033317862            2 
  511000    1.0171847   -6.8774463    198.88129  0.032433348  0.033297358            4 
  512000    1.0567332   -6.8796142    198.67773   0.03233687  0.033277083            2 
  513000    1.0267238    -6.876073    198.75332  0.032286115  0.033256594            2 
  514000    1.0301566   -6.8337322    199.72764  0.032381265  0.033235909            3 
  515000    1.0348195   -6.8411793    199.77958  0.032326792  0.033215307            3 
  516000    1.0350477   -6.8748855    200.12385  0.032319743  0.033194377            1 
  517000    1.0465463   -6.8355769      200.486  0.032315602  0.033174079            2 
  518000    1.0502037   -6.8395357    201.28047  0.032381027  0.033153957            5 
  519000    1.0500412   -6.8058542    201.62102  0.032373317  0.033133601            3 
  520000    1.0527139   -6.8460616    201.73266  0.032328952  0.033113623            2 
  521000    1.0597334   -6.8667178    201.81786  0.032280528  0.033093754            3 
  522000    1.0320364   -6.8387301    202.27037  0.032290928  0.033073758            5 
  523000    1.0291987   -6.8772404    202.16715  0.032212739  0.033053984            2 
  524000    1.0192651   -6.8541598    202.51739  0.032206964  0.033033843            3 
  525000    1.0587792   -6.8645579    203.44743  0.032293243  0.033014284            3 
  526000     1.053006   -6.8307173    204.65418  0.032423033  0.032995591            3 
  527000    1.0628089   -6.8849557    204.01338   0.03226018  0.032977262            2 
  528000     1.029661   -6.8747664    203.98877  0.032195197  0.032958548            5 
  529000    1.0486758   -6.8846114    205.08858   0.03230759   0.03294002            6 
  530000    1.0553024   -6.8641696    205.28627  0.032277715  0.032921119            3 
  531000    1.0152434   -6.8773943    205.23932   0.03220956  0.032902438            3 
  532000    1.0541504   -6.8736101    205.35446  0.032167052  0.032883891            2 
  533000    1.0305098   -6.8527107    205.66576  0.032155372  0.032864498            2 
  534000    1.0440042   -6.8731132    206.37024  0.032205094  0.032845643            2 
  535000    1.0276417   -6.8786421    206.32347  0.032137612  0.032826483            3 
  536000    1.0387632   -6.8793409     206.2225  0.032061955  0.032807008            5 
  537000    1.0353939   -6.8505249    206.42845  0.032034211  0.032786978            2 
  538000    1.0421477   -6.8480976    206.99373  0.032062226  0.032766943            2 
  539000    1.0446887   -6.8401485    206.68902   0.03195563  0.032747269            3 
  540000    1.0296503   -6.8988065    207.09535  0.031959159  0.032726982            2 
  541000    1.0182377    -6.869901    206.97395  0.031881384   0.03270655            4 
  542000    1.0384468   -6.8614138    207.06367  0.031836358  0.032686213            2 
  543000    1.0351088   -6.8739005    207.39411   0.03182844  0.032665461            2 
  544000    1.0397524   -6.8666552    207.36369  0.031765271  0.032644788            3 
  545000    1.0238229   -6.8198233    207.71656  0.031760942   0.03262361            4 
  546000    1.0555498   -6.8584821    208.05356  0.031754206  0.032602322            2 
  547000    1.0376716   -6.8930166     208.6764  0.031791042  0.032580955            3 
  548000    1.0483936   -6.8886847    208.73943  0.031742614  0.032559962            9 
  549000    1.0239937   -6.8508192    209.64052  0.031821572  0.032538837            4 
  550000    1.0412663   -6.8564949    209.22047  0.031700072  0.032517461            3 
  551000    1.0403967    -6.891416     208.6765  0.031560269  0.032495836            9 
  552000    1.0449749   -6.8662104    208.91747  0.031539473  0.032474323            6 
  553000    1.0164074   -6.8896375    209.27591  0.031536455  0.032452982            2 
  554000    1.0431361   -6.8463093    210.06316  0.031597949  0.032431681            3 
  555000     1.042383    -6.885873    209.84193  0.031507798  0.032410402            2 
  556000    1.0458375    -6.850809    210.49565  0.031549108  0.032388892            5 
  557000    1.0412494   -6.8392574    210.99636  0.031567379   0.03236781            5 
  558000    1.0539516   -6.9015126    210.96944  0.031506786  0.032346055            2 
  559000    1.0212204   -6.8946559     211.2855   0.03149754  0.032324477            1 
  560000    1.0201863   -6.8716946    211.94023  0.031538725  0.032303027            5 
  561000     1.032501   -6.8763438    211.70936  0.031448211  0.032281686            2 
  562000    1.0289338   -6.8841375     213.0063  0.031584564  0.032260658            2 
  563000    1.0416372   -6.8848286    212.82624  0.031501812  0.032239844            3 
  564000    1.0166256   -6.8854671    212.92232  0.031460154  0.032219033            3 
  565000    1.0494565   -6.8654789    213.14977  0.031438019  0.032197927            5 
  566000    1.0143794    -6.909185    213.13554   0.03138038  0.032177184            3 
  567000    1.0420265   -6.8433828     213.8015  0.031422913  0.032156345            6 
  568000    1.0409734   -6.8907697    214.01464  0.031398862  0.032135481            3 
  569000     1.025027   -6.8965611    214.11242  0.031357999  0.032114165            2 
  570000    1.0414958   -6.9019638     213.7733  0.031253407  0.032093148            3 
  571000    1.0179819   -6.8621467    214.00939  0.031233127  0.032071989            3 
  572000    1.0417168   -6.9081186    213.84083  0.031153967   0.03205047            4 
  573000    1.0263343   -6.8814579    214.59597   0.03120942  0.032028798            2 
  574000    1.0258257   -6.8864203    215.79115  0.031328565  0.032007269            3 
  575000    1.0248269    -6.908942    214.97833   0.03115628  0.031985899            5 
  576000    1.0301083   -6.8737092    214.93602  0.031096067  0.031964338            3 
  577000    1.0473366   -6.8860782    215.82718  0.031170881  0.031942894            3 
  578000    1.0148011   -6.9079321    215.44849  0.031062354  0.031921864            1 
  579000     1.048931   -6.8911836    216.06614  0.031097602  0.031900986            1 
  580000    1.0514245   -6.9545686    216.70552  0.031135851  0.031879917            4 
  581000    1.0167434   -6.8973883    217.00606  0.031125368  0.031859032            5 
  582000    1.0229018   -6.8959889    217.63176  0.031161477  0.031838547            2 
  583000    1.0249735   -6.8498771    217.62178    0.0311066  0.031818311            3 
  584000    1.0132173   -6.8803652    217.05329  0.030972216  0.031797146            4 
  585000   0.99455167   -6.9007816    217.79942  0.031025559  0.031776167            2 
  586000    1.0126001   -6.9036614    217.92652  0.030990688  0.031755139            2 
  587000    1.0233588    -6.897714    218.03559  0.030953377  0.031734016            4 
  588000    1.0061721   -6.9017118    217.66293   0.03084792  0.031712751            6 
  589000    1.0197079   -6.8900729    218.03594  0.030848321   0.03169121            3 
  590000   0.99959767   -6.8994305    218.64516  0.030882085    0.0316695            5 
  591000    1.0082517   -6.8975941    218.53653  0.030814514  0.031647417            3 
  592000    1.0441731   -6.8760252    219.61257  0.030913931  0.031625922            1 
  593000    1.0339352   -6.9296355     219.1734  0.030800085  0.031604268            8 
  594000      1.02815   -6.8878739    219.66171  0.030816739  0.031582633            4 
  595000    1.0141961   -6.8728492    220.68359  0.030908066  0.031561451            3 
  596000    1.0325652   -6.9307307    220.47487  0.030827023  0.031540169            2 
  597000    1.0357361   -6.9163644    220.08572  0.030721066   0.03151899            3 
  598000    1.0017996   -6.9314993    220.83065  0.030773502  0.031498082            1 
  599000    1.0015546   -6.9092176    221.41728  0.030803739  0.031477402            3 
  600000    1.0180907   -6.9058508    221.66527  0.030786843  0.031457143            3 
  601000    1.0093347   -6.9421052     221.5168  0.030715031  0.031436966            2 
  602000    1.0077829   -6.8606573    223.11864  0.030885747  0.031417209            2 
  603000    1.0176167   -6.9339163    222.88293  0.030801953  0.031397933            1 
  604000    1.0148478    -6.915256     223.0388  0.030772462  0.031378443            3 
  605000    1.0277574   -6.8976172    223.57003  0.030794769  0.031359248            2 
  606000   0.99637398   -6.9527334    224.16793  0.030826172  0.031340542            2 
  607000   0.99851958   -6.9332423    224.79805  0.030861896  0.031321572            2 
  608000    1.0147306   -6.9089262    224.79819  0.030811155  0.031302684            8 
  609000     1.009308    -6.903212    224.77383   0.03075723  0.031284329            4 
  610000    1.0004641   -6.9240704    224.86828  0.030719711  0.031265701            2 
  611000   0.98869672   -6.9053001    225.28407  0.030726141  0.031247178            5 
  612000     1.014925   -6.9388281    225.36737  0.030687278  0.031228486            3 
  613000    1.0046462     -6.94701    225.96939  0.030719058  0.031209962            3 
  614000      1.00101   -6.9140226    225.98938   0.03067174  0.031191427            4 
  615000    1.0037328   -6.9381193    226.21039  0.030651815  0.031172933            3 
  616000    1.0286169   -6.9246641    226.68524  0.030666293  0.031154371            2 
  617000    1.0084634   -6.9058067    226.39421  0.030577284  0.031135231            3 
  618000    1.0045826   -6.8850091    227.61958  0.030693039  0.031116637            4 
  619000    1.0041141   -6.9472168    227.84816  0.030674227  0.031098669            2 
  620000    0.9917749   -6.9290023    228.31542  0.030687557  0.031081061            2 
  621000    1.0068203   -6.9375201    229.53321  0.030801558   0.03106356            3 
  622000    1.0085329   -6.9265251    229.99798  0.030814307  0.031046349            5 
  623000    1.0050984    -6.952968    228.74013  0.030596593  0.031028969            6 
  624000    1.0177416   -6.9171547    229.84642  0.030695302  0.031011759            2 
  625000    1.0004269   -6.9018175    230.27149  0.030702865  0.030994304            4 
  626000   0.99037263   -6.9671903    229.76238  0.030586046  0.030976853            2 
  627000    1.0233993   -6.8994843    230.39386  0.030621193  0.030959376            3 
  628000    1.0107512   -6.9735983    230.48605  0.030584667  0.030941916            3 
  629000    1.0176235   -6.9084102    230.47188  0.030534165  0.030924015            3 
  630000    1.0023256    -6.946502    230.61485  0.030504609  0.030905994            2 
  631000    1.0021885   -6.9562931    231.11031    0.0305217  0.030888318            1 
  632000   0.99784193   -6.9071038    230.65578  0.030413472   0.03087046            3 
  633000   0.99938018    -6.954103     230.6133  0.030359834  0.030852118            3 
  634000    1.0125498   -6.9555581    230.97009  0.030358844    0.0308338            2 
  635000   0.97878675   -6.9634534    230.91139  0.030303332  0.030815442            3 
  636000    1.0052976   -6.9481534     231.4469  0.030325851  0.030796963            4 
  637000    1.0041682   -6.9605602    232.06844  0.030359555  0.030778692            2 
  638000     1.026767   -6.9411111    232.44082  0.030360609  0.030760228            9 
  639000    1.0071008   -6.9565765    231.98386  0.030253502  0.030741663            3 
  640000   0.95482618   -6.9147054    231.32467    0.0301204  0.030722963            4 
  641000    1.0070961   -6.9652625    232.32754  0.030203789  0.030703841            3 
  642000   0.99365734   -6.9530143    232.56678  0.030187797  0.030684932            7 
  643000   0.99555146    -6.940923    232.35145   0.03011294  0.030665499            2 
  644000   0.98218127   -6.9492457    232.26011  0.030054363   0.03064606            2 
  645000   0.98371326   -6.9658989    232.33431  0.030017353  0.030626645            4 
  646000    1.0043315   -6.9743152    232.47944  0.029989608  0.030606676            3 
  647000   0.99044887    -6.931156    232.62528   0.02996204  0.030586497            3 
  648000     0.997247   -6.9432997    232.49265  0.029898745  0.030566738            2 
  649000    1.0222568   -6.9505394    233.50704  0.029982927  0.030546946            2 
  650000    1.0008851   -6.9454502     233.8217  0.029977141  0.030527282            4 
  651000   0.98308758   -6.9840417    233.77464  0.029925069  0.030507668            4 
  652000   0.99560223   -6.9530618    234.15055  0.029927217  0.030487917            2 
  653000   0.99790351   -6.9638584     234.9446   0.02998272   0.03046798            2 
  654000   0.97744078   -6.9591818    234.50194  0.029880472  0.030448331            2 
  655000   0.96095303   -7.0083544    234.13351  0.029787978  0.030428161            2 
  656000    1.0171438   -6.9415458      234.901  0.029840066  0.030408451            2 
  657000    1.0016334   -6.9601235    234.40065  0.029731184  0.030388779            8 
  658000   0.98299623   -6.9562665    235.22603  0.029790531  0.030368652            5 
  659000     0.989936   -6.9474706    235.49407  0.029779219  0.030348711            4 
  660000   0.98179933   -6.9355305    236.58135  0.029871382  0.030328906            4 
  661000   0.97582996   -6.9721992    235.65504  0.029709411  0.030309159            2 
  662000   0.97109323   -6.9688348    236.61103  0.029784872  0.030289588            2 
  663000   0.99449307    -6.992309    236.68913  0.029749766  0.030270236            3 
  664000   0.98821895   -6.9289589    237.32766  0.029785098  0.030250801            5 
  665000   0.97754757   -6.9988495    236.67994   0.02965914  0.030231028            2 
  666000    1.0070105   -6.9828428    236.92968  0.029645855  0.030211039            5 
  667000   0.99483526   -6.9762181    237.07503   0.02961957  0.030190891            3 
  668000   0.97826388   -6.9693949    237.19496  0.029590189  0.030170773            2 
  669000    1.0020126    -6.966659    237.54126  0.029589096  0.030150571            3 
  670000   0.98511051   -6.9499742    237.34083  0.029520003  0.030130778            6 
  671000    0.9956996   -6.9632445     237.9339  0.029549665  0.030110708            4 
  672000   0.98577665   -6.9701396    238.66394  0.029596223  0.030090981            2 
  673000   0.99872927   -6.9778114    238.72261  0.029559511  0.030071661            1 
  674000   0.97784011   -6.9549882    239.35448  0.029593779  0.030052305            6 
  675000   0.97764688   -6.9891679    239.14048  0.029523516  0.030033008            5 
  676000   0.96956094   -6.9800502    239.78218  0.029558948  0.030013743            4 
  677000   0.97628217   -6.9516673    240.35708  0.029586051  0.029994491            6 
  678000   0.98330728   -6.9374783    239.76068   0.02946911    0.0299751            6 
  679000   0.98677817   -6.9804972    240.65358  0.029535295  0.029955933            4 
  680000   0.98258026   -6.9605647    241.06962  0.029542846  0.029936886            3 
  681000   0.99506196   -6.9611301    241.46381  0.029547701  0.029918124            3 
  682000   0.98600931   -6.9792491    240.61085  0.029400153  0.029899301            3 
  683000   0.98736393   -6.9949425    241.55198  0.029471935   0.02988055            3 
  684000   0.98208297   -6.9849476    241.68178  0.029444661  0.029861598            3 
  685000   0.98641115   -6.9625433    242.32426  0.029479837  0.029843015            5 
  686000   0.99733191   -6.9584903    242.31597  0.029435856  0.029824837            2 
  687000   0.96927333    -6.979132    243.23929  0.029505009  0.029806863            2 
  688000    0.9881219   -6.9895985      242.455  0.029367128  0.029788857            2 
  689000   0.95908155   -6.9981365    243.16975  0.029410951  0.029770644            4 
  690000   0.98326735   -7.0181683    243.54868  0.029414091  0.029752697            3 
  691000   0.97829798   -7.0259711    243.35623  0.029348315  0.029734717            4 
  692000   0.98563705   -6.9928147    244.22716  0.029410786   0.02971667            2 
  693000   0.97587161   -6.9802434    244.14655  0.029358652  0.029698936            7 
  694000    1.0021464   -6.9998989    244.52156  0.029361378  0.029681122            2 
  695000   0.98512142   -7.0417869     245.1798  0.029398057  0.029663623            3 
  696000   0.96267887   -7.0072225    244.94769  0.029328028  0.029646348            2 
  697000   0.99248324   -6.9856861    245.66254  0.029371418  0.029629235            4 
  698000    0.9672769   -6.9930594    246.21879  0.029395748  0.029612282            3 
  699000   0.98744589   -6.9526459    247.57639  0.029515544  0.029595792           12 
  700000   0.97708224   -7.0098666    245.98147  0.029283508  0.029579288            4 
  701000   0.96816011   -6.9742529    247.31867  0.029400698  0.029562496            2 
  702000   0.98528868   -6.9593787    247.64911  0.029398043   0.02954581            2 
  703000   0.97653592   -6.9676386    247.91021  0.029387176  0.029529156            3 
  704000   0.97876506   -6.9925323     248.0441  0.029361281  0.029512486            3 
  705000   0.95756722   -6.9776939    248.31555  0.029351719  0.029495921            4 
  706000   0.95647824   -6.9935552    248.85949  0.029374349   0.02947961            1 
  707000   0.95653163   -6.9611584    248.99448  0.029348713  0.029463164            3 
  708000   0.97067929    -6.968842    249.24788  0.029337085  0.029447164            5 
  709000    0.9865824   -6.9692832    249.18366   0.02928816  0.029430821            4 
  710000   0.95765002   -7.0195008    249.29533  0.029260016  0.029414639            4 
  711000   0.98211655   -7.0214599    249.34735  0.029224959  0.029398316            3 
  712000   0.98240551   -7.0078576    249.79097  0.029235834  0.029382137            4 
  713000    0.9600493   -7.0086775    250.19867  0.029242481  0.029366181            4 
  714000   0.96647041   -6.9978301    250.39381  0.029224301  0.029350013            2 
  715000   0.95787277   -7.0434612    249.78926  0.029112967  0.029333561            3 
  716000   0.96984313   -7.0216258     251.4182  0.029261894    0.0293171            4 
  717000   0.96684645   -6.9965107    251.24985  0.029201517   0.02930099            4 
  718000    0.9661569   -7.0101414     251.8695  0.029232765  0.029284924            2 
  719000   0.96079851   -7.0174457    251.46646  0.029145394  0.029268836            2 
  720000   0.97230714   -7.0417341    251.55195  0.029114809  0.029252538            3 
  721000   0.96355025   -7.0384553    250.97432  0.029007665  0.029236242            3 
  722000   0.96611447   -7.0235189    251.70181  0.029051455  0.029220362            3 
  723000   0.97762798   -7.0292141    252.54496  0.029108455  0.029204189            2 
  724000   0.96359262   -7.0093817    252.57245  0.029071414  0.029187852            2 
  725000   0.96574919   -7.0409982    253.47916  0.029135536  0.029171722            3 
  726000   0.95291294   -7.0341746    252.73884  0.029010426  0.029155432            2 
  727000    0.9569257   -7.0297141    253.39835   0.02904612  0.029139405            3 
  728000    0.9512146   -7.0047168    253.36285  0.029002157  0.029123314            4 
  729000   0.96514912   -7.0045573    254.57197  0.029100592  0.029107595            2 
  730000     0.966964   -7.0027026     254.5789  0.029061518   0.02909205            4 
  731000   0.94387824   -6.9927597    254.18016  0.028976306  0.029076214            3 
  732000   0.95650821    -6.965605    254.57977  0.028982214  0.029060051            5 
  733000   0.96747563   -7.0115552    254.54011  0.028938166   0.02904375            4 
  734000   0.95651809   -7.0473673    254.40736  0.028883669  0.029027617            6 
  735000   0.97105086   -7.0425188    254.56534  0.028862284  0.029011612            3 
  736000    0.9379546   -7.0058229     255.7662  0.028959036  0.028995996            4 
  737000   0.95320027   -7.0154754    256.30122  0.028980238   0.02898034            3 
  738000    0.9768905   -7.0744162    256.15954   0.02892497  0.028964376            4 
  739000   0.97597677   -7.0415487    255.56743   0.02881906  0.028948384            2 
  740000   0.96105386   -7.0645558    255.62435  0.028786525  0.028932187            5 
  741000   0.95202105    -7.005481     256.9867  0.028900888  0.028916133            3 
  742000   0.93889514   -7.0096724    256.43116  0.028799546  0.028900165            5 
  743000   0.95339365   -7.0344753     256.8345  0.028806023  0.028884174            4 
  744000   0.96323151   -6.9908733    257.17375  0.028805303  0.028868192            2 
  745000   0.96521378   -7.0185177    257.76976  0.028833306  0.028852162            4 
  746000   0.93511874   -7.0085405    257.99417  0.028819724  0.028836201            2 
  747000   0.96476134   -7.0521191    257.32129  0.028706079  0.028820269            4 
  748000   0.96717877   -7.0680534    257.75174  0.028715657  0.028804173            3 
  749000   0.96723581   -7.0248784    257.85488  0.028688794  0.028787991            6 
  750000   0.94721775   -7.0330965    258.19539  0.028688376  0.028771807            2 
  751000   0.94321707   -7.0389917    258.83446   0.02872109  0.028755963            3 
  752000   0.95831354   -7.0399381    258.34558  0.028628721  0.028740022            4 
  753000   0.94831746   -7.0238536    258.48636  0.028606282  0.028723792            3 
  754000   0.94438606   -7.0235141    259.15869  0.028642649  0.028707543            4 
  755000   0.94629629   -7.0680552    258.66347  0.028550052  0.028691386            4 
  756000   0.95916856   -7.0402044    258.66774  0.028512758  0.028674801            5 
  757000   0.95121878   -7.0469756    258.98439  0.028509951  0.028658331            3 
  758000    0.9727986   -7.0440043     259.2597  0.028502606  0.028641695            3 
  759000   0.95398995   -7.0634058    259.12758  0.028450547  0.028625121            4 
  760000   0.94035467   -7.0336047    259.04127  0.028403648  0.028608484            5 
  761000   0.94531843   -7.0556562    258.77077  0.028336702  0.028591769            6 
  762000   0.95463997   -7.0233784    259.11306  0.028336949  0.028575132            3 
  763000   0.93045614   -7.0381436    259.76121    0.0283706  0.028558323            3 
  764000     0.955162    -7.078578    259.37748  0.028291609  0.028541211            5 
  765000   0.93299806   -7.0392911    260.19816  0.028344026  0.028523981            4 
  766000   0.93652264   -7.0570357    260.31819  0.028320082  0.028506671            2 
  767000   0.94775944   -7.0422812    260.56588   0.02831007  0.028489371            3 
  768000   0.95733593   -7.0670533    260.85856  0.028304965  0.028472513            7 
  769000   0.94751482   -7.0576791    261.51355  0.028339137   0.02845577            3 
  770000   0.92839587   -7.0616551    261.12669  0.028260464  0.028438924            3 
  771000   0.96046488   -7.0598247    261.26884  0.028239174  0.028422091            5 
  772000   0.95437278   -7.0460349    261.64293  0.028242976  0.028405248            7 
  773000   0.94680341   -7.0781096    261.63055  0.028205104  0.028388542            4 
  774000   0.94306556   -7.0398563    262.19244   0.02822916  0.028371672            4 
  775000   0.93438075    -7.048192    263.01358   0.02828103   0.02835517            2 
  776000   0.94729022    -7.039267    263.13613  0.028257746  0.028338739            6 
  777000   0.93275077   -7.0911095    262.61574  0.028165566  0.028322273            3 
  778000   0.95494414   -7.0679249    263.47165  0.028221043  0.028305829            6 
  779000   0.91684136   -7.0549415    263.64102  0.028202933  0.028289337            5 
  780000   0.95944208   -7.0743735     263.7396  0.028177308  0.028272946            6 
  781000   0.93402223   -7.0810501    263.29738  0.028094044  0.028256583            4 
  782000    0.9356882    -7.049427    263.95148  0.028127822  0.028240188            5 
  783000   0.93302349   -7.0764017    263.71614  0.028066852  0.028223772            6 
  784000   0.95128027   -7.1024644    263.11196  0.027966832  0.028206972            2 
  785000   0.94071857   -7.0923517    263.91243  0.028016181  0.028189951            2 
  786000   0.92674353   -7.0412248    264.61744  0.028055284  0.028173295            4 
  787000   0.92352586   -7.0651785    265.06407  0.028066928  0.028156471            4 
  788000   0.94248935   -7.0582169    265.17861  0.028043423  0.028139855            4 
  789000   0.93199405   -7.0642293    265.38293  0.028029461  0.028123036            5 
  790000   0.93956263   -7.0676111    264.80472  0.027932987  0.028106101            2 
  791000   0.94402692   -7.0652495    264.91553  0.027909348  0.028089061            2 
  792000    0.9498586   -7.0728415      264.971  0.027879945  0.028072113            2 
  793000   0.93569034    -7.073477    265.11098  0.027859497  0.028055173            4 
  794000   0.94814654   -7.0985445    265.20738  0.027834528  0.028038067            3 
  795000   0.94521714    -7.096444    265.30209  0.027809443  0.028020938            2 
  796000   0.91778587   -7.0703082    265.76496  0.027822964  0.028003944            2 
  797000   0.92772607   -7.0814659    265.56059  0.027766687  0.027986787            4 
  798000   0.95203306   -7.0755282    265.93472  0.027770961  0.027969472            4 
  799000   0.93193764   -7.0941842    266.19047  0.027762878  0.027952579            4 
  800000   0.91737352   -7.0827704    266.55176  0.027765809  0.027935741            2 
  801000   0.92466265   -7.0919656    267.17452  0.027795935  0.027919023            4 
  802000   0.93573258   -7.0908568    267.01848  0.027745062  0.027902387            3 
  803000   0.92749477   -7.0665303    267.73264  0.027784624  0.027885809            3 
  804000   0.93534008   -7.0859963    268.06682  0.027784703  0.027869095            3 
  805000   0.91504417   -7.0784887    267.60647  0.027702533  0.027852316            3 
  806000   0.93845747   -7.0726445    268.26214  0.027735953    0.0278355            3 
  807000   0.92641849    -7.098698    267.07655  0.027579156  0.027818627            3 
  808000   0.92682762   -7.0892139    267.73032  0.027612451  0.027801377            3 
  809000   0.94477216   -7.0798741    267.47676    0.0275522  0.027784296            7 
  810000   0.94386353   -7.0946441    267.87593  0.027559252  0.027767029            2 
  811000   0.91418045   -7.0413887    268.43213  0.027582422  0.027749922            2 
  812000   0.93636381   -7.0215746    268.81024  0.027587258  0.027732946            5 
  813000   0.94307541   -7.0558609    268.43566  0.027514931  0.027715827            7 
  814000   0.92887033   -7.0824157    268.11628  0.027448431  0.027698479            8 
  815000   0.93552265   -7.0882277    268.47728  0.027451665  0.027681018            4 
  816000   0.93662886    -7.052501    269.45346  0.027517715  0.027664026            3 
  817000   0.93315078   -7.1088527    268.99643  0.027437416  0.027647028            1 
  818000   0.91115741   -7.1107757    268.66317  0.027369923  0.027629877            3 
  819000   0.90672031   -7.0554746    269.85158  0.027457426  0.027612944            5 
  820000   0.92408923   -7.1032007    269.74336  0.027412943  0.027596033           11 
  821000   0.90700698   -7.0784937    270.12122  0.027417907  0.027578929            3 
  822000   0.93114038   -7.1113969    269.43288  0.027314768  0.027561691            4 
  823000   0.92608319   -7.0657921    270.53485   0.02739316  0.027544539            4 
  824000   0.94605313   -7.1054038    270.25042  0.027331151  0.027527342            6 
  825000   0.93649572    -7.124072    270.73475  0.027346944  0.027510325            3 
  826000   0.92705091    -7.075685    270.61529  0.027301785  0.027493453            3 
  827000    0.9349312   -7.0771726    270.56708  0.027263913  0.027476481            2 
  828000   0.91228512    -7.092314     270.9075  0.027265248  0.027459384            2 
  829000   0.91456815   -7.1174375    270.42687  0.027184044  0.027442301            6 
  830000   0.93268017   -7.1098367     271.4033  0.027249327  0.027425275            5 
  831000   0.92579331   -7.0826401    271.77214  0.027253523  0.027408267            2 
  832000   0.91743574   -7.0994637    272.18338  0.027261957   0.02739144            3 
  833000   0.95193197   -7.1161564    271.57897  0.027168764    0.0273747            5 
  834000    0.9315996    -7.080117    272.03546    0.0271818  0.027357953            2 
  835000   0.92228933   -7.0863469       272.33  0.027178643  0.027341144            6 
  836000   0.91938306   -7.1106115     271.9963  0.027112869  0.027324229            2 
  837000   0.92467494   -7.1224168    272.28664  0.027109382  0.027307125            4 
  838000   0.92091601   -7.1022849    273.10767  0.027158678   0.02729025            3 
  839000   0.91370334   -7.1249698    273.22759  0.027138219  0.027273382            2 
  840000   0.92423331   -7.1103602    272.78362  0.027061867  0.027256515            2 
  841000   0.93359345   -7.1219011    272.73423  0.027024795  0.027239739            3 
  842000   0.90750331   -7.1238701    273.22869  0.027041636  0.027222949            3 
  843000   0.92442656   -7.0846332    274.56686  0.027141841  0.027206431            6 
  844000   0.90591493   -7.1250687    274.52239  0.027105291  0.027189887            3 
  845000   0.92521394   -7.1274347    275.46776  0.027166445  0.027173407            5 
  846000   0.89894512   -7.1333871     275.4764  0.027135185  0.027156921            3 
  847000   0.90601261   -7.1198317    274.88992  0.027045447  0.027140398            2 
  848000   0.90491315   -7.1350357    275.55847  0.027079253   0.02712393            5 
  849000   0.90149806   -7.1372955    274.45869  0.026939408    0.0271074            3 
  850000   0.91481107   -7.1410989    274.77397  0.026938625  0.027090795            2 
  851000   0.90931623   -7.1057092    274.98019  0.026927163  0.027074191            5 
  852000   0.91172053   -7.1326403    276.09917  0.027005005  0.027057525            4 
  853000   0.91883799   -7.1068899    275.48678  0.026913519  0.027040892            9 
  854000   0.90841268   -7.1075983    276.60181  0.026990809  0.027024539            3 
  855000   0.91976339   -7.1280785    276.19842  0.026919924  0.027008028            4 
  856000   0.91381207   -7.1498345    275.97239  0.026866471  0.026991504            4 
  857000   0.90041093   -7.1237082    276.60181  0.026896326  0.026974884            2 
  858000   0.90234131   -7.1257279     276.4299  0.026848281  0.026958176            4 
  859000   0.90720131   -7.1359418    278.01176  0.026970485  0.026941602            3 
  860000    0.9230469   -7.0753629    276.79438   0.02682116   0.02692525            3 
  861000     0.906952   -7.1151458    277.47084  0.026855482  0.026908913            3 
  862000   0.93172037   -7.1384473    278.27212   0.02690179  0.026892529            3 
  863000   0.89837844   -7.1382537    277.20461  0.026767536  0.026876109            4 
  864000   0.89807445   -7.1512561    277.35065  0.026750642  0.026859478            3 
  865000   0.91839093   -7.1539065    278.01272  0.026783499  0.026842913            3 
  866000   0.90353404   -7.1560341    277.58667  0.026711573  0.026826602            3 
  867000   0.91559909   -7.1334913    278.67533  0.026785403  0.026810097            4 
  868000   0.91598146   -7.1329489    278.43163  0.026731148  0.026793689            4 
  869000    0.9182165   -7.1777552    278.36286  0.026693792  0.026777228            3 
  870000   0.89686492    -7.181369    278.74871  0.026700068  0.026760842            3 
  871000   0.90541782   -7.1426989     278.6023  0.026655406  0.026744463            2 
  872000   0.92722368   -7.1575453    278.53248  0.026618165  0.026728217            5 
  873000   0.89354763   -7.1676532    278.66187  0.026600026  0.026711798            8 
  874000   0.91777584    -7.138405    279.19196  0.026620133  0.026695393            5 
  875000    0.9118687   -7.1601816    279.83064  0.026650537  0.026678952            3 
  876000   0.89580084   -7.1315161     279.9905  0.026635321   0.02666263            3 
  877000   0.90745627   -7.1599258    279.81114  0.026587907  0.026646053            3 
  878000   0.89219226   -7.1570235    279.79979  0.026556548  0.026629698            7 
  879000   0.90827971   -7.1498702     278.8149  0.026432964  0.026613323            4 
  880000   0.90017327   -7.1605412    279.66875  0.026483783  0.026596476            6 
  881000   0.90114345   -7.1510133    280.18311  0.026502375    0.0265798            3 
  882000   0.88238941   -7.1303717    279.29349  0.026388274  0.026562979            4 
  883000   0.91113309   -7.1481516    280.13128  0.026437455  0.026546193            3 
  884000   0.90357265   -7.1204444    280.00172  0.026395336  0.026529409            4 
  885000   0.90260069   -7.1388145    280.70604  0.026431831  0.026512394            4 
  886000   0.89820355    -7.175562    280.19775   0.02635419  0.026495386            5 
  887000   0.91033435   -7.1607739    280.58406  0.026360772  0.026478589            3 
  888000   0.89723776   -7.1154957    280.59219   0.02633185  0.026461922            3 
  889000   0.89325143   -7.1659638    280.82578  0.026324126  0.026445285            4 
  890000   0.90722659   -7.1321106    281.96415  0.026401137  0.026428624            8 
  891000   0.88940612    -7.113649    281.62522  0.026339807  0.026412343            8 
  892000   0.90841248    -7.145118    281.59652  0.026307597  0.026395838            6 
  893000   0.90151903   -7.1425468    281.44239  0.026263754  0.026379172            4 
  894000   0.88045908    -7.186508    281.39383   0.02622985  0.026362385            2 
  895000   0.89950407   -7.1594819    282.71699  0.026323742  0.026345618            1 
  896000   0.87786902   -7.1649729    282.36499  0.026261625  0.026328987            3 
  897000   0.90992576   -7.1212404     281.7747  0.026177508  0.026312363            3 
  898000   0.87547879   -7.1683599    282.16493   0.02618457  0.026295711            3 
  899000   0.88603977    -7.171826    282.10533  0.026149919   0.02627915            4 
  900000   0.87529997    -7.171622    282.47187  0.026154803  0.026262495            3 
  901000   0.87567839   -7.1671737    283.07645  0.026181692  0.026245949            8 
  902000   0.89213893    -7.158015    283.00482  0.026146048   0.02622949            3 
  903000   0.89072757    -7.160686    283.35442  0.026149356  0.026213269            5 
  904000   0.89362373   -7.1325729    283.78619  0.026160232  0.026197043            3 
  905000   0.87663152   -7.1711269    284.56132    0.0262027  0.026180933            2 
  906000   0.89322976   -7.1736847    283.84236  0.026107649  0.026164855            4 
  907000   0.88656632   -7.1337265    284.22746  0.026114247  0.026148811            4 
  908000   0.89569781   -7.1771131    284.83575  0.026141314  0.026132889            2 
  909000   0.86725715   -7.1661447     284.7246  0.026102365  0.026116728            6 
  910000   0.88539069   -7.1539079    284.51738  0.026054705  0.026100533            3 
  911000   0.88408077   -7.1698434    285.17918  0.026086643  0.026084162            5 
  912000   0.89479065   -7.1375714    284.73705   0.02601764  0.026067906            4 
  913000   0.89045482    -7.140417    285.41566  0.026051083  0.026051652            5 
  914000   0.90236332   -7.1803362    285.26791  0.026009109  0.026035579            2 
  915000   0.89878205   -7.1723553      285.656  0.026016029  0.026019359            4 
  916000   0.89496156   -7.1826371    285.18075  0.025944391  0.026003118            6 
  917000   0.90513742   -7.1787565    285.44877  0.025940455  0.025986789            5 
  918000   0.88544285   -7.1877064    285.95402  0.025958062  0.025970617            3 
  919000   0.88486977   -7.1782786     286.1646  0.025948912  0.025954416            5 
  920000   0.88736447   -7.1576975    286.21003  0.025924822  0.025938285            3 
  921000     0.888984   -7.1556487    286.45303   0.02591866  0.025922131            5 
  922000    0.8719295    -7.186374     285.9333  0.025843574  0.025906099            3 
  923000   0.87291733   -7.1932579    286.62026  0.025877597  0.025890064            4 
  924000   0.87608295   -7.1682029    287.08163  0.025891201  0.025873938            3 
  925000   0.89257742   -7.2156111    286.63912  0.025823344   0.02585791            3 
  926000      0.88024   -7.1995568    287.20603  0.025846475  0.025841643            2 
  927000   0.87211843   -7.1634251    287.14341  0.025812964  0.025825541            5 
  928000   0.89634387   -7.1923021     288.0024  0.025862284  0.025809414            2 
  929000    0.8782385   -7.1672591    288.08924  0.025842235  0.025793432            2 
  930000    0.8890493   -7.1784926    287.77745   0.02578651  0.025777443            4 
  931000   0.88842668   -7.1865208    287.20033  0.025707154   0.02576139            2 
  932000   0.87734981   -7.1702048      288.471  0.025793186  0.025745446            4 
  933000   0.86836107   -7.2058566    288.17413  0.025739025  0.025729524            6 
  934000   0.89009469   -7.2072895    288.10289  0.025705111  0.025713493            3 
  935000   0.89746822   -7.1851752    289.14127  0.025770167  0.025697598            3 
  936000   0.89335649   -7.1712293    288.98661  0.025728865  0.025681807            3 
  937000   0.90276638   -7.1781082    288.83083  0.025687551  0.025666086            5 
  938000   0.88479905   -7.1783709    289.80779  0.025746961  0.025650232            2 
  939000   0.88959354   -7.1943279    289.23609  0.025668804  0.025634398            5 
  940000   0.88218762   -7.1630043    289.16571  0.025635258  0.025618443            3 
  941000     0.887368   -7.1874158    289.37897  0.025626902  0.025602541           11 
  942000   0.86802067    -7.176426    290.02751  0.025657069  0.025586636            4 
  943000   0.89845695    -7.193053    289.79685  0.025609478  0.025570779            3 
  944000   0.87476389   -7.2072832    289.61668  0.025566445  0.025554834            9 
  945000   0.85196408   -7.1850884    289.45674  0.025525285  0.025538758            2 
  946000   0.87035121   -7.1909414    289.23338  0.025478628  0.025522619            2 
  947000   0.88317923   -7.1716288    290.04814   0.02552342  0.025506585            2 
  948000    0.8787324   -7.2268841    289.70743  0.025466546  0.025490438            8 
  949000    0.8638558   -7.2499606    288.85875  0.025365187  0.025474058            4 
  950000   0.85748435   -7.1909024    289.61991  0.025405255  0.025457522            5 
  951000   0.87953982     -7.18735    289.44178  0.025362932  0.025441137            8 
  952000   0.88963788   -7.1785049    289.94934   0.02538072  0.025424784            4 
  953000    0.8863605   -7.2176637    290.20866  0.025376763  0.025408538            5 
  954000   0.86975437     -7.17492    290.69216  0.025392397  0.025392313            3 
  955000    0.8808481   -7.2407154     289.7806  0.025286265   0.02537608            5 
  956000      0.89124   -7.2246399    290.43739  0.025317067  0.025359881            7 
  957000   0.87695314   -7.1983894    290.83232  0.025325002  0.025343672            6 
  958000   0.87819128   -7.1831569    290.22603  0.025245827  0.025327325            6 
  959000   0.87342905   -7.2044523    291.22828  0.025306594  0.025311025            3 
  960000   0.88657424   -7.2071546    291.61744  0.025314013  0.025294867           10 
  961000    0.8725597   -7.2238144    290.28133  0.025171811  0.025278602            5 
  962000     0.884439   -7.2066578      290.968  0.025205128  0.025262189            2 
  963000   0.86245032   -7.1993097    291.75901  0.025247405  0.025245834            8 
  964000   0.87304742   -7.2265161    292.00946  0.025242864  0.025229519            5 
  965000   0.87328055   -7.2534129    291.45704  0.025169002  0.025213043            5 
  966000   0.86064741   -7.2160014    291.99353  0.025189228  0.025196777            8 
  967000   0.85911459   -7.2112761    291.51385  0.025121842  0.025180386            3 
  968000   0.86991672   -7.1947936    291.71155  0.025112909  0.025164119            2 
  969000   0.85466378   -7.1992357    292.10992  0.025121252  0.025147931            4 
  970000   0.86539613   -7.1934467    293.17775  0.025187092  0.025131686            4 
  971000   0.85615488   -7.2146924    292.58679  0.025110435  0.025115502            4 
  972000    0.8743611   -7.2019633    292.52989  0.025079723  0.025099292            2 
  973000   0.86464737   -7.2533915    292.70022  0.025068536  0.025083065            3 
  974000   0.86080573   -7.2362244    292.19731   0.02499977  0.025066855            5 
  975000    0.8534421   -7.2249814    292.81189  0.025026658  0.025050677            5 
  976000   0.85332775   -7.2660665    292.28673  0.024956176  0.025034284            4 
  977000   0.88201232   -7.2527984    292.60018  0.024957368  0.025017948            2 
  978000   0.86451551    -7.205362    293.71659  0.025026976  0.025001744            2 
  979000   0.85420303   -7.2378588    292.93129  0.024934567  0.024985392            6 
  980000   0.85912686   -7.2440123    293.42226  0.024950872  0.024969111            6 
  981000   0.85118414   -7.2312483    293.47276  0.024929729    0.0249527            4 
  982000   0.87849179   -7.2403278    293.17988  0.024879488  0.024936369           10 
  983000   0.87625453   -7.2356396    293.19387  0.024855363  0.024919874            8 
  984000   0.86139906   -7.2160896    292.88622   0.02480405  0.024903428            6 
  985000   0.89133471   -7.2316475    293.66989  0.024845168  0.024887007            3 
  986000   0.84585174   -7.2728249    293.24332  0.024783918  0.024870561            2 
  987000   0.87046461   -7.2664129    293.66875  0.024794727  0.024854054            9 
  988000   0.85513393   -7.2307265    293.61016  0.024764689  0.024837676            6 
  989000   0.85550473   -7.2445286    293.73995  0.024750586  0.024821305            3 
  990000    0.8619175   -7.2085672    294.40371  0.024781457  0.024804958            5 
  991000   0.86107936   -7.2617023    294.45977  0.024761165  0.024788624            3 
  992000   0.86467263   -7.2284293    294.72872  0.024758797  0.024772178            3 
  993000   0.84591793   -7.2057102    294.91094  0.024749155   0.02475586            5 
  994000   0.85154075   -7.2317913    295.73394  0.024793254  0.024739831            3 
  995000   0.86681866   -7.2302475    294.18734  0.024638805  0.024723713            5 
  996000   0.83528121   -7.2360733    294.55971  0.024645223  0.024707237            7 
  997000   0.83510498   -7.2818207    294.89475  0.024648508  0.024690767            8 
  998000   0.84201617   -7.2781391    294.53854  0.024594067  0.024674211            6 
  999000   0.85607139   -7.2823803    294.62953  0.024577038   0.02465767            7 
 1000000    0.8585372   -7.2807316    294.42633  0.024535527  0.024641096            4 
 1001000   0.86941548   -7.2979953    295.46947  0.024597858   0.02462447            6 
 1002000   0.84937645   -7.2742988    294.85795  0.024522451  0.024607991            9 
 1003000   0.85121842   -7.2503579    295.31547  0.024536015  0.024591472            8 
 1004000   0.86221453   -7.2585687    295.89679  0.024559827  0.024574999            3 
 1005000   0.86342428    -7.263061    295.72511  0.024521154  0.024558531            3 
 1006000    0.8453079   -7.2500498    295.79683  0.024502719  0.024542024            3 
 1007000   0.85044798   -7.2506556    295.55274  0.024458188   0.02452549            3 
 1008000   0.86102462   -7.2480576    295.76202  0.024451225   0.02450895            6 
 1009000   0.86406503   -7.2325476    296.74211  0.024507938  0.024492566            2 
 1010000   0.84694446   -7.2497465    296.17899  0.024437211   0.02447631            4 
 1011000   0.84439496    -7.269516    296.40568  0.024431724  0.024459859            4 
 1012000   0.84294864   -7.2633712    296.19802  0.024390483  0.024443524            5 
 1013000   0.85128574   -7.2805805    296.15278  0.024362684  0.024427089            4 
 1014000   0.86237044   -7.2675643    297.12562  0.024418608  0.024410702            3 
 1015000   0.83601324   -7.2422997     296.4457  0.024338728  0.024394277            3 
 1016000   0.86912143   -7.2734694     297.0621   0.02436533  0.024377939            5 
 1017000   0.84003184   -7.2771539      296.451  0.024291298  0.024361506            4 
 1018000   0.86924262    -7.260824    297.42366  0.024347058  0.024345155            8 
 1019000    0.8572292   -7.2590944    296.81445  0.024273344  0.024328921            4 
 1020000   0.85705256   -7.2577349    297.48233  0.024304112   0.02431264            6 
 1021000   0.87383383   -7.2777615    296.50343  0.024200411  0.024296334            9 
 1022000   0.84064128    -7.266798    297.77481  0.024280398  0.024280054            6 
 1023000   0.84558788   -7.2774775    298.37768  0.024305774  0.024263769            5 
 1024000    0.8421809   -7.2668236    296.91677  0.024163149  0.024247626            4 
 1025000   0.84699268   -7.2873855    297.32609  0.024172853  0.024231271            4 
 1026000   0.82857578   -7.2679139    297.26246  0.024144125  0.024214815            3 
 1027000    0.8350183   -7.2644843    297.54681  0.024143688  0.024198522            8 
 1028000   0.85214218   -7.2828658    298.20065  0.024173204  0.024182236            8 
 1029000   0.83295849   -7.2660644    298.18207  0.024148208   0.02416588            5 
 1030000   0.85502217   -7.2603384    298.22736  0.024128427  0.024149657            6 
 1031000   0.84474156   -7.2973681    297.95519  0.024083025   0.02413331            5 
 1032000   0.82318906   -7.3003474    298.80148  0.024128026  0.024117015            4 
 1033000   0.84360269   -7.2710741    299.06609  0.024126016  0.024100927            5 
 1034000   0.83308068    -7.264448    298.62128  0.024066834  0.024084842            3 
 1035000    0.8386352   -7.2571147    298.61917  0.024043412  0.024068648            3 
 1036000   0.83508689   -7.2801563    298.66947   0.02402425  0.024052489            5 
 1037000   0.83451886   -7.2595709    299.24346  0.024047208  0.024036436            3 
 1038000   0.85584806   -7.2455923     299.6613  0.024057587  0.024020465            7 
 1039000     0.839164   -7.2892248    299.57564  0.024027562  0.024004373            4 
 1040000   0.82555687   -7.2988877    299.51678  0.023999742  0.023988197            5 
 1041000   0.84420145   -7.2881642    299.47262  0.023973153  0.023971837            4 
 1042000   0.81827286   -7.2829817    299.34771  0.023940156  0.023955574            3 
 1043000   0.83479522   -7.2765256     300.2735  0.023991171  0.023939365            6 
 1044000   0.83427711    -7.296534    299.48467  0.023905226  0.023923186            6 
 1045000   0.85499532   -7.2662281    299.96849  0.023920932  0.023906974            4 
 1046000   0.83536101   -7.2677875    300.17833  0.023914781  0.023890875            8 
 1047000    0.8236799   -7.2965555    299.20675  0.023814609  0.023874785            3 
 1048000   0.84291337   -7.2830602    299.84214   0.02384241  0.023858617            3 
 1049000   0.85803403   -7.3033595    300.57764  0.023878109  0.023842441            3 
 1050000   0.82822511    -7.287138    300.61481  0.023858318  0.023826429            3 
 1051000   0.82781243   -7.2810962    300.69104  0.023841662  0.023810433            4 
 1052000    0.8408592   -7.2777873    300.43059  0.023798367  0.023794381            4 
 1053000   0.83571758   -7.2932698    300.24186  0.023760831   0.02377834            6 
 1054000   0.80855651   -7.2776531    300.76203  0.023779414  0.023762303            6 
 1055000   0.83078865   -7.3026317    300.74079  0.023755197  0.023746226            4 
 1056000   0.84620718   -7.3064298    301.03305  0.023755764  0.023730081            5 
 1057000   0.83091014   -7.3084218    301.00211  0.023730851  0.023713916            4 
 1058000   0.82924982   -7.2840398    300.48731  0.023667873  0.023697751            7 
 1059000   0.83949004   -7.2804814    301.06645  0.023691096  0.023681621            4 
 1060000   0.84400436   -7.2838334     301.1195  0.023672917  0.023665471            8 
 1061000   0.83181398   -7.2683647    300.83931  0.023628598  0.023649358            8 
 1062000   0.82045742   -7.2935767    301.49362  0.023657692  0.023633186            3 
 1063000   0.83864968   -7.3093069     301.5004  0.023635967  0.023617043            4 
 1064000   0.81535243   -7.3159133    301.76594  0.023634551  0.023600951            4 
 1065000   0.83244519   -7.3425713    301.41863  0.023585182   0.02358477            6 
 1066000   0.83042507   -7.3125714    301.42701  0.023563712  0.023568561            6 
 1067000   0.82329612    -7.321858     301.7136  0.023564012  0.023552384           10 
 1068000   0.83745366   -7.3063607    301.42635  0.023519534  0.023536151            8 
 1069000    0.8197419   -7.3091107    301.81187  0.023527586  0.023519969            4 
 1070000   0.82465404   -7.3276358    301.86184  0.023509489   0.02350377            3 
 1071000   0.83638968    -7.315041    302.33791   0.02352458  0.023487579            4 
 1072000   0.81432747   -7.3208586    302.09557  0.023483797  0.023471462            4 
 1073000    0.8247347    -7.317064    301.83162  0.023441412  0.023455306            6 
 1074000   0.82110566   -7.3093157    302.71466  0.023488102  0.023439157            4 
 1075000     0.828663   -7.2981294    302.59456  0.023456942  0.023422952            4 
 1076000   0.83221056    -7.304192    302.68953  0.023442497  0.023406731            5 
 1077000   0.81222771   -7.3012181     302.6911  0.023420853  0.023390504            2 
 1078000   0.81322098   -7.3033824    302.66563  0.023397157  0.023374279            3 
 1079000   0.83121828    -7.295216    302.65812  0.023374894  0.023358152            3 
 1080000   0.82514203   -7.3224424    302.93242  0.023374415  0.023341988            2 
 1081000   0.82453219   -7.3257261    302.45633  0.023316091  0.023325888            3 
 1082000   0.85109103   -7.3077763     303.0071  0.023336961  0.023309758            5 
 1083000   0.81119708   -7.3052622    302.81426  0.023300574  0.023293578            3 
 1084000   0.80751972    -7.322278    303.05996  0.023297968  0.023277537            4 
 1085000   0.82796217   -7.3326345    303.25361  0.023291368  0.023261454            5 
 1086000   0.79584944   -7.3333507    303.65273  0.023300547  0.023245433            4 
 1087000   0.80777541    -7.341011      303.334  0.023254677  0.023229375            9 
 1088000   0.81455504   -7.3661073    303.29008  0.023229938  0.023213345            4 
 1089000   0.80772057   -7.3496814      303.666  0.023237373  0.023197391            3 
 1090000   0.81675719   -7.3176509    304.07176  0.023247077  0.023181431            6 
 1091000   0.83560342   -7.3301943    304.19155  0.023234919  0.023165553            3 
 1092000   0.80323071   -7.3428193    303.97318  0.023196976  0.023149657            4 
 1093000   0.81637361    -7.323499    304.36044  0.023205279  0.023133769            7 
 1094000   0.81711857   -7.3441099    304.31191  0.023180371  0.023117825            5 
 1095000   0.81282728   -7.3416558     304.0889   0.02314223  0.023101952           10 
 1096000   0.80846182   -7.3473542    303.48366  0.023075095  0.023085882            6 
 1097000   0.79778712   -7.3450307    303.88301  0.023084397  0.023069773            4 
 1098000   0.82007162   -7.3058012    305.21302  0.023164316  0.023053787            3 
 1099000   0.82172778   -7.3487033    304.58535  0.023095644  0.023037762            5 
 1100000   0.81212536   -7.3221563    304.52929  0.023070401  0.023021743            6 
 1101000   0.81982606   -7.3641817    304.47362  0.023045233  0.023005689            4 
 1102000   0.82585848   -7.3614578    304.23153  0.023006014  0.022989751            4 
 1103000   0.81885835   -7.3461064    305.03769  0.023046063  0.022973791            3 
 1104000   0.80668058   -7.3422708     304.9941  0.023021898  0.022957832            3 
 1105000   0.80209237    -7.341403     305.3257  0.023026071  0.022941895            2 
 1106000   0.81901459   -7.3486522    304.51907  0.022944475  0.022925897            2 
 1107000   0.82127058   -7.3322673    305.70946  0.023013359      0.02291            9 
 1108000   0.80928243   -7.3626617    305.16099  0.022951338  0.022894086            6 
 1109000   0.80164414   -7.3425654     305.2382  0.022936444  0.022878064            4 
 1110000   0.80108929   -7.3511276    305.15116  0.022909246  0.022862128            5 
 1111000   0.81797469   -7.3368795    305.69773  0.022929623  0.022846136            5 
 1112000   0.80373631   -7.3525218    305.84411  0.022919972  0.022830317            4 
 1113000   0.80340721   -7.3506387    305.39813  0.022865988  0.022814373            5 
 1114000   0.81324637   -7.3508523    305.53735  0.022855876  0.022798485            5 
 1115000   0.81306759   -7.3729971     305.4224  0.022826786  0.022782604            4 
 1116000   0.80338457   -7.3417811    306.01865  0.022850855  0.022766766            4 
 1117000   0.79746265   -7.3456875    305.26388  0.022774089   0.02275086            3 
 1118000   0.81291092   -7.3452181    306.05429  0.022812633  0.022735034            5 
 1119000   0.79304649   -7.3355469    306.00176  0.022788335  0.022719248            4 
 1120000   0.80614738   -7.3831006     305.5608  0.022735179  0.022703452            7 
 1121000   0.79383391   -7.3517964    306.04097  0.022750593  0.022687557            5 
 1122000   0.79276759    -7.346761    306.08477  0.022733569  0.022671655            5 
 1123000   0.78234615   -7.3744988    306.03585  0.022709695  0.022655747            3 
 1124000   0.80541275   -7.3697341    306.45466  0.022720541  0.022639865            5 
 1125000   0.80138665   -7.3729472    306.25365  0.022685455  0.022623877            4 
 1126000   0.80346632   -7.3699669    306.60333  0.022691188  0.022607823            4 
 1127000   0.81118565   -7.3452806    305.62396  0.022598636  0.022591683            5 
 1128000   0.78081515    -7.378261     306.1665  0.022618683  0.022575478            4 
 1129000   0.81413373   -7.3816426    305.91396  0.022580009  0.022559262            5 
 1130000   0.83968028   -7.3505101    306.21687  0.022582365  0.022543136            6 
 1131000   0.80895477   -7.3860129     305.5727  0.022514935  0.022526985            4 
 1132000   0.79151516   -7.3851557      306.023  0.022528195  0.022510802            5 
 1133000   0.79241401   -7.3751334    305.74107  0.022487575  0.022494588           11 
 1134000   0.79953894   -7.3863337    306.09722  0.022493917  0.022478324            3 
 1135000   0.79036057   -7.3990975    306.45286   0.02250021  0.022462027            4 
 1136000   0.80515981   -7.3238245    306.38806   0.02247565  0.022445964            3 
 1137000   0.82326274   -7.3620516    306.17515  0.022440278  0.022429831            3 
 1138000   0.79835157   -7.3777291    306.03565  0.022410344   0.02241373           10 
 1139000   0.81549138   -7.3421276    307.23899  0.022478709   0.02239756            7 
 1140000   0.79068069   -7.3875603    305.99237  0.022367863  0.022381434            9 
 1141000   0.80062677   -7.3956814    306.59314  0.022392137  0.022365277           10 
 1142000   0.79216097   -7.3755515    306.72014  0.022381797  0.022349085            5 
 1143000   0.80156892   -7.3784336    307.41412  0.022412811  0.022332924            2 
 1144000   0.81823345   -7.3825471    306.62431  0.022335687  0.022316781            8 
 1145000   0.80659872   -7.3543416    306.89587  0.022335944  0.022300692            5 
 1146000   0.78704113   -7.3919858     306.8779  0.022315147  0.022284603            3 
 1147000   0.79377046    -7.383765    307.17105   0.02231699  0.022268477            4 
 1148000   0.80933106   -7.3860844    307.24808  0.022303142  0.022252428            5 
 1149000   0.79949377   -7.3924636    306.88636  0.022257496  0.022236313            8 
 1150000   0.78841796   -7.3816067    307.02805  0.022248409  0.022220252            5 
 1151000   0.81523396   -7.3951214    307.61749  0.022271756  0.022204216            4 
 1152000   0.79925579   -7.3517042    308.49618  0.022315985  0.022188356            3 
 1153000   0.77887779    -7.356462    308.01531  0.022261875  0.022172463            6 
 1154000   0.81317727   -7.4107852    307.61869  0.022213944  0.022156536            6 
 1155000   0.80658732   -7.4103872     308.0548  0.022226176   0.02214059           10 
 1156000   0.77842661   -7.4198038    307.47733  0.022165321  0.022124628            6 
 1157000   0.79735925   -7.4064899    307.80863  0.022170025  0.022108657            3 
 1158000   0.79620456   -7.4089103    308.14987  0.022175437  0.022092708            2 
 1159000   0.78524819   -7.3628451    308.68787  0.022194987   0.02207686            5 
 1160000   0.80067019   -7.3704244    309.32842  0.022221869  0.022061072            4 
 1161000    0.8052803   -7.3929956    308.31637  0.022130087  0.022045229            3 
 1162000   0.80170307   -7.3922226    308.36484  0.022114518  0.022029444            3 
 1163000   0.79320266   -7.3522022    308.46025   0.02210234   0.02201374            7 
 1164000   0.79854893   -7.4142422    308.63083  0.022095563  0.021997976            3 
 1165000   0.77058376   -7.4127014     308.4711  0.022065171  0.021982144            4 
 1166000   0.76659561    -7.398066    308.45296  0.022044951  0.021966341            6 
 1167000    0.7786302   -7.4292874    308.58725  0.022035651   0.02195048           12 
 1168000   0.78867266   -7.3815234    308.42023  0.022004868  0.021934604            7 
 1169000   0.78504946   -7.3782701    308.54626  0.021995029  0.021918705            5 
 1170000   0.78449721   -7.4202279    308.83623  0.021996883  0.021902856            3 
 1171000   0.77709224   -7.3899122    309.01928  0.021991124  0.021887103            2 
 1172000   0.79711154   -7.3900057    308.92497  0.021965655  0.021871314            4 
 1173000   0.80199261   -7.4037024    309.00248  0.021952435  0.021855504            7 
 1174000   0.79095013    -7.394906    308.90289  0.021926667  0.021839676            9 
 1175000   0.78578961   -7.3881651    310.10818  0.021993488  0.021823961            2 
 1176000   0.79795349   -7.4281068    309.89253  0.021959504   0.02180834            5 
 1177000   0.77652486   -7.4282631    310.02117  0.021949955  0.021792647           10 
 1178000   0.77901434   -7.4043539    310.35224  0.021954743  0.021777105            9 
 1179000   0.77261106   -7.4214685    309.13371  0.021849994  0.021761441            7 
 1180000   0.77622552   -7.4434284    309.51476  0.021858387  0.021745761            4 
 1181000   0.78575618   -7.4455476    309.62151  0.021847411  0.021730117            2 
 1182000   0.77918586   -7.4121576    309.61596  0.021828537  0.021714509            2 
 1183000   0.77418447   -7.4259989    309.66922  0.021813837  0.021698984            5 
 1184000   0.77153705   -7.4349202    309.71473  0.021798615    0.0216834            5 
 1185000   0.77956997   -7.4522422    310.21583  0.021815459    0.0216678            3 
 1186000    0.7885002   -7.4034414    310.09137   0.02178832  0.021652317            2 
 1187000   0.79234818    -7.418403    310.34236  0.021787585  0.021636815            6 
 1188000   0.78138829    -7.429062    309.84351  0.021734253  0.021621301            4 
 1189000   0.77858404   -7.4062019    310.84518  0.021786177  0.021605715            6 
 1190000   0.77601407   -7.4022039     310.1875  0.021721813  0.021590213            6 
 1191000   0.76908152   -7.4126759    310.42735  0.021720357  0.021574756            7 
 1192000    0.8011955   -7.4009537    310.72078  0.021722649  0.021559291            5 
 1193000   0.77374031   -7.4306792    310.75472  0.021706812   0.02154387            5 
 1194000   0.77141999   -7.4059481    311.31067  0.021727433  0.021528467            4 
 1195000    0.7748358    -7.397654    310.88295  0.021679425  0.021513024            6 
 1196000   0.77316977   -7.4285347     310.7054  0.021648927  0.021497526            8 
 1197000   0.75625019    -7.424146    310.99363  0.021650907  0.021482017            7 
 1198000    0.7961083    -7.439035     311.1615  0.021644512  0.021466551            8 
 1199000   0.78231392    -7.417396    311.50636  0.021650428  0.021451108            6 
 1200000   0.77792272    -7.398904    311.49018  0.021631263  0.021435692           12 
 1201000   0.77588668   -7.4190849     311.8498  0.021638204  0.021420335           15 
 1202000   0.78750545   -7.3874299    311.40351  0.021589262  0.021404972            7 
 1203000   0.77668887    -7.442969    312.10304  0.021619773  0.021389635            6 
 1204000    0.7785013   -7.4246123    311.23558  0.021541776  0.021374341            8 
 1205000   0.76607101   -7.4445575    311.49488  0.021541831  0.021359008            7 
 1206000   0.77906967   -7.4334093    311.15405  0.021500418  0.021343776            4 
 1207000   0.77948607   -7.4400277    311.29216   0.02149214  0.021328454            7 
 1208000   0.78763019   -7.4401376    311.59876  0.021495499  0.021313121            4 
 1209000   0.77281734   -7.4308475     311.7781  0.021490082  0.021297825            5 
 1210000   0.76131299   -7.4497223    311.51063    0.0214539  0.021282542            5 
 1211000   0.77364339   -7.4190595    312.11781  0.021477966  0.021267327            7 
 1212000   0.75999979   -7.4291754    312.25284   0.02146953  0.021252112            7 
 1213000   0.74758153   -7.4022364    311.97044  0.021432429  0.021236878            4 
 1214000   0.76440864   -7.4497687    311.97379  0.021415005  0.021221652            2 
 1215000   0.77104684   -7.4419283    312.04122  0.021402004  0.021206288           10 
 1216000   0.77730758    -7.448155    312.11865   0.02138971  0.021190939            4 
 1217000   0.77461498   -7.4433146    311.94097  0.021359968  0.021175597            9 
 1218000    0.7575862   -7.4208905     312.6768  0.021392775  0.021160316            8 
 1219000   0.77982669   -7.4425079    312.56159   0.02136735  0.021145134            6 
 1220000   0.73891017   -7.4477016    312.65716  0.021356363  0.021129937            8 
 1221000   0.76050651   -7.4473507    312.26545  0.021312138  0.021114785            5 
 1222000   0.77009793   -7.4222497    312.83322  0.021333417  0.021099583            7 
 1223000   0.77413167   -7.4504547    313.52129  0.021362857  0.021084539            6 
 1224000   0.76718357   -7.4336105    312.60483  0.021283008  0.021069507            5 
 1225000   0.75211512   -7.4468438     312.9516  0.021289225   0.02105445            3 
 1226000   0.78543307   -7.4519814    313.29361  0.021295107  0.021039266            5 
 1227000   0.75342773   -7.4472514    312.63685  0.021233147  0.021024206            6 
 1228000   0.77347286   -7.4288582    313.51078  0.021275162  0.021009145            3 
 1229000   0.76368516   -7.4488636    313.55399  0.021260781  0.020994063            5 
 1230000   0.77710504   -7.4473774    312.91716   0.02120035  0.020978943            7 
 1231000   0.75577377   -7.4521118    312.74357  0.021171376  0.020963829            4 
 1232000    0.7648172   -7.4692503    312.98772  0.021170706  0.020948628            5 
 1233000   0.75460259   -7.4641074     312.8619  0.021145032  0.020933481            5 
 1234000   0.75138947   -7.4669637    312.89739  0.021130294  0.020918348            5 
 1235000   0.74791212   -7.4602916    313.47094  0.021151885  0.020903294            5 
 1236000   0.74675682   -7.4379704    313.83857  0.021159558  0.020888226            5 
 1237000   0.76198782   -7.4610375    313.18208  0.021098227  0.020873197            5 
 1238000   0.74902286   -7.4353247    313.96799  0.021134087  0.020858198            8 
 1239000   0.75746252   -7.4377216    314.21054  0.021133343  0.020843241            4 
 1240000   0.75601691   -7.4758707    312.72967  0.021016779  0.020828186            5 
 1241000   0.76071926    -7.463726    313.80837  0.021072279  0.020813126            6 
 1242000   0.75156342    -7.475402    312.97332  0.020999284  0.020798037            4 
 1243000   0.75466836   -7.4664531    313.76685  0.021035589  0.020783001            5 
 1244000   0.77050695   -7.4726207    313.67702  0.021012662  0.020767956            4 
 1245000   0.74526789   -7.4549768     313.9624  0.021014886  0.020752997            6 
 1246000   0.75647767   -7.4537049     313.3951  0.020960079  0.020737997            3 
 1247000   0.76263488   -7.4498462    313.60757  0.020957469  0.020723027            3 
 1248000   0.76488444   -7.4734256      314.183    0.0209791  0.020708007            6 
 1249000   0.75565258    -7.458635     313.8742    0.0209417  0.020692977            8 
 1250000    0.7511131   -7.4898731    313.27409  0.020884939  0.020677946            5 
 1251000   0.75119993   -7.4637224    313.91754  0.020911107  0.020662881            9 
 1252000   0.74901568   -7.4775075     314.5648  0.020937486  0.020647879            5 
 1253000   0.73542834   -7.4769263    314.12022  0.020891209  0.020632965            5 
 1254000    0.7662478   -7.4816526    314.21319  0.020880728  0.020617982            4 
 1255000   0.75313013   -7.4800205    314.13616  0.020858975  0.020602983            3 
 1256000   0.74551151    -7.498459    313.65746  0.020810607  0.020587989            5 
 1257000   0.76076693   -7.4631727    314.36986  0.020841279  0.020573041            4 
 1258000   0.75298994   -7.4571698    314.17149  0.020811572  0.020558099            3 
 1259000   0.75412363   -7.4780264    314.46248  0.020814302  0.020543245            3 
 1260000   0.75012286   -7.5041584    314.21389  0.020781342  0.020528321            6 
 1261000   0.75042116   -7.4993387    314.31078  0.020771265   0.02051346            5 
 1262000   0.73914813   -7.4971857    314.13382  0.020743121  0.020498521            2 
 1263000   0.75283086   -7.4915726    314.72543  0.020765732  0.020483634            3 
 1264000   0.75290959   -7.5060837    315.35858  0.020791046  0.020468688            3 
 1265000   0.75293847   -7.4890956    314.77959  0.020736468   0.02045379            5 
 1266000   0.74455239   -7.5106089     314.9107  0.020728719  0.020438894            7 
 1267000   0.74357625   -7.4815519    314.91096  0.020712376  0.020424001            4 
 1268000   0.74317114   -7.4961884    314.56298  0.020673172  0.020409066           14 
 1269000   0.75418039   -7.4941453    314.96353  0.020683184  0.020394176            6 
 1270000   0.75233432   -7.4910802    314.68645  0.020648717   0.02037927            5 
 1271000   0.74432364     -7.48763    314.90609  0.020646872  0.020364418            6 
 1272000   0.74574152   -7.5015514     314.4962  0.020603787   0.02034962            6 
 1273000   0.72925485   -7.5080115    314.43496  0.020583593  0.020334825            4 
 1274000    0.7390891   -7.5213516    314.59668  0.020578014  0.020319895            7 
 1275000   0.75439597   -7.4747939    315.13113  0.020596806  0.020305042            4 
 1276000   0.74297949   -7.4914764    313.82029  0.020495055  0.020290148            5 
 1277000   0.73436941   -7.5078886    314.11574  0.020498286   0.02027522            3 
 1278000   0.75367261    -7.508897    314.43053  0.020502773  0.020260348            8 
 1279000   0.75368515   -7.5132337    315.22461  0.020538481  0.020245432           10 
 1280000    0.7304942   -7.5071996     314.7385  0.020490788  0.020230527           14 
 1281000   0.72452918    -7.484765    315.09984  0.020498298  0.020215683           11 
 1282000     0.761819   -7.4999269    315.33493   0.02049759  0.020200752           13 
 1283000   0.74194782   -7.4929126    315.35669  0.020483028  0.020185933           14 
 1284000   0.72939531   -7.4992819    314.59328  0.020417529  0.020171096            7 
 1285000   0.73710665   -7.4984309    314.68237  0.020407417  0.020156262            5 
 1286000   0.73819604   -7.5225659    315.36645  0.020435877  0.020141424            7 
 1287000   0.73293858   -7.5058449    315.22816  0.020411044  0.020126527            5 
 1288000   0.74927344   -7.5224426    314.74888  0.020364188  0.020111635            3 
 1289000   0.74752707    -7.496718    314.74402  0.020348075  0.020096793            4 
 1290000    0.7336044   -7.4960061    314.90874  0.020342942  0.020081969            5 
 1291000   0.74160499   -7.5206943    315.03345  0.020335234  0.020067056            7 
 1292000   0.76356856   -7.5310209    314.78113   0.02030322  0.020052178            3 
 1293000   0.74561289   -7.5109065    315.16222  0.020312079  0.020037369            6 
 1294000   0.73952677   -7.5155442    315.99049  0.020349722  0.020022647            4 
 1295000    0.7275447   -7.5137128    314.73916  0.020253485  0.020007911            4 
 1296000   0.73429023   -7.5008177    315.50148  0.020286875  0.019993198            3 
 1297000   0.73425544   -7.5287803    314.55853  0.020210648  0.019978472            7 
 1298000   0.73061085   -7.4995316    315.78076  0.020273547  0.019963737            5 
 1299000     0.742932   -7.4964788    315.41508   0.02023448  0.019949036            4 
 1300000   0.73582375   -7.5243212    315.99244  0.020255926  0.019934401            3 
 1301000   0.73197601   -7.5225497    316.37824  0.020265068  0.019919699            4 
 1302000   0.71426422   -7.5223989    315.49127  0.020192734  0.019904904            5 
 1303000   0.72661998   -7.5210141    315.37122  0.020169559  0.019890149            4 
 1304000   0.73047723   -7.5309205     316.0624  0.020198262  0.019875411            5 
 1305000   0.71882779   -7.5044583    315.83572  0.020168309  0.019860767            4 
 1306000   0.73675064   -7.5332745    316.23014  0.020178034  0.019846111            6 
 1307000   0.72049997   -7.5182721    316.31945   0.02016829  0.019831529            4 
 1308000   0.73047877   -7.5173762    315.51795  0.020101806  0.019816883            8 
 1309000   0.73872162   -7.4827793     316.3051  0.020136561  0.019802264            3 
 1310000   0.74423716   -7.4912295     316.4529  0.020130592  0.019787672            9 
 1311000   0.74583294   -7.5250517    315.90473  0.020080392  0.019773053            4 
 1312000   0.72107357   -7.5469779    316.11757  0.020078606   0.01975836            4 
 1313000   0.73352094   -7.5475431    315.39012  0.020017144  0.019743651            3 
 1314000   0.71613377   -7.5354129    316.54922   0.02007542  0.019728907            3 
 1315000   0.73144254   -7.5554074    315.89691  0.020018815  0.019714134           10 
 1316000   0.74545793   -7.5449783    316.22744  0.020024534  0.019699422            6 
 1317000   0.71608329   -7.5409442    316.24069  0.020010168  0.019684715            6 
 1318000   0.73874706   -7.5344781    316.07238  0.019984343  0.019669989           13 
 1319000   0.73378076   -7.5539249    316.19048  0.019976654  0.019655316            6 
 1320000   0.72312085   -7.5220889     315.7122  0.019931326  0.019640627            5 
 1321000   0.73150518   -7.5476032    316.46658  0.019963827  0.019625927            6 
 1322000   0.72245827   -7.5525309    315.86156  0.019910587  0.019611255            8 
 1323000   0.73842813   -7.5326527    316.47535  0.019934199  0.019596636            5 
 1324000    0.7264838   -7.5392498    315.72006  0.019871605  0.019582068            3 
 1325000   0.73794634   -7.5477751    316.35719  0.019896679  0.019567474            6 
 1326000   0.71290068    -7.544521    316.49411  0.019890279  0.019552846           10 
 1327000   0.71430576   -7.5672225    316.74113  0.019890802  0.019538243           10 
 1328000   0.71332566   -7.5258937    315.99176    0.0198288  0.019523611           10 
 1329000   0.72989709   -7.5726909    316.50861  0.019846289  0.019509003            3 
 1330000   0.71561439   -7.5615581    316.17014  0.019810159  0.019494353            9 
 1331000   0.73546379   -7.5520134    315.98296  0.019783556  0.019479669            7 
 1332000   0.72090601   -7.5382131     315.8896  0.019762863   0.01946502           13 
 1333000   0.71720587   -7.5796126    316.01366  0.019755793  0.019450272            7 
 1334000   0.72268153   -7.5822324    315.72381  0.019722877  0.019435506            2 
 1335000   0.72659195    -7.561667    315.87393  0.019717474  0.019420742            4 
 1336000   0.72273975   -7.5707237    315.98672   0.01970975  0.019406013           12 
 1337000   0.72222112   -7.5466426    316.24217  0.019710931  0.019391281            9 
 1338000   0.71934608   -7.5785143    316.45389  0.019709385  0.019376608           10 
 1339000   0.70787697   -7.5759429    316.10473  0.019672935  0.019361885            8 
 1340000   0.71209116   -7.5712313    315.86008   0.01964304   0.01934723            7 
 1341000   0.71737262   -7.5602419    316.11198  0.019644045  0.019332557            5 
 1342000    0.7243144   -7.5868177     316.0111  0.019623144   0.01931788            5 
 1343000   0.71724699   -7.5691617    315.93045  0.019603528  0.019303213            9 
 1344000   0.71998515   -7.5846488    315.77692  0.019579422  0.019288517           10 
 1345000   0.71356876   -7.5919813    316.54725  0.019612593   0.01927381            6 
 1346000   0.71351887   -7.5781848    315.55071  0.019536324  0.019259135            9 
 1347000   0.70423456   -7.5683624    316.17713  0.019560575  0.019244435            7 
 1348000   0.73131732   -7.5719557    316.40321   0.01956004  0.019229815           12 
 1349000   0.70290277    -7.561309    316.28511  0.019538245  0.019215219            9 
 1350000   0.72507916   -7.5567394    316.53567  0.019539239  0.019200648            5 
 1351000   0.71282063   -7.5959081    316.70085  0.019534965  0.019186084            6 
 1352000   0.69476843   -7.5839387    316.14822  0.019486454  0.019171488            9 
 1353000   0.70278703   -7.5735934     316.4601   0.01949126  0.019156872            3 
 1354000   0.70874046   -7.5933366    316.34599  0.019469842  0.019142296            4 
 1355000   0.70937463   -7.5801215    316.29791  0.019452516  0.019127656            3 
 1356000   0.69320856   -7.5743474    316.62424  0.019458225  0.019113052            7 
 1357000   0.69495443   -7.5833187    316.37254  0.019428429   0.01909845            4 
 1358000   0.70910495   -7.5868082    316.32607  0.019411271  0.019083805            5 
 1359000   0.71295511   -7.5674133    316.67888  0.019418622  0.019069194            7 
 1360000   0.71614156   -7.5712968    316.86241  0.019415589  0.019054615            3 
 1361000   0.72051854   -7.6022615    316.29171   0.01936638  0.019039998            8 
 1362000    0.7180004   -7.5996797    316.03804   0.01933664  0.019025389            5 
 1363000   0.71102778   -7.5593631    316.05368  0.019323409  0.019010852            8 
 1364000   0.71243992    -7.574096    316.32907  0.019326067  0.018996351            5 
 1365000   0.70320478   -7.5765348    316.47036  0.019320535  0.018981814            7 
 1366000   0.70685062   -7.5684234     316.9546  0.019335932  0.018967258            5 
 1367000   0.70162631   -7.5951138    316.41605  0.019288957  0.018952725           10 
 1368000   0.71027403   -7.5780588    316.08977  0.019254981  0.018938154           10 
 1369000   0.69856809   -7.5843594     316.3152  0.019254639  0.018923564            8 
 1370000   0.69290702    -7.594501    315.80842  0.019209758  0.018908926            6 
 1371000   0.70757097   -7.6201948    315.64991  0.019186112  0.018894293            9 
 1372000   0.70564401   -7.5975496     316.3714   0.01921595  0.018879647            8 
 1373000    0.7115569   -7.5969028    315.96363  0.019177205  0.018864996            7 
 1374000   0.69002022   -7.6125792    316.79098  0.019213427  0.018850333           10 
 1375000   0.69640598   -7.5911449    316.79392  0.019199632    0.0188357           14 
 1376000   0.71276382   -7.5835984     316.6639  0.019177804  0.018821109            4 
 1377000   0.70248956   -7.5768598    316.60829  0.019160511  0.018806602           10 
 1378000   0.71299301    -7.590803    316.41049  0.019134645  0.018792097           25 
 1379000   0.68678248   -7.5935662    316.26607  0.019112042  0.018777596           16 
 1380000   0.71599177   -7.6112046    316.13708  0.019090403  0.018763098           17 
 1381000   0.69283085   -7.6187935    316.29698  0.019086229  0.018748643           10 
 1382000   0.70476251   -7.5935927    316.58426  0.019089741  0.018734197           12 
 1383000   0.70332564   -7.6076333    316.19322  0.019052375   0.01871973            6 
 1384000   0.68968261   -7.6090805    316.78789  0.019074416  0.018705292            9 
 1385000   0.71536332   -7.6108012    316.32753  0.019032944  0.018690862            7 
 1386000   0.70243595    -7.608411    316.52822  0.019031278  0.018676404            4 
 1387000   0.70262011   -7.6008047    315.84796  0.018976686  0.018661995            6 
 1388000   0.71230125   -7.5900639    317.33298  0.019052172  0.018647561            9 
 1389000   0.69549318    -7.606257     316.6773  0.018999118  0.018633172            5 
 1390000   0.69633854    -7.601233    316.92913  0.019000547  0.018618831           12 
 1391000   0.69453401   -7.5832663    316.90144  0.018985229  0.018604472            4 
 1392000   0.70049374   -7.6132382    317.08142  0.018982365  0.018590157            7 
 1393000   0.69866929   -7.5820604    317.14018  0.018972253  0.018575877           11 
 1394000   0.70230372   -7.5889338     317.0212   0.01895153  0.018561577            4 
 1395000   0.69452195   -7.6104031    316.72592  0.018920306  0.018547244            3 
 1396000   0.69143317    -7.596701    317.02964  0.018924883  0.018532914            4 
 1397000   0.70641953   -7.5782201    316.93363  0.018905609  0.018518644            8 
 1398000   0.68922742   -7.6023785    316.78586  0.018883277  0.018504415            7 
 1399000   0.68659395   -7.6023234    316.81219  0.018871348  0.018490174           10 
 1400000   0.68530235   -7.5746934    317.02063  0.018870275  0.018475936            8 
 1401000   0.69942757   -7.5864847    316.92187  0.018850932  0.018461685            4 
 1402000   0.68589372   -7.5960231    317.15087  0.018851098  0.018447402            4 
 1403000   0.70074567   -7.5851905    316.84414  0.018819443  0.018433041           10 
 1404000   0.69297158    -7.616684    316.30985  0.018774326   0.01841869            6 
 1405000   0.68682341   -7.6268748    316.70625  0.018784475  0.018404321            4 
 1406000   0.70142816   -7.6227691    316.52984  0.018760659  0.018389973            8 
 1407000   0.68314051   -7.6049204    317.09541  0.018780823  0.018375674            4 
 1408000   0.68694301   -7.6131863    316.92153  0.018757193  0.018361354            7 
 1409000   0.69074696   -7.6078634    316.99664  0.018748323  0.018347055            8 
 1410000   0.69123652   -7.6164826    317.10429  0.018741388   0.01833275            5 
 1411000   0.70419756   -7.6133504    317.21508  0.018734649    0.0183185            6 
 1412000   0.67618237   -7.6045673    316.46013  0.018676826  0.018304252           12 
 1413000   0.68661436   -7.6223266    317.84675  0.018745385  0.018290054            5 
 1414000   0.68671102   -7.6380129     317.1167  0.018689103  0.018275795            5 
 1415000   0.69359077   -7.6281378    317.03807  0.018671265  0.018261589            5 
 1416000   0.68715386   -7.6206545    316.83843  0.018646329  0.018247378            4 
 1417000   0.68156914   -7.6149926    317.42593  0.018667721  0.018233212            6 
 1418000   0.69582545   -7.6309473    316.71623  0.018612848  0.018219075           10 
 1419000   0.68986537   -7.6114818    317.07609  0.018620865  0.018204923            9 
 1420000   0.69245257   -7.6178316    316.75576  0.018588953  0.018190768            6 
 1421000    0.6923693   -7.6255629    317.17935  0.018600712  0.018176638            6 
 1422000    0.6736842   -7.6042465    317.65677   0.01861561  0.018162549            7 
 1423000   0.68836974   -7.6037543    317.44794  0.018590298  0.018148444            9 
 1424000   0.68043682   -7.6235034    316.88525  0.018544315  0.018134324           11 
 1425000   0.68862718   -7.6285701    317.02599  0.018539531  0.018120219            7 
 1426000   0.68937539   -7.6257454    317.29203  0.018542077  0.018106137            5 
 1427000   0.68829439     -7.62198    317.35735  0.018532899  0.018092054            9 
 1428000   0.69274556   -7.6135249    317.59094  0.018533552  0.018078007            5 
 1429000   0.67712083   -7.6291748    316.99221  0.018485667  0.018063957           12 
 1430000   0.67461533   -7.6050891    317.42397  0.018497901  0.018049909            9 
 1431000    0.6769629   -7.6100645    317.52274  0.018490726  0.018035889            8 
 1432000   0.68501162   -7.6247647    317.38274  0.018469666  0.018021873           10 
 1433000   0.67907458   -7.6121375    317.25481  0.018449338  0.018007838            6 
 1434000   0.68304856   -7.6252061    317.77645  0.018466786  0.017993842            5 
 1435000    0.6808771   -7.6275052    317.20859   0.01842094  0.017979849            4 
 1436000   0.69304763   -7.6546747    316.80574  0.018384734  0.017965744            9 
 1437000   0.69144727    -7.637802    316.99898  0.018383146   0.01795166            5 
 1438000   0.68771942   -7.6428659    317.97461  0.018426901  0.017937638            5 
 1439000   0.67464379   -7.6173403    317.04895   0.01836049  0.017923611            5 
 1440000   0.69049118   -7.6641233    317.60161  0.018379723  0.017909609            8 
 1441000    0.6873668   -7.6377899    316.75494  0.018318005  0.017895627            6 
 1442000    0.6850439   -7.6226535    317.86405  0.018369397   0.01788165            6 
 1443000   0.67852172   -7.6286815    317.97466  0.018363055  0.017867744            6 
 1444000   0.65837674   -7.6536165    317.77701  0.018338932  0.017853823            9 
 1445000   0.67397574   -7.6456223     317.3081  0.018299198  0.017839903            7 
 1446000   0.67114756   -7.6430982    317.36261  0.018289685  0.017826006            8 
 1447000   0.67449354   -7.6442926    317.99526   0.01831348  0.017812118           14 
 1448000   0.68325368   -7.6368508    318.33559  0.018320419   0.01779824           11 
 1449000   0.68688362   -7.6741709    317.88377   0.01828179  0.017784383            5 
 1450000   0.67239038    -7.664133     317.9354  0.018272149  0.017770563            7 
 1451000   0.68634174   -7.6497434    318.40166  0.018286335  0.017756765            7 
 1452000   0.67606291   -7.6365631    318.06773  0.018254576  0.017742962            5 
 1453000   0.67317545   -7.6545082     316.7765  0.018167957  0.017729133           22 
 1454000   0.67384659   -7.6491291     318.0369  0.018227699  0.017715286            4 
 1455000   0.67938129   -7.6849767    317.40697  0.018179093  0.017701427            5 
 1456000     0.668449   -7.6671532    316.87545  0.018136186   0.01768754            8 
 1457000   0.66503646   -7.6489877    317.37434  0.018152273  0.017673669            5 
 1458000   0.66356813   -7.6422531    318.03143  0.018177379  0.017659832            5 
 1459000   0.67572719   -7.6626564    317.58949  0.018139679  0.017645981            3 
 1460000   0.68967987   -7.6413447    317.57353  0.018126343  0.017632146            3 
 1461000    0.6714143   -7.6692704    316.83029  0.018071543  0.017618283            5 
 1462000   0.67470673   -7.6344221    317.50727   0.01809777  0.017604441            4 
 1463000   0.66762378   -7.6762238    317.59008  0.018090116  0.017590608            4 
 1464000   0.66467965   -7.6511299     317.8735  0.018093892   0.01757679            3 
 1465000   0.67205211   -7.6694587     317.1375  0.018039676  0.017562989            7 
 1466000   0.67049362   -7.6564576    317.72324  0.018060666  0.017549219            5 
 1467000   0.66437357   -7.6494097     317.8207  0.018053891  0.017535474            6 
 1468000   0.66947098   -7.6548161    317.93716  0.018048204  0.017521719            8 
 1469000   0.67145041    -7.675733     316.9305  0.017978812  0.017507993            5 
 1470000    0.6701225    -7.680838    317.43336  0.017995088  0.017494257            8 
 1471000   0.67645798   -7.6671456    316.95589  0.017955806  0.017480531           10 
 1472000   0.68375625   -7.6662915    317.56955  0.017978348  0.017466765           11 
 1473000   0.66203577   -7.7028204    317.25664  0.017948441  0.017453013            6 
 1474000   0.66058978   -7.6640008    317.56274  0.017953569  0.017439256            4 
 1475000   0.66511828   -7.6794207    317.37133  0.017930583  0.017425511           13 
 1476000   0.66344354   -7.6965347    317.42897   0.01792169  0.017411767            7 
 1477000   0.66405386   -7.7054436    317.37309  0.017906403   0.01739809            8 
 1478000   0.66907388   -7.7028545    317.70323  0.017912902  0.017384364            6 
 1479000   0.67113325    -7.695062    317.15789  0.017870064  0.017370681           10 
 1480000   0.65684416   -7.6850114    316.56767  0.017824756  0.017356991            7 
 1481000   0.67448366   -7.6797724    317.63063  0.017872532  0.017343342            8 
 1482000   0.67591474   -7.6931625    317.49564  0.017852881  0.017329679           10 
 1483000   0.66286472   -7.6976483    316.94914  0.017810134  0.017315995           13 
 1484000   0.64665372    -7.688322    317.54308  0.017831485  0.017302338            7 
 1485000   0.67835325    -7.681174     317.7558  0.017831414  0.017288724            4 
 1486000    0.6782291   -7.6732454    317.87825  0.017826281  0.017275149            7 
 1487000   0.65218988   -7.6953765     317.9693  0.017819396  0.017261563            8 
 1488000   0.65346342   -7.6892085    317.25861  0.017767619  0.017247977            4 
 1489000   0.67636149   -7.6633062    317.92846  0.017793176  0.017234402           10 
 1490000   0.65288343   -7.6993791    317.98174  0.017784214  0.017220867            5 
 1491000   0.65864066   -7.6918253    317.78391  0.017761229  0.017207301            9 
 1492000   0.66177947     -7.70688     317.2987  0.017722224  0.017193751            6 
 1493000   0.65497988   -7.6950995    317.61756  0.017728151  0.017180231            6 
 1494000   0.66249872   -7.6918975    317.73787  0.017722996  0.017166722            7 
 1495000   0.65960406   -7.6963667    317.80543  0.017714907   0.01715321           12 
 1496000   0.64703354   -7.7071318     317.5045  0.017686302  0.017139702            5 
 1497000   0.64735228   -7.6949366    317.58968   0.01767923  0.017126173            5 
 1498000   0.66604183   -7.7123408    317.67758  0.017672317  0.017112623           10 
 1499000   0.65249171   -7.6979411    318.11949  0.017685095  0.017099065            3 
 1500000   0.64839844    -7.698891     317.8713  0.017659516  0.017085552            7 
 1501000   0.63643367   -7.7080273    317.46606  0.017625253  0.017072066           14 
 1502000   0.65868522   -7.6692507    318.45276  0.017668262  0.017058586            4 
 1503000   0.65371938   -7.7282945    317.26685  0.017590755  0.017045093            7 
 1504000   0.64918899   -7.7104353    317.19153  0.017574885  0.017031608            3 
 1505000   0.65861593   -7.7444834      317.398   0.01757464  0.017018126            7 
 1506000   0.64330504    -7.699596    317.62918  0.017575763  0.017004725            6 
 1507000   0.64004938   -7.7165368    318.17171    0.0175941  0.016991314            8 
 1508000   0.63307911   -7.7245861    317.89836  0.017567328  0.016977886            7 
 1509000   0.63864008    -7.708347    317.91503  0.017556607  0.016964498            7 
 1510000   0.65105853   -7.7165501    318.47803   0.01757605  0.016951141            6 
 1511000   0.65504738   -7.7052049    318.28911  0.017553999   0.01693777            8 
 1512000   0.66199488   -7.7101581    318.09515  0.017531699  0.016924457           11 
 1513000   0.65527196   -7.7293168     317.4737  0.017485884  0.016911138            6 
 1514000    0.6398465   -7.7369885     317.9218  0.017498998  0.016897799           13 
 1515000   0.64028376   -7.7433308    317.08323  0.017441322  0.016884461            9 
 1516000   0.65743337   -7.7146167    317.69987  0.017463713  0.016871144           13 
 1517000   0.63600881   -7.7152664    317.70462  0.017452462  0.016857817           11 
 1518000   0.65587009   -7.7050066    317.90132  0.017451763  0.016844549           14 
 1519000   0.65630105    -7.698064    317.98242  0.017444724   0.01683129           14 
 1520000   0.64788394   -7.7124399    317.67968  0.017416649  0.016818033           15 
 1521000   0.64473435   -7.7074534    317.65244  0.017403706   0.01680477           13 
 1522000   0.65944445   -7.7334918    317.26038  0.017370805  0.016791493           11 
 1523000   0.62529154   -7.7153291    317.55976   0.01737578  0.016778197           16 
 1524000   0.63796833    -7.745463    317.65822  0.017369763  0.016764908           11 
 1525000   0.65132296   -7.7407055    317.42546  0.017345654  0.016751593           10 
 1526000    0.6382751   -7.7219678    317.89696  0.017360035  0.016738264           12 
 1527000   0.63948757   -7.7470089    317.20103  0.017310687  0.016724948            9 
 1528000   0.64218733   -7.7438214     317.7596  0.017329821  0.016711644           18 
 1529000   0.64338997   -7.7548392    317.53739  0.017306376  0.016698346           10 
 1530000   0.64360833   -7.7371335    316.82805   0.01725643  0.016685038           13 
 1531000   0.63974374   -7.7201716    317.46919  0.017280056  0.016671749            7 
 1532000   0.63970289   -7.7569552    317.71843  0.017282334  0.016658472           17 
 1533000   0.63475175   -7.7540312    317.31398  0.017249075  0.016645197           12 
 1534000   0.63963867   -7.7540054    317.17173  0.017230103  0.016631925           15 
 1535000   0.62989417   -7.7636438    317.16181   0.01721834  0.016618671            5 
 1536000   0.64310913    -7.727561    317.30251  0.017214763  0.016605399           13 
 1537000   0.63417777   -7.7624277    317.18137  0.017196994  0.016592175           11 
 1538000   0.63804856    -7.751118     317.0523   0.01717882  0.016578971            8 
 1539000   0.65307529   -7.7536966    317.48684  0.017191187  0.016565773            7 
 1540000   0.63877594   -7.7515016    317.76602  0.017195131   0.01655259            8 
 1541000   0.63928469   -7.7348729    317.29987  0.017158764   0.01653942           11 
 1542000   0.62757322   -7.7539024    317.45079  0.017155793  0.016526283           15 
 1543000   0.64692202   -7.7259111    317.79164  0.017163083  0.016513172           15 
 1544000   0.64503337   -7.7387765    317.71862  0.017148026  0.016500072           16 
 1545000    0.6373721   -7.7377464    317.79023  0.017140789  0.016486969           14 
 1546000   0.63124148   -7.7330145    317.37577  0.017107362  0.016473864            9 
 1547000   0.64003873    -7.754404    317.38519   0.01709681  0.016460784           10 
 1548000   0.64233588   -7.7537816     317.8167  0.017108995  0.016447747           11 
 1549000   0.61972039    -7.731298     317.7903   0.01709653  0.016434669           15 
 1550000   0.63516927   -7.7668105    317.42153  0.017065674  0.016421613            9 
 1551000   0.63338642    -7.768204    317.51001  0.017059424  0.016408556            9 
 1552000   0.62918502   -7.7604699    317.72312  0.017059875  0.016395534            7 
 1553000   0.63922226   -7.7421092    317.37267  0.017030085  0.016382477            7 
 1554000   0.63787652   -7.7453491     317.7502  0.017039371  0.016369454            8 
 1555000   0.63030186    -7.768407    317.89863  0.017036368  0.016356412           13 
 1556000   0.64290192   -7.7606838    317.85779  0.017023232  0.016343404           11 
 1557000   0.63667804   -7.7397824    317.46417  0.016991231  0.016330381           17 
 1558000   0.62765129   -7.7435968    317.35081  0.016974262  0.016317352            9 
 1559000   0.64530432   -7.7645599    316.79422  0.016933623   0.01630431            5 
 1560000   0.64204752   -7.7732944    317.14032  0.016941256   0.01629124            8 
 1561000   0.62390619   -7.7471058    316.46632  0.016894422  0.016278205           13 
 1562000   0.62426117   -7.7612409    317.19294  0.016922372  0.016265184           13 
 1563000   0.64753397   -7.7407519    317.76214  0.016941893    0.0162522           10 
 1564000   0.62327374   -7.7665412    317.13228    0.0168975   0.01623924           14 
 1565000   0.63806783   -7.7424777     317.5497   0.01690893  0.016226279            5 
 1566000   0.63356634   -7.7528835    317.01949  0.016869918  0.016213315           10 
 1567000   0.62186194   -7.7549458    317.67614  0.016894072  0.016200405            4 
 1568000   0.63496312   -7.7510662    317.80422  0.016890105  0.016187505            4 
 1569000   0.64222542   -7.7655188    317.22272  0.016848456  0.016174617            5 
 1570000   0.61263587   -7.7586495    317.41747  0.016848061  0.016161727           10 
 1571000   0.61765251   -7.7867392    317.64879  0.016849607  0.016148812            5 
 1572000   0.63531507   -7.7389709    317.92392  0.016853473  0.016135926            9 
 1573000   0.63242362   -7.7777653    317.25191  0.016807158  0.016123033           13 
 1574000   0.61396606   -7.7558856    317.51994   0.01681067  0.016110149            5 
 1575000   0.62422242   -7.7629153     317.7026  0.016809661  0.016097285           10 
 1576000   0.62369557   -7.7616013    317.13022   0.01676873  0.016084444           11 
 1577000   0.63369751    -7.769446    317.15537  0.016759426  0.016071597            6 
 1578000   0.61986943    -7.782138    317.40767  0.016762129  0.016058787           15 
 1579000   0.62297698   -7.7626444    317.54455  0.016758737  0.016045989           10 
 1580000   0.62332852    -7.783341    317.35423  0.016738092  0.016033195           10 
 1581000   0.61003366   -7.7696466    317.29649  0.016724462  0.016020384            7 
 1582000   0.63810749   -7.7596608    317.83758  0.016742393   0.01600759            9 
 1583000   0.62380535    -7.780017    316.69848  0.016671851   0.01599481           10 
 1584000   0.61573613   -7.7792976    317.47985  0.016702433  0.015981987            8 
 1585000   0.61124979   -7.7383718    317.50279  0.016693101  0.015969193            6 
 1586000   0.63330227   -7.7560723    317.08427  0.016660586    0.0159564            5 
 1587000   0.62824567   -7.7695863    317.18138  0.016655187  0.015943613            7 
 1588000   0.61982189   -7.7912159    316.86972  0.016628344  0.015930822            8 
 1589000   0.60865414   -7.7622546    317.11497  0.016630741  0.015918056            5 
 1590000   0.62144337   -7.7647008    317.46504  0.016638629  0.015905293           12 
 1591000   0.62211702    -7.753518    317.31631  0.016620381  0.015892547            4 
 1592000   0.59706043   -7.7866471    317.39297  0.016613953  0.015879812            5 
 1593000   0.60712661   -7.7657923    317.30306  0.016598821  0.015867101            6 
 1594000    0.6083634   -7.7988336    316.99663  0.016572387  0.015854377            5 
 1595000   0.61679878   -7.7822743    317.18318  0.016571744  0.015841695            9 
 1596000   0.62317355   -7.7668961    318.02729  0.016605435  0.015829004            5 
 1597000   0.62678886   -7.7857132    316.89013  0.016535699  0.015816335            9 
 1598000   0.61676429   -7.7868445    316.96784  0.016529403  0.015803655           19 
 1599000   0.60946469   -7.7762568    317.01189  0.016521362  0.015790976            8 
 1600000   0.60559848   -7.7725123    317.06442  0.016513772  0.015778304            8 
 1601000   0.61566531   -7.7996391     317.2693  0.016514122  0.015765642           11 
 1602000   0.61630746   -7.7974968    317.59985  0.016521008  0.015752987           17 
 1603000   0.62774321     -7.80322    316.58182  0.016457778  0.015740377           11 
 1604000    0.6154341   -7.7808423    317.43853  0.016492027  0.015727772            7 
 1605000   0.59985983   -7.8031378    317.37312  0.016478355  0.015715176            9 
 1606000   0.61832853   -7.7932291    317.17344  0.016457733  0.015702597            8 
 1607000   0.62852608   -7.7959051    317.34579   0.01645643  0.015690041            7 
 1608000   0.63015533   -7.8105509    317.60048  0.016459394   0.01567747            6 
 1609000   0.63013448   -7.8001275    317.43174  0.016440426  0.015664926           12 
 1610000   0.61297484   -7.7950574    317.48541  0.016432992   0.01565238            8 
 1611000   0.61011041   -7.8011654    317.29878  0.016413138  0.015639831            7 
 1612000    0.6069088   -7.7879603    317.02272  0.016388685   0.01562731            9 
 1613000   0.61132832   -7.8022428    317.81791  0.016419607  0.015614787           17 
 1614000   0.61043034   -7.8087187    316.94014  0.016364113  0.015602305           12 
 1615000   0.60836755   -7.7956945    316.70684  0.016341942  0.015589807            7 
 1616000   0.61265071   -7.7996254    316.85608  0.016339525  0.015577343            8 
 1617000   0.60413862   -7.7777393    317.35979   0.01635538  0.015564866            6 
 1618000    0.6175414   -7.7904252    317.84264   0.01637014  0.015552433            7 
 1619000   0.60140674   -7.7964358    317.36005  0.016335189   0.01554001            6 
 1620000   0.61282877   -7.8000315    317.63297  0.016339145  0.015527588            8 
 1621000   0.60363136   -7.7713275    317.57832  0.016326255  0.015515176           15 
 1622000   0.61270652   -7.7988181    317.92736  0.016334123  0.015502773           14 
 1623000   0.60776799   -7.8014793    317.38521  0.016296221   0.01549038            8 
 1624000   0.60975101   -7.8028651    317.19994   0.01627668  0.015477997            9 
 1625000   0.62072839   -7.7952232    317.60584  0.016287479  0.015465609           11 
 1626000   0.59421512   -7.8184681    317.07565   0.01625029   0.01545322            5 
 1627000    0.5993545   -7.7970416    317.00337  0.016236599  0.015440822            9 
 1628000    0.6025729   -7.7939725    317.08961  0.016231041  0.015428449           16 
 1629000    0.6045725   -7.8116661    317.45011  0.016239519  0.015416067           15 
 1630000   0.61320623    -7.806758    316.93428  0.016203184  0.015403699           23 
 1631000   0.60188592   -7.8141722    317.32233  0.016213076  0.015391364           11 
 1632000   0.59551599   -7.7888829    317.13373  0.016193511  0.015379022           22 
 1633000   0.59846788   -7.8183574    316.78893     0.016166  0.015366677           12 
 1634000   0.59738271    -7.803102    317.03193  0.016168499  0.015354337           10 
 1635000   0.59822046   -7.8172387    316.99871  0.016156917     0.015342            9 
 1636000   0.60168004   -7.8213151    316.72845  0.016133275  0.015329681            7 
 1637000   0.59700608   -7.8183852     317.1568  0.016145225  0.015317346           11 
 1638000   0.60341669   -7.8123049    317.28973  0.016142131  0.015305036           16 
 1639000   0.59409576   -7.8057384    316.46728  0.016090466  0.015292709            8 
 1640000   0.59975393   -7.7989613    316.69572  0.016092262  0.015280388           13 
 1641000   0.59536284   -7.8307383    316.39224  0.016067044  0.015268104           13 
 1642000   0.59018516   -7.8136587    316.30937  0.016053054  0.015255826           22 
 1643000   0.58576985   -7.8376268    317.68058  0.016112831  0.015243567            8 
 1644000   0.58655373   -7.8316792    316.91761  0.016064356  0.015231342           12 
 1645000   0.60702273   -7.8378409    316.99296  0.016058407  0.015219109           12 
 1646000   0.59543059   -7.8017394    316.93686  0.016045811  0.015206922            9 
 1647000   0.59166508   -7.8161555    316.89687  0.016034045  0.015194717            5 
 1648000   0.59658982   -7.8331483     317.0956  0.016034365  0.015182516            7 
 1649000   0.59017361    -7.823662    316.88627  0.016014062  0.015170346            8 
 1650000   0.60614691   -7.8387544    317.03748  0.016011994  0.015158151            8 
 1651000   0.59489627   -7.8279913     316.4968  0.015975005  0.015145981           10 
 1652000   0.57261151   -7.8452101    316.44109  0.015962525  0.015133817            7 
 1653000   0.57718232   -7.8337491    316.35508  0.015948532  0.015121655           13 
 1654000    0.5944581   -7.8279645    316.98178  0.015970465  0.015109498            8 
 1655000   0.58499899   -7.8450801    317.10462     0.015967  0.015097348           15 
 1656000   0.59280355   -7.8176465    317.19473  0.015961892  0.015085201           15 
 1657000   0.58135579   -7.8360454    316.96039  0.015940474  0.015073073           15 
 1658000   0.58806652   -7.8362128    316.58795  0.015912141  0.015060943           13 
 1659000   0.59536101    -7.830407    316.57908  0.015902104  0.015048822            6 
 1660000   0.60287611   -7.8273672    316.72681   0.01589994  0.015036713           14 
 1661000   0.57685698   -7.8026387    316.56514  0.015882257  0.015024601           14 
 1662000   0.59308961   -7.8205488    315.96664  0.015842692  0.015012496           16 
 1663000   0.59902252   -7.8509592    316.19398  0.015844557  0.015000406           16 
 1664000   0.59645129   -7.8382985    316.45692  0.015848203  0.014988345           10 
 1665000   0.58928506   -7.8298437    316.57836  0.015844763  0.014976298            6 
 1666000   0.59764155   -7.8589858    316.76901  0.015844788   0.01496425           10 
 1667000   0.58042451   -7.8170548    316.98865  0.015846263  0.014952242           10 
 1668000   0.58796333   -7.8267831    316.91755  0.015833211   0.01494024            5 
 1669000   0.58790571   -7.8349207    316.80665  0.015818187  0.014928212            6 
 1670000   0.58255296   -7.8388818    316.81249  0.015809006   0.01491619            7 
 1671000   0.58358215   -7.8375079    316.77093  0.015797473  0.014904171            6 
 1672000   0.58378073   -7.8368127    316.88835  0.015793877  0.014892167            7 
 1673000   0.59124385   -7.8454318    316.44835   0.01576252  0.014880167            8 
 1674000   0.59797201   -7.8408414     316.2612  0.015743787  0.014868181            6 
 1675000    0.5737606   -7.8407658    316.48583  0.015745564    0.0148562            9 
 1676000   0.58829151   -7.8473978    316.61408  0.015742546  0.014844249            6 
 1677000   0.58029182   -7.8596726     316.2262  0.015713884  0.014832286            7 
 1678000   0.59076256   -7.8494595    316.32223  0.015709288  0.014820321           10 
 1679000    0.5759519   -7.8672349    316.94182  0.015730684  0.014808384            7 
 1680000   0.57982836    -7.845293    316.68721  0.015708691  0.014796461            3 
 1681000   0.57912261   -7.8598839      316.472  0.015688678   0.01478452            4 
 1682000    0.5916553   -7.8611699    315.86299  0.015649177    0.0147726           10 
 1683000   0.56956245   -7.8522506     316.4687   0.01566987  0.014760711            7 
 1684000   0.57481799   -7.8588212    316.76212  0.015675085  0.014748833            7 
 1685000   0.58378171    -7.855338    316.49754  0.015652697   0.01473696            6 
 1686000   0.57653678   -7.8542173     316.6053   0.01564874  0.014725104            8 
 1687000   0.57751531   -7.8632951    316.31396  0.015625072  0.014713246            8 
 1688000   0.57729697   -7.8782949    316.44749  0.015622408  0.014701395            8 
 1689000   0.57492902   -7.8752079    316.84402  0.015632722  0.014689584            6 
 1690000   0.58034518   -7.8551568    316.14637  0.015589071  0.014677755            5 
 1691000   0.57975891    -7.871294    316.62877  0.015603626  0.014665937            5 
 1692000   0.58696508   -7.8583558    316.81104  0.015603381  0.014654133           13 
 1693000   0.57591036   -7.8690228    316.68016  0.015587722  0.014642364           11 
 1694000    0.5789398   -7.8717703    315.95057  0.015542629   0.01463058            8 
 1695000   0.57591636   -7.8733121    316.78902  0.015574681  0.014618793            8 
 1696000   0.56935892   -7.8365064    316.90239  0.015571069  0.014607019            8 
 1697000   0.56798316   -7.8574266    316.40991  0.015537709  0.014595266            8 
 1698000   0.57533203   -7.8585802    316.37867  0.015527025   0.01458352           11 
 1699000   0.57572755   -7.8639206    316.65348  0.015531366  0.014571793           11 
 1700000    0.5819872   -7.8606378    316.19082   0.01549955  0.014560078           16 
 1701000   0.57251524   -7.8715646    316.05326  0.015483699   0.01454837            8 
 1702000   0.57698308   -7.8652961    316.24432  0.015483956  0.014536647            5 
 1703000   0.57388126   -7.8719134     316.4497  0.015484914   0.01452495           17 
 1704000   0.56795003   -7.8578011    316.47726  0.015477174  0.014513275            7 
 1705000   0.56826401   -7.8607114    316.90193  0.015488853  0.014501587            9 
 1706000   0.57972299   -7.8762629    316.72151  0.015470961   0.01448992            8 
 1707000   0.57169044   -7.8710763    316.10703    0.0154319  0.014478265           25 
 1708000    0.5766738   -7.8893096     316.4514  0.015439667  0.014466622           18 
 1709000     0.566855   -7.8762674    316.89567  0.015452295  0.014455004           11 
 1710000   0.56562018   -7.8713553    316.25334  0.015411956  0.014443367           28 
 1711000    0.5679506   -7.8958832     316.1364  0.015397253  0.014431744           22 
 1712000   0.56743265   -7.8859338    316.51421   0.01540665  0.014420139           14 
 1713000   0.56428706    -7.871641    316.35822  0.015390067  0.014408533           14 
 1714000   0.56984918    -7.861709    316.44505   0.01538531  0.014396946           11 
 1715000   0.57454457   -7.8886115    316.35981  0.015372197  0.014385379           12 
 1716000   0.56986227    -7.886231     316.1737  0.015354201  0.014373816           18 
 1717000   0.57000905   -7.8786386     316.2337   0.01534817  0.014362275           17 
 1718000   0.54621737    -7.873273    316.06874  0.015331235  0.014350741           17 
 1719000   0.56896344   -7.8812751    316.17974  0.015327698  0.014339243           15 
 1720000     0.563033   -7.8699284    316.81513   0.01534957  0.014327725           28 
 1721000   0.57701486   -7.8717621    316.18579  0.015310178   0.01431622           12 
 1722000   0.57801488   -7.8774631    315.77908  0.015281605   0.01430471           10 
 1723000   0.55681596   -7.8850803    316.28339  0.015297126  0.014293233           13 
 1724000   0.55030486    -7.866537    316.05015  0.015276979  0.014281747           22 
 1725000   0.56161323   -7.8966644      315.745  0.015253382  0.014270244           19 
 1726000   0.56757129   -7.8958615    315.87246  0.015250698  0.014258757           22 
 1727000   0.57174054    -7.890404    316.51887  0.015273059  0.014247284           23 
 1728000   0.55595656   -7.9105315    316.23333   0.01525045  0.014235808           22 
 1729000   0.55934441   -7.8752458    315.77189  0.015219389  0.014224344           21 
 1730000   0.54989914   -7.8893614    315.72121  0.015208151  0.014212897           10 
 1731000   0.57465366   -7.9057474    316.18246   0.01522157  0.014201464           16 
 1732000   0.56843076   -7.8819381    316.04221  0.015206034  0.014190045           11 
 1733000   0.56160849   -7.8821472    316.54801  0.015221582  0.014178638            8 
 1734000   0.55587674   -7.8892515    316.41132  0.015206234   0.01416723            7 
 1735000   0.56480714   -7.8864864    315.82832  0.015169468  0.014155825           14 
 1736000   0.57410036   -7.8925647    315.97624   0.01516783  0.014144421           15 
 1737000   0.56832425   -7.9019108     315.4744  0.015135022  0.014133017           20 
 1738000   0.55579208   -7.8993098    315.40693  0.015123079  0.014121632           13 
 1739000   0.55343038   -7.9009215    315.80495  0.015133455  0.014110252           10 
 1740000   0.57245053   -7.8902214    315.79222  0.015124148  0.014098871            6 
 1741000   0.54701384   -7.8978938    316.22276  0.015136069   0.01408752           16 
 1742000   0.55095481   -7.9234056    315.58474  0.015096859  0.014076159           18 
 1743000   0.55949534   -7.8981791    315.53717  0.015085923  0.014064811           15 
 1744000   0.56043523   -7.9171588    315.82732  0.015091137  0.014053473           13 
 1745000   0.55293079   -7.9049113    315.67599  0.015075262  0.014042155           15 
 1746000    0.5536088   -7.9024431    315.37584  0.015052302  0.014030832           11 
 1747000   0.55794589   -7.9071995    315.62722  0.015055678  0.014019506           15 
 1748000   0.54656213   -7.9053919     316.0742  0.015068373  0.014008209           15 
 1749000   0.55354145   -7.9153251     315.2676  0.015021327  0.013996906           16 
 1750000    0.5512174   -7.9021626     315.8358    0.0150398  0.013985633           12 
 1751000   0.55992669   -7.9193904     315.3356  0.015007405  0.013974363           21 
 1752000   0.54959016   -7.9032374    315.58289  0.015010602  0.013963103           10 
 1753000   0.55137263    -7.894874     315.7228   0.01500869  0.013951855           31 
 1754000   0.53866091   -7.9215085     316.1635  0.015021071  0.013940617           21 
 1755000   0.54767966    -7.925308    316.12467  0.015010668  0.013929399           18 
 1756000   0.56262596   -7.8917799    315.83038  0.014988154  0.013918208           11 
 1757000   0.54255598   -7.9083756    315.40888  0.014959632   0.01390702            7 
 1758000   0.56598298   -7.9206051    315.99868   0.01497908  0.013895821           18 
 1759000    0.5547514   -7.9221253    315.95672  0.014968577  0.013884646           14 
 1760000   0.55152276   -7.9147141    315.63511  0.014944844  0.013873469           20 
 1761000   0.54401878   -7.8986244    315.95159  0.014951334  0.013862305           11 
 1762000   0.53706868   -7.9219999    315.65965  0.014929041  0.013851148           11 
 1763000   0.55704675   -7.9210538    315.23619  0.014900557  0.013839985           13 
 1764000     0.553381   -7.9370179    315.50129  0.014904634  0.013828848           18 
 1765000   0.54598331   -7.9207975    315.59182  0.014900463  0.013817728           27 
 1766000   0.54901435   -7.8908089    315.81746  0.014902674  0.013806622           13 
 1767000   0.55386379   -7.9395657    315.70532  0.014888951  0.013795511           14 
 1768000   0.55283701   -7.9192475    315.66892  0.014878814  0.013784417           16 
 1769000   0.53750512   -7.9139245    315.71363   0.01487251  0.013773346           12 
 1770000   0.55142074   -7.9178721    316.07772  0.014881249  0.013762268            9 
 1771000   0.55584439   -7.9112601    315.69511  0.014854842  0.013751212           11 
 1772000    0.5419351   -7.9075765     315.5911  0.014841568   0.01374017           10 
 1773000   0.53408676    -7.924881    314.79838  0.014795938  0.013729131           23 
 1774000    0.5519136   -7.9231146    315.82412  0.014835782  0.013718083           13 
 1775000   0.54161548   -7.9435622    315.83527  0.014827947   0.01370706           15 
 1776000   0.55735876   -7.9244743    315.84892  0.014820238  0.013696042           14 
 1777000   0.54427095   -7.9274699    315.75425  0.014807459  0.013685008           10 
 1778000   0.54524739   -7.9432712    315.26702  0.014776294  0.013673994           11 
 1779000    0.5400161   -7.9212728    314.91361  0.014751434  0.013662979           15 
 1780000   0.54063124   -7.9316002    315.46858  0.014769128  0.013651995           20 
 1781000   0.53480738   -7.9289335    315.09777  0.014743485  0.013641005           12 
 1782000   0.53534315   -7.9286321    314.94887  0.014728249  0.013630016           11 
 1783000   0.53170615   -7.9154664    316.09394  0.014773506  0.013619046           11 
 1784000   0.52705292   -7.9419201    315.11785  0.014719631  0.013608074           17 
 1785000    0.5464273   -7.9558169    315.28047  0.014718976  0.013597117           10 
 1786000   0.55254993   -7.9465451    315.23656  0.014708686  0.013586161           17 
 1787000   0.54616361   -7.9400029    315.57675  0.014716319  0.013575247           15 
 1788000   0.53739028   -7.9390084     315.4601  0.014702652  0.013564334           14 
 1789000   0.55369984     -7.95552    314.63517  0.014656007  0.013553405           12 
 1790000   0.54528622   -7.9394566    315.71005  0.014697861  0.013542485           14 
 1791000   0.53267529   -7.9562622    315.23797  0.014667689  0.013531599           12 
 1792000   0.55706113   -7.9635702    315.51993  0.014672616  0.013520706           13 
 1793000   0.54400537   -7.9569206    315.11442  0.014645586  0.013509829           12 
 1794000   0.54890995   -7.9613004    315.03426  0.014633698  0.013498958           13 
 1795000   0.54369192   -7.9605389    315.50602  0.014647447  0.013488112           17 
 1796000   0.53785425   -7.9409694    315.32066  0.014630691  0.013477279           13 
 1797000   0.52148658    -7.959692    315.27141  0.014620266  0.013466435           16 
 1798000   0.54252385   -7.9433436    315.05059    0.0146019  0.013455614           13 
 1799000   0.53988849   -7.9294012    315.65132   0.01462161  0.013444819           29 
 1800000   0.53666923   -7.9551722    315.57602  0.014610001  0.013434014           16 
 1801000    0.5296319   -7.9457497    315.12985  0.014581244  0.013423217           18 
 1802000   0.54504849   -7.9300279    315.09932  0.014571741  0.013412425           13 
 1803000   0.53167722   -7.9317618    314.97382  0.014557858  0.013401639           14 
 1804000   0.53271588   -7.9380285    315.45873  0.014572188  0.013390854           15 
 1805000   0.54272034   -7.9471755    315.17984  0.014551239  0.013380083           16 
 1806000   0.53388609   -7.9546398    315.04174  0.014536809  0.013369335           14 
 1807000   0.53627167   -7.9410107    314.98754  0.014526265  0.013358584           18 
 1808000   0.53636181   -7.9626206    315.39419  0.014536974  0.013347852            8 
 1809000   0.54678367   -7.9499051     315.1304  0.014516786  0.013337123           17 
 1810000   0.53562543   -7.9642636    315.64937   0.01453266  0.013326417            9 
 1811000   0.53127759   -7.9689169    315.30689  0.014508876  0.013315725           24 
 1812000   0.53117107    -7.980287    315.09121   0.01449095  0.013305039           21 
 1813000   0.53000946   -7.9665971    314.70466  0.014465189  0.013294376            9 
 1814000   0.52722266   -7.9442815    315.31451  0.014485231  0.013283734           14 
 1815000   0.52616221   -7.9655066     315.4969  0.014485625  0.013273094           11 
 1816000   0.52485973   -7.9580522    314.90829  0.014450637   0.01326245           12 
 1817000   0.52348923   -7.9629841    315.39891  0.014465186  0.013251821            7 
 1818000   0.52720747   -7.9611925    315.23574   0.01444975  0.013241198            9 
 1819000   0.51922577   -7.9649683    315.54536  0.014455991  0.013230586           11 
 1820000   0.52181264   -7.9598023    315.19803  0.014432144  0.013219977           11 
 1821000   0.52848348   -7.9516836    315.27142  0.014427577  0.013209372           25 
 1822000   0.52566949   -7.9562004    314.69217  0.014393165  0.013198777           16 
 1823000   0.51426177   -7.9562357    314.99912  0.014399301  0.013188199           11 
 1824000   0.52737235   -7.9627986    315.01373  0.014392075  0.013177642           15 
 1825000   0.52598914   -7.9779118    315.11657  0.014388884   0.01316709           14 
 1826000   0.52969211   -7.9692408     314.9048   0.01437134  0.013156554           18 
 1827000   0.52544921   -7.9692746    315.31543  0.014382203  0.013146019           13 
 1828000   0.53043297   -7.9732927    315.14897  0.014366747  0.013135468           14 
 1829000   0.52120861   -7.9874733    314.86866  0.014346121  0.013124945           10 
 1830000   0.52652052   -7.9504082    314.95739  0.014342322  0.013114431            6 
 1831000   0.52075162   -7.9838384    314.55524  0.014316186  0.013103921           10 
 1832000   0.52627486   -7.9613989    314.63182  0.014311855  0.013093413            9 
 1833000   0.51924634   -7.9787535     314.6521  0.014304969  0.013082914           13 
 1834000   0.50971945   -7.9584998    314.56855  0.014293373  0.013072436           19 
 1835000   0.51413524   -7.9796687     315.0032  0.014305322  0.013061974            8 
 1836000   0.52120688   -7.9623735    314.64317  0.014281189   0.01305151           15 
 1837000    0.5093341   -7.9750335    314.45406  0.014264837  0.013041052           11 
 1838000   0.52737238   -7.9611712    315.31769  0.014296232   0.01303061           16 
 1839000   0.50857875   -7.9712505    314.90047  0.014269552  0.013020183           12 
 1840000   0.52278246   -7.9648767    315.10407  0.014271018  0.013009767           10 
 1841000   0.52150317    -7.976821    314.81199  0.014250045  0.012999345            8 
 1842000   0.51941368   -7.9761137    314.71219  0.014237794  0.012988952           13 
 1843000   0.52143773   -7.9787663    314.96168  0.014241349   0.01297856           12 
 1844000   0.50817008   -7.9858261    315.31233  0.014249473  0.012968171           10 
 1845000   0.52364957   -7.9781914    315.08115  0.014231308    0.0129578           13 
 1846000    0.5173246   -7.9702576     314.9569  0.014217989  0.012947441           12 
 1847000    0.5050402   -7.9785659     314.7212  0.014199657   0.01293708           11 
 1848000   0.53163347   -7.9791946    315.11642  0.014209795  0.012926729           11 
 1849000   0.51314484   -7.9614218    314.79836  0.014187775  0.012916385           12 
 1850000   0.51540906   -7.9852003    314.69266  0.014175345  0.012906059           17 
 1851000    0.5110162   -7.9760586    315.56711  0.014207055  0.012895749           12 
 1852000   0.51664636    -7.962521    314.78986  0.014164411  0.012885431           13 
 1853000   0.51565526   -7.9779764    314.69859  0.014152662  0.012875127           11 
 1854000    0.5129838   -7.9817321    314.39551  0.014131405  0.012864814            9 
 1855000   0.50841595   -7.9784153    314.34492  0.014121515  0.012854523           14 
 1856000   0.50491606   -7.9821263    314.97412  0.014142157   0.01284425           16 
 1857000   0.51042499   -7.9777161    314.20207  0.014099896  0.012833973           15 
 1858000   0.50292911   -7.9755965    314.85276  0.014121491  0.012823722           17 
 1859000   0.51768787   -7.9731676     314.8097  0.014111964  0.012813466           29 
 1860000   0.52086924   -7.9914463     314.8182  0.014104758  0.012803236           15 
 1861000    0.5171824    -7.991411       314.74  0.014093677  0.012793004           18 
 1862000   0.51998892   -7.9890095    314.64397   0.01408181  0.012782775           14 
 1863000   0.51293329   -7.9999314     314.6075  0.014072621  0.012772556           13 
 1864000   0.50984045   -8.0074483     314.7185  0.014070033  0.012762345           14 
 1865000   0.49832481   -7.9738727    314.41661  0.014048999  0.012752142           13 
 1866000   0.49983138   -7.9935729    314.64858   0.01405183  0.012741943           12 
 1867000   0.50638736   -8.0005924    314.51852  0.014038499  0.012731754           11 
 1868000   0.50835556   -7.9985303    314.84282  0.014045451  0.012721576           15 
 1869000   0.50590988   -7.9965841    314.31214  0.014014274  0.012711412           16 
 1870000   0.50818222    -7.984416    314.75164  0.014026365  0.012701258           21 
 1871000   0.51089688   -8.0102799    314.48447  0.014006969  0.012691119           18 
 1872000   0.50030783   -7.9898424    314.66906  0.014007704  0.012680976           17 
 1873000   0.50246852   -8.0031241    314.63647  0.013998775   0.01267085           17 
 1874000   0.50745939   -7.9784247    314.26972  0.013974996  0.012660732           16 
 1875000   0.50830597   -8.0014082    314.51825  0.013978589  0.012650618           22 
 1876000   0.49724623   -7.9842018    315.00972  0.013992969  0.012640531           19 
 1877000   0.50038526   -7.9893453    314.09812  0.013945042  0.012630444           24 
 1878000   0.50185973   -7.9845324    314.69257  0.013963994  0.012620366           16 
 1879000   0.50173756   -7.9851167    314.86347  0.013964142   0.01261029           11 
 1880000   0.50533864   -8.0007977     314.5422  0.013942474  0.012600223           18 
 1881000   0.50846015   -7.9902663     314.0328  0.013912493  0.012590173           12 
 1882000   0.49770857   -7.9992618    314.60904  0.013930616  0.012580143           13 
 1883000    0.4973063   -7.9896795    314.17873  0.013904174  0.012570094           14 
 1884000   0.49530895   -7.9972721    314.47179  0.013909757  0.012560064           25 
 1885000   0.48818002   -7.9867813    314.91811  0.013922109  0.012550051           20 
 1886000   0.48911388   -8.0031359    314.71999  0.013905973  0.012540047           18 
 1887000   0.50834884   -7.9984239    314.14253  0.013873102  0.012530048           14 
 1888000   0.49894825   -8.0061051    314.14974  0.013866073  0.012520062           18 
 1889000   0.49470522   -8.0012373    314.18678  0.013860366  0.012510094           14 
 1890000   0.49837277   -7.9975555    314.85384  0.013882444  0.012500122           12 
 1891000   0.48667429   -8.0005373    314.48612  0.013858898  0.012490163           10 
 1892000   0.48678732   -8.0148058    314.36936  0.013846431  0.012480214           15 
 1893000   0.48806376   -7.9824469    314.46268  0.013843224  0.012470272           11 
 1894000   0.49273572   -8.0200761    314.61937  0.013842809  0.012460345           13 
 1895000   0.48253107   -8.0054852    314.28237  0.013820685  0.012450424           13 
 1896000   0.49360677   -8.0205558    314.46494  0.013821419    0.0124405           11 
 1897000   0.50490326   -8.0096386    313.81996  0.013785801  0.012430593           16 
 1898000   0.50405459    -8.013411    314.26749  0.013798186  0.012420696           13 
 1899000   0.48961824   -8.0098729    314.13205  0.013784977  0.012410802           26 
 1900000   0.48675876   -8.0199557    313.95557  0.013769981  0.012400912           15 
 1901000   0.50151595   -8.0049222    314.70406  0.013795549  0.012391036           14 
 1902000   0.49245064   -8.0177158    314.29918  0.013770556  0.012381167           14 
 1903000   0.49470211   -8.0232116     314.4813  0.013771295  0.012371298           15 
 1904000    0.4929084   -8.0319681     313.8394  0.013735968  0.012361443            7 
 1905000   0.48967634    -8.011627    313.51311  0.013714484  0.012351604           11 
 1906000   0.49284008   -8.0185192    313.68571  0.013714835   0.01234177           21 
 1907000   0.49228662   -7.9982627    314.26253   0.01373285  0.012331945           11 
 1908000   0.49791287   -8.0216842    313.73693  0.013702696  0.012322123           11 
 1909000   0.48633543   -8.0202742     314.2891  0.013719622  0.012312319           12 
 1910000   0.49735238   -8.0112633    313.85037  0.013693297  0.012302525            9 
 1911000   0.49409577   -8.0000701    313.49916  0.013670816  0.012292754           11 
 1912000   0.50399542   -8.0333257    314.29489  0.013698348  0.012282976           13 
 1913000   0.50620162   -8.0191084     313.4437  0.013654108  0.012273213           11 
 1914000   0.49134211   -8.0252889    313.93041  0.013668165  0.012263444           14 
 1915000   0.49048518   -8.0138653    314.11219  0.013668938  0.012253694           17 
 1916000   0.48863398   -8.0324531    313.98053  0.013656077  0.012243954           31 
 1917000   0.48069377   -8.0178316     314.2626  0.013661215  0.012234236           19 
 1918000   0.49201487   -8.0270287    313.87723  0.013637349  0.012224518           11 
 1919000   0.48615815    -7.993414    313.80911  0.013627285    0.0122148           29 
 1920000   0.49824252   -8.0274423    314.31429  0.013642113  0.012205094           31 
 1921000   0.48521191   -8.0232082     313.5376  0.013601319  0.012195391           29 
 1922000   0.49136917   -8.0348518    313.49593  0.013592435  0.012185696           22 
 1923000   0.49620811   -8.0298977    313.77784  0.013597584  0.012176011           28 
 1924000   0.47592837    -8.040453    314.36847  0.013616098  0.012166328           14 
 1925000   0.47524136   -8.0322626    314.08826  0.013596894  0.012156654           15 
 1926000   0.47308074   -8.0239704     313.8366  0.013578946  0.012146997           30 
 1927000   0.47107382   -8.0426877    314.28755    0.0135914  0.012137351           17 
 1928000   0.48553876   -8.0263759    313.78209  0.013562504  0.012127718           24 
 1929000   0.49404826   -8.0212348    314.18433   0.01357285  0.012118088           21 
 1930000   0.48705482   -8.0209732    313.77652  0.013548209  0.012108477           30 
 1931000   0.48860022   -8.0268645    313.05418   0.01351002  0.012098864           17 
 1932000   0.47535838   -8.0341715    313.72973  0.013532166   0.01208926           28 
 1933000   0.47060289   -8.0246158    314.02302  0.013537809  0.012079674           13 
 1934000   0.48156839   -8.0346235    313.59824  0.013512506  0.012070103           33 
 1935000   0.49047195   -8.0572503    314.20819  0.013531791  0.012060544           28 
 1936000   0.48453545   -8.0486851    313.77516  0.013506162  0.012050985           25 
 1937000   0.47872661   -8.0454028    314.09053  0.013512757  0.012041428           25 
 1938000   0.48689412   -8.0324185    313.92917  0.013498846  0.012031882           19 
 1939000   0.48043814   -8.0453695    314.22951  0.013504792  0.012022345           19 
 1940000   0.47935211   -8.0483097    314.19848  0.013496498  0.012012815           13 
 1941000   0.47331442   -8.0420332    313.31789  0.013451739  0.012003293           22 
 1942000   0.46925297     -8.04125    313.67473  0.013460124  0.011993774           14 
 1943000   0.47224168    -8.041927    313.30994  0.013437551  0.011984274           21 
 1944000   0.47568986   -8.0399318    313.81843  0.013452436  0.011974783           22 
 1945000   0.47746649   -8.0398002    313.67959  0.013439571    0.0119653           13 
 1946000   0.47730375   -8.0456417    313.70079  0.013433573  0.011955825           28 
 1947000   0.48025594   -8.0297788    313.39842  0.013413731  0.011946357           25 
 1948000   0.47642929   -8.0366294    313.77346  0.013422889  0.011936897           26 
 1949000   0.48570491    -8.046778    313.31965  0.013396599  0.011927447           13 
 1950000   0.48284531   -8.0536338     313.5497   0.01339956  0.011918006           21 
 1951000   0.47429929   -8.0409197    313.37438  0.013385203  0.011908577           24 
 1952000   0.47313189   -8.0426033    313.65216  0.013390205  0.011899159           20 
 1953000   0.47666741   -8.0434282    313.70118   0.01338544  0.011889751           18 
 1954000   0.48598107    -8.037586    313.63794  0.013375893  0.011880351           13 
 1955000     0.460853   -8.0412597    313.29671  0.013354506   0.01187095           11 
 1956000    0.4744984   -8.0469914    313.72897  0.013366095  0.011861556           16 
 1957000   0.49018278   -8.0452022    313.45277  0.013347503  0.011852176           25 
 1958000   0.45888643    -8.039364    313.63074  0.013348261  0.011842806           16 
 1959000    0.4686774   -8.0575243    313.81302  0.013349201  0.011833444           15 
 1960000   0.47101852   -8.0483177    313.20997   0.01331675  0.011824095           22 
 1961000    0.4802084    -8.060392    313.59678  0.013326397  0.011814751           26 
 1962000    0.4727106   -8.0514038    313.60676  0.013320029  0.011805417           17 
 1963000   0.47432844    -8.059397    313.36402  0.013302938  0.011796082           13 
 1964000   0.46679789   -8.0431142    313.27505   0.01329239   0.01178676           33 
 1965000   0.47127557    -8.054828    314.34274  0.013330905  0.011777445           32 
 1966000   0.47378533   -8.0584669    313.49265  0.013288091  0.011768144           21 
 1967000   0.47667097   -8.0426587    313.51652  0.013282347  0.011758854           30 
 1968000   0.46507423   -8.0489335    313.62324  0.013280117  0.011749569           25 
 1969000   0.47640427   -8.0546277    313.77556  0.013279819  0.011740293           13 
 1970000   0.46022026   -8.0523405    313.54513   0.01326333  0.011731021           16 
 1971000   0.46788993   -8.0633955    313.26585  0.013244793  0.011721751           28 
 1972000   0.45613777   -8.0596328    313.37694  0.013242771  0.011712489           23 
 1973000   0.46137624   -8.0645641    312.94188  0.013217684  0.011703233           14 
 1974000   0.46825992   -8.0709841    313.18634  0.013221308   0.01169399           21 
 1975000   0.46703835    -8.068766     314.1483  0.013255203  0.011684767           25 
 1976000   0.47866699   -8.0575966    313.32973  0.013213973  0.011675552           25 
 1977000   0.45248743   -8.0452537    313.27894  0.013205148  0.011666349           43 
 1978000   0.46565163   -8.0731917     313.4752  0.013206741  0.011657143           32 
 1979000   0.46705782   -8.0710417    312.73939  0.013169083  0.011647944           18 
 1980000   0.46764574   -8.0568944    313.27779  0.013185092  0.011638758           13 
 1981000   0.46790277   -8.0698214    313.12646  0.013172071  0.011629582           20 
 1982000   0.46767732   -8.0542543    313.30642  0.013172991  0.011620419           11 
 1983000    0.4693001   -8.0405319    313.05563  0.013155809  0.011611258           12 
 1984000   0.46201328   -8.0715644    313.43954  0.013165303  0.011602111           13 
 1985000   0.46026057    -8.065872    313.10515  0.013144633  0.011592971           29 
 1986000   0.46504895   -8.0655787    313.19484  0.013141778  0.011583829           19 
 1987000    0.4613361   -8.0762716    313.33516  0.013141048  0.011574698           25 
 1988000   0.45567278   -8.0629939    313.17136  0.013127572  0.011565582           18 
 1989000   0.46180486   -8.0631859    313.52476  0.013135778  0.011556483           17 
 1990000   0.45756257   -8.0744426    313.03347  0.013108604  0.011547386           28 
 1991000    0.4446389   -8.0634525    313.42823  0.013118543  0.011538301           11 
 1992000   0.45790981   -8.0567068    313.22348  0.013103392   0.01152922           23 
 1993000   0.45706675   -8.0761445    313.38832   0.01310371  0.011520152           15 
 1994000   0.46375824   -8.0841405    313.36873  0.013096319  0.011511094           25 
 1995000   0.46891728   -8.0705068    312.86634  0.013068769  0.011502043           14 
 1996000   0.46223424    -8.083096    313.15829  0.013074411  0.011492998           13 
 1997000   0.45690987   -8.0667829    313.54713   0.01308409  0.011483967           15 
 1998000   0.45496014   -8.0793453    313.08557   0.01305829  0.011474952           32 
 1999000    0.4682526   -8.0746951    313.04363   0.01305001  0.011465935           21 
 2000000   0.45755492    -8.076232    313.20095  0.013050039  0.011456931           16 
 2001000   0.45604726   -8.0587845    312.85409  0.013029073  0.011447928           14 
 2002000   0.45380257   -8.0744069    312.94452  0.013026329  0.011438936           26 
 2003000   0.44799921   -8.0783449     313.2267  0.013031565  0.011429946           17 
 2004000   0.44921945    -8.077327     313.3712  0.013031071  0.011420966           13 
 2005000   0.45087278   -8.0762542    312.87856  0.013004096  0.011411994           16 
 2006000    0.4501114   -8.0799755    312.96732  0.013001301  0.011403035           19 
 2007000   0.43917152   -8.0891159    312.90821  0.012992369  0.011394087           39 
 2008000   0.45194358   -8.0893711    313.33825  0.013003745  0.011385149           20 
 2009000   0.44151229   -8.0873465    313.22422  0.012992543  0.011376223           30 
 2010000   0.45009213   -8.0797534    312.43806  0.012953485  0.011367288           24 
 2011000   0.44345845   -8.0887708    313.06705  0.012973108  0.011358372           29 
 2012000   0.44611256    -8.078203    312.99555  0.012963699  0.011349466           22 
Loop time of 4525.19 on 48 procs for 2000000 steps with 4000 atoms

Performance: 76372.420 tau/day, 441.970 timesteps/s
99.4% CPU use with 48 MPI tasks x no OpenMP threads

MPI task timing breakdown:
Section |  min time  |  avg time  |  max time  |%varavg| %total
---------------------------------------------------------------
Pair    | 277.79     | 296.31     | 313.61     |  47.1 |  6.55
Neigh   | 28.763     | 29.532     | 30.345     |   7.5 |  0.65
Comm    | 264.03     | 284.61     | 311.55     |  63.9 |  6.29
Output  | 4.0174     | 4.0196     | 4.0546     |   0.3 |  0.09
Modify  | 3846.3     | 3864.1     | 3877.9     |  14.4 | 85.39
Other   |            | 46.63      |            |       |  1.03

Nlocal:        83.3333 ave          94 max          77 min
Histogram: 4 7 10 6 12 3 1 2 2 1
Nghost:        1898.38 ave        1920 max        1876 min
Histogram: 2 1 6 7 6 7 11 4 2 2
Neighs:        11873.1 ave       13846 max       10655 min
Histogram: 5 5 7 11 7 6 3 3 0 1
FullNghs:      23745.5 ave       26989 max       21853 min
Histogram: 4 7 9 7 12 2 4 0 1 2

Total # of neighbors = 1139786
Ave neighs/atom = 284.94650
Neighbor list builds = 107530
Dangerous builds = 0

#clear
#
#next RN
#
#jump SELF
Total wall time: 1:15:28
