
units lj                  # Use reduced LJ style units
atom_style atomic         # Uncharged point particles
atom_modify map hash      # Needed for indexing of clusters etc
                          # Used to be able to find where atoms are in relation to each other.

lattice fcc 1.0 spacing 1 1 1
Lattice spacing in x,y,z = 1.5874011 1.5874011 1.5874011
region box block 0 10 0 10 0 10 units lattice
create_box 2 box
Created orthogonal box = (0.0000000 0.0000000 0.0000000) to (15.874011 15.874011 15.874011)
  3 by 4 by 4 MPI processor grid
create_atoms 1 box
Created 4000 atoms
  using lattice units in orthogonal box = (0.0000000 0.0000000 0.0000000) to (15.874011 15.874011 15.874011)
  create_atoms CPU = 0.016 seconds
set type 1 type/fraction 2 0.43 78393
Setting atom values ...
  1722 settings made for type/fraction
mass 1 1.0
mass 2 1.0
pair_style lj/cut  3.5
pair_modify tail  yes
pair_coeff 1  1  1.0  1.0   # Intearaction between 1 and 1 set with epsilon = 1 and sigma = 1
pair_coeff 1  2  1.5  0.8
pair_coeff 2  2  0.5  0.88

write_data data.0
System init for write_data ...
Neighbor list info ...
  update every 1 steps, delay 10 steps, check yes
  max neighbors/atom: 2000, page size: 100000
  master list distance cutoff = 3.8
  ghost atom cutoff = 3.8
  binsize = 1.9, bins = 9 9 9
  1 neighbor lists, perpetual/occasional/extra = 1 0 0
  (1) pair lj/cut, perpetual
      attributes: half, newton on
      pair build: half/bin/atomonly/newton
      stencil: half/bin/3d
      bin: standard
WARNING: Not all mixed pair coeffs generated from mixing. Use write_data with 'pair ij' option to store all pair coeffs. (../write_data.cpp:312)


#############################
#   M E L T   S Y S T E M   #
#############################

velocity all create 2.4 9622624 mom yes dist gaussian # Assign velocities
                                                    # Temperature 2.4, random number seed, zero linear momentum
                                                                                # Gaussian distribution

timestep 0.002   # simulation timestep
thermo 1000       # output thermodynamic data every 1000 steps bf 100

# Define a fix  in this case with index 1 applied to all
# particles in the simulation. This fix is for simulations
# in the anisotropic NPT ensemble. Note that we use the MTK
# correction.
fix 1 all npt temp 2.4 2.4 0.1 iso 5.68 5.68 0.5 mtk yes tchain 5 pchain 5 # Use NPT ensemble
                                                                         # Set temperature and pressure and damping
                                                                         # Numbers of thermostats in chain and in barostat
run 10000          # run for 10000 steps
Per MPI rank memory allocation (min/avg/max) = 3.642 | 3.644 | 3.648 Mbytes
Step Temp E_pair E_mol TotEng Press Volume 
       0          2.4   -5.6998203            0   -2.1007203   -4.1891945         4000 
    1000    2.4064451   -4.9745238            0   -1.3657586    5.8164237    3829.0179 
    2000    2.3851757   -4.9909153            0   -1.4140461    5.7147531    3839.8868 
    3000    2.3700469   -4.9805122            0   -1.4263307    5.3704808    3872.8014 
    4000    2.4111093   -4.9669639            0    -1.351204    5.9724778    3832.1641 
    5000     2.461254    -5.002229            0    -1.311271        5.672    3828.5035 
    6000    2.4045588   -5.0281618            0   -1.4222254    5.8896761     3805.374 
    7000    2.4345281   -5.0292159            0   -1.3783366     5.839595    3802.4242 
    8000    2.4077648   -4.9849648            0   -1.3742205    5.8016645    3830.3117 
    9000    2.4210941   -5.0178423            0   -1.3871091    5.8330397     3813.224 
   10000    2.4247752   -5.0133413            0   -1.3770878    5.5820929    3829.2412 
Loop time of 2.54422 on 48 procs for 10000 steps with 4000 atoms

Performance: 679185.567 tau/day, 3930.472 timesteps/s
99.7% CPU use with 48 MPI tasks x no OpenMP threads

MPI task timing breakdown:
Section |  min time  |  avg time  |  max time  |%varavg| %total
---------------------------------------------------------------
Pair    | 1.1166     | 1.1986     | 1.3105     |   3.1 | 47.11
Neigh   | 0.20994    | 0.21813    | 0.23147    |   1.0 |  8.57
Comm    | 0.76992    | 0.86704    | 0.936      |   4.0 | 34.08
Output  | 0.00024574 | 0.00024955 | 0.00030947 |   0.0 |  0.01
Modify  | 0.19781    | 0.24479    | 0.28119    |   4.6 |  9.62
Other   |            | 0.01543    |            |       |  0.61

Nlocal:        83.3333 ave          92 max          77 min
Histogram: 7 2 7 5 9 4 6 1 4 3
Nghost:        1690.88 ave        1716 max        1670 min
Histogram: 2 5 4 12 6 5 9 1 1 3
Neighs:        9970.69 ave       11340 max        8827 min
Histogram: 4 4 6 9 5 7 4 2 4 3

Total # of neighbors = 478593
Ave neighs/atom = 119.64825
Neighbor list builds = 904
Dangerous builds = 195

# Equilibrate just above the melting temperature to avoid step fn in T

fix 1 all npt temp 1.25 1.25 0.1 iso 5.68 5.68 0.5 mtk yes tchain 5 pchain 5
run 2000
Per MPI rank memory allocation (min/avg/max) = 3.643 | 3.645 | 3.649 Mbytes
Step Temp E_pair E_mol TotEng Press Volume 
   10000    2.4247752   -5.0133413            0   -1.3770878    5.5820929    3829.2412 
   11000    1.2448634    -7.069952            0   -5.2031237    5.7185816     3013.127 
   12000    1.2439272   -7.1290908            0   -5.2636666    5.6636862    3002.8293 
Loop time of 0.616091 on 48 procs for 2000 steps with 4000 atoms

Performance: 560956.269 tau/day, 3246.275 timesteps/s
99.6% CPU use with 48 MPI tasks x no OpenMP threads

MPI task timing breakdown:
Section |  min time  |  avg time  |  max time  |%varavg| %total
---------------------------------------------------------------
Pair    | 0.27123    | 0.29818    | 0.32589    |   2.4 | 48.40
Neigh   | 0.039504   | 0.042196   | 0.044998   |   0.7 |  6.85
Comm    | 0.19508    | 0.22648    | 0.25768    |   3.1 | 36.76
Output  | 5.2218e-05 | 5.4164e-05 | 6.9934e-05 |   0.0 |  0.01
Modify  | 0.040828   | 0.044252   | 0.046978   |   0.9 |  7.18
Other   |            | 0.004924   |            |       |  0.80

Nlocal:        83.3333 ave          90 max          75 min
Histogram: 2 2 2 3 10 6 9 4 5 5
Nghost:        1994.25 ave        2015 max        1971 min
Histogram: 3 1 3 4 8 10 11 5 1 2
Neighs:        12719.8 ave       14402 max       11219 min
Histogram: 2 5 4 9 6 9 5 3 2 3

Total # of neighbors = 610548
Ave neighs/atom = 152.63700
Neighbor list builds = 144
Dangerous builds = 7

#############################
# L I N E A R  Q U E N C H  #
#############################

# Define solid atoms. This closely follows ten Wolde  Ruiz-Montero and Frenkel  Faraday Discuss  1996  104  93-110
# Compute components of the per-atom q6 vector
compute q6 all orientorder/atom degrees 1 6 components 6 nnn NULL cutoff 1.3 # compute the Q6 parameter.
                                                                             # Use all neighbours within 1.3 unit cell.

# get number of connections
compute coord_number all coord/atom orientorder q6 0.5

# An atom is solid if it has 8 or more connections (of a possible 14)
variable is_solid atom c_coord_number>=8
group solid dynamic all var is_solid    # Must be dynamic to update
dynamic group solid defined

# do clustering
compute cluster solid cluster/atom 1.3 # Create a cluster where all atoms within are solid and max 1.3 units from another member

# define chunks one chunk per cluster
compute clus_chunks solid chunk/atom c_cluster nchunk every compress yes  # Says which atoms are in which chunk

# count the size of each chunk
compute size_chunks solid property/chunk clus_chunks count


# Find the maximum entry in the vector of chunk sizes
variable max_n equal max(c_size_chunks)


# Thermo style which includes this variable
# thermo_style custom step temp pe vol v_max_n

thermo ${N}  # Print the thermo information every 100 steps
thermo 1000  

# Reset the npt fix at a lower temperature (below freezing)
fix 1  all npt temp  ${temp} ${temp}  0.1  iso  5.68  5.68  0.5  mtk yes tchain  5  pchain  5
fix 1  all npt temp  0.45 ${temp}  0.1  iso  5.68  5.68  0.5  mtk yes tchain  5  pchain  5
fix 1  all npt temp  0.45 0.45  0.1  iso  5.68  5.68  0.5  mtk yes tchain  5  pchain  5

dump dmp2 all dcd ${N} traj.dcd
dump dmp2 all dcd 1000 traj.dcd


compute msd all msd com yes
variable twopoint equal c_msd[4]/6/(step*dt+1.0e-6)
fix 9 all vector 10 c_msd[4]
variable fit equal slope(f_9)/6/(10*dt)
thermo_style custom step temp pe c_msd[4] v_twopoint v_fit v_max_n

fix 1 all npt temp 1.25 ${temp} 0.1 iso 5.68 5.68 0.5 mtk yes tchain 5 pchain 5
fix 1 all npt temp 1.25 0.45 0.1 iso 5.68 5.68 0.5 mtk yes tchain 5 pchain 5
run 2000000 # 5000000  # Run for this many steps
Neighbor list info ...
  update every 1 steps, delay 10 steps, check yes
  max neighbors/atom: 2000, page size: 100000
  master list distance cutoff = 3.8
  ghost atom cutoff = 3.8
  binsize = 1.9, bins = 8 8 8
  4 neighbor lists, perpetual/occasional/extra = 1 3 0
  (1) pair lj/cut, perpetual
      attributes: half, newton on
      pair build: half/bin/atomonly/newton
      stencil: half/bin/3d
      bin: standard
  (2) compute orientorder/atom, occasional
      attributes: full, newton on
      pair build: full/bin/atomonly
      stencil: full/bin/3d
      bin: standard
  (3) compute coord/atom, occasional
      attributes: full, newton on
      pair build: full/bin/atomonly
      stencil: full/bin/3d
      bin: standard
  (4) compute cluster/atom, occasional
      attributes: full, newton on
      pair build: full/bin/atomonly
      stencil: full/bin/3d
      bin: standard
Per MPI rank memory allocation (min/avg/max) = 9.832 | 9.835 | 9.837 Mbytes
Step Temp PotEng c_msd[4] v_twopoint v_fit v_max_n 
   12000    1.2439272   -7.1290908 2.8568598e-30 1.9839303e-32 8.3333333e+20            2 
   13000    1.2737492   -7.1600832   0.45888443 0.0029415667  0.037795482            3 
   14000    1.2546155   -7.1794874   0.87663443 0.0052180619  0.035326501            1 
   15000    1.2724218   -7.1078886    1.3417348  0.007454082  0.036383845            2 
   16000     1.246355   -7.0916464    1.7758824 0.0092493873  0.036413669            2 
   17000    1.2507392   -7.1651003    2.2563806  0.011060689  0.036892662            1 
   18000    1.2338134    -7.142716    2.6720463  0.012370584  0.036897135            2 
   19000    1.2354301   -7.1572038    3.1213261  0.013690026   0.03690496            1 
   20000    1.2612425    -7.134337     3.496403  0.014568346  0.036733302            2 
   21000    1.2607096   -7.1714485     3.873372  0.015370523  0.036426521            1 
   22000    1.2748083   -7.1501582    4.2925417  0.016259627   0.03585088            1 
   23000    1.2434362   -7.1055768    4.8182815  0.017457541  0.035820833            2 
   24000    1.2305189   -7.1626794    5.1761831  0.017972858  0.035852725            1 
   25000    1.2444555   -7.1646415    5.7040034  0.019013344  0.035901173            1 
   26000    1.2433217   -7.1392778    6.1202529  0.019616195  0.036010698            1 
   27000    1.2532584   -7.1149509    6.6521583  0.020531352  0.036157317            1 
   28000    1.2207141   -7.1847948     7.002893  0.020841943  0.036311813            2 
   29000    1.2431382   -7.1448489    7.4500221  0.021408109   0.03631721            1 
   30000    1.2194904   -7.1375059    7.8024092  0.021673358  0.036285676            2 
   31000    1.2441936   -7.1703153     8.165906   0.02195136  0.036191885            3 
   32000    1.2463153   -7.1315049     8.601987  0.022401008  0.036024794            2 
   33000    1.2357057   -7.1194915    9.0079679  0.022747393  0.035887277            2 
   34000    1.2372759   -7.1530117    9.4280309  0.023107919   0.03580378            2 
   35000    1.2254346   -7.1591834    9.8831814  0.023531384  0.035716992            4 
   36000    1.2242121   -7.1613686    10.287616  0.023813926  0.035660916            3 
   37000    1.2161228   -7.1689717    10.678499  0.024050672  0.035622623            2 
   38000    1.2365642   -7.1466927     11.03768  0.024205439  0.035541828            1 
   39000    1.2406564   -7.1726328    11.345181   0.02424184  0.035392233            2 
   40000    1.2517176   -7.1464068      11.7756  0.024532499  0.035251913            3 
   41000    1.2371219   -7.1451012    12.096338  0.024586052  0.035098597            2 
   42000    1.2513592   -7.1448585    12.484493  0.024770819  0.034944048            3 
   43000    1.2644729   -7.1780713    12.877002  0.024955429  0.034826884            1 
   44000    1.2223186   -7.1843268    13.229654  0.025056162  0.034697082            3 
   45000    1.2321141   -7.1385034     13.65387  0.025284944  0.034574756            1 
   46000    1.2310058   -7.1259693    14.056401  0.025464495  0.034475702            1 
   47000    1.2327433   -7.1361231    14.520734  0.025745982  0.034386575            1 
   48000    1.2767811   -7.1122574    14.916222  0.025896219  0.034338388            3 
   49000    1.2125737    -7.157894    15.409306  0.026206303  0.034307323            1 
   50000    1.2554028   -7.1579762    15.988512  0.026647519  0.034321553            1 
   51000    1.2103962   -7.1848114    16.384089  0.026771388  0.034338651            1 
   52000    1.2408015   -7.1395372    16.784417  0.026898104  0.034351468            3 
   53000    1.2511342     -7.18751    17.137129  0.026945171  0.034361224            1 
   54000    1.2283507   -7.1608332    17.484209  0.026981804  0.034352145            2 
   55000    1.2575457   -7.1494567    17.920101  0.027151667   0.03433433            2 
   56000    1.2254218   -7.2067874    18.279307  0.027201349   0.03432706            4 
   57000    1.2164996   -7.1847083    18.691147  0.027326238   0.03432071            3 
   58000    1.2266071   -7.1834927    19.100615  0.027443413  0.034310196            2 
   59000    1.2643284   -7.1845775    19.694592   0.02781722  0.034314491            3 
   60000    1.2407152    -7.198532    19.974497  0.027742357  0.034323138            2 
   61000    1.2103674   -7.1473359    20.465627  0.027958507  0.034322366            2 
   62000    1.2343517   -7.1486441    20.979523  0.028198284  0.034340019            2 
   63000    1.2275873   -7.1959314    21.316729  0.028196732   0.03435971            2 
   64000    1.2107404   -7.2103778    21.740444  0.028307869  0.034388239            1 
   65000    1.2378028   -7.1893959    22.227592  0.028496912  0.034418112            2 
   66000    1.2093812   -7.1465155    22.696597   0.02865732  0.034443641            2 
   67000    1.2334468   -7.2311877    23.046764  0.028665129  0.034464283            1 
   68000    1.2175809   -7.1543823    23.442551  0.028728616  0.034484082            2 
   69000    1.2035803    -7.146619    23.861742  0.028818529  0.034497137            2 
   70000    1.2179616    -7.178632    24.159381  0.028761168  0.034504604            2 
   71000    1.2174543   -7.2085558    24.360159  0.028591736  0.034488336            2 
   72000    1.2066334    -7.238044    24.588026  0.028458363  0.034456122            1 
   73000    1.2434455   -7.2033741     25.20559  0.028773505  0.034413572            2 
   74000    1.2272295   -7.1870311    25.488194  0.028702921  0.034374404            1 
   75000    1.2131839   -7.1791443    25.952367  0.028835963  0.034339653            1 
   76000    1.1913533    -7.189463    26.625763  0.029194915  0.034327764            1 
   77000    1.2074188   -7.1668332    26.941549   0.02915752  0.034320627            1 
   78000     1.219757   -7.1956813    27.411785  0.029286095  0.034312591            3 
   79000    1.2362727   -7.1967751    27.973056  0.029507443  0.034318026            3 
   80000    1.2407709   -7.1691776    28.355095  0.029536558  0.034330382            2 
   81000    1.2130515    -7.202766    28.726781  0.029554301  0.034343702            3 
   82000    1.2231589   -7.1993987    29.106083  0.029579352  0.034345051            2 
   83000    1.2201436   -7.2340203     29.42821  0.029546395  0.034340979            2 
   84000    1.2201453   -7.2493069    29.876328  0.029639214  0.034340405            1 
   85000    1.1973896   -7.1517268      30.4529  0.029855784  0.034342957            2 
   86000    1.2227707   -7.1839866    30.963729  0.030003613  0.034356786            1 
   87000    1.2092608   -7.1950712    31.367886  0.030045867  0.034370974            3 
   88000    1.2193898   -7.2139952    31.671339  0.029991798  0.034371265            6 
   89000    1.2108211   -7.1739784    31.859449  0.029830944  0.034365773            3 
   90000    1.2221094   -7.2072846     32.32158  0.029927388  0.034352004            2 
   91000     1.208762   -7.2144553    32.594387   0.02984834  0.034335562            3 
   92000    1.2195029   -7.2621794    32.770549  0.029683468   0.03431691            2 
   93000    1.2198308   -7.1403044    33.314382  0.029851597  0.034290652            1 
   94000    1.2477099    -7.200918    33.746926  0.029917487  0.034270614            1 
   95000    1.2021523   -7.1995957    34.113504  0.029924126  0.034252996            3 
   96000    1.2182235   -7.2172272    34.515975  0.029961784  0.034236407            2 
   97000      1.22868    -7.172267     35.00022  0.030068918  0.034213621            2 
   98000    1.2207772   -7.2102566    35.119482  0.029863505  0.034194357            2 
   99000    1.1860962   -7.1767757      35.5406   0.02991633   0.03416631            1 
  100000    1.2139053   -7.2392717     35.86334  0.029886116  0.034134557            1 
  101000    1.2237985   -7.2028204    36.236497    0.0298981  0.034103117            1 
  102000    1.2045262   -7.2544022    36.577813  0.029883834  0.034068491            2 
  103000    1.2217162   -7.2542187    36.740453  0.029725285  0.034028622            2 
  104000    1.2039798   -7.2223547    37.384231  0.029955313  0.033993181            4 
  105000    1.1752389   -7.1992388    37.752874  0.029962599  0.033961012            1 
  106000    1.2163215   -7.2208085    38.140823  0.029984923  0.033931276            5 
  107000    1.2287292   -7.1608871    38.545865  0.030020144  0.033904816            1 
  108000    1.2239191   -7.1849429    38.879387  0.029999527   0.03387124            1 
  109000    1.2087866   -7.2154449     39.27128  0.030023914  0.033842559            2 
  110000    1.1877713   -7.2445782     39.53537  0.029951038  0.033812935            2 
  111000    1.2143391   -7.2925915    39.762959  0.029852071  0.033778056            1 
  112000    1.2066226   -7.2419775    40.264367  0.029958606  0.033745726            1 
  113000    1.2409581   -7.2773109    40.680132  0.030000097  0.033712523            2 
  114000    1.2099876   -7.2194652    41.029927  0.029992636  0.033679644            1 
  115000    1.2022521   -7.2546131    41.065931  0.029757921  0.033642316            1 
  116000    1.1942121   -7.2101511    41.451561   0.02977842  0.033599317            5 
  117000    1.2520346   -7.2726426    41.704126  0.029703793  0.033554123            1 
  118000    1.2198272   -7.2340355    42.131784  0.029754084  0.033507902            1 
  119000    1.2220207   -7.2306995    42.724951  0.029919433  0.033474832            2 
  120000    1.1925089   -7.2040584    43.215857  0.030011012  0.033441987            2 
  121000    1.2032787   -7.2302499    43.720209  0.030110336  0.033409999            2 
  122000    1.2052347   -7.2520233    43.981036  0.030041691  0.033383024            1 
  123000    1.2113164   -7.2314881    44.331443  0.030034853  0.033358205            4 
  124000    1.1892199   -7.2316014    44.813943  0.030116897   0.03333642            1 
  125000    1.2132498    -7.233057     45.21905  0.030146033  0.033314484            1 
  126000    1.2170106   -7.2406756    45.623342  0.030174168  0.033293101            1 
  127000       1.1927   -7.2247654    46.141694  0.030276702   0.03327142            2 
  128000    1.1957237   -7.2481855    46.450124  0.030240966  0.033251721            1 
  129000    1.2093079   -7.2535661    46.836957  0.030256432  0.033233662            1 
  130000      1.19181   -7.2369699    47.179094  0.030243009  0.033215084            1 
  131000    1.2038687    -7.221487    47.653713  0.030314067   0.03319619            1 
  132000    1.1893378   -7.2343705    47.932325  0.030260306  0.033180223            2 
  133000    1.2206689    -7.224216    48.345868  0.030291897   0.03316109            1 
  134000    1.1744664   -7.2495157    48.695681  0.030283384  0.033145001            2 
  135000    1.2017052   -7.1979942    49.197055  0.030368552   0.03312615            2 
  136000    1.1994378   -7.1908289    49.436226  0.030291805  0.033105177            1 
  137000    1.2349976   -7.2337458    49.631097  0.030189232  0.033081289            3 
  138000    1.2108027   -7.2244342    49.910134   0.03013897   0.03305486            2 
  139000    1.2060823   -7.2407091    50.116562    0.0300459  0.033026151            2 
  140000    1.1888005   -7.2501785    50.385317   0.02999126  0.032991638            1 
  141000    1.1750874    -7.253648    51.000127  0.030141919  0.032962586            2 
  142000    1.2308472   -7.2469995    51.394134  0.030160877  0.032940639            1 
  143000    1.1898381   -7.2788754    51.738767  0.030150796  0.032918601            2 
  144000    1.1821929    -7.238258      52.3048  0.030268981   0.03289705            5 
  145000    1.1897816   -7.2805973    52.238629    0.0300222  0.032873267            2 
  146000    1.2067577   -7.2384184    52.538275    0.0299876  0.032844839            2 
  147000    1.1938208   -7.2588079    52.857749   0.02996471   0.03281413            1 
  148000    1.1934423   -7.2755689    53.336081  0.030031577  0.032783867            1 
  149000    1.1925051   -7.2901472    53.598548  0.029976817  0.032752059            2 
  150000    1.1822532   -7.2654766    53.884702  0.029935945   0.03272133            1 
  151000    1.1838782   -7.2623841    54.233996  0.029930461  0.032691021            1 
  152000    1.2056563   -7.2558005     54.55911  0.029911792  0.032657423            1 
  153000    1.1941901   -7.2666023    55.010677  0.029962242  0.032623424            3 
  154000    1.2085572     -7.26019      55.4488  0.030004762  0.032590765            2 
  155000    1.1955992   -7.2770756    55.627667  0.029907348  0.032560035            3 
  156000    1.1806553   -7.2723525    55.755065  0.029783688  0.032527017            2 
  157000    1.1941254   -7.2896682     56.12028  0.029787834  0.032492447            1 
  158000    1.1869659   -7.2978946    56.496047  0.029797493  0.032461044            3 
  159000    1.1932214   -7.2935195    56.876306  0.029809385  0.032430389            1 
  160000     1.168642   -7.2531585    57.414274  0.029903268   0.03240048            2 
  161000    1.1892195   -7.2687148    57.715004   0.02987319   0.03237026            2 
  162000    1.1814639   -7.2313156    58.123719  0.029899032  0.032338662            1 
  163000    1.1898785   -7.2629545    58.165916  0.029737176   0.03230358            2 
  164000    1.1992041   -7.2923859    58.351215  0.029650008  0.032265511            1 
  165000    1.2159801    -7.286802    58.520861   0.02955599  0.032227573            3 
  166000    1.2004666   -7.2716794    58.693121  0.029464418  0.032186723            2 
  167000    1.1862345   -7.3098065    58.776293  0.029329488  0.032144409            1 
  168000    1.1923814   -7.2567429    59.337351   0.02943321  0.032101644            2 
  169000    1.2097977   -7.2780571    59.376874  0.029278538  0.032056784            1 
  170000     1.178799   -7.2671884    59.710184  0.029269698  0.032008789            2 
  171000     1.185851   -7.2525784    60.215314  0.029344695  0.031960913            2 
  172000     1.190039   -7.3205301    60.323637  0.029226568  0.031914385            3 
  173000    1.1639722   -7.2922597    60.848413  0.029310411  0.031869432            1 
  174000    1.1884111   -7.2505713    61.416603  0.029414082  0.031827805            3 
  175000    1.2045173   -7.2866976    61.686847  0.029374689  0.031786663            1 
  176000    1.1775876   -7.3087719    61.990781  0.029351696  0.031746159            1 
  177000    1.1662722   -7.3070549    62.113604  0.029243693  0.031707642            1 
  178000    1.1618338   -7.3233255    62.404645  0.029215657  0.031669256            2 
  179000    1.1830797   -7.2579236    63.141917  0.029395678  0.031634144            1 
  180000     1.173953   -7.2844491    63.242035   0.02927872  0.031597886            2 
  181000    1.1738408   -7.2648619    63.824791  0.029385263  0.031561419            2 
  182000    1.1661444   -7.2584612    63.962037  0.029286647  0.031527399            1 
  183000    1.1756946   -7.3355642    64.023597  0.029154644  0.031491947            1 
  184000    1.1934974   -7.3457012     64.38048  0.029157826  0.031453863            2 
  185000    1.1932099   -7.3051201    64.691857  0.029140476  0.031414841            4 
  186000    1.1774904   -7.3009144    65.211125  0.029216454  0.031377237            2 
  187000    1.1698742    -7.311223    65.206434  0.029058125   0.03133982            2 
  188000    1.1529339   -7.2964089     65.54937  0.029055572  0.031302398            3 
  189000    1.1384721   -7.3077662    66.027235  0.029112538   0.03126515            4 
  190000    1.1642831   -7.3435201    65.943314  0.028922506  0.031227026            1 
  191000    1.1952119   -7.3290278    66.465972  0.028999115   0.03118925            1 
  192000     1.200532   -7.2878946    66.772104  0.028980948  0.031150719            2 
  193000     1.198634   -7.3128878    66.843023  0.028861409  0.031110784            2 
  194000    1.1820717    -7.274955    67.095052  0.028820899  0.031071153            2 
  195000    1.2161492   -7.2805625    67.440637  0.028820785  0.031029344            1 
  196000     1.159141   -7.2990745    67.542462  0.028717033  0.030989177            1 
  197000     1.179209   -7.3016537    67.606423  0.028598318  0.030945077            2 
  198000    1.1867108   -7.2773321    68.138399  0.028677777  0.030900829            1 
  199000    1.1653425   -7.3371963    68.416114  0.028649964  0.030857376            2 
  200000    1.1621249   -7.3047874    68.530269  0.028554278  0.030812799            2 
  201000    1.1914902   -7.2685019    68.902669  0.028566612  0.030768386            3 
  202000    1.1619324   -7.2850112    69.216022  0.028554464  0.030724914            2 
  203000    1.1836756   -7.3182331    69.485185  0.028524296  0.030682176            2 
  204000    1.1539356   -7.2930263     70.09688  0.028634346  0.030641276            3 
  205000    1.1842106   -7.3446597    70.280182  0.028569179  0.030601722            2 
  206000    1.1866316   -7.3243804    70.562551  0.028544721  0.030563373            3 
  207000    1.1749708   -7.3143653    71.105582  0.028625435  0.030523948            2 
  208000    1.1296209   -7.2817422    71.472162   0.02863468  0.030487463            1 
  209000    1.1664863   -7.3260314    71.780313  0.028620539  0.030453487            3 
  210000    1.1596813   -7.3078632    72.411852  0.028734862  0.030418788            2 
  211000    1.1796216   -7.3192924    72.642937  0.028689943  0.030387617            1 
  212000    1.1742751   -7.3124218    72.822128   0.02862505  0.030356886            2 
  213000    1.1566612   -7.3163111    73.423082  0.028725775  0.030327038            1 
  214000    1.1544501   -7.3058537    73.743345  0.028716256  0.030297369            2 
  215000    1.1667499   -7.3373284    73.522301  0.028497016  0.030266736            1 
  216000    1.1596378      -7.3203    73.966974  0.028536641  0.030233481            2 
  217000      1.15135   -7.3173496    74.180371  0.028487085  0.030200054            3 
  218000    1.1838339   -7.3802308    74.201741   0.02836458  0.030164551            2 
  219000    1.1518022   -7.3492612    74.573269  0.028376434  0.030129885            1 
  220000    1.1834548   -7.3339372    74.944559  0.028388091  0.030095489            2 
  221000    1.1886151   -7.3383879    75.306807  0.028396232  0.030060857            3 
  222000    1.1486247   -7.3107393    75.563952  0.028364847  0.030028817            2 
  223000    1.1760222   -7.3727315    75.569001  0.028239537   0.02999469            4 
  224000    1.1716482   -7.3570915    76.137646  0.028325017   0.02996137            6 
  225000    1.1480718   -7.3169366    76.426066   0.02830595  0.029928454            1 
  226000    1.1588227   -7.3571994    76.311296  0.028138383  0.029894217            1 
  227000    1.1466155   -7.3291593    77.003707  0.028268615  0.029859632            1 
  228000    1.1621706   -7.2976413    77.271729  0.028242591  0.029825571            1 
  229000    1.1548287   -7.3145041    77.658993  0.028260187  0.029791293            4 
  230000    1.1361012   -7.3451513    77.727849  0.028162264  0.029758441            2 
  231000    1.1773693   -7.3186303    78.248417  0.028228145  0.029727813            2 
  232000    1.1431537    -7.353894    78.673314  0.028259093   0.02969753            1 
  233000    1.1551299   -7.3868922    78.966374  0.028242623  0.029669215            1 
  234000    1.1733164    -7.372589    79.034845  0.028146312  0.029640148            2 
  235000    1.1624169   -7.3973951    79.197669   0.02808428   0.02961083            1 
  236000     1.143711   -7.3626967    79.555583  0.028091661  0.029580641            3 
  237000    1.1601895   -7.3227637    80.103584  0.028165817  0.029551866            3 
  238000    1.1611852   -7.3562128    80.346358  0.028132478  0.029523082            1 
  239000      1.15686    -7.329594     80.48768  0.028064044  0.029492877            1 
  240000    1.1524902   -7.3675225    80.547208  0.027967781  0.029463777            2 
  241000    1.1662677   -7.3411031    81.567304  0.028204462  0.029435681            1 
  242000    1.1398886   -7.3600457    81.881725  0.028196186  0.029410254            1 
  243000    1.1614528   -7.3450351    82.503437   0.02829336  0.029387254            1 
  244000    1.1441823    -7.378741    82.496326  0.028174975  0.029365186            2 
  245000    1.1681241   -7.3792715    83.000346   0.02823141  0.029342884            1 
  246000    1.1455304   -7.3203909    83.535915  0.028298074  0.029323475            3 
  247000    1.1501123   -7.3272068    84.322282  0.028448813  0.029304046            2 
  248000    1.1487319   -7.3401281    84.150385  0.028276339   0.02928445            3 
  249000    1.1402891    -7.391545    84.488894  0.028276069  0.029267041            2 
  250000    1.1503234   -7.3558104    85.139535  0.028379845  0.029248874            1 
  251000    1.1672274   -7.3155872     85.30785  0.028322659  0.029229886            1 
  252000    1.1400431   -7.3200692    85.538678    0.0282866  0.029211634            2 
  253000    1.1589196   -7.3884066    85.878396  0.028286692  0.029192484            3 
  254000    1.1273247   -7.3453344    86.089401  0.028244554  0.029172271            2 
  255000    1.1472571   -7.3334244     86.19083  0.028166938  0.029153532            1 
  256000    1.1597273   -7.3884798     86.41925  0.028131266  0.029133518            1 
  257000    1.1654698   -7.3672058    86.873388  0.028169062  0.029113401            1 
  258000    1.1469221   -7.3486552    87.587008  0.028290377  0.029095094            1 
  259000    1.1402273   -7.3875121    87.562299  0.028173198  0.029077619            1 
  260000    1.1388363   -7.4066093    87.867578  0.028162685  0.029059665            1 
  261000    1.1517085      -7.3521    88.510784  0.028260148  0.029042967            3 
  262000    1.1519406   -7.3512702    88.279175  0.028078618  0.029025324            1 
  263000     1.156518   -7.3856929    88.528644  0.028050901  0.029006356            2 
  264000    1.1498872   -7.4170554    88.996906  0.028092458  0.028987021            2 
  265000    1.1457442   -7.4174827     89.52789  0.028153425  0.028968604            2 
  266000    1.1430023   -7.3661186    89.686543  0.028097288  0.028950169            2 
  267000    1.1615508   -7.3810285    90.053462  0.028106574  0.028932475            3 
  268000    1.1327383   -7.4383537    90.118645  0.028021967  0.028914011            1 
  269000    1.1376892   -7.3418514    90.797142  0.028127987  0.028895295            1 
  270000    1.1455525    -7.348956    91.049476   0.02810169  0.028878013            3 
  271000    1.1415678   -7.3790731    91.182398  0.028038868   0.02885983            2 
  272000    1.1035462   -7.3425331    91.618754  0.028069471  0.028842439            1 
  273000    1.1416351    -7.366601    91.863597  0.028041391  0.028824472            1 
  274000    1.1591377   -7.4031899    92.545575  0.028146464  0.028807757            2 
  275000    1.1331004   -7.3696586    92.463922   0.02801937    0.0287916            3 
  276000     1.145572   -7.3911425    92.645122  0.027972561  0.028774942            1 
  277000    1.1340235   -7.3718504    92.822811  0.027925033  0.028757968            1 
  278000    1.1780399   -7.4241363    92.778025  0.027811158  0.028739046            2 
  279000    1.1412107   -7.4184847    93.486329  0.027923037  0.028720128            2 
  280000    1.1423886   -7.3994637    93.370187  0.027788746   0.02870125            1 
  281000    1.1346132   -7.4100723    93.815861  0.027822023  0.028681777            2 
  282000    1.1552457     -7.37575    94.308573  0.027868963  0.028662204            2 
  283000     1.150243   -7.3974835    94.422373  0.027803997  0.028642304            1 
  284000    1.1489643   -7.3752464    94.681708  0.027782191  0.028621777            5 
  285000    1.1392014   -7.3626681     94.95009  0.027763184  0.028602509            1 
  286000    1.1376742   -7.3759782    95.430018  0.027805949  0.028583215            3 
  287000    1.1313495   -7.4247801    95.625819  0.027765917  0.028562861            1 
  288000    1.1604196    -7.369805    95.861823  0.027737796  0.028543627            1 
  289000    1.1609445   -7.3887594    96.453124  0.027812319  0.028525004            1 
  290000    1.1284868   -7.3905194    96.448422  0.027715064  0.028506575            2 
  291000    1.1368192    -7.418252    96.376189  0.027599138  0.028487393            3 
  292000    1.1354063    -7.404034    96.736714   0.02760751  0.028466943            2 
  293000    1.1317632   -7.4122572    97.017483  0.027593141  0.028447457            1 
  294000    1.1362118   -7.3940791    97.832237  0.027730226  0.028429225            2 
  295000    1.1318609   -7.3987557    97.905416  0.027656897  0.028411234            2 
  296000    1.1268505   -7.4056975    98.094446   0.02761668  0.028393106            3 
  297000    1.1453914   -7.3756101    98.667942  0.027684608  0.028373719            1 
  298000      1.15233   -7.4352726    98.624864   0.02757966  0.028354923            1 
  299000    1.1402348   -7.4053489    99.106099  0.027621544  0.028336951            1 
  300000    1.1344718    -7.399433    99.313393  0.027587054  0.028318047            1 
  301000    1.1446973   -7.3911623    99.195514  0.027462767  0.028298632            2 
  302000    1.1480325   -7.3969278    99.777518  0.027532428   0.02827957            3 
  303000    1.1306461   -7.4164659    99.996251  0.027501719  0.028260128            2 
  304000    1.1666056   -7.3657213    100.44912  0.027535395  0.028242559            2 
  305000    1.1265033   -7.4013772    100.83132  0.027549541  0.028224577            3 
  306000    1.1240304   -7.3756986     100.9956  0.027504249  0.028205886            2 
  307000    1.1334959   -7.4113351    101.24377  0.027482023  0.028187299            1 
  308000     1.142078   -7.3920314    101.44274  0.027446629  0.028169348            2 
  309000    1.1447295   -7.4089236    102.13427    0.0275443  0.028152115            4 
  310000    1.1416098   -7.4121429    102.37466   0.02752007  0.028135908            1 
  311000    1.1170084   -7.3911942    103.00611   0.02760078  0.028120016            3 
  312000    1.1386442   -7.4192295    102.93344  0.027492907  0.028103859            2 
  313000    1.1139645    -7.416394    103.16094   0.02746564  0.028087176            2 
  314000    1.1409798    -7.421887    103.63407  0.027503734   0.02807023            1 
  315000    1.1211531   -7.4092219    103.89609  0.027485737  0.028053683            4 
  316000    1.1403371   -7.4654399    103.69271  0.027345123  0.028035871            2 
  317000     1.123735   -7.4398595    104.17979  0.027386907  0.028018733            2 
  318000     1.115431   -7.4183131    104.49535  0.027383479  0.028002012            2 
  319000    1.1279535   -7.4508116    104.41719  0.027277217  0.027984011            2 
  320000    1.1330055   -7.4027411    105.13612  0.027379197  0.027966112            2 
  321000    1.1233695   -7.4088269    105.14251  0.027295562  0.027949366            3 
  322000    1.1187782   -7.4003206    105.74603  0.027366985   0.02793334            3 
  323000      1.16243   -7.4481363    105.71503  0.027274259  0.027916371            6 
  324000    1.1360192   -7.3852187    106.17879  0.027309359  0.027898947            2 
  325000    1.1270903   -7.4629172    106.53357    0.0273163  0.027882043            3 
  326000    1.1319398   -7.4236874    106.80032  0.027300696  0.027866432            2 
  327000    1.0964587   -7.4289921    107.70474  0.027447691  0.027851485            2 
  328000    1.1135239    -7.446439    107.44063  0.027296909  0.027837107            2 
  329000    1.1110662   -7.4494421     107.6005  0.027254432  0.027822095            1 
  330000    1.0956985   -7.4629198    107.96645  0.027264254  0.027806711            1 
  331000    1.1268092   -7.4104595    108.35697  0.027280203  0.027791535            1 
  332000    1.1164903   -7.4029748    108.86512  0.027325582  0.027776217            2 
  333000    1.1279814   -7.3948348    109.13832  0.027311893  0.027761722            1 
  334000    1.1117147    -7.434187    109.10517  0.027221849  0.027746724            1 
  335000     1.129055   -7.4351106     109.4738  0.027232288  0.027731913            2 
  336000    1.0969487   -7.4813677    109.77066  0.027224865  0.027716853            2 
  337000    1.1084443   -7.4664808    109.72876  0.027133719  0.027701652            2 
  338000    1.1601378   -7.4831656    110.14737  0.027156648  0.027686824            1 
  339000     1.142954   -7.4541205    110.60748  0.027189645  0.027671621            2 
  340000    1.0916759   -7.4086814    110.62309  0.027113503  0.027656624            2 
  341000    1.1090302   -7.4460846    110.76384  0.027068386  0.027640886            2 
  342000    1.1245716    -7.465035    111.67409  0.027211036  0.027625513            2 
  343000    1.1164921   -7.4245506    112.36658  0.027299948  0.027610928            1 
  344000    1.1063655   -7.4513804    112.08981   0.02715354  0.027597311            2 
  345000    1.1090606   -7.4753453    112.38329  0.027145722  0.027583479            3 
  346000    1.0865607   -7.4917881    112.64719  0.027130827  0.027569174            3 
  347000    1.0999085   -7.4170111    113.20005  0.027185411  0.027554969            2 
  348000    1.1158844   -7.4640687    113.24299  0.027117575  0.027541104            2 
  349000    1.1043253   -7.4627276    113.56185  0.027116009  0.027527172            1 
  350000    1.0989306    -7.396262    114.33432  0.027222457  0.027513879            1 
  351000    1.1208207    -7.439047    114.21451  0.027116455  0.027500313            4 
  352000    1.1185015   -7.4539459    114.51301  0.027110088  0.027485934            2 
  353000    1.1114816   -7.4794436    114.41389  0.027009889  0.027470884            1 
  354000    1.1157675    -7.417069    114.68135  0.026996551  0.027455941            2 
  355000    1.1074595   -7.4839531    114.96387  0.026986824   0.02744056            2 
  356000    1.0929914   -7.4877424    115.28966  0.026987281   0.02742553            2 
  357000    1.1035645   -7.4715884     115.0961  0.026866504  0.027410126            1 
  358000    1.1200274   -7.4664573    115.42264  0.026867468  0.027393663            3 
  359000    1.1028069   -7.4822666    115.32559  0.026770101  0.027377167            2 
  360000    1.0986727   -7.4917247    116.08204  0.026870844  0.027359514            2 
  361000    1.1118503   -7.4681826    116.02426  0.026783069  0.027343158            2 
  362000    1.1235815   -7.5268093    115.91111  0.026683036  0.027325832            1 
  363000    1.0912556   -7.4541044    116.79952   0.02681348  0.027309318            2 
  364000     1.122476   -7.4640854    116.86986   0.02675592  0.027292632            1 
  365000    1.1030418   -7.4315108    116.90668  0.026691022  0.027276139            3 
  366000    1.0797907   -7.4972161    117.30267  0.026708258  0.027259591            4 
  367000    1.1097133   -7.4720452    117.44672  0.026668193   0.02724215            1 
  368000     1.130297   -7.4618366    117.84986  0.026687016   0.02722487            2 
  369000    1.1296396   -7.4648247    117.97932   0.02664393  0.027207279            1 
  370000     1.112275   -7.5005437    118.00761   0.02657829  0.027189201            1 
  371000    1.1103223   -7.4890004    118.59303  0.026638146  0.027171427            1 
  372000      1.10234   -7.4906827    118.28504  0.026497545  0.027153492            3 
  373000    1.1058699   -7.4999602    119.15217  0.026620234  0.027135446            3 
  374000    1.0938199   -7.4958067    119.25659  0.026572323  0.027118716            3 
  375000    1.0994207   -7.4666159    120.11131  0.026691402  0.027102047            2 
  376000     1.091569    -7.522919    119.85564  0.026563749  0.027084382            1 
  377000    1.1154424   -7.4746849    120.10184   0.02654771  0.027067239            4 
  378000    1.0701863   -7.4995378    120.00365  0.026455831  0.027050645            3 
  379000    1.1177595   -7.5071888    120.97503   0.02659961  0.027033335            2 
  380000    1.1150002   -7.4823236    121.48329  0.026641072  0.027017622            1 
  381000    1.1011302   -7.4849803    121.47729  0.026569837  0.027001759       -1e+20 
  382000    1.0835213   -7.4947667    121.75632  0.026561151   0.02698594            2 
  383000    1.1187079   -7.5061867    121.88847  0.026520556  0.026969983            1 
  384000    1.1026323   -7.5473787     121.4881  0.026364606  0.026953435            2 
  385000    1.0803065   -7.5177422    122.05066  0.026417892  0.026936624            1 
  386000    1.0972015   -7.5036129    122.61124  0.026470474  0.026919846            3 
  387000    1.0986037   -7.4424538    123.13177  0.026514162   0.02690323            2 
  388000    1.1272889   -7.4966529    123.44335  0.026512747  0.026887238            1 
  389000    1.0921573   -7.4970403    123.11883   0.02637507  0.026871253            1 
  390000    1.0918289   -7.4559019     124.3203  0.026564166  0.026855739            2 
  391000    1.0955992    -7.467034    124.29857  0.026491596  0.026840682            1 
  392000    1.0907962   -7.4622339    124.58541  0.026484994  0.026825755            2 
  393000    1.0846902   -7.4878768    124.59405  0.026419434  0.026810671            3 
  394000    1.0918451   -7.5205696    124.49606  0.026331654  0.026794561            1 
  395000    1.0989711   -7.4997729    124.68438  0.026304722   0.02677811            2 
  396000     1.095102   -7.5302178    124.90923  0.026285611  0.026760964            2 
  397000    1.1114567   -7.5017259     125.4319  0.026329114  0.026744158            2 
  398000    1.1100569   -7.4646862    125.83008  0.026346332  0.026728044            2 
  399000     1.093732   -7.4693929    125.55141    0.0262221   0.02671152            2 
  400000     1.090512   -7.4951628    125.88392  0.026225817  0.026694589            3 
  401000    1.0773324   -7.5359791    126.16484  0.026218794  0.026677317            3 
  402000    1.0946385   -7.5341245    126.08517  0.026137059  0.026659911            1 
  403000    1.0899299   -7.5145693     126.4133  0.026140053   0.02664276            2 
  404000    1.0750841   -7.5310998     126.3846   0.02606943  0.026625247            2 
  405000    1.0714781   -7.5598998    126.94212  0.026119777  0.026607263            1 
  406000    1.0889235   -7.5109458    127.30602  0.026130136   0.02658989            3 
  407000    1.0702483   -7.4887061    127.43733  0.026092818   0.02657264            3 
  408000    1.0954344   -7.4938898    127.53349  0.026048507  0.026555146            2 
  409000    1.0933653   -7.4711618    128.23974  0.026128717  0.026537632            2 
  410000    1.0969778    -7.503761    128.06875  0.026030234  0.026520437            1 
  411000    1.0991206   -7.5118476    128.29983  0.026013752  0.026503095            2 
  412000    1.0769096   -7.4995245    128.52848  0.025996861  0.026486009            3 
  413000    1.0753015   -7.4648313    129.06981  0.026043141  0.026468697            1 
  414000     1.111599   -7.5076234    129.25047  0.026016601  0.026451089            2 
  415000    1.0997525   -7.5127995    129.44302  0.025992574  0.026433917            2 
  416000    1.0757035   -7.5203752    129.47002  0.025935501   0.02641662            3 
  417000    1.1048323   -7.5792334    129.52907  0.025885106  0.026399825            2 
  418000    1.1021317   -7.5936568    129.53546  0.025824454  0.026382382            3 
  419000    1.1104744   -7.5473699    130.27656  0.025910214  0.026365183            3 
  420000    1.0921284   -7.5187887    130.56843  0.025906434  0.026347858            1 
  421000    1.0708642   -7.5321889    131.22971  0.025975794  0.026330738            4 
  422000    1.0857413   -7.5287246    130.95454  0.025859901  0.026313995            2 
  423000    1.0817514   -7.5327064    131.36894  0.025880406  0.026297218            3 
  424000    1.0935368   -7.5702435    131.18106  0.025782442  0.026280778            1 
  425000    1.0933574   -7.4965041     131.8015  0.025843431  0.026264075            1 
  426000    1.0963197   -7.5376321     132.2319  0.025866959  0.026247276            1 
  427000    1.0722868   -7.5386054    132.58517  0.025875325  0.026231384            5 
  428000    1.0617566   -7.5392432    132.84346  0.025865159  0.026215549            2 
  429000    1.0524544   -7.5084744    133.41515  0.025915919   0.02620053            3 
  430000    1.0783938   -7.5330221    133.15148  0.025804551   0.02618539            3 
  431000    1.0818672   -7.5331539    133.61752  0.025834787  0.026170015            2 
  432000    1.0928739   -7.5623043    133.69256  0.025789459  0.026154698            2 
  433000    1.0574876   -7.5283144    134.07976   0.02580442  0.026139133            1 
  434000    1.0936494   -7.5723507    134.32513  0.025792075  0.026122994            2 
  435000    1.0794227   -7.5882452    134.17043  0.025703148  0.026106885            2 
  436000    1.0715394   -7.5313612    134.89772  0.025783204  0.026091038            5 
  437000    1.0642352   -7.5338671    135.09053  0.025760972  0.026075482            3 
  438000    1.0674563   -7.5715628    134.52931  0.025595379  0.026059285            2 
  439000    1.0999703   -7.5820396    135.21564  0.025667358  0.026042332            2 
  440000    1.0799377   -7.5208865    135.44244  0.025651978  0.026025731            4 
  441000    1.0732211    -7.594038    135.25335  0.025558078  0.026008972            3 
  442000    1.0713531   -7.5477349    136.01792  0.025644404  0.025992231            1 
  443000    1.0899788   -7.5067668    136.25498   0.02563111  0.025976334            2 
  444000    1.0587392   -7.5812664    136.30408  0.025582598  0.025960071            2 
  445000    1.0640868   -7.5618235    136.45498  0.025553366  0.025943651            1 
  446000     1.061341   -7.5387378    137.04615   0.02560653   0.02592744            4 
  447000    1.0754738   -7.5421505    137.03619  0.025547387  0.025911856            1 
  448000    1.0694539   -7.5844714    137.25323  0.025530734  0.025895842            2 
  449000    1.0769258   -7.5571324    137.43222  0.025507093  0.025879773            3 
  450000    1.0927132   -7.5904751    137.96738  0.025549514  0.025863663            1 
  451000    1.0615962   -7.5444127    138.13549  0.025523927  0.025847033            3 
  452000    1.0707426   -7.5875727    137.77762  0.025401479   0.02583055            3 
  453000    1.0900232   -7.5809133    138.40975  0.025461691  0.025813881            4 
  454000    1.0802237   -7.5264098    138.69615  0.025458178   0.02579689            2 
  455000    1.0786429    -7.558477    138.74001  0.025410259  0.025780301            2 
  456000    1.0730501    -7.573934    138.31722  0.025277269  0.025763148            2 
  457000    1.0612101   -7.5311133    139.32867  0.025406394  0.025746405            2 
  458000    1.0799449   -7.5513563     139.7528  0.025428093  0.025730057            3 
  459000    1.0675678   -7.5423177     139.6014  0.025345207  0.025713507            2 
  460000    1.0715229   -7.5670553    139.16593  0.025211219  0.025696525            2 
  461000    1.0636151   -7.6061492    139.46267  0.025210172  0.025678706            1 
  462000    1.0815018   -7.5458174    139.69918  0.025198265  0.025661214            4 
  463000    1.0608605   -7.5909792    139.53537  0.025114358  0.025643632            3 
  464000    1.0818093   -7.5734072    139.97632  0.025139425   0.02562544            1 
  465000    1.0692528   -7.4877164    141.10276  0.025287232  0.025607502            2 
  466000    1.0428974   -7.5747121    140.60728  0.025144363  0.025589609            2 
  467000    1.0734794   -7.5542314    140.94995  0.025151669  0.025571983            4 
  468000     1.072852   -7.5505303    141.05819  0.025117198  0.025554032            1 
  469000     1.091087   -7.5852502    141.07893  0.025067329  0.025535901            1 
  470000    1.0653805   -7.5831416    141.25487   0.02504519  0.025517225            3 
  471000    1.0535455   -7.5842224    140.98574  0.024944399  0.025498011            2 
  472000    1.0222084   -7.6076925    140.93736  0.024883008  0.025478556            4 
  473000    1.0868196   -7.5888373    141.54757  0.024937908   0.02545949            5 
  474000    1.0667033   -7.5678558    142.02474  0.024969188  0.025440952            1 
  475000    1.0708583   -7.6008448    142.79249  0.025051314  0.025422953            2 
  476000    1.0778807   -7.5972655     142.7674  0.024994292  0.025405223            2 
  477000    1.0348319   -7.5933464    143.11706   0.02500298  0.025387894            2 
  478000    1.0810184   -7.5654961    142.99908  0.024930105   0.02537014            2 
  479000    1.0603374    -7.578754    143.52252  0.024969124  0.025352594            2 
  480000    1.0532846   -7.6022195    143.56522  0.024924517   0.02533498            1 
  481000    1.0346883   -7.5953765     143.6468  0.024886832  0.025317468            4 
  482000    1.0704182   -7.5831074    144.36271  0.024958975   0.02530039            1 
  483000    1.0532132   -7.5987785      144.793  0.024981538  0.025283616            7 
  484000    1.0595588   -7.5901519    144.75622  0.024923591  0.025267109            1 
  485000    1.0508385   -7.5804051    145.28749  0.024963487  0.025250362            2 
  486000    1.0625036   -7.5940348    145.13857  0.024886586  0.025233405            2 
  487000    1.0427331   -7.6060179    145.25938  0.024856157   0.02521669            1 
  488000    1.0630085   -7.6072619    145.54514  0.024854019  0.025200026            2 
  489000    1.0392408   -7.6131485    145.27285   0.02475679  0.025183239            3 
  490000    1.0778163   -7.5551801    145.66857  0.024773566  0.025166204            5 
  491000    1.0493621   -7.5773299    145.82314  0.024749345  0.025148958            2 
  492000     1.051676    -7.624495    145.83776  0.024701518  0.025131433            3 
  493000    1.0766635   -7.6303653    146.06428  0.024689702  0.025113697            3 
  494000    1.0707265   -7.5799154    146.97175  0.024792805  0.025096977            1 
  495000    1.0611235   -7.5963664    147.22695  0.024785681  0.025080146            1 
  496000    1.0491328    -7.593354    147.06992  0.024709329  0.025062779            5 
  497000    1.0709089   -7.6222949    147.29524  0.024697391  0.025045742            2 
  498000    1.0706375    -7.627435    147.16126  0.024625379  0.025028443            4 
  499000    1.0713428   -7.6151826    147.26352  0.024593107  0.025011074            2 
  500000    1.0483111   -7.5876428      147.747  0.024624499  0.024993937            2 
  501000    1.0900664   -7.5995147    148.00371   0.02461805  0.024976571            2 
  502000    1.0815912   -7.6009105    148.33985  0.024624808  0.024959031            1 
  503000    1.0805295   -7.5930307    148.29372  0.024568211  0.024941618            2 
  504000    1.0665306   -7.6310564     148.4119  0.024539005  0.024924215            2 
  505000    1.0468258   -7.5949793     148.6879  0.024535956  0.024906578            3 
  506000     1.056364   -7.6136846    148.65015   0.02448125  0.024888992            1 
  507000    1.0462033   -7.6742701    148.67987  0.024437849  0.024871563            2 
  508000    1.0700043   -7.6515447    148.67623  0.024389145  0.024853827            1 
  509000    1.0591854   -7.6202083     149.5924  0.024491225  0.024836289            3 
  510000     1.022949   -7.5985187     149.5046  0.024428857  0.024818853            2 
  511000    1.0423151   -7.6607176    149.36015  0.024357494   0.02480107            1 
  512000    1.0347404   -7.6224447    150.12936  0.024435118  0.024783426            3 
  513000    1.0586551   -7.6272882    150.04195  0.024373287  0.024765423            1 
  514000    1.0417869   -7.6167782    150.31334  0.024369867  0.024747745            1 
  515000    1.0703357   -7.6426155    150.72854  0.024389731   0.02473038            2 
  516000    1.0252831    -7.615155     150.6042  0.024322384  0.024712676            2 
  517000    1.0296844   -7.6751336    151.03387  0.024344595  0.024694969            1 
  518000    1.0471044   -7.6068145    151.23588  0.024330096  0.024677947            2 
  519000    1.0760279   -7.5931133    151.49941  0.024325531  0.024660552            3 
  520000    1.0265299   -7.6525684     151.3827  0.024260047  0.024642988            1 
  521000    1.0425318   -7.6116103    151.70619  0.024265226  0.024625369            2 
  522000    1.0621839   -7.6021937    152.13285  0.024286853  0.024607785            3 
  523000    1.0511048   -7.6307784    152.08274  0.024232432  0.024590182            3 
  524000     1.075773   -7.6162448      151.888  0.024155216   0.02457233            1 
  525000    1.0376265   -7.6534572    151.78406  0.024092708    0.0245546            3 
  526000    1.0334958   -7.6393639    152.62319  0.024179846  0.024536879            2 
  527000    1.0506691   -7.6325025    152.84289  0.024168705  0.024519114            1 
  528000     1.044978    -7.646411    152.93861  0.024138038  0.024501802            5 
  529000    1.0528868   -7.6317982    153.54776  0.024188368   0.02448467            2 
  530000    1.0531738   -7.6560401    153.44964  0.024127301  0.024467251            2 
  531000    1.0589614   -7.6479571    153.61333  0.024107553  0.024449571            3 
  532000    1.0469269   -7.6349464    154.24266  0.024160818  0.024432301            3 
  533000    1.0615596   -7.6338037    154.35259  0.024132675  0.024415571            2 
  534000    1.0558982    -7.630757    154.88024  0.024169825  0.024399132            1 
  535000    1.0621048   -7.6699008    155.12239  0.024162366  0.024382594            2 
  536000    1.0468641   -7.6618739    154.86299  0.024076958  0.024365838            6 
  537000    1.0400676   -7.6688065    155.15033  0.024076711  0.024348961            2 
  538000    1.0438157   -7.6299902    155.13464   0.02402953  0.024331792            2 
  539000     1.036419   -7.6513843    155.42103  0.024029226  0.024314849            2 
  540000    1.0416961   -7.6821742    155.57523  0.024008524  0.024297594            3 
  541000    1.0409534   -7.6522854    155.50021  0.023952589   0.02427984            3 
  542000    1.0412262   -7.6157814    156.03333  0.023990364  0.024262374            2 
  543000    1.0372497   -7.6923394    155.64833  0.023887098  0.024245194            4 
  544000    1.0319537   -7.6908872    156.18595  0.023925543  0.024228199            5 
  545000    1.0204498   -7.6720431    156.20479  0.023884525  0.024210886            2 
  546000    1.0197733   -7.6509796    157.06352  0.023971844  0.024193648            3 
  547000    1.0389177   -7.6478609     156.8207  0.023891027  0.024176626            2 
  548000    1.0282519   -7.6450713    157.47707  0.023947243  0.024159907            2 
  549000    1.0139966   -7.6632989    157.07816  0.023843072  0.024143415            1 
  550000    1.0146323   -7.6350606    157.55559  0.023872058  0.024126963            3 
  551000    1.0414458   -7.6333391    158.06377  0.023905592  0.024110532            3 
  552000    1.0243418   -7.6631293    157.79113  0.023821125  0.024093781            1 
  553000    1.0178446   -7.6605773    157.53416  0.023739325  0.024076599            1 
  554000    1.0344731   -7.6706186    158.18861  0.023794917    0.0240596            1 
  555000    1.0502646   -7.6978935      158.198  0.023753453  0.024042454            3 
  556000     1.018357   -7.6590663    158.65737  0.023779582  0.024025426            1 
  557000    1.0374546    -7.687052    158.42143   0.02370159  0.024008486            4 
  558000    1.0293239   -7.6931278    158.76695  0.023710715  0.023991478            3 
  559000    1.0318253   -7.6709823    158.87786  0.023684833  0.023974044            1 
  560000    1.0395908   -7.7019633    158.61623  0.023603605  0.023956513            3 
  561000    1.0418462   -7.6807876    158.85855  0.023597526  0.023938945            2 
  562000    1.0372245   -7.6425407    159.04385  0.023583014  0.023921317            4 
  563000    1.0276026    -7.667377    159.36597  0.023588806  0.023903849            3 
  564000    1.0367613   -7.6859855    159.26482  0.023532036  0.023886326            3 
  565000    1.0328692   -7.6967937    160.11064  0.023615139  0.023868899            1 
  566000    1.0176236    -7.661353    159.89961  0.023542346  0.023851293            3 
  567000    1.0125979   -7.7219668     160.0408  0.023521576  0.023834299            5 
  568000    1.0097412   -7.7062476    160.00044  0.023474243  0.023817007            1 
  569000    1.0430226   -7.7094858    160.16168  0.023456602  0.023799746            3 
  570000    1.0347254   -7.7073446    160.61355  0.023481513  0.023782592            4 
  571000    1.0224138   -7.7181693    160.54172  0.023429907  0.023765403            2 
  572000    1.0039687   -7.6564771    161.49956  0.023528491  0.023748058            1 
  573000    1.0101031    -7.673372    160.91093  0.023401823  0.023730875            5 
  574000    1.0148922   -7.6850036    161.19998  0.023403017  0.023713269            3 
  575000    1.0160456    -7.687835    161.32148  0.023379924  0.023695904            3 
  576000    1.0305302    -7.727389     161.3257  0.023339945  0.023678375            3 
  577000    1.0200641   -7.7145501    161.25653  0.023289504  0.023660938            2 
  578000    1.0245423   -7.6974022     161.7893  0.023326024  0.023643497            2 
  579000    1.0302003   -7.7375214    162.04745  0.023322891  0.023625746            1 
  580000    1.0423154   -7.6875833    162.48814  0.023345997   0.02360837            3 
  581000    1.0015334   -7.6956968    162.59915  0.023321737  0.023590705            2 
  582000    1.0145069   -7.6568831    162.83977  0.023316119  0.023573055            3 
  583000    1.0311771   -7.6781612    163.31337   0.02334382   0.02355567            7 
  584000    1.0312763    -7.695035    162.50186  0.023188051  0.023538319            1 
  585000     1.002545   -7.6973089    163.41709  0.023278788  0.023521402            2 
  586000    1.0250192   -7.6679649    163.36228  0.023231268  0.023504153            3 
  587000    1.0357122   -7.7138299    163.15395  0.023162116  0.023486829            1 
  588000    1.0232717   -7.6906539     163.6159  0.023188195  0.023469542            4 
  589000    1.0391973   -7.6989858    163.76448  0.023169847  0.023452499            1 
  590000    1.0159543   -7.7144397    164.05872  0.023172135  0.023435471            2 
  591000    1.0092155   -7.7022536    164.76206  0.023232101  0.023418463            2 
  592000    1.0167011   -7.7278327     164.5028  0.023156362   0.02340117            2 
  593000    1.0334585   -7.7112984    164.42521  0.023106409  0.023383634            2 
  594000    1.0049569   -7.7111357    164.14078  0.023027607  0.023366302            1 
  595000    1.0047387   -7.7167292    164.22425  0.023000596  0.023348785            1 
  596000   0.99670147   -7.6952663    164.89155  0.023055306  0.023331077            3 
  597000     1.013849   -7.7047353    165.60941  0.023116891  0.023313408            3 
  598000    0.9989758   -7.7114967    165.33507  0.023040004  0.023296285            1 
  599000    1.0064905   -7.6717724      165.951  0.023087228  0.023279079            2 
  600000    1.0119977   -7.7250985    165.50806  0.022987231  0.023261819            2 
  601000    1.0443057   -7.7168191    165.99298  0.023016221  0.023244169            2 
  602000    1.0355816   -7.7128664    165.43754  0.022901099  0.023226596            5 
  603000    1.0199493   -7.7281638    165.85288   0.02292052  0.023208483            2 
  604000    1.0074789   -7.7013299    165.92831  0.022892979  0.023190923            3 
  605000     1.004853   -7.6993892    166.25188  0.022899707  0.023173433            3 
  606000    1.0170842   -7.7038628    166.31393  0.022870452  0.023155968            5 
  607000   0.98818563   -7.7404086    166.26232  0.022825689  0.023138237            2 
  608000    1.0234038   -7.7582166    166.28509  0.022791267  0.023120485            2 
  609000    1.0207089   -7.7311068    166.75842  0.022818612  0.023102798            4 
  610000   0.99179218    -7.717256    166.85309  0.022794139  0.023085124            1 
  611000    1.0238162    -7.754447    167.10933  0.022791779  0.023067588            2 
  612000    1.0052861   -7.7433811    167.16496  0.022762113  0.023050327            4 
  613000     1.012134   -7.7530148    167.63879  0.022789395  0.023032787            2 
  614000    1.0354419   -7.7224034    168.09864  0.022814691  0.023015696            2 
  615000    1.0112434   -7.7628809    167.77679  0.022733982  0.022998775            2 
  616000    1.0063813   -7.7147076    168.50288  0.022795303  0.022981783            4 
  617000    1.0016392   -7.7629003    168.16903  0.022713267  0.022964832            2 
  618000    1.0241088     -7.73107    168.77575  0.022758326  0.022947755            1 
  619000    1.0183119    -7.738479    169.06136  0.022760011  0.022930906            2 
  620000    1.0299131   -7.7619208    168.28383  0.022618795   0.02291411            3 
  621000   0.99690733   -7.7546046    169.06474  0.022687163  0.022896986            2 
  622000   0.99784057   -7.7479471    169.25294  0.022675903  0.022879953            3 
  623000   0.99219832   -7.7172847    169.67807  0.022696372  0.022863086            1 
  624000     1.019799   -7.7432162    169.96945  0.022698911  0.022846481            2 
  625000    1.0021023   -7.7630447    169.93599  0.022658133  0.022829745            2 
  626000    1.0063104   -7.7132744    170.22864  0.022660894  0.022813126            1 
  627000    1.0025924   -7.7289513    170.27457  0.022630858  0.022796669            2 
  628000    1.0046777   -7.7619484     170.3256  0.022601592  0.022780055            3 
  629000    1.0200775   -7.7244791     170.5084  0.022589878   0.02276342            2 
  630000    1.0133849   -7.7584607    170.46212  0.022547899  0.022746892            2 
  631000   0.97134511   -7.6935415    170.53055  0.022521203  0.022729914            3 
  632000    1.0095745   -7.7776772    170.44654  0.022474491  0.022712909            2 
  633000    1.0174676   -7.7767376    170.62182  0.022462062  0.022696136            3 
  634000    1.0182522   -7.7064495    171.38774  0.022527305  0.022679314            2 
  635000     0.985885   -7.7244331    171.13791  0.022459043  0.022662621            4 
  636000   0.98369899   -7.7536399    171.28019  0.022442373  0.022645474            2 
  637000    1.0117072   -7.7941336    170.79458  0.022343613  0.022628225            1 
  638000    1.0039229   -7.8188234    170.71574  0.022298295  0.022610765            3 
  639000   0.98810083   -7.7725386    171.76502  0.022400237  0.022593292            2 
  640000    1.0040316   -7.7417786    171.68466  0.022354774  0.022575933            1 
  641000    1.0195635   -7.7652526    171.75983  0.022329671  0.022558287            1 
  642000    1.0146465   -7.7516728    171.50442  0.022261737  0.022540775            3 
  643000   0.98916348   -7.7878346    171.47105   0.02222279  0.022523062            3 
  644000   0.98482825   -7.7802113    171.76414  0.022226208  0.022505522            6 
  645000    1.0166405   -7.7751284    171.61126  0.022171997   0.02248776            3 
  646000   0.99700913   -7.7934255    171.36853  0.022106363  0.022469671            2 
  647000    1.0089297   -7.7614495    172.04064  0.022158763  0.022451793            2 
  648000   0.99972926   -7.7490596    172.04735   0.02212543  0.022434199            3 
  649000   0.98910753   -7.7396847    173.08465  0.022224532  0.022416663            3 
  650000   0.99744297   -7.7793307    172.57093  0.022124478  0.022399283            2 
  651000    1.0040391   -7.7587632    173.05886  0.022152952  0.022381863            2 
  652000   0.97748135   -7.7353541    173.72984  0.022204734  0.022364592            3 
  653000   0.99107912   -7.7839271    172.69082  0.022038134  0.022347152            4 
  654000     1.022356   -7.7711786    173.22189  0.022072106  0.022329565            4 
  655000   0.97471829   -7.7518858    173.34323  0.022053846  0.022311924            1 
  656000   0.98559448   -7.7266021    173.56859  0.022048855  0.022294504            3 
  657000   0.99221054   -7.8131251    173.40381  0.021994395  0.022277143            3 
  658000   0.99694318   -7.8321956    173.79376  0.022010355  0.022259658            1 
  659000   0.99774457   -7.8056502    174.24533  0.022034058  0.022242211            1 
  660000   0.98569739   -7.8060027    174.25319  0.022001665  0.022225156            4 
  661000   0.99201478   -7.8488941    174.04075  0.021941597  0.022207949            1 
  662000   0.97290916   -7.7859265    174.76681  0.021999851   0.02219085            4 
  663000   0.98849771   -7.8050593    174.28861  0.021906563  0.022173742            1 
  664000   0.97085213   -7.8167549    174.84443  0.021943327  0.022156538            2 
  665000   0.97069463   -7.7968472    175.34624  0.021973214  0.022139588            4 
  666000    1.0005857   -7.7970984    175.09144  0.021908338    0.0221225            2 
  667000    1.0021315   -7.7978044    175.69752  0.021951215  0.022105481            5 
  668000   0.98595022   -7.7842372    175.55585   0.02190068  0.022088687            2 
  669000   0.97677707   -7.7539359    175.74229  0.021891167  0.022072303            1 
  670000   0.97949712   -7.8082742    176.20656  0.021916239  0.022055707            3 
  671000   0.98340869   -7.7671727    176.71825  0.021947125  0.022039307            1 
  672000   0.97872362    -7.804281    176.20502   0.02185082  0.022022984            2 
  673000   0.95976455   -7.7678356    177.36492  0.021961976  0.022006913            1 
  674000    1.0003818   -7.7782501    177.05873  0.021891535  0.021990792            4 
  675000   0.96592535   -7.7639458    178.03259  0.021979332  0.021974965            5 
  676000   0.99032947   -7.7857319    177.75587  0.021912706  0.021959226            4 
  677000    1.0034319   -7.8014031    177.75938   0.02188077  0.021943616            2 
  678000   0.99605931   -7.7923712    178.01317  0.021879692  0.021927987            2 
  679000   0.96912373   -7.7898476    178.29688  0.021882288  0.021912173            2 
  680000   0.96421082   -7.7790227    178.39767  0.021862459  0.021896638            2 
  681000   0.98833386   -7.7998725    178.50261  0.021843197  0.021880822            4 
  682000   0.98374883   -7.8299675    178.06505  0.021757703  0.021864968            2 
  683000    1.0030883   -7.7710702    178.42733   0.02177005  0.021849278            3 
  684000   0.98147601   -7.7690228    178.76953  0.021779913  0.021833441            2 
  685000   0.99377465   -7.8000039    178.86167  0.021759328   0.02181805            3 
  686000   0.98855907    -7.774464    179.07008  0.021752925  0.021802438            1 
  687000   0.97270808   -7.7630669    179.29673  0.021748754  0.021786501            2 
  688000   0.97920862   -7.7739801     179.5025  0.021742067  0.021770623            3 
  689000   0.99219732   -7.8037511    179.36342  0.021693689  0.021754622            1 
  690000   0.97138322   -7.8628773    178.86444  0.021601985  0.021738541            3 
  691000   0.98298982   -7.8013951    180.23646  0.021736187  0.021722565            4 
  692000   0.99475461   -7.8162513    179.73173  0.021643994  0.021706533            3 
  693000   0.98620634   -7.8589714    179.43572  0.021577167   0.02169051            4 
  694000   0.97845346   -7.8324456    180.21147  0.021639225  0.021674519            3 
  695000   0.97823457   -7.8134233    181.15863  0.021721658  0.021658748            3 
  696000   0.96553994   -7.8361362    180.90067  0.021659563  0.021643315            2 
  697000   0.97460477   -7.8098217    180.44362  0.021573843  0.021627792            3 
  698000   0.96469442    -7.809531       181.04  0.021614135  0.021612036            5 
  699000   0.98147042   -7.7852511     181.2451  0.021607666  0.021596445            2 
  700000   0.95517903   -7.8247396    180.83582  0.021528074  0.021580919            2 
  701000   0.97134924   -7.8190745     181.3048  0.021553115   0.02156532            1 
  702000   0.97865453   -7.8379932    181.46453  0.021541374  0.021549366            2 
  703000   0.95937994   -7.8306221    181.18988  0.021478175  0.021533663            3 
  704000   0.94792265   -7.7922869    181.90887  0.021532773  0.021517975            2 
  705000   0.98789752   -7.8109419    182.26466  0.021544286   0.02150263            2 
  706000   0.99455242   -7.8105887    181.98876  0.021481204  0.021487341            2 
  707000   0.97018569   -7.7878067    182.99757  0.021569728  0.021472098            3 
  708000   0.97716739   -7.8248161    182.99936  0.021539473  0.021456953            1 
  709000   0.99261289   -7.8377952    183.11987  0.021523257     0.021442            1 
  710000   0.97221167   -7.8368162    183.05962  0.021485871  0.021427092            1 
  711000   0.97241838   -7.8134551     183.1933   0.02147132  0.021412193            2 
  712000   0.95713595   -7.8442329    182.96437  0.021414369  0.021397304            2 
  713000   0.96281152   -7.7847761    183.79517  0.021481437  0.021382519            3 
  714000   0.97417443   -7.8402083     183.1113  0.021371534  0.021367406            3 
  715000   0.96640299   -7.8784606    183.48772  0.021385516  0.021352102            3 
  716000   0.98545017   -7.8483414    183.23142  0.021325817  0.021336994            2 
  717000   0.96814707   -7.8537015    183.76129  0.021357658  0.021321979            1 
  718000   0.98521851   -7.8363096    183.84951  0.021338151  0.021306757            2 
  719000    0.9770564   -7.8504227    184.14736  0.021342995   0.02129157            6 
  720000   0.96902483   -7.8376224    184.18048  0.021317186  0.021276738            4 
  721000    0.9662886   -7.8332923    184.18209  0.021287805  0.021261822            1 
  722000   0.95009945   -7.8245402    183.88372  0.021223882  0.021246933            2 
  723000   0.95697122   -7.8248221    185.01549  0.021324976  0.021231835            1 
  724000   0.94712075   -7.8347546    184.45602  0.021231126  0.021216436            1 
  725000   0.96620563   -7.8753869    184.04256  0.021154317  0.021201166            3 
  726000   0.96169082   -7.8451589     184.6816  0.021198531  0.021185509            1 
  727000   0.96361009   -7.8356853    184.41942  0.021139319  0.021169764            1 
  728000   0.97302537   -7.8486286    184.66826  0.021138766  0.021154157            3 
  729000   0.96552972   -7.8379296    184.97722  0.021145087  0.021138635            3 
  730000   0.94591006   -7.8620604    184.70315  0.021084835  0.021122927            2 
  731000   0.95117404   -7.8332087    185.14554  0.021106423  0.021107449            2 
  732000   0.96090531   -7.8611259    185.14311  0.021077312  0.021092064            3 
  733000    0.9617405   -7.8916746    184.87991  0.021018634  0.021076487            3 
  734000   0.95251692   -7.8342258    184.93508  0.020996262  0.021060748            2 
  735000   0.98697245   -7.8427474    186.03443  0.021092339  0.021045251            2 
  736000    0.9829629   -7.8335122     185.2961  0.020980084  0.021029762            2 
  737000   0.94293151   -7.8987543    185.04477  0.020923199   0.02101398            3 
  738000   0.97737237   -7.8578818    185.63998  0.020962057  0.020998237            3 
  739000   0.95675248   -7.8431606    185.71452  0.020942098  0.020982773            3 
  740000   0.96084359   -7.8385476     186.1243  0.020959944  0.020967141            3 
  741000   0.96136761   -7.8641755    186.25975  0.020946891  0.020951479            2 
  742000   0.95917936   -7.8704173    186.40543  0.020935021  0.020935696            4 
  743000   0.95293293    -7.864732    186.48369  0.020915622  0.020919883            3 
  744000   0.96381836   -7.8555771    186.36137   0.02087381  0.020904072            3 
  745000   0.97353466   -7.8457865    186.42123  0.020852486  0.020887982            2 
  746000   0.95955132   -7.8371636    186.06093  0.020784286  0.020872032            3 
  747000   0.95805574   -7.8948427     186.5243  0.020808154  0.020856222            2 
  748000    0.9565749   -7.8422425    186.90137  0.020822345  0.020840132            2 
  749000   0.95142369   -7.8530051    186.95653  0.020800682  0.020824384            4 
  750000   0.94869065   -7.8127138    186.71233  0.020745814    0.0208085            4 
  751000   0.96845944   -7.8655549    187.57222  0.020813606  0.020792856            3 
  752000   0.96458418   -7.8836498    187.14281  0.020738343  0.020777275            3 
  753000   0.94234487   -7.8631875    187.40482  0.020739799  0.020761669            1 
  754000   0.94711895   -7.8488208     188.2183    0.0208022  0.020746249            3 
  755000   0.95477279    -7.902897    187.70042  0.020717486   0.02073082            3 
  756000    0.9487237   -7.8869667    187.92305  0.020714622  0.020715195            4 
  757000   0.95806489   -7.9026332     187.5764  0.020649097   0.02069965            3 
  758000   0.93443133   -7.8860775    188.11387  0.020680944  0.020684037            3 
  759000   0.95188195   -7.8842249     188.1873  0.020661759  0.020668379            7 
  760000   0.95054768   -7.8899993    188.99308  0.020722925  0.020652874            3 
  761000   0.94149317   -7.8610124    188.55923  0.020648185  0.020637637            2 
  762000    0.9223295   -7.8780755    188.98335  0.020667471  0.020622318            2 
  763000   0.95118659    -7.893689    188.72902  0.020612606  0.020606937            2 
  764000   0.95549385   -7.8692523    188.96658  0.020611538  0.020591509            2 
  765000   0.94726926   -7.9012828     188.9515  0.020582952  0.020576111            2 
  766000   0.97208234    -7.869383    189.02022  0.020563557  0.020560868            1 
  767000   0.92566181   -7.8877144    188.84261   0.02051745  0.020545401            4 
  768000   0.92805748   -7.9078552    189.52907   0.02056522  0.020530026            2 
  769000    0.9547607   -7.8727818     189.7232  0.020559515  0.020514778            3 
  770000   0.94063375   -7.9005513    189.74391  0.020535056  0.020499416            3 
  771000   0.95915821   -7.8870964    189.40294  0.020471567  0.020483803            3 
  772000   0.93089818   -7.9221769    189.63138  0.020469708  0.020468192            1 
  773000    0.9386343   -7.9283084    189.27333  0.020404628  0.020452565            2 
  774000   0.95074895   -7.8888011    189.81311  0.020436382  0.020437079            3 
  775000   0.92625951   -7.9272597     190.1505   0.02044629  0.020421606            4 
  776000   0.92106143   -7.9039677     190.0943  0.020413906  0.020406048            3 
  777000   0.93749837   -7.9039063    190.19874  0.020398835  0.020390645            6 
  778000   0.96485806   -7.8680474    190.10887  0.020362989  0.020375145            3 
  779000   0.94667232   -7.9037936    190.68254  0.020398218  0.020359552            5 
  780000   0.94932803    -7.941309    190.29438  0.020330596  0.020344096            3 
  781000   0.92589457   -7.9088149    190.70491  0.020348369  0.020328797            2 
  782000   0.93676711   -7.9325676    190.98506  0.020352201  0.020313555            5 
  783000   0.94435185   -7.8631319    191.24142  0.020353493  0.020298272            3 
  784000   0.94662939   -7.9034505     191.1136  0.020313946  0.020283071            5 
  785000   0.94053571   -7.9180752    191.26111  0.020303727  0.020267625            1 
  786000   0.94229804   -7.9186449    190.92719  0.020242493  0.020252054            3 
  787000   0.95965038   -7.9145921    191.54826  0.020282534   0.02023663            2 
  788000    0.9572092   -7.9097228    191.38945  0.020240001   0.02022125            2 
  789000   0.94398943   -7.9084129    191.90698   0.02026901  0.020205844            2 
  790000   0.94185725   -7.9446843    191.98643  0.020251733   0.02019067            2 
  791000   0.93712361   -7.9142851    192.21298  0.020249998  0.020175718            3 
  792000   0.94674371    -7.925785    192.19686  0.020222734   0.02016079            2 
  793000   0.92558462   -7.9107607    192.76432  0.020256864  0.020145876            2 
  794000   0.93116361   -7.8995088    192.67082  0.020221538  0.020131076            2 
  795000   0.95126543   -7.9015228     192.5421   0.02018261  0.020116296            2 
  796000   0.93554866   -7.9194117    192.99744  0.020204924   0.02010135            2 
  797000   0.95181576   -7.9113483     192.8498  0.020164136  0.020086422            1 
  798000    0.9166697   -7.9116412    193.42706   0.02019915  0.020071441            2 
  799000   0.92530323   -7.9146529    193.45066  0.020176331  0.020056564            4 
  800000   0.94597679   -7.9259656    192.77673   0.02008091  0.020041491            4 
  801000   0.94909127   -7.9371065    192.98726  0.020077742  0.020026438            2 
  802000   0.90238893   -7.9146021    193.05449  0.020059693  0.020011464            5 
  803000   0.93897952   -7.9019427    193.82287  0.020114453  0.019996509            1 
  804000   0.93302054   -7.9751104    192.93726  0.019997643  0.019981327            4 
  805000   0.94017298   -7.9782876    193.27131  0.020007382  0.019966072            3 
  806000   0.92643831   -7.9400779    193.52149  0.020008425  0.019951269            3 
  807000   0.92640454   -7.9699445    193.93551  0.020026385  0.019936209            2 
  808000   0.94506811   -7.9663338    193.35286  0.019941508  0.019920974            2 
  809000   0.93702057   -7.9499958    193.68185  0.019950746  0.019905643            4 
  810000   0.94757409   -7.9270965    193.91902  0.019950516  0.019890314            7 
  811000    0.9355955   -7.9004198    193.90079  0.019924043  0.019875021            3 
  812000   0.93627283   -7.9448231    194.23139  0.019933435  0.019859668            3 
  813000   0.92894723   -7.9380009     193.8869  0.019873606  0.019844463            2 
  814000   0.92684383   -7.9412774    194.32726  0.019894273  0.019829356            2 
  815000   0.95631854   -7.9393756    193.87927  0.019824056  0.019814144            3 
  816000   0.94178117   -7.9504276    194.06131  0.019818353  0.019798864            3 
  817000   0.93056987   -7.9380196    194.85045  0.019874586  0.019783788            1 
  818000   0.92223287   -7.9595035     194.7974  0.019844886  0.019768754            3 
  819000   0.92634557   -7.9434931    194.62257  0.019802867  0.019753658            2 
  820000   0.93226988   -7.9785364    194.76928  0.019793626  0.019738384            2 
  821000   0.90658265   -7.9558947    194.92135  0.019784953  0.019723118            3 
  822000   0.92892847   -7.9298833    195.27602  0.019796839  0.019708076            2 
  823000   0.90420492   -7.8987897    196.18923  0.019865252   0.01969312            2 
  824000   0.93009057   -7.9255768    195.77341  0.019799091  0.019678033            2 
  825000   0.92658088   -7.9531662     195.3225  0.019729546  0.019663099            7 
  826000   0.92840895   -7.9849277    195.08266  0.019681463  0.019647969            3 
  827000   0.93377082   -7.9758525    195.52899  0.019702639  0.019632716            6 
  828000   0.91799237   -7.9695203    195.53634  0.019679583  0.019617544            3 
  829000   0.92416534   -7.9668763    195.66094   0.01966837   0.01960248            2 
  830000    0.9211954   -7.9575718    195.81385  0.019660025  0.019587447            3 
  831000    0.9386197   -7.9842683    195.74953  0.019629917  0.019572466            2 
  832000   0.92235259    -7.975296    196.01511  0.019632923  0.019557493            4 
  833000   0.91996189   -7.9843144    195.72828   0.01958066   0.01954244            7 
  834000    0.9116224   -7.9450004    196.32945  0.019617251  0.019527451            5 
  835000   0.94361255   -7.9796306    196.45492  0.019606279  0.019512544            3 
  836000    0.9133817    -7.941512    197.02708   0.01963986  0.019497933            7 
  837000   0.91946056   -7.9800979    196.69698   0.01958353  0.019483271            1 
  838000   0.92355857   -7.9922503    197.43734  0.019633785   0.01946872            3 
  839000   0.91271648   -7.9461864    197.12679  0.019579538  0.019454069            2 
  840000   0.92437946   -8.0102721    196.85605   0.01952937  0.019439337            3 
  841000   0.94216748   -7.9936568    196.84006  0.019504564  0.019424461            4 
  842000   0.92396464   -7.9740544    197.71683  0.019568174  0.019409689            3 
  843000   0.91901467    -8.002558    197.14679  0.019488611  0.019395065            3 
  844000   0.93938973   -7.9543532    198.09405  0.019559049  0.019380562            3 
  845000   0.91457522   -7.9978839    197.45032  0.019472418  0.019366106            4 
  846000   0.94170237   -7.9844167    197.77901  0.019481778  0.019351564            2 
  847000   0.91244575   -7.9715895    197.95036  0.019475636  0.019337163            2 
  848000   0.90155385   -7.9552047    198.07327  0.019464748  0.019322829            2 
  849000   0.91193861   -7.9859925    198.02619    0.0194372   0.01930838            3 
  850000   0.90450266   -7.9434351    198.70944  0.019481317   0.01929398            2 
  851000   0.92074849   -7.9697854    199.02152  0.019488986  0.019279646            4 
  852000   0.92766177    -7.978125     199.1415  0.019477846  0.019265311            1 
  853000   0.90887722   -7.9777797    198.50161  0.019392498  0.019251064            2 
  854000   0.90744978   -7.9429726    199.23352   0.01944121  0.019236618            2 
  855000   0.91883514   -7.9690512    198.86583  0.019382634  0.019222138            2 
  856000   0.90938495   -7.9869002    198.47947  0.019322379  0.019207621            4 
  857000   0.89264689   -8.0295447    198.37305  0.019289483  0.019192902            4 
  858000   0.89702109   -8.0200662    198.64178  0.019293102  0.019178101            2 
  859000    0.9266349   -7.9442313    199.22324   0.01932705  0.019163496            2 
  860000   0.90464896   -8.0194138    199.03675  0.019286506  0.019148849            3 
  861000   0.91952593   -7.9621813    199.11022  0.019271218  0.019134044            1 
  862000   0.89726489   -7.9875265    198.95414  0.019233772  0.019119232            3 
  863000   0.90523551   -7.9625436    199.79683  0.019292857  0.019104534            2 
  864000   0.91801356   -7.9723153    198.91848   0.01918581   0.01908985            2 
  865000   0.89528389   -7.9994891    199.43323  0.019213221  0.019075211            6 
  866000   0.88725904   -8.0024793    199.38469  0.019186364  0.019060568            3 
  867000   0.90915165   -8.0286927    199.38791  0.019164544   0.01904586            1 
  868000   0.89481187   -7.9825446    200.22009  0.019222359  0.019031308            2 
  869000   0.92033883   -8.0417937    200.29374  0.019207302  0.019016781            2 
  870000   0.90559462   -8.0416964    200.08635  0.019165359  0.019002292            2 
  871000   0.91646983   -7.9981374    200.34679  0.019168273  0.018987868            5 
  872000   0.89867069   -8.0324049    200.49564  0.019160516  0.018973459            2 
  873000    0.9011632   -7.9977328    200.49066  0.019138093  0.018959133            4 
  874000   0.90215928   -8.0214013    200.71948  0.019138013  0.018944912            5 
  875000   0.90121219   -8.0004756    200.62621  0.019107258  0.018930799            7 
  876000   0.89173426   -7.9949526    200.80269  0.019102234   0.01891675            3 
  877000   0.91379109   -8.0075766     200.5688  0.019058229   0.01890245            2 
  878000   0.91495668   -8.0112824    201.21349  0.019097712   0.01888822            2 
  879000   0.90013048   -7.9913046    201.40487  0.019094129  0.018874123            3 
  880000   0.90653135    -8.011225    201.08305  0.019041956  0.018859936            2 
  881000    0.8912101   -8.0085987     201.4141  0.019051655  0.018845829            3 
  882000   0.89644572   -8.0270894    200.89437  0.018980949  0.018831707            1 
  883000   0.91053534   -8.0247275    201.36568  0.019003933  0.018817549            1 
  884000   0.89979186   -8.0450528    200.77757  0.018926995   0.01880327            8 
  885000    0.8846398   -8.0145145    201.47205  0.018971003  0.018789058            6 
  886000    0.8955996   -7.9942598    202.13391  0.019011842  0.018774852            1 
  887000   0.88993761    -7.987292    202.15753  0.018992628  0.018760874            3 
  888000   0.90499764   -7.9961842     202.1474  0.018970289  0.018746843            3 
  889000   0.88007093     -8.02795    202.16522   0.01895062  0.018732816            3 
  890000   0.89984855   -8.0325376    202.41614  0.018952822  0.018718859            1 
  891000   0.89945791    -8.019065    202.44291  0.018934054  0.018704877            5 
  892000   0.90464636   -8.0122123      203.145  0.018978419  0.018690977            1 
  893000   0.89151383   -8.0192497    202.49069  0.018896108  0.018677018            5 
  894000   0.89006041   -8.0072777    202.99442  0.018921926  0.018662992            2 
  895000   0.90139888   -8.0232102     202.4038  0.018845792  0.018648909            3 
  896000   0.89891907   -8.0199545    202.24535  0.018810022  0.018634872            6 
  897000   0.89323494   -8.0390205    202.96256  0.018855682  0.018620801            3 
  898000   0.88827657   -8.0438169    202.61621  0.018802544   0.01860673            3 
  899000   0.90031312   -8.0376296    202.77237  0.018796104  0.018592641            9 
  900000    0.8729865   -8.0204221    203.16925  0.018811967  0.018578578            3 
  901000   0.89485262   -8.0546573    203.05633  0.018780645  0.018564465            2 
  902000   0.90561689    -8.058341    202.62302  0.018719792  0.018550269            4 
  903000   0.89768727   -8.0460758    202.64159  0.018700775  0.018536009            1 
  904000   0.90354378   -8.0527631    202.95702  0.018709165  0.018521764            2 
  905000   0.89351002   -8.0645075    202.83718  0.018677457  0.018507678            2 
  906000   0.87489743   -8.0081339    204.03838  0.018767327  0.018493615            3 
  907000   0.89021607   -8.0274181    203.86723   0.01873091  0.018479574            6 
  908000   0.91122127   -8.0485318    203.76382  0.018700791  0.018465557            1 
  909000   0.89645164   -8.0355285    203.51477  0.018657387  0.018451433            3 
  910000    0.8756744   -8.0432756    203.66715  0.018650838  0.018437295            2 
  911000   0.86659938   -8.0490157    203.41756  0.018607534  0.018423221            6 
  912000   0.87641746   -8.0248638     204.4126  0.018678051  0.018409123            4 
  913000    0.8787733   -8.0437673    203.83473   0.01860485  0.018395011            2 
  914000   0.89177419   -8.0132144    203.66809  0.018569301  0.018380874            4 
  915000   0.88767914   -8.0369397    204.34145  0.018610332  0.018366761            2 
  916000    0.8688393   -8.0685912    203.59874  0.018522448   0.01835256            3 
  917000   0.89307228   -8.0286979    204.27581  0.018563777  0.018338309            1 
  918000   0.88500548   -8.0481918    203.98274  0.018516952  0.018324227            4 
  919000   0.89347664   -8.0472685    203.77582  0.018478039  0.018310098            1 
  920000   0.87135194   -8.0716092    205.02332  0.018570953  0.018295978            3 
  921000   0.86983883   -8.1162464    204.09705  0.018466979  0.018281761            2 
  922000   0.89908074   -8.0454266    204.65437  0.018497322  0.018267593            2 
  923000   0.87934804   -8.0991219    204.08194    0.0184256  0.018253315            1 
  924000   0.88261897   -8.0781367    204.39854  0.018434212  0.018239127            2 
  925000     0.893679   -8.0525297    204.64483  0.018436471  0.018225024            1 
  926000   0.87560668   -8.0762617    204.70529  0.018422003  0.018210995            3 
  927000   0.88440219   -8.0660764    204.90365  0.018419962  0.018197024            1 
  928000   0.86837181   -8.0673097    205.69677  0.018471334  0.018183089            3 
  929000   0.87646336   -8.0694912    205.69168  0.018450994  0.018169187            2 
  930000   0.87974254   -8.0458402     205.4172  0.018406559  0.018155327            4 
  931000   0.90864049   -8.0624943    205.38443  0.018383855  0.018141573            7 
  932000   0.89737236    -8.106416    204.68647  0.018301723  0.018127718            3 
  933000   0.89798496   -8.0813419    205.37039  0.018343193  0.018113732            4 
  934000   0.88950499   -8.0621923    205.78787  0.018360802  0.018099895            2 
  935000   0.89818077   -8.0912775    205.87783  0.018349183  0.018086083            1 
  936000   0.87832643   -8.0561056    205.36509  0.018283929   0.01807219            2 
  937000   0.91154825   -8.0465938    206.51721  0.018366881  0.018058531            4 
  938000   0.87512608   -8.0820256    205.26135  0.018235728  0.018044778            1 
  939000   0.87630638   -8.1021135    205.82285  0.018266139   0.01803082            6 
  940000   0.88923173   -8.0721026    205.90019  0.018253563   0.01801702            3 
  941000   0.86028564   -8.0730209    205.99984  0.018242989  0.018003132            2 
  942000   0.89622392   -8.0526476    206.42141  0.018260917  0.017989275            9 
  943000   0.86138983   -8.0591239    205.84581  0.018190686  0.017975443            3 
  944000   0.86425864   -8.0473928    206.44098  0.018223957  0.017961514            7 
  945000   0.88054944   -8.1023201    206.15955  0.018179855  0.017947566            2 
  946000   0.86288585   -8.0904271    205.95475  0.018142596  0.017933596            2 
  947000   0.87451226   -8.1359744    205.36121  0.018071208  0.017919436            2 
  948000   0.86874774   -8.1190184    205.53135  0.018067102  0.017905191            1 
  949000   0.87326478   -8.1137832    206.25792  0.018111865   0.01789108            3 
  950000   0.87783034   -8.1153322    206.01216  0.018071242  0.017877049            4 
  951000   0.87637913   -8.0950967    206.02181  0.018053086  0.017863029            5 
  952000   0.88671238   -8.1128342    206.14268  0.018044702  0.017849038            6 
  953000   0.86303086    -8.101469    205.98143  0.018011668  0.017834958            5 
  954000   0.87801572   -8.0687589    206.43387  0.018032309  0.017820847            3 
  955000   0.87733669   -8.1327411    206.37606  0.018008382  0.017806879            2 
  956000   0.89056177   -8.1137664     206.6573  0.018014061   0.01779278            1 
  957000    0.8688703   -8.1174528    207.05658  0.018030005  0.017778842            4 
  958000   0.85207257   -8.1270382    206.64775  0.017975622  0.017764946            3 
  959000   0.87557098    -8.103384    206.71563  0.017962777  0.017750988            4 
  960000   0.88321259   -8.0761026    207.42413  0.018005567  0.017737154            2 
  961000   0.87778108   -8.1206076    207.13014  0.017961337  0.017723436            2 
  962000   0.86288618   -8.0978128    207.24567  0.017952674  0.017709733            3 
  963000   0.86276266   -8.1103889    207.32569  0.017940956  0.017696082            1 
  964000   0.86684902   -8.0919616     208.3266  0.018008869  0.017682444            2 
  965000   0.87032659   -8.1004146    207.49411  0.017918317  0.017668876            4 
  966000   0.85809487   -8.0878302    207.41291  0.017892763   0.01765519            4 
  967000   0.87064053   -8.0903552     207.7721  0.017905213  0.017641482            3 
  968000   0.86438231     -8.13066    207.50587  0.017863797  0.017627575            4 
  969000   0.88141597   -8.1057197    207.79999  0.017870656  0.017613747            3 
  970000   0.87118965   -8.0936656    208.03613  0.017872519  0.017599992            3 
  971000    0.8730896   -8.0958095    207.66854  0.017822566  0.017586199            4 
  972000   0.85915801   -8.0969875    207.82989  0.017818063  0.017572408            3 
  973000   0.85650127    -8.114386    208.09127  0.017822136  0.017558657            2 
  974000   0.87622409   -8.1043542    208.56293  0.017844194  0.017545101            2 
  975000   0.87650608    -8.104391    208.58643    0.0178279  0.017531536            6 
  976000   0.85614619   -8.1320879    208.26476  0.017782169   0.01751795            5 
  977000   0.87120919    -8.129789    208.16659  0.017755594  0.017504348            2 
  978000   0.87919722   -8.1295475    208.06904  0.017729127  0.017490686            4 
  979000   0.86997493    -8.146739    208.34959  0.017734899  0.017477054            7 
  980000   0.87025209   -8.1420451     208.0588  0.017692075  0.017463443            3 
  981000   0.85939434   -8.1342819    207.87409   0.01765835  0.017449737            2 
  982000   0.86138077   -8.1319871    209.29948  0.017761328  0.017436122            2 
  983000   0.86380657   -8.1187868    208.86167  0.017706143  0.017422612            3 
  984000   0.87045402   -8.1249732    209.56421  0.017747646  0.017409254            3 
  985000   0.85590082   -8.1365543     209.3823  0.017714239  0.017395847            5 
  986000   0.85696585   -8.1365581    209.19071   0.01768008  0.017382339            1 
  987000   0.83900119   -8.1625797    209.18352   0.01766156  0.017368873            2 
  988000   0.87426864   -8.1349179    209.54083  0.017673822  0.017355452            4 
  989000   0.87951787   -8.1560306    209.43236  0.017646811  0.017341983            6 
  990000    0.8700394   -8.1524491    209.27935  0.017616106  0.017328484            5 
  991000   0.85804769   -8.1543746    209.25447  0.017596239  0.017315007            5 
  992000   0.86287438   -8.1695617    209.38106  0.017589135   0.01730148            8 
  993000   0.85934437   -8.1510122    209.31957  0.017566261  0.017287924            1 
  994000   0.87050213   -8.1498297    209.38915  0.017554423  0.017274375            6 
  995000   0.85673974    -8.148978    209.49022  0.017545244  0.017260766            5 
  996000   0.84388497   -8.1425643    209.82988  0.017556047  0.017247211            3 
  997000    0.8566944    -8.129692     209.8576  0.017540755    0.0172337            4 
  998000   0.85639174    -8.115939    209.72076  0.017511754  0.017220211            3 
  999000    0.8459108   -8.1346452    209.28115  0.017457553  0.017206684            3 
 1000000   0.86918863   -8.1485649    209.75791  0.017479826  0.017193136            1 
 1001000   0.84982927   -8.1250249    209.88186  0.017472682  0.017179606            1 
 1002000   0.85127163   -8.1412699    209.98348  0.017463696  0.017166041            4 
 1003000   0.86134489   -8.1058134    210.08678  0.017454867  0.017152527            2 
 1004000   0.84165645   -8.1263586    210.15567    0.0174432  0.017139024            2 
 1005000   0.86133525   -8.1683424    209.41142  0.017364131  0.017125347            3 
 1006000   0.84829585   -8.1369726    209.58516  0.017361262  0.017111578            3 
 1007000   0.86705612   -8.1418052      209.756  0.017358159  0.017097874            2 
 1008000   0.84466899   -8.1554148    210.07032  0.017366924  0.017084249            2 
 1009000   0.82783658   -8.1617429    210.07595  0.017350178  0.017070648            2 
 1010000    0.8330776   -8.1266552    209.79572  0.017309878  0.017057007            4 
 1011000   0.85816364   -8.1403049    210.00437  0.017309955  0.017043382            1 
 1012000   0.84898174   -8.1672468    209.71764  0.017269239  0.017029743            3 
 1013000   0.84189337   -8.1576517    209.95258  0.017271519  0.017016053            6 
 1014000   0.84018034   -8.1578747    209.38473  0.017207818  0.017002374            2 
 1015000   0.85951788   -8.1744131    209.84229  0.017228431  0.016988609            1 
 1016000   0.83540362   -8.1719059    210.08472  0.017231359   0.01697486            3 
 1017000   0.84352767    -8.184046    209.34791   0.01715404  0.016961054            4 
 1018000   0.84044742   -8.1845365    209.85222  0.017178473   0.01694717           13 
 1019000   0.83533649   -8.1646191    209.82664  0.017159522  0.016933317            5 
 1020000   0.84590596     -8.17485    209.58386  0.017122865  0.016919534            7 
 1021000   0.85972157   -8.1702399    209.83903  0.017126921   0.01690569            3 
 1022000   0.84160399   -8.1688471    209.90199  0.017115296  0.016891921            8 
 1023000   0.85282607   -8.1694581    209.79911  0.017090185  0.016878189            3 
 1024000   0.83589668   -8.1942498    209.84451   0.01707719  0.016864421            3 
 1025000   0.82297805   -8.1781686    210.52203  0.017115612  0.016850618            2 
 1026000   0.83394831   -8.1867984    210.61351   0.01710636  0.016836895            4 
 1027000   0.84082032   -8.1664865    210.02392  0.017041863  0.016823288            1 
 1028000   0.83912921   -8.1684274    210.62386  0.017073919  0.016809604            2 
 1029000   0.84461987   -8.1679726    210.24924  0.017026987  0.016795894            4 
 1030000   0.82531892   -8.2044786    210.34103  0.017017882  0.016782119            5 
 1031000   0.84683803   -8.1503329    210.33143  0.017000601  0.016768458            4 
 1032000   0.83575671    -8.196594    210.85071  0.017026058  0.016754755            2 
 1033000   0.82681585   -8.1851225     211.1275  0.017031905  0.016741191            3 
 1034000   0.86811046   -8.1810793    210.39878  0.016956704   0.01672759            5 
 1035000    0.8540136   -8.1712082    211.31129  0.017013791  0.016713984            5 
 1036000   0.84869708   -8.2007389    210.84071  0.016959516  0.016700312            5 
 1037000   0.83116226    -8.183285     210.9904  0.016955191  0.016686673            2 
 1038000   0.81915406   -8.1777218    210.81447  0.016924733  0.016673021            4 
 1039000   0.82221314   -8.2331941    210.59383  0.016890746  0.016659306            3 
 1040000   0.82262428   -8.2142677     210.6351  0.016877812   0.01664548            1 
 1041000   0.82512169   -8.2012864    210.92968  0.016885181  0.016631608            3 
 1042000   0.84391635   -8.1831349    211.00875    0.0168753  0.016617789            4 
 1043000   0.83094862   -8.2167234    210.71823  0.016835908   0.01660403            3 
 1044000   0.83259564   -8.1861222    210.85146  0.016830417   0.01659023            2 
 1045000   0.84566005   -8.1903247    210.83554  0.016813042  0.016576473            2 
 1046000   0.83849384   -8.2235013     210.3639  0.016759393  0.016562648            3 
 1047000   0.82409604   -8.2141952     210.6847  0.016768919  0.016548865            2 
 1048000   0.83668083   -8.2058607    210.90962  0.016770803  0.016535071            5 
 1049000   0.84176554   -8.2107627    211.01177   0.01676293  0.016521332            3 
 1050000   0.82216714   -8.2496131    210.47808  0.016704609   0.01650754            4 
 1051000   0.82715324   -8.2618996    210.46346  0.016687556  0.016493648            4 
 1052000   0.83572847   -8.2386139    210.98165  0.016712741  0.016479784            5 
 1053000   0.84291166   -8.2294748    210.91714  0.016691765  0.016465902            4 
 1054000   0.83075464   -8.2189489    211.29804  0.016706044   0.01645214            2 
 1055000   0.83806332   -8.1994189    211.36041  0.016695135  0.016438398            4 
 1056000   0.84218566   -8.2185434    211.22596  0.016668715  0.016424656            3 
 1057000   0.82058333   -8.2278455    211.30454   0.01665914  0.016410912            3 
 1058000    0.8214697   -8.2290559    211.18362  0.016633871  0.016397096            2 
 1059000   0.82737828   -8.2178046    211.45509  0.016639526  0.016383257            2 
 1060000   0.84109246   -8.2029626    211.58698  0.016634196  0.016369559            2 
 1061000   0.81444768   -8.2420577    211.38791  0.016602883  0.016355813            6 
 1062000   0.82805768   -8.2388468      211.052  0.016560891  0.016342046            4 
 1063000   0.82891055   -8.2484178    211.01683  0.016542555   0.01632817            3 
 1064000   0.81126225   -8.2421492    210.51071  0.016487368  0.016314334            3 
 1065000   0.83120028   -8.2197043    211.03652  0.016513029  0.016300429            2 
 1066000   0.81889964   -8.2358329    211.10455  0.016502858  0.016286545            6 
 1067000   0.80120141   -8.2777764    211.14723  0.016490724  0.016272701            6 
 1068000   0.81631649   -8.2521325    211.31299  0.016488217  0.016258832            4 
 1069000   0.82069763   -8.2554815     211.0277  0.016450553  0.016244977            5 
 1070000   0.84581899    -8.246955    211.69408  0.016487078  0.016231121            4 
 1071000   0.83454742   -8.2318548    211.55257  0.016460673  0.016217279            2 
 1072000    0.8083193   -8.2416099    211.15171  0.016414157   0.01620343            1 
 1073000    0.8282572   -8.2430731    211.21052  0.016403427   0.01618962            2 
 1074000   0.81789884   -8.2106882    211.45641  0.016407232  0.016175824            6 
 1075000   0.82709002   -8.2323275    211.53227  0.016397851  0.016162076            2 
 1076000   0.81505935    -8.253483    211.81383  0.016404417  0.016148214            3 
 1077000   0.82101003   -8.2776647    211.27016  0.016347119   0.01613437            1 
 1078000   0.82125393   -8.2227766     211.4244  0.016343877  0.016120487            3 
 1079000   0.80978856   -8.2548084    211.53401  0.016337196  0.016106551            6 
 1080000   0.83460059    -8.231423    211.49489   0.01631905  0.016092691            2 
 1081000   0.82823356   -8.2668539    210.49964  0.016227231  0.016078768            3 
 1082000   0.82341672   -8.2457314    211.52731  0.016291382  0.016064909            6 
 1083000   0.80449607   -8.2617092    211.71911  0.016291098  0.016051109            2 
 1084000   0.83004659   -8.2928975    211.74639  0.016278166   0.01603733            8 
 1085000   0.80987546   -8.2462454    211.82765  0.016269405  0.016023553            4 
 1086000   0.83048292   -8.2507876    211.77875  0.016250672  0.016009826            2 
 1087000   0.82229715   -8.2469471    211.87456  0.016243066  0.015996105            4 
 1088000   0.83370743   -8.2519785    212.17665  0.016251275   0.01598235            4 
 1089000    0.8185667   -8.2829028    211.38463  0.016175745  0.015968579            1 
 1090000   0.81774367   -8.2419352    212.18274  0.016221922    0.0159549            4 
 1091000   0.82631133   -8.2687429    212.26655  0.016213455  0.015941209            2 
 1092000    0.8138899   -8.2568509    212.49417  0.016215977  0.015927591            5 
 1093000   0.82052824   -8.2358887    212.23533  0.016181407  0.015913997            8 
 1094000   0.81930368   -8.2676646    211.81693  0.016134745  0.015900353            4 
 1095000   0.78772947   -8.2803458    211.94037  0.016129404  0.015886673            1 
 1096000   0.81350583   -8.2851394    212.34483   0.01614544  0.015872999            4 
 1097000   0.83295279   -8.3131144     211.7724  0.016087238   0.01585934            1 
 1098000   0.80272009   -8.2590463    212.14766  0.016101067  0.015845661            2 
 1099000   0.81946264   -8.2577171    212.38002  0.016104035  0.015831987            6 
 1100000   0.81966073   -8.2587038    212.38216  0.016089558  0.015818382            2 
 1101000   0.81501932   -8.2712328    211.65641  0.016020013  0.015804788            2 
 1102000   0.79357338   -8.2880188    212.07609  0.016037212  0.015791101            4 
 1103000   0.81570297   -8.2712005    212.17999  0.016030522  0.015777446            3 
 1104000   0.80112283   -8.2721095    212.02642  0.016004409  0.015763778            4 
 1105000   0.81217564   -8.2644314    212.15749   0.01599981  0.015750139            3 
 1106000   0.81711471   -8.2477415    212.59499  0.016018308  0.015736455            3 
 1107000   0.80536209   -8.2472497    211.65384   0.01593299  0.015722797            7 
 1108000   0.80293982   -8.2439694     211.9764   0.01594287  0.015709147            2 
 1109000   0.81301787    -8.275076    212.47067  0.015965635  0.015695562            1 
 1110000   0.81425088    -8.290179    212.41977   0.01594743  0.015681968            4 
 1111000   0.81631483   -8.2914519    212.31961  0.015925563  0.015668305            5 
 1112000    0.8112725   -8.2444625    212.73981  0.015942731  0.015654684            5 
 1113000   0.81281295   -8.3052284    212.14874  0.015884152  0.015641075            2 
 1114000   0.81831443   -8.3114685     212.3275  0.015883266  0.015627419            7 
 1115000   0.80438825   -8.3240709    212.11744  0.015853322  0.015613743            2 
 1116000   0.81080123   -8.3052418    212.69191  0.015882012  0.015600067            2 
 1117000   0.82606547   -8.3144379    212.99812  0.015890638  0.015586517            2 
 1118000   0.80627914   -8.3100938      212.531  0.015841607  0.015573024            5 
 1119000   0.78603215   -8.2665955    213.15283  0.015873759   0.01555958            3 
 1120000   0.80934542   -8.2638375    212.48659  0.015810014  0.015546157            3 
 1121000   0.81578515   -8.3007735    213.10073  0.015841565   0.01553271            3 
 1122000   0.79579151   -8.3003176    212.74292   0.01580087  0.015519322            1 
 1123000   0.80205272   -8.2833025    212.94156   0.01580154  0.015505896            2 
 1124000   0.79653133   -8.2698319    213.50539  0.015829284  0.015492536            2 
 1125000    0.8079909   -8.2796646    213.41884  0.015808803  0.015479195            2 
 1126000   0.79945347   -8.2864077    212.65221  0.015738026  0.015465763            4 
 1127000   0.79665562   -8.3010605    213.23264   0.01576698  0.015452393            5 
 1128000   0.80598322   -8.2807363    213.49909  0.015772687  0.015439095            2 
 1129000   0.80369853    -8.308133    212.95641   0.01571866  0.015425734            2 
 1130000     0.810358   -8.2809279    213.17973  0.015721219  0.015412356            5 
 1131000   0.81469101    -8.261872    213.32694  0.015718165  0.015398987            4 
 1132000   0.79436831   -8.2813669    213.69952  0.015731708  0.015385666            2 
 1133000   0.81406588   -8.2633342    213.65151  0.015714292  0.015372424            7 
 1134000   0.79896914   -8.3096711    213.19976  0.015667237  0.015359107            2 
 1135000   0.81728381   -8.2980289     213.5338  0.015677959  0.015345862            4 
 1136000   0.80789128   -8.2869561    213.50987  0.015662403  0.015332591            5 
 1137000   0.79128323   -8.3081184    213.08742  0.015617665  0.015319295            3 
 1138000   0.80773202   -8.2916174    213.74981  0.015652446  0.015306011           20 
 1139000   0.82196757   -8.2803479    213.51592  0.015621592  0.015292746           11 
 1140000   0.78438105   -8.3099849    213.27501  0.015590278  0.015279457            7 
 1141000   0.79971723   -8.3067657    213.45447  0.015589722  0.015266166            3 
 1142000   0.79678044   -8.2957093    212.91618  0.015536791  0.015252823            2 
 1143000   0.79548512   -8.3096675    213.13098  0.015538858  0.015239533            5 
 1144000   0.80786411   -8.2960921    213.84778   0.01557749  0.015226223            3 
 1145000   0.81122268      -8.3089     213.4388  0.015534119  0.015212903            3 
 1146000   0.79990004    -8.291843    213.95475  0.015558082  0.015199597            3 
 1147000   0.78984771   -8.3052577    213.50386   0.01551176   0.01518641            3 
 1148000   0.79753246   -8.3033675    213.55855  0.015502218  0.015173239            2 
 1149000   0.78031151   -8.2838284    213.74327  0.015502123  0.015160036            5 
 1150000   0.77072799   -8.2930453    213.87087  0.015497889  0.015146824            3 
 1151000   0.79653007   -8.3062166    213.75541  0.015476065  0.015133626            6 
 1152000   0.78992107   -8.3205231    213.74131  0.015461611   0.01512041            3 
 1153000   0.79875637   -8.3087901    213.46617  0.015428315   0.01510719           10 
 1154000   0.80542628    -8.339658    213.11017  0.015389238  0.015093922            4 
 1155000   0.79263005   -8.3307468    213.66529  0.015415966  0.015080611            3 
 1156000   0.79341245    -8.340496    213.44336  0.015386632  0.015067306            4 
 1157000   0.80223721   -8.3550327    212.92631  0.015336092  0.015053968            3 
 1158000   0.78911644   -8.3710477    213.86779  0.015390601  0.015040659            3 
 1159000   0.77244347    -8.339207    213.31567  0.015337623  0.015027313            2 
 1160000   0.79803322   -8.3305387     213.5974  0.015344641  0.015014037            3 
 1161000     0.791829   -8.3260177    213.87794   0.01535156  0.015000734            5 
 1162000   0.79283175   -8.3252036     213.6733  0.015323673  0.014987496            3 
 1163000    0.7824743   -8.3217153    213.81595  0.015320718  0.014974272            2 
 1164000   0.79685934   -8.3223254    213.80022   0.01530643  0.014961092            5 
 1165000   0.79802427   -8.3156249    213.70746  0.015286657   0.01494794            5 
 1166000   0.77343232   -8.3597857    213.32375  0.015246123  0.014934695            7 
 1167000    0.7875794   -8.3312567    213.49874  0.015245554  0.014921425            3 
 1168000   0.81407773   -8.3375302    213.68986  0.015246137  0.014908161            4 
 1169000   0.78480532   -8.3140403    213.79876  0.015240859  0.014894953            2 
 1170000   0.79753969   -8.3471412    213.36689  0.015197072   0.01488172            7 
 1171000   0.80455212   -8.3083897     213.4948  0.015193197  0.014868466            2 
 1172000   0.78219196   -8.3218456    213.79198  0.015201364   0.01485519            2 
 1173000   0.78857375   -8.3541314    213.74836  0.015185306  0.014841879            2 
 1174000   0.78686094   -8.3584138    212.87863  0.015110635  0.014828602            4 
 1175000   0.80349901   -8.3329334    213.47552  0.015140108   0.01481538            6 
 1176000     0.803052   -8.3502708    213.70379  0.015143409  0.014802192            4 
 1177000    0.7682418   -8.3306581     213.6893  0.015129517  0.014789006            4 
 1178000   0.78776909   -8.3363144    213.83205  0.015126772  0.014775868            2 
 1179000   0.78389018   -8.3438853     213.5828  0.015096324  0.014762779            4 
 1180000   0.78063842   -8.3289186    214.22624  0.015128972  0.014749744            4 
 1181000   0.78168437   -8.3095612    214.15834   0.01511137  0.014736724            7 
 1182000    0.7724031   -8.3521189    214.13976  0.015097275   0.01472373           11 
 1183000   0.78697264   -8.3583877    213.80753  0.015061111  0.014710756            3 
 1184000   0.77359854   -8.3443795    214.20106  0.015076088  0.014697761            3 
 1185000   0.77835255   -8.3755486     213.9924  0.015048692   0.01468476            7 
 1186000   0.77938975   -8.3245135    213.93789  0.015032173  0.014671815            3 
 1187000   0.77609962   -8.3541017    214.16211  0.015035251   0.01465888            5 
 1188000   0.76557693   -8.3371824    214.81898  0.015068672  0.014645991            6 
 1189000   0.78256552    -8.355977    214.38201  0.015025372  0.014633094            5 
 1190000   0.75731078   -8.3773471    214.39964   0.01501398  0.014620125            2 
 1191000   0.76278199   -8.3610169    214.19047  0.014986739  0.014607179            2 
 1192000   0.77215921   -8.3770441    214.32184   0.01498335  0.014594256            5 
 1193000   0.79830515   -8.4009866    214.13185   0.01495752  0.014581335            2 
 1194000   0.76817542   -8.3413787    214.56082  0.014974931   0.01456849            5 
 1195000   0.77043875   -8.3636352    214.81418  0.014980068  0.014555616            5 
 1196000   0.76772905   -8.3454871    214.79167  0.014965975  0.014542711            1 
 1197000    0.7864896   -8.3623998    214.12256   0.01490689    0.0145298            3 
 1198000   0.76064693   -8.3909486    214.07165  0.014890905  0.014516876            6 
 1199000   0.77248678   -8.3879573    214.01638  0.014874644  0.014503902            5 
 1200000   0.77164439   -8.3806848    214.31552  0.014883022  0.014490979            9 
 1201000   0.78045918   -8.3547189    214.21356  0.014863556  0.014478121            3 
 1202000   0.75411713   -8.3790234    214.52548  0.014872815   0.01446528            1 
 1203000   0.77470347   -8.4097623    214.08517  0.014829951  0.014452403            3 
 1204000   0.78799978   -8.4006595    214.09329  0.014818196  0.014439498           16 
 1205000   0.77463104   -8.3828649    214.97952  0.014867187  0.014426599           10 
 1206000    0.7866482   -8.3822128    214.48241  0.014820509  0.014413694           10 
 1207000   0.76119334   -8.3908704    214.24762   0.01479202  0.014400812           11 
 1208000   0.76454142   -8.3813746    214.16057   0.01477377   0.01438792            4 
 1209000    0.7810491     -8.38563    214.48023  0.014783584   0.01437507            3 
 1210000    0.7551597   -8.4085728    213.98662  0.014737371  0.014362206            4 
 1211000   0.75040351   -8.3710527    214.00192  0.014726254  0.014349332            4 
 1212000   0.76715224   -8.3778904    214.10385  0.014721112  0.014336461            6 
 1213000   0.77262789   -8.3821648    214.56876  0.014740915  0.014323729            2 
 1214000   0.75425323   -8.3978104    214.16343  0.014700949  0.014310955            6 
 1215000   0.76460489   -8.4002707    214.47706   0.01471036  0.014298136            5 
 1216000   0.77040903   -8.3792625     214.9521  0.014730818   0.01428534            2 
 1217000   0.75909041   -8.3963842    214.52411  0.014689408  0.014272547            3 
 1218000   0.76513208   -8.3949056    213.94961  0.014638041  0.014259756            3 
 1219000   0.76355681   -8.3862825    214.26159   0.01464736  0.014246895            6 
 1220000    0.7720758   -8.4069953    214.35411  0.014641675  0.014233999            6 
 1221000   0.75152576    -8.427412    214.46251  0.014637081  0.014221108            6 
 1222000   0.75701022   -8.4217333    214.08146  0.014599117  0.014208274            5 
 1223000   0.76320608    -8.394564    214.52069  0.014617109  0.014195468            4 
 1224000   0.77866517   -8.4363135    214.07194  0.014574615  0.014182646            5 
 1225000   0.75674784   -8.4169588    214.31511  0.014579259  0.014169837            7 
 1226000   0.76837403   -8.3808816    214.33187  0.014568507  0.014157086            2 
 1227000   0.74454609    -8.430804    213.80891  0.014521116   0.01414426            2 
 1228000   0.76058129   -8.4139715    214.26002  0.014539904  0.014131455            4 
 1229000   0.76501493   -8.4437063    214.02411  0.014512077  0.014118646            5 
 1230000   0.77402923   -8.4243218    214.21734   0.01451337  0.014105846            7 
 1231000   0.75791291   -8.4118904    214.13519  0.014496019  0.014093098            7 
 1232000   0.75508758   -8.4019474    214.04943  0.014478451  0.014080345            3 
 1233000   0.73897726   -8.4555016    214.58179  0.014502689  0.014067594            4 
 1234000   0.74121259   -8.4390959    214.27485  0.014470209  0.014054903            3 
 1235000   0.76071891   -8.4328397     214.1026  0.014446869   0.01404221            2 
 1236000   0.76914088   -8.4273536    214.20386  0.014442008  0.014029497           11 
 1237000   0.77536641   -8.4161083    214.33593   0.01443923  0.014016805            8 
 1238000   0.74460537   -8.4342583    214.81949  0.014460116  0.014004162            6 
 1239000   0.75203008    -8.445471     214.3099  0.014414172  0.013991573            3 
 1240000    0.7621148   -8.4380714    214.28434   0.01440083   0.01397897            4 
 1241000   0.77433284   -8.4264625    214.52269  0.014405231  0.013966355            7 
 1242000   0.76335127    -8.449432    214.03573  0.014360959  0.013953709           15 
 1243000   0.75753026   -8.4236613    214.48632  0.014379614  0.013941067            4 
 1244000   0.75425101   -8.4581965    213.62951  0.014310659  0.013928392            6 
 1245000   0.75449729   -8.4349405     214.4215  0.014352175  0.013915702            5 
 1246000   0.75621142   -8.4516153    214.22514  0.014327524  0.013903067            8 
 1247000   0.76727838   -8.4861019    214.25894  0.014318293  0.013890427            8 
 1248000   0.77262784   -8.4498516    214.72122  0.014337688  0.013877826            2 
 1249000   0.74693945     -8.46085    214.63862  0.014320698  0.013865236            5 
 1250000   0.73888103    -8.405969     214.9506   0.01433004  0.013852699            4 
 1251000   0.75194539   -8.4212229    214.67986   0.01430055  0.013840161            5 
 1252000   0.76126909   -8.4651181    213.96204   0.01424135  0.013827639            8 
 1253000   0.75920631   -8.4400292    214.97752   0.01429752  0.013815127            3 
 1254000    0.7671932   -8.4494239    214.81118  0.014275065  0.013802689           10 
 1255000    0.7590215   -8.4403833     214.9078  0.014270106  0.013790268            8 
 1256000   0.76590831   -8.4543366     214.9289  0.014260144  0.013777795            9 
 1257000   0.77310018   -8.4315216    214.74173  0.014236391  0.013765353            5 
 1258000   0.75438479    -8.459481    214.73006  0.014224302   0.01375286            8 
 1259000   0.75005473   -8.4523652    214.57222  0.014202556  0.013740374           12 
 1260000   0.75699952   -8.4994133    214.11347  0.014160944  0.013727878            2 
 1261000    0.7281906   -8.4523576    213.95767  0.014139418  0.013715368            4 
 1262000    0.7525564   -8.4738134    214.54221  0.014166813  0.013702914            4 
 1263000   0.73374826     -8.46054     214.6225  0.014160893  0.013690511            4 
 1264000    0.7594977    -8.462631    214.77305  0.014159616  0.013678089            2 
 1265000    0.7460405   -8.4543734    214.53667  0.014132851  0.013665684            8 
 1266000   0.75816095   -8.4618733    214.56986  0.014123872  0.013653261            2 
 1267000    0.7464385   -8.4738298    214.67946  0.014119933  0.013640894            5 
 1268000    0.7488655   -8.4916796    214.75701  0.014113894   0.01362849            8 
 1269000   0.73606236   -8.4793066    214.28073  0.014071495   0.01361609           13 
 1270000   0.76136982   -8.4483988    214.19443  0.014054753  0.013603683            8 
 1271000   0.74015823   -8.4891676    214.65892  0.014074149  0.013591332            6 
 1272000   0.72542827   -8.4480555    215.09159   0.01409143  0.013579006            5 
 1273000   0.73858962   -8.4731706    214.61031  0.014048855  0.013566678            3 
 1274000   0.75821253   -8.4719119    214.68866  0.014042952  0.013554303            3 
 1275000   0.75430849   -8.4843362    214.55305  0.014023075  0.013541936            3 
 1276000   0.75121408   -8.4696191    214.73559  0.014024007  0.013529672            4 
 1277000   0.72194117    -8.461901     214.8315  0.014019283  0.013517389            6 
 1278000   0.75781037   -8.4848084    215.02335  0.014020823  0.013505117            2 
 1279000   0.75251006   -8.4779077    214.70854   0.01398935  0.013492866            2 
 1280000   0.74101609   -8.4535422    215.09997  0.014003905  0.013480654            1 
 1281000   0.71882218    -8.450519    214.49919   0.01395389  0.013468465            4 
 1282000   0.73149016   -8.4694524    214.79189  0.013962031  0.013456279            1 
 1283000    0.7429481   -8.4912253    214.77595  0.013950114    0.0134441            2 
 1284000   0.74256162   -8.4574842    214.68007  0.013933026  0.013431971            3 
 1285000   0.74560898   -8.4559489    215.06369  0.013947062  0.013419865            5 
 1286000   0.73572137    -8.482562    215.13823  0.013941046  0.013407733            1 
 1287000   0.73227979   -8.4859664    215.42612  0.013948855  0.013395645            3 
 1288000   0.74720738   -8.4703231    215.30387  0.013930116  0.013383578            6 
 1289000   0.74579799   -8.4913593    214.83543  0.013889025  0.013371519            3 
 1290000   0.74506632   -8.4677392    215.27633  0.013906739  0.013359469            3 
 1291000   0.72864988   -8.4908844    215.08883  0.013883864  0.013347445            3 
 1292000   0.73633488     -8.48037    215.32048   0.01388806  0.013335412            6 
 1293000   0.73175401   -8.4806519    215.47068     0.013887  0.013323374            4 
 1294000   0.73518728   -8.5083636    214.77709  0.013831601  0.013311326            2 
 1295000   0.73421871   -8.4937854    214.99496   0.01383494  0.013299296            4 
 1296000   0.73696542   -8.4966518    215.15818   0.01383476  0.013287237            5 
 1297000   0.72941511   -8.5202739    215.50193  0.013846179  0.013275212            8 
 1298000    0.7314824   -8.4873001    215.45403  0.013832437  0.013263217            6 
 1299000   0.71386686   -8.4999527    215.19494  0.013805167  0.013251239            4 
 1300000   0.73139295   -8.5540461    214.56783  0.013754348  0.013239236            6 
 1301000   0.74620732    -8.493869    215.71182  0.013817052  0.013227312            4 
 1302000   0.72019188   -8.5212657    214.83839  0.013750537  0.013215366            6 
 1303000   0.73455456   -8.4945265    215.32785  0.013771287  0.013203368            6 
 1304000   0.73169069   -8.4759539     215.1638  0.013750243  0.013191396            6 
 1305000   0.72088168   -8.5111453     215.4973  0.013761003  0.013179453            2 
 1306000   0.73242031   -8.5256004    215.10997  0.013725751  0.013167486            2 
 1307000   0.73802339   -8.5039922     214.6637  0.013686795  0.013155529            5 
 1308000    0.7330374   -8.4899349    215.41676  0.013724309  0.013143584            3 
 1309000   0.73086176   -8.5223136    214.80559  0.013674917  0.013131663            6 
 1310000   0.73189736   -8.5184146    214.88097  0.013669273  0.013119735            3 
 1311000   0.73428877   -8.4916008    215.18725  0.013678315  0.013107871            5 
 1312000   0.74025748   -8.5171529    214.57265  0.013628852  0.013096008            5 
 1313000   0.73058558   -8.5303302     215.2683  0.013662624  0.013084093            3 
 1314000   0.72301841   -8.5079105    214.45786  0.013600829  0.013072246            6 
 1315000    0.7387224   -8.5278576    215.00119  0.013624917  0.013060401            4 
 1316000   0.72129741   -8.4750083    215.40628  0.013640215  0.013048587            7 
 1317000   0.73185262   -8.4886189     215.7423   0.01365112  0.013036725            5 
 1318000   0.72421579   -8.5313302    215.19859  0.013606385  0.013024892            5 
 1319000    0.7268673    -8.536309    214.80732   0.01357135  0.013013075           10 
 1320000   0.73886763   -8.5416857    215.17877  0.013584519  0.013001277            5 
 1321000   0.72447737   -8.5307083    214.81473   0.01355127  0.012989481            6 
 1322000   0.72756524   -8.5446901    215.02865  0.013554504  0.012977719            5 
 1323000   0.73005633    -8.516609    215.42467  0.013569203  0.012965953            7 
 1324000    0.7152445   -8.5222345    215.34247  0.013553781  0.012954156           11 
 1325000   0.72275657   -8.5394117    214.80284  0.013509612  0.012942383           11 
 1326000   0.72904392   -8.5468627    214.79586  0.013498986   0.01293061           18 
 1327000   0.74274656   -8.5265704     215.3862  0.013525885  0.012918827           17 
 1328000   0.73081644   -8.5398158    215.10079  0.013497791  0.012907092           11 
 1329000   0.72593648   -8.5529445    214.90512  0.013475365  0.012895356           10 
 1330000   0.71536195   -8.5287542    215.22954   0.01348556  0.012883621            4 
 1331000   0.72666958   -8.5141171    215.29816  0.013479724  0.012871942            5 
 1332000   0.73032586   -8.5069291    215.01148  0.013451669  0.012860291            7 
 1333000   0.72666967   -8.5350475    215.15312  0.013450432  0.012848647            4 
 1334000   0.72039148   -8.5316819    215.55013  0.013465151  0.012837045            9 
 1335000   0.72378968   -8.5194765    215.52321  0.013453384  0.012825467            3 
 1336000   0.72346302   -8.5130675    215.87874   0.01346549  0.012813914           13 
 1337000   0.72518172   -8.5311969    215.62404  0.013439544  0.012802319            3 
 1338000   0.71019967   -8.5156606    215.21084  0.013403764  0.012790763            8 
 1339000   0.70607474   -8.5128574    215.78459  0.013429462  0.012779202            7 
 1340000   0.70971218   -8.5492897    215.24006  0.013385576  0.012767656            3 
 1341000   0.70994966   -8.5188527    215.13637   0.01336915  0.012756126            2 
 1342000   0.72033648   -8.5296616    215.42045  0.013376829  0.012744616            7 
 1343000   0.71797975   -8.5438893    215.31726  0.013360465  0.012733108            4 
 1344000   0.70855555   -8.5340113    215.28742  0.013348674  0.012721588            5 
 1345000   0.72034484   -8.5239737    215.15279  0.013330408  0.012710095            4 
 1346000   0.70402362   -8.5354215    215.50423  0.013342263  0.012698631            2 
 1347000   0.70565611   -8.5403351    215.33383  0.013321816  0.012687174            2 
 1348000   0.71334429   -8.5203897    215.51073  0.013322869  0.012675717            4 
 1349000   0.70883725    -8.534979    215.25245  0.013297038  0.012664262            4 
 1350000   0.70771329   -8.5553324    215.52846  0.013304226    0.0126528            2 
 1351000    0.7070756   -8.5280622    215.60568  0.013299141  0.012641291            3 
 1352000   0.70019224   -8.5639146    215.36904  0.013274719  0.012629825            3 
 1353000   0.70562136   -8.5443228    215.44007  0.013269283  0.012618371            2 
 1354000   0.72035411   -8.5487627    214.97925  0.013231121  0.012606932            2 
 1355000   0.71267865   -8.5459376    215.45858  0.013250835  0.012595514            2 
 1356000   0.70448102   -8.5724938    215.68765  0.013255141  0.012584082            5 
 1357000   0.70276936   -8.5293964     215.6383  0.013242342   0.01257265            6 
 1358000   0.69411187   -8.5278551    215.48046  0.013222905   0.01256124            2 
 1359000   0.72152807   -8.5681723    215.52058  0.013215635  0.012549813            3 
 1360000   0.70412281   -8.5545996    215.17055   0.01318447  0.012538425            2 
 1361000   0.71475986    -8.572728    215.30029  0.013182726  0.012527011            2 
 1362000   0.69856854   -8.5499589    215.58606  0.013190532  0.012515614            3 
 1363000   0.72453711   -8.5662851    215.08237  0.013150059  0.012504193            3 
 1364000   0.70069657   -8.5721057    215.63058  0.013173912  0.012492826            4 
 1365000    0.7058865    -8.548783    215.86874    0.0131788  0.012481442            2 
 1366000   0.70875077   -8.5820153    214.98169  0.013115037  0.012470094            3 
 1367000   0.69929084    -8.552324    215.42578  0.013132515  0.012458772            3 
 1368000    0.7183925   -8.5498706    215.37577  0.013119869  0.012447483            3 
 1369000   0.71527881   -8.5449963    215.79875  0.013136033  0.012436224            3 
 1370000    0.7046704   -8.5549208    215.35159  0.013099245  0.012424973            7 
 1371000   0.72048352   -8.5594753    215.91718  0.013124069   0.01241368            3 
 1372000   0.69905541   -8.5714428    215.53676  0.013091397  0.012402427            2 
 1373000   0.68384118   -8.5765383    215.32047  0.013068735  0.012391162            9 
 1374000   0.71465507   -8.5506922    215.45329  0.013067278  0.012379876            3 
 1375000   0.70058016   -8.5734665    215.54238  0.013063174  0.012368629            3 
 1376000   0.69797132   -8.5575632    215.13722  0.013029144  0.012357413            4 
 1377000   0.70312591   -8.5680235    215.24262   0.01302606  0.012346212            5 
 1378000   0.70324154   -8.5663883    215.64335  0.013040841  0.012335003            6 
 1379000    0.6819976   -8.5871566    215.83979  0.013043255  0.012323797            3 
 1380000   0.70115295     -8.57103    215.49222  0.013012815  0.012312633            3 
 1381000   0.69378004   -8.5787553    215.18345   0.01298476  0.012301482            5 
 1382000    0.7044573   -8.5531271    215.11771  0.012971401  0.012290308            5 
 1383000   0.71689189   -8.5586256    215.59338  0.012990683  0.012279139            4 
 1384000    0.7074764     -8.57042    215.40215  0.012969783     0.012268            5 
 1385000   0.70695947   -8.5799768    215.52706  0.012967934  0.012256872            2 
 1386000   0.69540376    -8.565166    215.71544  0.012969904  0.012245783            8 
 1387000   0.70355324   -8.5503593    215.83263  0.012967594  0.012234705            4 
 1388000   0.69582555   -8.5538492    215.75824  0.012953785  0.012223605            4 
 1389000   0.70083495   -8.5587008    215.82253  0.012948316  0.012212557            2 
 1390000   0.69674476   -8.5777677    215.96555  0.012947575  0.012201523            2 
 1391000   0.71363279   -8.5719472    215.93156  0.012936231  0.012190503            8 
 1392000   0.70508206   -8.5547743    216.08101  0.012935884  0.012179526            5 
 1393000   0.70487731   -8.5619655    216.06599  0.012925699  0.012168554            4 
 1394000   0.69381947   -8.5703488    215.85051  0.012903545  0.012157583            3 
 1395000   0.69906102   -8.5763661    215.63451  0.012881392  0.012146597            6 
 1396000   0.69801452   -8.5697758     215.7974  0.012881889  0.012135647            6 
 1397000   0.69463719   -8.5845966    215.89722  0.012878622  0.012124714            7 
 1398000   0.70340438   -8.6071379    215.91147  0.012870259   0.01211379            5 
 1399000   0.69606996   -8.5747266    215.65777  0.012845948  0.012102859            7 
 1400000   0.69372198   -8.5580594     216.0958  0.012862845  0.012091941            6 
 1401000    0.6818579   -8.5792431    216.35192  0.012868898  0.012081031            5 
 1402000   0.70115296   -8.5533028    216.08035  0.012843578  0.012070145            4 
 1403000   0.67771964   -8.5791366    215.45991  0.012797571  0.012059265           12 
 1404000   0.70544969   -8.5947624    215.30272  0.012779126  0.012048388           14 
 1405000   0.68587853   -8.5735132     215.7028   0.01279376  0.012037495            5 
 1406000   0.70594344   -8.5670344    215.96945  0.012800465  0.012026615            8 
 1407000   0.69583968   -8.5879502    215.06833  0.012737996  0.012015742            1 
 1408000    0.7068777   -8.5879766    215.48363  0.012753529  0.012004863            4 
 1409000   0.70759645   -8.5745343    215.91518  0.012770001  0.011993988            3 
 1410000   0.69443761    -8.596208    215.57409  0.012740785  0.011983141            4 
 1411000   0.70841705   -8.5917593    215.45839  0.012724923  0.011972247            5 
 1412000   0.69068191   -8.6082623    215.60361  0.012724481  0.011961369            6 
 1413000   0.69323836   -8.6056272    215.48857  0.012708691  0.011950485            2 
 1414000   0.68552217   -8.5802547    215.83104  0.012719887  0.011939644            4 
 1415000   0.70126056   -8.6275371    215.12506   0.01266932  0.011928797            3 
 1416000   0.68340568   -8.6019618    215.63306   0.01269027  0.011917985            6 
 1417000   0.67241086   -8.5786332    215.77085  0.012689417  0.011907169            9 
 1418000   0.67894338    -8.593089    215.34005  0.012655151  0.011896379           13 
 1419000   0.68353971   -8.6371587    214.97104  0.012624562  0.011885559            5 
 1420000   0.68476646   -8.6265492    215.06808  0.012621366  0.011874735            6 
 1421000   0.68451703   -8.6229474    215.14626  0.012617069  0.011863918            5 
 1422000   0.69353195   -8.6326539    215.42966  0.012624804  0.011853116            3 
 1423000     0.679815   -8.6137969    215.25574  0.012605747  0.011842327            5 
 1424000   0.67888092   -8.6118092    215.37515  0.012603883  0.011831516            6 
 1425000   0.68743981   -8.6012346    215.07313  0.012577376  0.011820716            6 
 1426000   0.67803804   -8.5746267    215.29789   0.01258169   0.01180995           12 
 1427000   0.69881447   -8.6088133    215.12008   0.01256249  0.011799224           10 
 1428000   0.67655179   -8.6243205    215.28586  0.012563367  0.011788493            7 
 1429000   0.70689125   -8.6292925    215.58502  0.012572021  0.011777776            3 
 1430000   0.66972814   -8.6264231    215.50875  0.012558785  0.011767041            4 
 1431000   0.69240081   -8.6048947    215.46574  0.012547504  0.011756322            8 
 1432000   0.71040155   -8.6345503    215.22844  0.012524932  0.011745592            3 
 1433000   0.68965792   -8.6232211    215.20506  0.012514832  0.011734926            3 
 1434000   0.67839008   -8.6181216     215.2868  0.012510855  0.011724258            3 
 1435000   0.69181259   -8.6248472    215.32275  0.012504225  0.011713602            4 
 1436000   0.68593531   -8.6015354    215.07824  0.012481328  0.011702984            6 
 1437000   0.67625447   -8.5941092    215.68482  0.012507818  0.011692379            2 
 1438000   0.68965667   -8.6104239       214.86  0.012451321   0.01168177            6 
 1439000   0.67277581    -8.598685    215.49852  0.012479645  0.011671153            4 
 1440000   0.68201853   -8.6248459    215.59491  0.012476558  0.011660538            4 
 1441000   0.66779647   -8.6310254    215.08449  0.012438381  0.011649919            5 
 1442000   0.67798986   -8.5938094    215.63309  0.012461459  0.011639318            3 
 1443000   0.65906205   -8.6350083    215.20188  0.012427921  0.011628702            5 
 1444000   0.67760725   -8.6197708    215.48783  0.012435816  0.011618099            4 
 1445000   0.67239315   -8.6185489    215.30977  0.012416942  0.011607527            7 
 1446000   0.66364133   -8.6011219      215.287  0.012407042  0.011596961            4 
 1447000   0.66053548   -8.6186157    215.04861  0.012384739  0.011586381            2 
 1448000   0.66015271   -8.6317279    215.10279  0.012379304  0.011575799            3 
 1449000   0.68545134   -8.6202631    215.34763  0.012384842  0.011565256            4 
 1450000   0.67609599   -8.6275338    215.26929  0.012371798  0.011554699            6 
 1451000    0.6837764   -8.6551752    215.17203  0.012357686   0.01154416            3 
 1452000   0.68569811   -8.6327331    214.84294  0.012330288  0.011533616            3 
 1453000   0.65768968   -8.5996183    215.44754  0.012356477  0.011523099            2 
 1454000   0.66540406   -8.6320258    215.22184  0.012335044  0.011512602            5 
 1455000   0.67363533   -8.6202942    215.07589  0.012318207  0.011502096            6 
 1456000   0.67778377   -8.6669578    215.05592  0.012308603  0.011491593            3 
 1457000   0.67486572     -8.65856    214.65558  0.012277258   0.01148109            7 
 1458000   0.67773978   -8.6172733    214.91486  0.012283657  0.011470622            2 
 1459000    0.6495348   -8.6374677    215.27461  0.012295785  0.011460132            8 
 1460000   0.66950603   -8.6456431    215.18702  0.012282364  0.011449667            3 
 1461000   0.66276083   -8.6330169    215.03552  0.012265316  0.011439189            7 
 1462000   0.67063747   -8.6622287    214.78803   0.01224282  0.011428715            5 
 1463000   0.67850344    -8.629346    214.68345  0.012228494  0.011418251            2 
 1464000    0.6795132   -8.6563814     215.4131  0.012261675  0.011407786            8 
 1465000   0.65699141   -8.6380331    215.20728  0.012241597   0.01139735            6 
 1466000   0.67679602   -8.6551862    215.05008  0.012224311  0.011386922            4 
 1467000   0.66770201   -8.6507413    214.44701   0.01218172  0.011376524            7 
 1468000   0.66614136   -8.6538007    214.88225   0.01219813  0.011366133            5 
 1469000    0.6473811   -8.6550096    215.04559  0.012199092  0.011355732            8 
 1470000   0.66874787    -8.659917      215.462  0.012214399  0.011345362           16 
 1471000   0.66932526   -8.6613295    215.31372  0.012197695  0.011335004           11 
 1472000   0.65915178    -8.653001    215.05938   0.01217501  0.011324621            6 
 1473000   0.67677715   -8.6589822    214.82795  0.012153652  0.011314243           13 
 1474000   0.67853745   -8.6825153    214.79452  0.012143517  0.011303873            9 
 1475000   0.66041352    -8.668196    214.94944  0.012144036  0.011293531            4 
 1476000   0.65269529    -8.649203    215.35167  0.012158518  0.011283197            5 
 1477000   0.66224126   -8.6459201    214.97976  0.012129303  0.011272884            9 
 1478000   0.66441022   -8.6582677    214.95238  0.012119552  0.011262574            5 
 1479000   0.66274234   -8.6601353    215.27614    0.0121296  0.011252286            6 
 1480000   0.65499164   -8.6818022    214.49546  0.012077447  0.011242022            4 
 1481000   0.66846234   -8.6687078    214.89254  0.012091635  0.011231744            8 
 1482000   0.66679202   -8.6626145    215.02768  0.012091075  0.011221493            5 
 1483000   0.65918334   -8.6673183    215.03842  0.012083526  0.011211263            5 
 1484000   0.64706145   -8.6578379    214.75775  0.012059622   0.01120105            6 
 1485000   0.66650288   -8.6624545    215.11387  0.012071486  0.011190847           10 
 1486000   0.66464591   -8.6672012    215.00366  0.012057182  0.011180638           10 
 1487000    0.6582107   -8.6809647    215.25934  0.012063402   0.01117047            3 
 1488000   0.65210977    -8.648254    215.10282  0.012046529  0.011160317            4 
 1489000   0.66359221   -8.6547423    214.99282  0.012032282  0.011150175            7 
 1490000   0.65966995   -8.6571232    215.05644  0.012027765  0.011140035            5 
 1491000   0.66053375   -8.6795093    215.15735  0.012025338  0.011129885            2 
 1492000   0.65057227   -8.6753239    215.10362  0.012014277  0.011119764            5 
 1493000   0.66593657   -8.6808613    214.93469  0.011996801  0.011109637           10 
 1494000   0.65764773   -8.6461489    215.06038  0.011995782  0.011099558            5 
 1495000    0.6422553   -8.6604039    215.26841  0.011999354  0.011089492            4 
 1496000   0.64676425   -8.6677468    215.13532  0.011983919  0.011079422            3 
 1497000   0.65147648   -8.6694896    214.55144  0.011943411  0.011069326            4 
 1498000   0.66209908   -8.6771457    214.97224  0.011958847   0.01105925            4 
 1499000   0.64848727   -8.6822651    214.88244  0.011945877  0.011049178            7 
 1500000    0.6534219   -8.6964941    215.02486  0.011945826  0.011039108            2 
 1501000   0.65865458   -8.6787901     214.9788   0.01193531  0.011029036            4 
 1502000   0.65752895   -8.6535059    215.21686  0.011940571  0.011019001            5 
 1503000   0.65386299    -8.668387    215.18694  0.011930968  0.011008974            5 
 1504000   0.64076147   -8.6645037    215.00344  0.011912868  0.010998927            4 
 1505000   0.65121104   -8.6881704    215.15903  0.011913568  0.010988928            9 
 1506000   0.65013068   -8.7025202    215.00608  0.011897193  0.010978917            3 
 1507000   0.65959804   -8.7088883    214.61267  0.011867544  0.010968924            4 
 1508000   0.64803765   -8.6676597    215.05822  0.011884296  0.010958942            4 
 1509000   0.64807166   -8.6939593    214.49768  0.011845465  0.010948965            8 
 1510000   0.65276514   -8.6854499    215.10601  0.011871193  0.010938989            4 
 1511000   0.66536869   -8.6752198    215.03601  0.011859476  0.010929013            3 
 1512000   0.65134867   -8.7048957    214.50685  0.011822467   0.01091904            4 
 1513000   0.64882068   -8.6848545    214.61416  0.011820564  0.010909087            3 
 1514000   0.64642515   -8.7243149    214.95479  0.011831505  0.010899107            6 
 1515000   0.63596855   -8.7073896    214.88069   0.01181962  0.010889144            2 
 1516000   0.63158041   -8.7055154    214.71502  0.011802717  0.010879209            3 
 1517000   0.65379657   -8.6930398    214.96685   0.01180877  0.010869264            4 
 1518000   0.65009673   -8.6869077    214.99473  0.011802522  0.010859353            9 
 1519000   0.63907166   -8.7047066    214.23268  0.011752945  0.010849442            6 
 1520000   0.64848613   -8.7162495    214.67085  0.011769235  0.010839537            8 
 1521000   0.64626304   -8.7209194    214.86697  0.011772243  0.010829623            3 
 1522000   0.63258698   -8.7265131    214.75729  0.011758502  0.010819714            5 
 1523000    0.6554952   -8.6981271    214.74666    0.0117502   0.01080981            4 
 1524000   0.63957718   -8.7212518    214.72385  0.011741243  0.010799933            5 
 1525000   0.64291764   -8.6981589    215.09057  0.011753583  0.010790085            2 
 1526000   0.63857242   -8.7190499    214.55062  0.011716394  0.010780243            5 
 1527000    0.6512054   -8.7286316    214.54058  0.011708174  0.010770415            3 
 1528000   0.63112628   -8.7150645    214.41593  0.011693713  0.010760602            6 
 1529000   0.65189416   -8.7035354    214.89413  0.011712128  0.010750789            4 
 1530000   0.64993341   -8.7225215     214.9756  0.011708911  0.010740999            4 
 1531000   0.63709315   -8.6812626    214.76312  0.011689698  0.010731227            4 
 1532000   0.64298715   -8.6954981    214.79307  0.011683696  0.010721441            4 
 1533000   0.64078416   -8.7060586    214.99139  0.011686856  0.010711673            4 
 1534000   0.63160374   -8.6995192    214.94808  0.011676884  0.010701912            8 
 1535000   0.63785788   -8.7141028    214.94562  0.011669143  0.010692155            5 
 1536000   0.64598981   -8.7196419    214.51349  0.011638102  0.010682404            5 
 1537000   0.63644363   -8.7084946    214.29021  0.011618424  0.010672653            6 
 1538000   0.62974084   -8.7219693    214.80173  0.011638585  0.010662929            6 
 1539000   0.63982015   -8.7120313    214.62068  0.011621219  0.010653218            7 
 1540000   0.63241156   -8.6846075    214.63069  0.011614215  0.010643502            4 
 1541000   0.64669426   -8.6947803    214.63356  0.011606833   0.01063381            2 
 1542000   0.64068125   -8.6917002    215.13944  0.011626645   0.01062411            5 
 1543000   0.63309522   -8.7414362    214.81707    0.0116017  0.010614441            4 
 1544000   0.62233388   -8.7329746    214.85867  0.011596431  0.010604751            5 
 1545000    0.6288458   -8.7364441    214.68172  0.011579381  0.010595083           11 
 1546000    0.6174437    -8.726443    214.11345   0.01154126  0.010585408            3 
 1547000   0.64677722   -8.7461994    214.27896  0.011542715   0.01057576            6 
 1548000   0.64157565   -8.7264251    214.47191  0.011545646  0.010566115           10 
 1549000   0.64156712   -8.7230227     214.3537  0.011531832  0.010556497            4 
 1550000   0.63525731   -8.7414159      214.655  0.011540592  0.010546873            5 
 1551000    0.6344567   -8.7153752    214.77394  0.011539541  0.010537254            7 
 1552000   0.63330991   -8.7322709    214.91912  0.011539901  0.010527654            3 
 1553000   0.63253892   -8.7530284    214.61374  0.011516084  0.010518046            8 
 1554000    0.6245013   -8.7289628    214.65834  0.011511065  0.010508447            3 
 1555000    0.6382802   -8.7539567    214.66764  0.011504161  0.010498864            7 
 1556000   0.62710309   -8.7440776    214.77481  0.011502507  0.010489277            5 
 1557000   0.63386224   -8.7657522     214.2457    0.0114668  0.010479698            2 
 1558000   0.64133725   -8.7344504    214.67236  0.011482261  0.010470135            4 
 1559000   0.62331846   -8.7332035    214.60692  0.011471398  0.010460587            3 
 1560000   0.63031873   -8.7378954     214.2899   0.01144711  0.010451052            5 
 1561000   0.63321974   -8.7433043    214.68592  0.011460918  0.010441512            4 
 1562000    0.6277615   -8.7616134    214.22503  0.011428992  0.010431975            5 
 1563000   0.62858277   -8.7581248    214.46751  0.011434608  0.010422451            2 
 1564000   0.62464404   -8.7544482    214.62779  0.011435837  0.010412942            3 
 1565000   0.62585808   -8.7503776    214.10775  0.011400839   0.01040344            6 
 1566000   0.62658559   -8.7502513    214.27982  0.011402715  0.010393957            5 
 1567000   0.61832696   -8.7668012    214.59276  0.011412081  0.010384484            3 
 1568000   0.62620178   -8.7597489    214.16853  0.011382256  0.010375023            4 
 1569000   0.63265527   -8.7630606    214.12961  0.011372935  0.010365577            4 
 1570000    0.6218486   -8.7656695     214.4151  0.011380844  0.010356139            4 
 1571000   0.62513098   -8.7507871    214.80292  0.011394171  0.010346721            6 
 1572000   0.62341866    -8.777966    214.19006  0.011354435  0.010337313            4 
 1573000   0.61547661   -8.7447831    214.32944  0.011354601  0.010327897            3 
 1574000   0.62317973   -8.7333705    214.49575  0.011356192  0.010318487            6 
 1575000   0.61591748   -8.7852131    214.75219   0.01136255  0.010309098            4 
 1576000   0.62598832   -8.7539959    214.30839  0.011331873  0.010299704            4 
 1577000   0.62080786   -8.7550397    214.31542  0.011325059  0.010290322           13 
 1578000   0.62361698   -8.7737464    214.65555  0.011335845  0.010280956            5 
 1579000   0.63159375    -8.779237    214.59271  0.011325349  0.010271614            4 
 1580000   0.61704534   -8.7616073    214.51901  0.011314294  0.010262275            8 
 1581000   0.61303905    -8.777878    214.34231  0.011297824  0.010252936           17 
 1582000   0.61883693    -8.760004    214.56805  0.011302573  0.010243636            6 
 1583000   0.62813965   -8.7623827    214.12596   0.01127216  0.010234344            8 
 1584000   0.61402574   -8.7733691    214.69594   0.01129503  0.010225032           10 
 1585000   0.61812019   -8.7705299      214.625  0.011284174  0.010215751           11 
 1586000   0.63233177   -8.7614389    214.17857  0.011253603  0.010206478           13 
 1587000   0.62815471   -8.7462046    214.44377  0.011260437  0.010197203            6 
 1588000   0.62485759   -8.7655961    214.36873  0.011249409  0.010187951            8 
 1589000    0.6169686   -8.7678883    214.40899   0.01124444  0.010178684           11 
 1590000   0.60660373   -8.7861022    214.40827  0.011237331  0.010169438            7 
 1591000   0.62237931   -8.8069659    214.21331  0.011220056  0.010160201            6 
 1592000   0.61904997   -8.7926976    214.04172  0.011204026  0.010150973           13 
 1593000   0.62922248   -8.7805622    214.06341  0.011198128  0.010141759           12 
 1594000   0.62292268   -8.7716677    214.30737  0.011203857  0.010132558           11 
 1595000   0.62027661   -8.7695396    214.53455  0.011208702  0.010123359            4 
 1596000   0.61706269    -8.771487     214.0324  0.011175459  0.010114155            6 
 1597000   0.61246352   -8.7702044    214.10022  0.011172001  0.010104973            6 
 1598000   0.60477428   -8.7723409    213.94763  0.011157052  0.010095804            6 
 1599000   0.62310447   -8.7811068    214.23023  0.011164802  0.010086648            7 
 1600000   0.60724757   -8.7771951    214.24284  0.011158481  0.010077481            9 
 1601000   0.61351903   -8.7898649    214.44153  0.011161853  0.010068345            7 
 1602000   0.61709159   -8.7824384    214.42055  0.011153794  0.010059213            5 
 1603000   0.61619359    -8.779075    214.18564  0.011134625  0.010050088            7 
 1604000   0.63293978   -8.7881815    214.37282  0.011137407  0.010040981            6 
 1605000   0.59862124   -8.7712936    214.18538  0.011120736  0.010031886           12 
 1606000   0.62116715   -8.7703759    214.39901  0.011124897  0.010022798            6 
 1607000    0.6005051   -8.7934142    214.29571  0.011112617  0.010013718           11 
 1608000   0.61413931   -8.7957725    214.34298  0.011108156  0.010004647           11 
 1609000   0.60898687   -8.7871092    214.05733  0.011086458 0.0099955865            9 
 1610000   0.61839002   -8.7879278    214.20402  0.011087165 0.0099865212            5 
 1611000   0.61287976   -8.7985573    213.98057  0.011068724 0.0099774702           10 
 1612000   0.61232865    -8.780169    214.38134  0.011082575 0.0099684247           12 
 1613000   0.61420547   -8.7869724    214.35285  0.011074233 0.0099593751            7 
 1614000   0.61555983   -8.7834234    214.13393  0.011056068 0.0099503418            5 
 1615000   0.60495577   -8.7966729    214.46642  0.011066379 0.0099413084           11 
 1616000   0.62009091   -8.8033673    213.72888  0.011021497 0.0099322818            7 
 1617000   0.61878154   -8.7867174    214.32022  0.011045157 0.0099232648            4 
 1618000   0.60133406    -8.785304    214.33003  0.011038835 0.0099142767            6 
 1619000   0.61468389   -8.7817262     213.7579  0.011002569  0.009905303            3 
 1620000    0.6227584   -8.7617795    214.05339  0.011010977 0.0098963557            3 
 1621000   0.61402996   -8.7934495    214.15688  0.011009505 0.0098874142            6 
 1622000   0.60675743   -8.8075551    213.82643  0.010985739 0.0098784557            7 
 1623000   0.59848085    -8.786095     213.9388   0.01098474  0.009869519            8 
 1624000   0.60488834   -8.8162632    213.84044  0.010972929 0.0098605971            8 
 1625000    0.6049265   -8.7987719    213.64863   0.01095634 0.0098516654            5 
 1626000   0.59277803    -8.814556    213.86571  0.010960727 0.0098427605            6 
 1627000    0.6093187   -8.7998839      214.152  0.010968654 0.0098338447            9 
 1628000   0.60150986   -8.7988431    214.06105  0.010957261 0.0098249362           10 
 1629000   0.59833596   -8.8007528    214.45581  0.010970729 0.0098160432           10 
 1630000   0.60578038   -8.8029059     214.0191  0.010941672 0.0098071549           16 
 1631000    0.6027276    -8.795943     213.8047  0.010924009 0.0097982677            6 
 1632000   0.60032584   -8.8057007    213.82922  0.010918567 0.0097893736            7 
 1633000   0.59120499   -8.8049782    214.15045  0.010928274 0.0097804996            5 
 1634000    0.5974761   -8.8245176    213.43105  0.010884897 0.0097716335            8 
 1635000   0.60971528   -8.7963448    214.16888  0.010915845 0.0097627704            7 
 1636000   0.59569929   -8.7990725     214.2443  0.010913015 0.0097539343            8 
 1637000   0.61209102   -8.8102717    213.85546  0.010886554 0.0097451046            7 
 1638000   0.60249722   -8.7941808    214.08564  0.010891618 0.0097362884            8 
 1639000   0.59124739   -8.8127531    214.18221  0.010889883 0.0097274742            6 
 1640000   0.59285026   -8.8091867    213.67559    0.0108575 0.0097186542            4 
 1641000   0.59317329   -8.8245868    213.72545  0.010853415 0.0097098531            8 
 1642000   0.60887098   -8.8183308    213.61989  0.010841448 0.0097010532            4 
 1643000   0.59716545   -8.8090273    213.77517  0.010842725 0.0096922761           12 
 1644000   0.61115181   -8.8128524    213.97592  0.010846306 0.0096834784            5 
 1645000   0.59907759   -8.8319574    213.86992  0.010834342 0.0096747098            4 
 1646000   0.59025158   -8.8240057    213.88585  0.010828567 0.0096659468            4 
 1647000   0.58509776   -8.8334005    213.15666  0.010785097 0.0096571923            4 
 1648000   0.58264895   -8.8107231    213.96761  0.010819559 0.0096484437           14 
 1649000   0.59584122   -8.8323769    213.88298  0.010808722 0.0096397083            8 
 1650000    0.5979655   -8.8121522     213.2294  0.010769162 0.0096309759            6 
 1651000   0.59904208   -8.8185271    213.93323  0.010798164 0.0096222514            7 
 1652000   0.60061045   -8.8263473      213.583  0.010773961 0.0096135327            4 
 1653000   0.59395939   -8.8128929    213.54448  0.010765501 0.0096048369            3 
 1654000   0.57936387   -8.8092016    213.73521  0.010768602  0.009596145            6 
 1655000   0.59446238   -8.8396441    213.37985  0.010744202 0.0095874672            9 
 1656000   0.58713627    -8.822095    214.11936  0.010774927 0.0095787913            6 
 1657000   0.58676419   -8.8301419     213.5523  0.010739906 0.0095701271            6 
 1658000   0.59839986   -8.8407977    213.46905  0.010729244 0.0095614658            6 
 1659000   0.58260694   -8.8414232    213.55224  0.010726956 0.0095528054           13 
 1660000   0.58038501    -8.838802    214.22073  0.010754053 0.0095441687           11 
 1661000   0.59124037   -8.8524625    213.46164  0.010709494 0.0095355415            7 
 1662000   0.57412263    -8.836616    213.81357  0.010720697  0.009526915            7 
 1663000   0.58759278   -8.8222208     213.6049  0.010703793 0.0095183006            7 
 1664000   0.58797581   -8.8303524     213.7465  0.010704452  0.009509689           10 
 1665000   0.59183591   -8.8210863    213.58301  0.010689841 0.0095010935            7 
 1666000     0.603598   -8.8332299    213.58439  0.010683493 0.0094925006           12 
 1667000   0.60198234   -8.8417076    213.27775  0.010661755 0.0094839292            4 
 1668000   0.58027434   -8.8346315    213.38281  0.010660612 0.0094753562            8 
 1669000   0.59261383   -8.8290116    213.85559  0.010677831  0.009466801            4 
 1670000   0.59508135   -8.8570163    213.65257  0.010661306 0.0094582553           10 
 1671000   0.59207618   -8.8373686    213.77808  0.010661185 0.0094497242           14 
 1672000   0.59015381   -8.8491007    213.74168  0.010652995 0.0094411898           11 
 1673000   0.56909528   -8.8383217    213.53876  0.010636519 0.0094326583            8 
 1674000    0.5799661   -8.8425192     213.4193  0.010624219 0.0094241474            6 
 1675000   0.58239719   -8.8513114     213.6147  0.010627597 0.0094156433            9 
 1676000   0.57745955   -8.8377013    213.65779  0.010623398 0.0094071426            8 
 1677000    0.5755533   -8.8418477    213.71539  0.010619926 0.0093986596            9 
 1678000   0.57732051   -8.8664997    213.17434  0.010586727 0.0093901742            9 
 1679000   0.58411997   -8.8529362    213.26898  0.010585119 0.0093816916           12 
 1680000   0.59013306   -8.8397614    213.58372  0.010594431 0.0093732334            8 
 1681000   0.57147512   -8.8359011    213.67744  0.010592774 0.0093647769           12 
 1682000   0.57698911   -8.8483679    213.58289  0.010581792 0.0093563306            8 
 1683000   0.58632188   -8.8398515    213.46719  0.010569776 0.0093478999           11 
 1684000   0.58443345   -8.8690379    213.58347  0.010569254 0.0093394726            6 
 1685000   0.58867701   -8.8614298    213.42082  0.010554937 0.0093310579            6 
 1686000    0.5801109   -8.8527096    213.61838  0.010558441 0.0093226447            5 
 1687000   0.59331997   -8.8704451     213.1693  0.010529999 0.0093142295            8 
 1688000   0.58797347     -8.87566    213.51647    0.0105409 0.0093058267            8 
 1689000   0.59274399   -8.8515931    213.60179  0.010538869 0.0092974403            8 
 1690000   0.57921519   -8.8676132    213.36552  0.010520982 0.0092890465            6 
 1691000   0.58170882   -8.8673804    213.47071  0.010519944 0.0092806787           12 
 1692000   0.58327698   -8.8552024    213.50468    0.0105154 0.0092723188            7 
 1693000   0.58192935   -8.8362403    213.25672  0.010496984 0.0092639719           10 
 1694000   0.57839042   -8.8584676    213.44173  0.010499889 0.0092556422            7 
 1695000   0.58081411   -8.8563248     213.3331  0.010488353 0.0092473174           10 
 1696000   0.56782983   -8.8592336    213.28255  0.010479685 0.0092390089            9 
 1697000   0.57069486     -8.86428    212.93193  0.010456292 0.0092307016            6 
 1698000   0.57387379   -8.8646562    213.22003  0.010464273 0.0092224023            9 
 1699000   0.57769067   -8.8800073    213.06402  0.010450462 0.0092141005            9 
 1700000   0.57529894   -8.8674221     213.3438   0.01045803 0.0092058107            7 
 1701000   0.57294918   -8.8730616    213.46987  0.010458058 0.0091975331           11 
 1702000    0.5738175   -8.8716655    213.43575  0.010450242 0.0091892609           10 
 1703000   0.56887564   -8.8322414    213.12141  0.010428724 0.0091809943           12 
 1704000   0.57487724   -8.8767285    212.93625  0.010413549 0.0091727368           10 
 1705000   0.57377516   -8.8745096    213.37309  0.010428792 0.0091644792           12 
 1706000   0.58359195   -8.8742038    213.25516  0.010416918 0.0091562372            8 
 1707000   0.57387737   -8.8501837    213.39014  0.010417406  0.009148005            6 
 1708000   0.57243695   -8.8646325    213.31001  0.010407397   0.00913978           10 
 1709000   0.58083608   -8.8935973     212.8027   0.01037657 0.0091315638            9 
 1710000   0.57516907   -8.8660798    213.20019  0.010389873 0.0091233566            7 
 1711000   0.56027324    -8.867524    213.22182  0.010384854 0.0091151591            7 
 1712000   0.55930657    -8.898381     213.2753  0.010381391 0.0091069671           12 
 1713000   0.56805288   -8.8644584    212.82981  0.010353659 0.0090987724            6 
 1714000   0.56411609   -8.8707168    213.12014  0.010361734 0.0090906076            7 
 1715000   0.57459186   -8.8914332    212.77994  0.010339161 0.0090824352            8 
 1716000    0.5667231   -8.8613878    213.11253  0.010349288 0.0090742675            7 
 1717000    0.5573433   -8.8945808    213.30302  0.010352505 0.0090661183           12 
 1718000   0.56660178   -8.8769452    213.24923   0.01034387  0.009057973            9 
 1719000   0.56555316   -8.8787486     213.5558  0.010352715 0.0090498296            5 
 1720000   0.55633424   -8.8772715    213.07285  0.010323297 0.0090416939            9 
 1721000   0.57394704   -8.8936242    213.36419  0.010331406 0.0090335703            7 
 1722000   0.57419865   -8.8963313    213.15409  0.010315239 0.0090254722            8 
 1723000   0.58850911   -8.8698439    213.66713  0.010334065 0.0090173823            8 
 1724000   0.56512049   -8.8811294    212.97206  0.010294473 0.0090092882           12 
 1725000   0.56193443   -8.8920751    213.10378  0.010294869 0.0090011951           11 
 1726000    0.5576246   -8.8816704      212.906  0.010279355 0.0089931254            6 
 1727000   0.57675046   -8.8783264    212.97366  0.010276668 0.0089850537           15 
 1728000   0.56562602   -8.9028822    212.80146  0.010262416 0.0089769974           11 
 1729000   0.55372691   -8.8824828    213.06177  0.010269027 0.0089689484            7 
 1730000   0.55739528   -8.8963852     213.0409  0.010262086 0.0089609102            7 
 1731000   0.55903427   -8.8870564    213.35357   0.01027121 0.0089528696           12 
 1732000   0.54541186   -8.8999905    212.76871   0.01023714 0.0089448353           11 
 1733000   0.56626077   -8.8634519    212.97066  0.010240943  0.008936806            9 
 1734000   0.57115623     -8.89243    212.88741  0.010231037 0.0089287927            8 
 1735000     0.549891   -8.8983602    212.69632  0.010215962 0.0089207736           12 
 1736000    0.5650771   -8.8753335    212.91059  0.010220362 0.0089127778            5 
 1737000   0.56271538   -8.8995206    212.76523  0.010207505 0.0089047787            7 
 1738000   0.56141174   -8.8680168    213.18933  0.010221966 0.0088967952            9 
 1739000   0.55648824   -8.8889017     212.8457  0.010199621  0.008888823            8 
 1740000   0.54376949   -8.8963282    212.95278  0.010198888 0.0088808643            9 
 1741000   0.57011178   -8.8857025     212.8584  0.010188512 0.0088729073           16 
 1742000   0.56642605   -8.8808101    213.17556  0.010197836  0.008864965            4 
 1743000   0.56347116   -8.9035209    213.12289  0.010189467 0.0088570323            9 
 1744000   0.56206877   -8.8991646    212.85684  0.010170912  0.008849113           10 
 1745000   0.56184658   -8.9007419    212.63064  0.010154281 0.0088411896           17 
 1746000   0.56319791      -8.9076    212.56592  0.010145376 0.0088332685           11 
 1747000   0.55746595    -8.903065    212.94453  0.010157629 0.0088253674           11 
 1748000    0.5475291   -8.8880992    213.00434  0.010154669 0.0088174627           10 
 1749000   0.56393201   -8.8979168    213.23726  0.010159961 0.0088095803            9 
 1750000   0.55655579   -8.9022277    212.89763  0.010137982 0.0088017062            9 
 1751000   0.55661917   -8.8973613    212.69726  0.010122657 0.0087938262            8 
 1752000   0.54135757   -8.9079181    212.77516  0.010120584 0.0087859636           11 
 1753000   0.54108953   -8.9172114    212.89304  0.010120415  0.008778111            7 
 1754000   0.55132696   -8.9236826    212.84471  0.010112348 0.0087702619           11 
 1755000   0.56047842   -8.9044787    212.85608  0.010107126 0.0087624363           15 
 1756000   0.55952975   -8.9084731    212.75766    0.0100967 0.0087546103           15 
 1757000   0.54830453    -8.913886    212.76673  0.010091384 0.0087467788            9 
 1758000   0.55581135      -8.9078    212.76022  0.010085334   0.00873897            7 
 1759000   0.54358096   -8.9220371    212.46859  0.010065785 0.0087311607           13 
 1760000   0.54764485   -8.9355966    213.16915  0.010093236 0.0087233616            7 
 1761000   0.54938536   -8.9169176    212.65458  0.010063155 0.0087155721            9 
 1762000   0.54234274   -8.8970121    212.75767  0.010062319 0.0087077932            8 
 1763000   0.55053361     -8.92555    212.86827  0.010061839 0.0087000225           10 
 1764000   0.55087953   -8.9103719    212.61045  0.010043956 0.0086922485            8 
 1765000   0.54307575   -8.9065922    212.59883  0.010037716 0.0086844844           13 
 1766000   0.54901039    -8.913519    212.37662  0.010021547  0.008676736            6 
 1767000   0.55113035   -8.9172053    212.87773  0.010039508 0.0086689937           15 
 1768000   0.54578927   -8.9160715    212.73606  0.010027152  0.008661263            9 
 1769000   0.55313773   -8.9034326    212.67496  0.010018606 0.0086535527           10 
 1770000   0.54186961   -8.9252846     212.5215   0.01000572 0.0086458349           11 
 1771000   0.55112236   -8.9112665    212.78607   0.01001252 0.0086381303            6 
 1772000   0.53548188   -8.9226566    212.27515 0.0099828417 0.0086304294           12 
 1773000    0.5457853   -8.9307827    212.58724 0.0099918799 0.0086227416           10 
 1774000   0.55162208   -8.9180389    212.93644  0.010002651 0.0086150678            6 
 1775000   0.54027189   -8.9363997    212.91365 0.0099959461 0.0086073957            7 
 1776000   0.54314999   -8.9173686    212.22637  0.009958069 0.0085997336           14 
 1777000    0.5414324   -8.9135125    212.43159 0.0099620891 0.0085920803           10 
 1778000   0.53507338   -8.9278924    212.68739 0.0099684754 0.0085844356           15 
 1779000   0.53259868   -8.9329175       212.65 0.0099611207 0.0085768039            5 
 1780000   0.54295598   -8.9285509    212.97755 0.0099708589 0.0085691744            5 
 1781000    0.5448351   -8.9090853    212.39675  0.009938085 0.0085615594            4 
 1782000   0.54312767   -8.9170573    212.72893 0.0099480421 0.0085539474           10 
 1783000   0.54405735   -8.9257602    212.36053 0.0099252445 0.0085463423           11 
 1784000   0.53827659   -8.9159719    212.68333 0.0099347592 0.0085387367            6 
 1785000   0.53431255    -8.934601    212.52987 0.0099220293 0.0085311527           19 
 1786000   0.54694301    -8.924589    212.69953 0.0099243903 0.0085235799            7 
 1787000   0.54418736   -8.9256842    212.40068 0.0099049001 0.0085160125           11 
 1788000   0.55169838   -8.9302356    212.59825 0.0099085686 0.0085084538           13 
 1789000   0.54214518   -8.9425363    212.46931 0.0098970239 0.0085009137           13 
 1790000   0.53171538   -8.9242165    212.49032 0.0098924731 0.0084933749            7 
 1791000   0.53891431   -8.9455033    212.52701 0.0098886566 0.0084858424           10 
 1792000   0.52800534   -8.9434384    212.87393 0.0098992713 0.0084783229           12 
 1793000   0.53956467   -8.9211434    212.72893 0.0098870112 0.0084708063            6 
 1794000   0.52856347   -8.9261682    212.45677 0.0098688578 0.0084633056            8 
 1795000   0.53545643     -8.92857    212.51634 0.0098661254 0.0084557996            6 
 1796000   0.53088299   -8.9407797    212.69302 0.0098688298 0.0084483086           10 
 1797000   0.52128001   -8.9543169    212.42774 0.0098510362 0.0084408224            8 
 1798000   0.53344087    -8.933951    212.45048 0.0098466108 0.0084333469           14 
 1799000   0.53425071   -8.9364996     212.2706 0.0098328055 0.0084258784            9 
 1800000   0.54200208   -8.9336403    212.43717 0.0098350543 0.0084184187           13 
 1801000   0.52948431      -8.9379    212.45516 0.0098304256 0.0084109643            9 
 1802000   0.52060584   -8.9315815    212.58733 0.0098310828 0.0084035194            8 
 1803000   0.53845968   -8.9366729    212.42172 0.0098179758 0.0083960842           10 
 1804000   0.53432604   -8.9256973    212.33143 0.0098083623 0.0083886558           18 
 1805000   0.54533683   -8.9478833    212.58323 0.0098145537 0.0083812395           17 
 1806000   0.52614887   -8.9425881    212.12606 0.0097880241 0.0083738308            5 
 1807000   0.54331074   -8.9412835    212.52317 0.0098009208 0.0083664266           12 
 1808000   0.53766499   -8.9455692     212.4837 0.0097936807 0.0083590373           13 
 1809000   0.51173029   -8.9488653    212.14945 0.0097728692 0.0083516583            6 
 1810000   0.53271484   -8.9389037    212.40098 0.0097790508 0.0083442831            7 
 1811000   0.53108431   -8.9477668    212.38209 0.0097727818 0.0083369232           10 
 1812000   0.53137406    -8.930489    212.31357 0.0097642372 0.0083295596           10 
 1813000   0.52177821   -8.9469845    212.60979  0.009772467 0.0083222156           11 
 1814000   0.52352863   -8.9574348    212.18136 0.0097473979 0.0083148802           16 
 1815000    0.5281538   -8.9397808    212.67029 0.0097644759 0.0083075445           14 
 1816000   0.52277477   -8.9464875    212.48581 0.0097506338 0.0083002127            9 
 1817000   0.52785245    -8.945707    212.48256 0.0097451184 0.0082928966           10 
 1818000   0.53111834   -8.9307454    212.51849 0.0097414049 0.0082855904           11 
 1819000   0.52265211   -8.9641224    212.43701 0.0097323168 0.0082782896            9 
 1820000    0.5337044   -8.9503354    212.30841 0.0097210811  0.008270992            9 
 1821000   0.53308158   -8.9514845    212.57816 0.0097280869 0.0082636987           12 
 1822000   0.52990433   -8.9539013    212.58219 0.0097229322 0.0082564164           10 
 1823000   0.52886892   -8.9428087    212.15644 0.0096981365  0.008249148           12 
 1824000   0.52354144   -8.9569132     212.2117 0.0096953444 0.0082418861            9 
 1825000   0.52058427   -8.9443825    212.56322 0.0097060833  0.008234631           14 
 1826000   0.52189194   -8.9554063    212.39673 0.0096931695 0.0082273816            7 
 1827000   0.52686869   -8.9535939    212.39039 0.0096875749 0.0082201537            9 
 1828000   0.52403791   -8.9610238    212.79851 0.0097008803 0.0082129262           14 
 1829000   0.51325951   -8.9602697    212.47412 0.0096807963 0.0082057049           14 
 1830000   0.52105894   -8.9528167     212.4383 0.0096738753 0.0081984946           13 
 1831000   0.52168805   -8.9570906    211.79113 0.0096391376 0.0081912949            9 
 1832000   0.52207126   -8.9379974    212.43076 0.0096629711 0.0081840971            7 
 1833000    0.5204151    -8.943944    212.11717 0.0096434428 0.0081769107           15 
 1834000   0.52767852   -8.9614343    212.13942 0.0096391958 0.0081697218           20 
 1835000   0.52161841   -8.9590568    211.92053 0.0096240025  0.008162546           10 
 1836000   0.53159128   -8.9692881    212.09484  0.009626672  0.008155385           11 
 1837000   0.51380249    -8.963327    212.35584 0.0096332716 0.0081482279           12 
 1838000   0.53101233    -8.964711    212.46357 0.0096329148  0.008141085           12 
 1839000   0.52313131   -8.9593687    212.44813 0.0096269771 0.0081339426            9 
 1840000   0.51750157   -8.9722579    212.22871 0.0096118077 0.0081268063           16 
 1841000   0.51307108   -8.9585798    212.62099 0.0096243433 0.0081196786            8 
 1842000    0.5145731   -8.9641725    212.05912  0.009593699 0.0081125578           16 
 1843000   0.52497394   -8.9541624    212.03924 0.0095875943 0.0081054471           11 
 1844000   0.51050905   -8.9749489     212.2347 0.0095912283 0.0080983426            5 
 1845000   0.51282316   -8.9565344     212.2917 0.0095886044 0.0080912471           12 
 1846000   0.51728608   -8.9724652     212.1113 0.0095752664  0.008084162           14 
 1847000   0.51008346   -8.9724404    212.44256  0.009585028 0.0080770862           11 
 1848000   0.51090054   -8.9807809    212.29071 0.0095729938 0.0080700162           15 
 1849000   0.51280833   -8.9615329    212.32652 0.0095694305 0.0080629553           10 
 1850000   0.51882281   -8.9623369    212.55666 0.0095746243 0.0080559014           10 
 1851000   0.50737879   -8.9630714    212.50774 0.0095672494 0.0080488532           20 
 1852000   0.52351108   -8.9669753    212.12713 0.0095449572 0.0080418132           12 
 1853000   0.51284329   -8.9743508    212.24041 0.0095449006 0.0080347814           12 
 1854000   0.50220319   -8.9848758    212.23032  0.009539299 0.0080277502           19 
 1855000   0.51851779   -8.9741156    212.31132 0.0095377953 0.0080207266            8 
 1856000   0.52397741   -8.9740011    211.97403 0.0095175122 0.0080137188            4 
 1857000   0.50481337   -8.9718129    212.31314 0.0095276044 0.0080067133            9 
 1858000    0.4983821   -8.9668781    211.83226 0.0095009085 0.0079997177           15 
 1859000   0.50517767   -8.9716499    212.29291 0.0095164473 0.0079927295           14 
 1860000   0.50727781   -8.9652015     212.2797 0.0095107393 0.0079857483            9 
 1861000   0.51607435   -8.9844308     211.8642 0.0094870229  0.007978771            7 
 1862000   0.50317286   -8.9366456    212.46036 0.0095086091 0.0079718078           12 
 1863000    0.5114642   -8.9739194    212.24982 0.0094940874 0.0079648472           13 
 1864000   0.52469894   -8.9711284    212.23397 0.0094882855 0.0079578943            5 
 1865000   0.48781189    -8.988097    211.84888  0.009465991 0.0079509504           14 
 1866000   0.50697451   -8.9878733    212.21833 0.0094774174 0.0079440056           15 
 1867000   0.49879374   -8.9779857    211.80496 0.0094538902 0.0079370771           10 
 1868000   0.50013351   -8.9794738    212.35267 0.0094732634 0.0079301653            9 
 1869000   0.50770232   -8.9929306    212.18669 0.0094607939 0.0079232542           11 
 1870000   0.50646151    -8.974663    211.68408  0.009433337 0.0079163489           13 
 1871000    0.4998912   -8.9798498    212.06389 0.0094452114 0.0079094506            6 
 1872000   0.49519492   -8.9879754    212.16215   0.00944454 0.0079025614           14 
 1873000   0.49972985   -8.9817838    212.09441 0.0094364837 0.0078956718            8 
 1874000   0.50414122   -8.9766875     211.8917 0.0094224342 0.0078887918           13 
 1875000   0.50991752   -8.9863127     211.9665 0.0094207335   0.00788192            9 
 1876000    0.5009936    -8.989704    211.96268 0.0094155418 0.0078750598           12 
 1877000   0.49623133   -8.9787812    212.10721 0.0094169424 0.0078682072            7 
 1878000   0.50207685   -8.9690993    211.71831 0.0093946711 0.0078613581           14 
 1879000   0.49989467   -8.9812873    211.67855 0.0093879082 0.0078545174           11 
 1880000   0.50882328   -8.9898196     212.2634 0.0094088387  0.007847685            5 
 1881000   0.51104102   -8.9846281    211.87426 0.0093865968 0.0078408645           13 
 1882000   0.49543516   -8.9834837    211.75299 0.0093762395 0.0078340483           12 
 1883000   0.50478281   -8.9963484    211.76441 0.0093717655  0.007827241           13 
 1884000   0.49855695   -8.9972536    212.11962 0.0093825026 0.0078204484           12 
 1885000   0.49772922   -8.9980899    211.86574 0.0093663015  0.007813651           16 
 1886000   0.50423771   -8.9982767    211.99999 0.0093672672 0.0078068631           11 
 1887000   0.51293669   -8.9914385    211.96719 0.0093608546 0.0078000831            9 
 1888000   0.49601055   -8.9992026    211.84127 0.0093503385  0.007793315           18 
 1889000   0.50717443   -8.9905348    211.84996 0.0093457721 0.0077865549           13 
 1890000   0.51042127   -8.9959758    211.94973 0.0093452262  0.007779809            9 
 1891000   0.51157408    -8.999443    212.15238 0.0093492147 0.0077730631            6 
 1892000   0.48849185   -9.0075253    212.13459 0.0093434898 0.0077663261            9 
 1893000   0.49949072    -8.993536    212.01904 0.0093334673 0.0077595949           14 
 1894000   0.49108819   -9.0150048      211.762 0.0093172298 0.0077528691           11 
 1895000   0.49265431   -8.9908174    211.39035 0.0092959697  0.007746155           11 
 1896000   0.50520391   -9.0029734    211.89319 0.0093131675 0.0077394445           14 
 1897000   0.50587796   -9.0037972    211.99263 0.0093126264 0.0077327465           11 
 1898000   0.49623796   -8.9946415    212.03803 0.0093097134 0.0077260534            6 
 1899000   0.48869022   -9.0002671    212.03428 0.0093046461 0.0077193699           13 
 1900000   0.47787107   -8.9737307    212.07952 0.0093017332  0.007712696            8 
 1901000   0.49528881   -9.0045926    211.64114 0.0092776231 0.0077060382            8 
 1902000   0.48582584    -8.988495    211.98971 0.0092880176 0.0076993811           11 
 1903000   0.49094747    -8.997044    212.08269 0.0092872085 0.0076927347           10 
 1904000    0.4916173   -9.0122883    212.17859  0.009286528  0.007686091            6 
 1905000   0.49332662   -9.0041646    211.81909 0.0092659267 0.0076794516           10 
 1906000   0.49641949   -9.0032504    212.03992 0.0092707206 0.0076728262           15 
 1907000   0.48569236   -8.9890637    212.17381 0.0092717098  0.007666206           17 
 1908000   0.49656751   -8.9957151    211.86296 0.0092532738 0.0076595929            7 
 1909000    0.4891789   -9.0132106    211.92953 0.0092513327 0.0076529878           12 
 1910000    0.4941689   -9.0148471    211.89376 0.0092449284 0.0076463805           16 
 1911000   0.48529428   -9.0091508     211.6291 0.0092285497 0.0076397881           12 
 1912000   0.49599251    -9.005487    211.72614 0.0092279526 0.0076332044           12 
 1913000   0.49089655   -9.0273388    211.60798 0.0092179813 0.0076266194            9 
 1914000   0.48893014   -9.0090422    211.87616 0.0092248416 0.0076200407           18 
 1915000   0.47662659   -9.0264819    212.02458  0.009226483 0.0076134761           12 
 1916000    0.4898281   -9.0069754    211.72729 0.0092087372 0.0076069168           16 
 1917000   0.48065511   -9.0179773    211.62407 0.0091994465 0.0076003717           11 
 1918000   0.49096927   -8.9975844    211.95686 0.0092091091 0.0075938317            6 
 1919000   0.48623988   -9.0147461    211.48486 0.0091838137 0.0075872987           13 
 1920000   0.47283602   -9.0023627    212.10191 0.0092058121 0.0075807737           11 
 1921000   0.48391367   -9.0103221    211.67659 0.0091825692 0.0075742566           11 
 1922000   0.49052029   -9.0170008    211.98698 0.0091912498 0.0075677429           18 
 1923000   0.47438576   -9.0144428    211.89198  0.009182353 0.0075612364           13 
 1924000   0.48395103   -9.0044311    211.77021 0.0091723064 0.0075547327           12 
 1925000   0.47964161   -9.0103317    211.96585 0.0091760109 0.0075482469           18 
 1926000   0.48356555   -9.0015614    211.50294 0.0091512174 0.0075417616            6 
 1927000   0.48910009   -9.0194696    211.74356 0.0091568742 0.0075352871           11 
 1928000   0.48477629   -9.0276449    211.82636 0.0091557037  0.007528824           16 
 1929000   0.48070894   -9.0270985    211.85975 0.0091523997 0.0075223607           15 
 1930000   0.47070711   -9.0103779    211.80485 0.0091452871 0.0075159011            9 
 1931000   0.47896897   -9.0112929     211.7054 0.0091362593  0.007509455           18 
 1932000   0.49159974   -9.0299167    211.91742 0.0091406755 0.0075030137            8 
 1933000   0.47531895   -9.0205782    211.97604  0.009138474 0.0074965763           11 
 1934000   0.47981177   -9.0173508    211.70336 0.0091219991 0.0074901478           10 
 1935000   0.48822142   -9.0122704    211.44846 0.0091063075 0.0074837304           15 
 1936000   0.48425955   -9.0305731    211.66228 0.0091108076 0.0074773238           12 
 1937000   0.48833012   -9.0437615    211.71072  0.009108188 0.0074709174           23 
 1938000    0.4892478   -9.0189878    211.51023 0.0090948672 0.0074645195           11 
 1939000   0.47893729   -9.0175831    211.85119 0.0091048301 0.0074581227           26 
 1940000   0.48324927   -9.0155545    211.70135 0.0090937006 0.0074517384           17 
 1941000   0.46852185   -9.0184428    211.82187   0.00909419 0.0074453579           21 
 1942000   0.47459243   -9.0194256    211.68581 0.0090836687 0.0074389852           18 
 1943000   0.47228408   -9.0137561    211.75992 0.0090821721 0.0074326196           24 
 1944000   0.46931345   -9.0210513    211.65288 0.0090729117 0.0074262607           19 
 1945000   0.47761978   -9.0298729    211.47972 0.0090608278 0.0074199075           17 
 1946000   0.47854148   -9.0087583    211.76198 0.0090682587 0.0074135607            4 
 1947000    0.4814183   -9.0237836    212.24892 0.0090844427 0.0074072281           22 
 1948000   0.48428941   -9.0202686    211.70686 0.0090565905 0.0074008998           22 
 1949000   0.47311537   -9.0386943    211.09824 0.0090259209 0.0073945756           28 
 1950000   0.47056503   -9.0318533    211.47471 0.0090373807 0.0073882572           22 
 1951000   0.47391794   -9.0188323    211.58485 0.0090374529 0.0073819441           19 
 1952000   0.46833467   -9.0313601    211.67213 0.0090365491 0.0073756403           18 
 1953000   0.47937667   -9.0419845    211.50875 0.0090249511 0.0073693445           22 
 1954000   0.46564356   -9.0060636    211.50225 0.0090200549  0.007363054           20 
 1955000    0.4642822   -9.0482932    211.67445 0.0090227814  0.007356767           22 
 1956000   0.48066728   -9.0257966    211.38509 0.0090058406 0.0073504896           21 
 1957000   0.47092312   -9.0358956    211.61933 0.0090112131  0.007344226           18 
 1958000   0.48647902   -9.0459146    211.62811 0.0090069845 0.0073379652           20 
 1959000   0.47562724   -9.0330434    211.63035 0.0090024823 0.0073317108           19 
 1960000   0.46478883   -9.0434835    211.53335 0.0089937649 0.0073254613           16 
 1961000   0.46928075     -9.03375    211.49331 0.0089874769 0.0073192157           21 
 1962000   0.49849597   -9.0335713    211.20963 0.0089708474 0.0073129749           24 
 1963000   0.48074167   -9.0388826    211.51913 0.0089794163 0.0073067512           26 
 1964000   0.45922896   -9.0390746    211.51134  0.008974514 0.0073005338           20 
 1965000   0.46011468    -9.036202    211.35972 0.0089635167 0.0072943183           24 
 1966000   0.46789612   -9.0452922    211.44379 0.0089625208 0.0072881104           19 
 1967000   0.47210091   -9.0495615    211.61058 0.0089650306 0.0072819123           21 
 1968000   0.47691457   -9.0382763    211.73463 0.0089657279 0.0072757175           19 
 1969000   0.47399327   -9.0334032    211.18972 0.0089381125 0.0072695287           18 
 1970000   0.45722104   -9.0317546    211.51383 0.0089472854 0.0072633473           16 
 1971000    0.4798651   -9.0413846     211.3197 0.0089345384 0.0072571695           19 
 1972000   0.46229933   -9.0592869    211.49009 0.0089372079  0.007250997           25 
 1973000   0.45583264   -9.0505035    211.37944 0.0089280048 0.0072448353           11 
 1974000   0.46939425   -9.0335337    211.42568 0.0089254341 0.0072386798           21 
 1975000   0.46543676   -9.0474836    211.43111 0.0089211439 0.0072325358           21 
 1976000   0.46536184   -9.0634323    211.45724 0.0089177313 0.0072263913           21 
 1977000   0.46556263   -9.0495988    211.21209  0.008902887 0.0072202517           24 
 1978000   0.46593148   -9.0492248    211.43789  0.008907899 0.0072141221           19 
 1979000   0.46270924   -9.0470123    211.41263 0.0089023339 0.0072079974           20 
 1980000   0.45906588   -9.0449993    211.33192 0.0088944409 0.0072018847           22 
 1981000   0.45274742   -9.0521708    211.34658 0.0088905678  0.007195776           17 
 1982000   0.46683455   -9.0565762    211.21516 0.0088805567 0.0071896772           20 
 1983000   0.45820879   -9.0650886    211.05569 0.0088693767 0.0071835811           16 
 1984000   0.46608565    -9.059479    211.29786 0.0088750781 0.0071774957           18 
 1985000   0.46454183   -9.0504201    211.35133 0.0088728517 0.0071714184           16 
 1986000   0.45865257   -9.0606393    211.50377 0.0088747804 0.0071653421           17 
 1987000    0.4611519    -9.055589    211.39729 0.0088658483  0.007159274           19 
 1988000   0.45983897   -9.0411976    211.22176 0.0088540311 0.0071532105           18 
 1989000   0.46124593   -9.0619035    211.43879 0.0088586724 0.0071471522           24 
 1990000   0.45333997   -9.0596595    211.33681 0.0088499502 0.0071410948           24 
 1991000   0.46304113   -9.0717986    211.32807 0.0088451393 0.0071350513           15 
 1992000   0.46569426   -9.0613425    211.41016 0.0088441331 0.0071290193           18 
 1993000   0.45142693    -9.074287     211.2547 0.0088331955 0.0071229847           18 
 1994000   0.45435678   -9.0605238    211.11537 0.0088229424 0.0071169575           22 
 1995000   0.45760814   -9.0590997    211.25725 0.0088244464 0.0071109414           19 
 1996000   0.46068763   -9.0563565    211.41266  0.008826514 0.0071049322           17 
 1997000   0.45178503    -9.064474    211.19654 0.0088130754  0.007098929           19 
 1998000   0.46040323   -9.0560869     211.3805 0.0088163371 0.0070929333           26 
 1999000   0.45048906   -9.0664089    211.43276 0.0088141054 0.0070869423           21 
 2000000   0.45186321   -9.0511004    211.26157 0.0088025653 0.0070809621           21 
 2001000   0.47052186   -9.0644549    211.43219  0.008805272  0.007074983           17 
 2002000   0.45442147   -9.0618555    211.07654 0.0087860697 0.0070690139           22 
 2003000    0.4525537   -9.0653261    210.88597 0.0087737549 0.0070630523           13 
 2004000   0.46094272   -9.0517065     211.2015 0.0087824974 0.0070570897           15 
 2005000   0.44694174   -9.0774618     211.1346 0.0087753365 0.0070511421           28 
 2006000   0.44981612   -9.0775308    211.37118 0.0087807901 0.0070451967           22 
 2007000   0.44554331   -9.0627396    210.89304 0.0087565619 0.0070392561           22 
 2008000   0.45306088   -9.0607832    211.37982 0.0087724028 0.0070333279           19 
 2009000   0.45164457   -9.0752773    211.29187  0.008764388 0.0070274025           19 
 2010000   0.45582423   -9.0657874    211.35854 0.0087627919 0.0070214834           31 
 2011000   0.45795532   -9.0587816    211.18952 0.0087514304 0.0070155736           20 
 2012000   0.44193201   -9.0769237    211.19293 0.0087472219 0.0070096651           25 
Loop time of 5024.55 on 48 procs for 2000000 steps with 4000 atoms

Performance: 68782.248 tau/day, 398.045 timesteps/s
99.4% CPU use with 48 MPI tasks x no OpenMP threads

MPI task timing breakdown:
Section |  min time  |  avg time  |  max time  |%varavg| %total
---------------------------------------------------------------
Pair    | 338.44     | 361.52     | 379.96     |  56.7 |  7.20
Neigh   | 33.137     | 34.616     | 36.151     |  14.6 |  0.69
Comm    | 322.64     | 343.9      | 367.25     |  60.3 |  6.84
Output  | 4.1125     | 4.1147     | 4.1532     |   0.3 |  0.08
Modify  | 4224       | 4233.9     | 4246       |   8.9 | 84.27
Other   |            | 46.46      |            |       |  0.92

Nlocal:        83.3333 ave          91 max          75 min
Histogram: 2 0 2 10 12 6 6 2 4 4
Nghost:        2233.65 ave        2249 max        2216 min
Histogram: 2 3 4 8 2 7 10 4 5 3
Neighs:        14928.9 ave       16961 max       13611 min
Histogram: 5 7 6 9 6 5 5 2 1 2
FullNghs:      29864.8 ave       32663 max       27582 min
Histogram: 2 3 10 9 7 5 3 5 2 2

Total # of neighbors = 1433509
Ave neighs/atom = 358.37725
Neighbor list builds = 106682
Dangerous builds = 0

#clear
#
#next RN
#
#jump SELF
Total wall time: 1:23:47
