
units lj                  # Use reduced LJ style units
atom_style atomic         # Uncharged point particles
atom_modify map hash      # Needed for indexing of clusters etc
                          # Used to be able to find where atoms are in relation to each other.

lattice fcc 1.0 spacing 1 1 1
Lattice spacing in x,y,z = 1.5874011 1.5874011 1.5874011
region box block 0 10 0 10 0 10 units lattice
create_box 2 box
Created orthogonal box = (0.0000000 0.0000000 0.0000000) to (15.874011 15.874011 15.874011)
  3 by 4 by 4 MPI processor grid
create_atoms 1 box
Created 4000 atoms
  using lattice units in orthogonal box = (0.0000000 0.0000000 0.0000000) to (15.874011 15.874011 15.874011)
  create_atoms CPU = 0.003 seconds
set type 1 type/fraction 2 0.96 78393
Setting atom values ...
  3848 settings made for type/fraction
mass 1 1.0
mass 2 1.0
pair_style lj/cut  3.5
pair_modify tail  yes
pair_coeff 1  1  1.0  1.0   # Intearaction between 1 and 1 set with epsilon = 1 and sigma = 1
pair_coeff 1  2  1.5  0.8
pair_coeff 2  2  0.5  0.88

write_data data.0
System init for write_data ...
Neighbor list info ...
  update every 1 steps, delay 10 steps, check yes
  max neighbors/atom: 2000, page size: 100000
  master list distance cutoff = 3.8
  ghost atom cutoff = 3.8
  binsize = 1.9, bins = 9 9 9
  1 neighbor lists, perpetual/occasional/extra = 1 0 0
  (1) pair lj/cut, perpetual
      attributes: half, newton on
      pair build: half/bin/atomonly/newton
      stencil: half/bin/3d
      bin: standard
WARNING: Not all mixed pair coeffs generated from mixing. Use write_data with 'pair ij' option to store all pair coeffs. (../write_data.cpp:312)


#############################
#   M E L T   S Y S T E M   #
#############################

velocity all create 2.4 5833274 mom yes dist gaussian # Assign velocities
                                                    # Temperature 2.4, random number seed, zero linear momentum
                                                                                # Gaussian distribution

timestep 0.002   # simulation timestep
thermo 1000       # output thermodynamic data every 1000 steps bf 100

# Define a fix  in this case with index 1 applied to all
# particles in the simulation. This fix is for simulations
# in the anisotropic NPT ensemble. Note that we use the MTK
# correction.
fix 1 all npt temp 2.4 2.4 0.1 iso 5.68 5.68 0.5 mtk yes tchain 5 pchain 5 # Use NPT ensemble
                                                                         # Set temperature and pressure and damping
                                                                         # Numbers of thermostats in chain and in barostat
run 10000          # run for 10000 steps
Per MPI rank memory allocation (min/avg/max) = 3.642 | 3.644 | 3.648 Mbytes
Step Temp E_pair E_mol TotEng Press Volume 
       0          2.4   -2.8820212            0   0.71707882   -2.0430313         4000 
    1000    2.4462645   -1.7228917            0    1.9455877    5.6591437    4177.1569 
    2000    2.3683399   -1.6790295            0    1.8725922    5.5852915    4217.3469 
    3000    2.4159663    -1.716905            0    1.9061384    5.6423162    4177.3617 
    4000    2.3562064   -1.7144511            0    1.8189749    5.8546094    4139.2119 
    5000    2.4085966   -1.7064372            0    1.9055544    5.7383303    4181.3994 
    6000      2.38252   -1.7282427            0    1.8446438    5.9627295     4115.501 
    7000     2.316711   -1.7073978            0    1.7667999     5.738116    4150.8992 
    8000    2.3859149   -1.7302116            0     1.847766    5.5336189    4189.3986 
    9000    2.4455114   -1.6730675            0    1.9942826    5.8359885    4183.6137 
   10000    2.4324815   -1.7653019            0    1.8825083    5.5911982    4157.3411 
Loop time of 2.43204 on 48 procs for 10000 steps with 4000 atoms

Performance: 710515.431 tau/day, 4111.779 timesteps/s
99.6% CPU use with 48 MPI tasks x no OpenMP threads

MPI task timing breakdown:
Section |  min time  |  avg time  |  max time  |%varavg| %total
---------------------------------------------------------------
Pair    | 1.044      | 1.1107     | 1.2967     |   3.9 | 45.67
Neigh   | 0.20424    | 0.21245    | 0.24298    |   1.2 |  8.74
Comm    | 0.65479    | 0.84757    | 0.93862    |   5.0 | 34.85
Output  | 0.00024028 | 0.00024531 | 0.00030696 |   0.0 |  0.01
Modify  | 0.20726    | 0.24628    | 0.28823    |   5.9 | 10.13
Other   |            | 0.0148     |            |       |  0.61

Nlocal:        83.3333 ave          92 max          75 min
Histogram: 3 4 5 4 8 9 6 3 4 2
Nghost:        1597.15 ave        1632 max        1571 min
Histogram: 3 4 7 9 12 0 8 2 0 3
Neighs:        9180.52 ave       10246 max        7893 min
Histogram: 2 1 4 4 10 8 6 5 3 5

Total # of neighbors = 440665
Ave neighs/atom = 110.16625
Neighbor list builds = 911
Dangerous builds = 239

# Equilibrate just above the melting temperature to avoid step fn in T

fix 1 all npt temp 1.25 1.25 0.1 iso 5.68 5.68 0.5 mtk yes tchain 5 pchain 5
run 2000
Per MPI rank memory allocation (min/avg/max) = 3.643 | 3.645 | 3.649 Mbytes
Step Temp E_pair E_mol TotEng Press Volume 
   10000    2.4324815   -1.7653019            0    1.8825083    5.5911982    4157.3411 
   11000    1.2484588   -2.6048676            0  -0.73264767    5.7249167     3259.531 
   12000    1.2504674   -2.6370327            0  -0.76180058    5.5814085    3256.3205 
Loop time of 0.591138 on 48 procs for 2000 steps with 4000 atoms

Performance: 584635.213 tau/day, 3383.306 timesteps/s
99.7% CPU use with 48 MPI tasks x no OpenMP threads

MPI task timing breakdown:
Section |  min time  |  avg time  |  max time  |%varavg| %total
---------------------------------------------------------------
Pair    | 0.26167    | 0.28121    | 0.3172     |   2.5 | 47.57
Neigh   | 0.037132   | 0.039982   | 0.045156   |   0.7 |  6.76
Comm    | 0.18416    | 0.21916    | 0.23996    |   2.9 | 37.07
Output  | 5.1595e-05 | 5.4059e-05 | 6.9075e-05 |   0.0 |  0.01
Modify  | 0.041479   | 0.045927   | 0.049648   |   1.0 |  7.77
Other   |            | 0.004807   |            |       |  0.81

Nlocal:        83.3333 ave          91 max          75 min
Histogram: 2 6 3 5 4 8 8 3 8 1
Nghost:        1884.67 ave        1921 max        1857 min
Histogram: 2 5 11 3 9 7 5 3 2 1
Neighs:        11732.5 ave       13332 max       10251 min
Histogram: 2 3 4 6 10 10 3 7 1 2

Total # of neighbors = 563160
Ave neighs/atom = 140.79000
Neighbor list builds = 141
Dangerous builds = 9

#############################
# L I N E A R  Q U E N C H  #
#############################

# Define solid atoms. This closely follows ten Wolde  Ruiz-Montero and Frenkel  Faraday Discuss  1996  104  93-110
# Compute components of the per-atom q6 vector
compute q6 all orientorder/atom degrees 1 6 components 6 nnn NULL cutoff 1.3 # compute the Q6 parameter.
                                                                             # Use all neighbours within 1.3 unit cell.

# get number of connections
compute coord_number all coord/atom orientorder q6 0.5

# An atom is solid if it has 8 or more connections (of a possible 14)
variable is_solid atom c_coord_number>=8
group solid dynamic all var is_solid    # Must be dynamic to update
dynamic group solid defined

# do clustering
compute cluster solid cluster/atom 1.3 # Create a cluster where all atoms within are solid and max 1.3 units from another member

# define chunks one chunk per cluster
compute clus_chunks solid chunk/atom c_cluster nchunk every compress yes  # Says which atoms are in which chunk

# count the size of each chunk
compute size_chunks solid property/chunk clus_chunks count


# Find the maximum entry in the vector of chunk sizes
variable max_n equal max(c_size_chunks)


# Thermo style which includes this variable
# thermo_style custom step temp pe vol v_max_n

thermo ${N}  # Print the thermo information every 100 steps
thermo 1000  

# Reset the npt fix at a lower temperature (below freezing)
fix 1  all npt temp  ${temp} ${temp}  0.1  iso  5.68  5.68  0.5  mtk yes tchain  5  pchain  5
fix 1  all npt temp  0.45 ${temp}  0.1  iso  5.68  5.68  0.5  mtk yes tchain  5  pchain  5
fix 1  all npt temp  0.45 0.45  0.1  iso  5.68  5.68  0.5  mtk yes tchain  5  pchain  5

dump dmp2 all dcd ${N} traj.dcd
dump dmp2 all dcd 1000 traj.dcd


compute msd all msd com yes
variable twopoint equal c_msd[4]/6/(step*dt+1.0e-6)
fix 9 all vector 10 c_msd[4]
variable fit equal slope(f_9)/6/(10*dt)
thermo_style custom step temp pe c_msd[4] v_twopoint v_fit v_max_n

fix 1 all npt temp 1.25 ${temp} 0.1 iso 5.68 5.68 0.5 mtk yes tchain 5 pchain 5
fix 1 all npt temp 1.25 0.45 0.1 iso 5.68 5.68 0.5 mtk yes tchain 5 pchain 5
run 2000000 # 5000000  # Run for this many steps
Neighbor list info ...
  update every 1 steps, delay 10 steps, check yes
  max neighbors/atom: 2000, page size: 100000
  master list distance cutoff = 3.8
  ghost atom cutoff = 3.8
  binsize = 1.9, bins = 8 8 8
  4 neighbor lists, perpetual/occasional/extra = 1 3 0
  (1) pair lj/cut, perpetual
      attributes: half, newton on
      pair build: half/bin/atomonly/newton
      stencil: half/bin/3d
      bin: standard
  (2) compute orientorder/atom, occasional
      attributes: full, newton on
      pair build: full/bin/atomonly
      stencil: full/bin/3d
      bin: standard
  (3) compute coord/atom, occasional
      attributes: full, newton on
      pair build: full/bin/atomonly
      stencil: full/bin/3d
      bin: standard
  (4) compute cluster/atom, occasional
      attributes: full, newton on
      pair build: full/bin/atomonly
      stencil: full/bin/3d
      bin: standard
Per MPI rank memory allocation (min/avg/max) = 9.814 | 9.820 | 9.826 Mbytes
Step Temp PotEng c_msd[4] v_twopoint v_fit v_max_n 
   12000    1.2504674   -2.6370327 3.1601768e-30 2.1945671e-32 8.3333333e+20            2 
   13000     1.235063   -2.6270213    1.1180452  0.007166956  0.095480202            4 
   14000    1.2719046   -2.6345568      2.29818  0.013679642  0.097258116            2 
   15000    1.2477547   -2.6387592    3.6336998   0.02018722    0.1011085            2 
   16000    1.2460359   -2.5949691    4.9303743  0.025679032    0.1036206            1 
   17000     1.264679   -2.6089239    6.2370955  0.030573997   0.10566461            3 
   18000     1.258681   -2.6361712    7.3703305    0.0341219   0.10523053            2 
   19000    1.2455766   -2.6190095    8.6250622  0.037829219   0.10451557            1 
   20000    1.2419754   -2.6292858    9.9548832  0.041478679   0.10479561            2 
   21000    1.2500671   -2.6161615    11.122631  0.044137423   0.10467639            2 
   22000    1.2572361   -2.6336743     12.37197  0.046863522   0.10458443            1 
   23000    1.2368061   -2.6132902    13.767145  0.049880959   0.10490922            1 
   24000    1.2475676   -2.6410385     14.82805  0.051486283   0.10482777            1 
   25000    1.2392252   -2.6503061    16.062204  0.053540679   0.10457367            2 
   26000    1.2595156   -2.6516916    17.115553  0.054857541   0.10405872            2 
   27000    1.2309074    -2.659629    18.335419    0.0565908   0.10341454            1 
   28000    1.2296202   -2.6440537    19.532926  0.058133708   0.10311871            1 
   29000    1.2355839   -2.6438398    20.753933  0.059637739    0.1027198            1 
   30000    1.2352075   -2.6337331    21.993122  0.061092006   0.10248964            1 
   31000    1.2334403   -2.6474466    23.444481  0.063022798   0.10240179            1 
   32000    1.2735807   -2.6164482    24.751494  0.064457014   0.10270885            2 
   33000    1.2160512     -2.63309    26.126967   0.06597719   0.10290757            1 
   34000    1.2476239     -2.61664    27.187137  0.066635138   0.10305392            4 
   35000    1.2491007   -2.6313364    28.364662  0.067534909   0.10309606            1 
   36000    1.2221827       -2.607    29.892513   0.06919563   0.10321891            1 
   37000    1.2340708   -2.6482707    31.203925   0.07027911   0.10332081            2 
   38000     1.233096   -2.6291575    32.348395  0.070939461   0.10346609            2 
   39000    1.2633008   -2.6300461    33.483266  0.071545439   0.10354779            2 
   40000    1.2818626   -2.6415626    34.610735  0.072105697   0.10358711            1 
   41000    1.2265601    -2.601498    35.997741  0.073166138   0.10357613            2 
   42000    1.2380276   -2.6337843     36.99641  0.073405574   0.10351823            1 
   43000    1.2363174   -2.6529146    38.447043  0.074509772   0.10352847            2 
   44000    1.2729481   -2.6601012    39.998456  0.075754651   0.10363281            1 
   45000     1.233063   -2.6742048    41.242437  0.076374883   0.10378437            1 
   46000    1.2100431    -2.634115    42.497993  0.076989117   0.10385573            1 
   47000    1.2513417   -2.6522633    43.665938  0.077421876   0.10389966            1 
   48000    1.2461569   -2.6152727    45.019427  0.078158726   0.10396612            3 
   49000    1.2624418   -2.6398559    46.071573  0.078353015   0.10402635            2 
   50000    1.2259004   -2.6496777    47.217816   0.07869636   0.10400245            4 
   51000    1.2056788   -2.6432677    48.775644  0.079698763   0.10402856            2 
   52000    1.2425577   -2.6460918    50.050117  0.080208521   0.10411088            1 
   53000    1.2479457   -2.6544261    51.444887  0.080888187   0.10416798            2 
   54000    1.2302512   -2.6518171    52.685071  0.081304121   0.10429234            1 
   55000    1.2591445   -2.6589062    54.197853  0.082117958   0.10440636            3 
   56000    1.2394775   -2.6720811    55.635896  0.082791511   0.10454978            2 
   57000    1.2365151   -2.6458907    56.733732  0.082944052   0.10462837            1 
   58000    1.2396879   -2.6802541    57.767444  0.082999201   0.10467311            2 
   59000    1.2245761   -2.6533145    58.925204  0.083227689   0.10469522            3 
   60000    1.2313246   -2.6464154    60.190209  0.083597511   0.10474039            2 
   61000    1.2123765   -2.6811111    61.232483  0.083650933   0.10477674            2 
   62000    1.2645395   -2.6410402    62.270746  0.083697239   0.10475819            3 
   63000    1.2493574   -2.6273232    63.547566  0.084057626   0.10470218            1 
   64000    1.2185947   -2.6393852    64.572245  0.084078443   0.10460237            2 
   65000    1.2564309   -2.6451098    65.641382  0.084155617     0.104491            2 
   66000    1.2355609   -2.6523173    66.676283  0.084187226   0.10436561            1 
   67000    1.2363434   -2.6527211    68.195155  0.084819843   0.10425666            1 
   68000    1.2441906   -2.6582734     69.11153  0.084695502   0.10415841            1 
   69000    1.2258087   -2.6330482    70.590905  0.085254716   0.10409177            3 
   70000    1.2120248   -2.6667927    71.995025  0.085708362   0.10405922            1 
   71000    1.2107236   -2.6462411    73.623998  0.086413142   0.10405288            2 
   72000    1.2379382   -2.6614098    75.125015  0.086950248   0.10405196            2 
   73000    1.2347924   -2.6641098    76.164412  0.086945675   0.10407265            1 
   74000    1.2083097    -2.682638    77.816746   0.08763147    0.1041417            1 
   75000     1.242991    -2.655589    79.086358  0.087873731   0.10420832            1 
   76000    1.2079771    -2.666352    79.916111  0.087627314   0.10424452            2 
   77000    1.2247491   -2.6543244    81.409248  0.088105247   0.10427358            2 
   78000     1.205629   -2.6601439    82.692552  0.088346743   0.10431768            1 
   79000    1.1874933   -2.6680277    83.730483  0.088323294   0.10435287            1 
   80000    1.2399363    -2.670809    85.046088  0.088589674   0.10436156            2 
   81000    1.2140143   -2.6729115    86.556206  0.089049595   0.10438739            1 
   82000    1.2097976   -2.6596561    87.687711  0.089113526   0.10443191            1 
   83000     1.247977   -2.6517428    89.304626  0.089663279   0.10449146            2 
   84000    1.1912138   -2.6381966    90.647266  0.089927842   0.10453221            1 
   85000    1.2011162   -2.6495527    91.335081  0.089544196   0.10454248            2 
   86000     1.208926   -2.6564592    92.403508  0.089538283   0.10453817            2 
   87000    1.2370813   -2.6452578    94.342912  0.090366773   0.10454149            2 
   88000    1.2126923   -2.6808611    95.279491   0.09022679   0.10455808            2 
   89000    1.2361819   -2.6738655    96.250365  0.090122064   0.10456478            4 
   90000    1.2318865   -2.6733209    97.215128  0.090014007     0.104563            3 
   91000    1.2322034   -2.6721911    98.643882  0.090333225   0.10455725            1 
   92000    1.2436951   -2.6408284    99.928112  0.090514594   0.10455181            1 
   93000    1.2095022   -2.6981667    100.71333  0.090244916   0.10453342            2 
   94000    1.2130631   -2.6805158    102.10608  0.090519577   0.10450783            2 
   95000    1.2126502   -2.6717711    103.55957  0.090841726   0.10447543            3 
   96000    1.2238109   -2.6834027    104.55451  0.090759125    0.1044522            1 
   97000      1.22661   -2.6703499    105.69828  0.090806079   0.10440606            3 
   98000    1.2070826   -2.6698085      106.898  0.090899656   0.10434912            1 
   99000    1.2179894   -2.6694757    107.56549  0.090543339   0.10428601            2 
  100000    1.2370054   -2.6606602    109.41264  0.091177197   0.10423339            3 
  101000    1.2118545    -2.654834    110.32872  0.091030293   0.10418769            1 
  102000    1.2125706    -2.655069    111.73892   0.09128997   0.10414871            1 
  103000    1.2253194   -2.6776127    112.45144  0.090980128   0.10409646            1 
  104000    1.2197907   -2.6507324    114.31034  0.091594826   0.10404088            1 
  105000    1.1967185   -2.6883384    114.37863   0.09077669   0.10398021            1 
  106000    1.2071941   -2.6748126    115.54585   0.09083793   0.10391112            1 
  107000    1.2211467   -2.6505433    117.06688  0.091173579   0.10385016            2 
  108000    1.1897834   -2.7129176    117.88546  0.090961005   0.10377262            1 
  109000    1.2151765   -2.6739092    118.81032   0.09083358   0.10368057            1 
  110000    1.2028614   -2.6674047    120.71442  0.091450316   0.10360744            1 
  111000    1.2210469   -2.6798944    121.93528  0.091543005   0.10353014            2 
  112000    1.2153735    -2.677233    122.38842   0.09106281   0.10344933            1 
  113000    1.2058067   -2.6935848    124.33054   0.09168919   0.10336784            1 
  114000    1.1857334   -2.7236806    125.15762   0.09148949   0.10328936            1 
  115000    1.2472894    -2.661532    126.24254  0.091480101   0.10321099            1 
  116000    1.1977978   -2.6964757    126.24696  0.090694651   0.10311555            1 
  117000    1.2275541   -2.6995329    127.98703  0.091158855   0.10301468            1 
  118000    1.2013563   -2.6823969    129.25819  0.091284032   0.10291254            1 
  119000    1.2131512   -2.6838796    130.23816  0.091203193   0.10282007            2 
  120000    1.2251269   -2.6459337    131.84439  0.091558602   0.10273763            1 
  121000    1.2117068   -2.6945353    132.15911  0.091018672   0.10264293            1 
  122000     1.190358   -2.6860445      133.223   0.09099932   0.10254749            3 
  123000    1.2221645   -2.6748092    134.36319  0.091031969   0.10243455            2 
  124000    1.2165871   -2.6843985    135.65791  0.091167947   0.10232398            3 
  125000    1.1835545   -2.6825167    136.29249  0.090861657   0.10220876            2 
  126000    1.2263404   -2.6994235    137.19191  0.090735391   0.10209607            1 
  127000    1.2304673   -2.6982488    138.04659   0.09058175   0.10197792            2 
  128000    1.1937056   -2.6853459    139.45944  0.090793907   0.10186507            1 
  129000    1.2119449   -2.6928117    140.00725  0.090443958   0.10174385            4 
  130000    1.1769842   -2.6861603    140.67385  0.090175544   0.10161959            2 
  131000    1.2187377   -2.7025482    142.39621  0.090582831   0.10149096            1 
  132000     1.215438   -2.6721318    144.20965  0.091041443   0.10136413            1 
  133000    1.2387764   -2.7293098    145.08862  0.090907657    0.1012495            2 
  134000    1.2041252   -2.6791323    146.43692  0.091067734   0.10113735            2 
  135000    1.2209631   -2.6420162    148.03392  0.091378964   0.10103463            1 
  136000    1.1786885   -2.6751811    148.51935  0.091004503   0.10093889            3 
  137000    1.1571628   -2.6981632    149.78721  0.091111439   0.10083292            1 
  138000    1.1657373   -2.6914305     150.2872  0.090753137   0.10072742            3 
  139000    1.2003579    -2.672686    151.18938  0.090641114   0.10062868            1 
  140000    1.2229009   -2.6699292    152.34916  0.090684021   0.10053498            1 
  141000     1.215826   -2.6808819    154.25614   0.09116793   0.10044308            1 
  142000    1.2237413   -2.6860729    155.76059  0.091408796   0.10035359            1 
  143000    1.2163443   -2.6737404    156.29862  0.091083113   0.10026409            3 
  144000    1.1970758   -2.6887036    157.62237  0.091216648   0.10018291            1 
  145000    1.1893092   -2.6907449    158.93544  0.091342205   0.10010606            2 
  146000    1.1920404   -2.6638567     160.3993  0.091552113   0.10002165            1 
  147000    1.1853508   -2.6769494    160.95666  0.091245271  0.099941488            2 
  148000    1.1774022   -2.6835924    161.43001  0.090895274  0.099868829            2 
  149000    1.1897288   -2.6812551    163.42752  0.091402415  0.099796928            1 
  150000    1.1980028   -2.6968756    164.83693  0.091576074  0.099730735            2 
  151000    1.2008739   -2.6681957    165.99541  0.091608948  0.099667125            1 
  152000    1.2229095   -2.6746822     167.5547  0.091861128  0.099612519            1 
  153000    1.1692093   -2.6855344     168.2389  0.091633387  0.099557837            1 
  154000    1.2117989   -2.6631424    168.74994    0.0913149  0.099503499            2 
  155000    1.1805466   -2.6648268    170.67717  0.091761921  0.099444232            3 
  156000    1.1714668    -2.698517    171.38564  0.091552157  0.099382497            1 
  157000    1.2003763   -2.6812006    172.46787  0.091543453  0.099322222            2 
  158000     1.187725   -2.6909939    174.24644   0.09190213  0.099256968            1 
  159000    1.2213784    -2.721866     174.9145  0.091674267  0.099201779            2 
  160000    1.1861732   -2.6781094    177.12089  0.092250465   0.09915243            1 
  161000    1.1897811   -2.6622185    177.43429  0.091839692   0.09911483            4 
  162000    1.2087673   -2.6917115    179.39791  0.092282874  0.099072089            1 
  163000    1.1646865   -2.6920426    180.18677  0.092120027  0.099032974            3 
  164000     1.233154   -2.6864303    180.07446  0.091501249  0.098981146            1 
  165000    1.1924488    -2.693022    180.98764  0.091407901  0.098924727            1 
  166000    1.1718999   -2.6962277    182.84358  0.091788945  0.098878355            2 
  167000    1.1942576   -2.6842714    184.35002  0.091991026  0.098823068            1 
  168000      1.20198    -2.704885    184.85353  0.091693217  0.098767739            3 
  169000    1.1778596   -2.7085293     185.5087   0.09147372  0.098715293            1 
  170000    1.1647277   -2.6997238    187.61052  0.091965941  0.098663217            1 
  171000    1.1895329    -2.686895    188.65281  0.091936069  0.098620879            2 
  172000    1.1793318   -2.6960212     188.8821  0.091512644  0.098580534            2 
  173000    1.1820714   -2.6823166    191.35371  0.092174233  0.098541234            2 
  174000    1.1866008   -2.7449102    192.00028  0.091954157  0.098498186            2 
  175000    1.1655556   -2.6755322    193.15296  0.091977601  0.098457819            1 
  176000    1.1799629   -2.6791585    195.33754  0.092489367  0.098420943            2 
  177000    1.1727696    -2.722535    195.58744  0.092084483  0.098382625            1 
  178000     1.174611   -2.7163354    196.57366  0.092028867  0.098351542            1 
  179000    1.2276603    -2.687054    198.46069  0.092393242   0.09832983            2 
  180000    1.1920912   -2.7038345    200.62066  0.092879934  0.098312533            2 
  181000    1.2130135    -2.688148    202.09092    0.0930437  0.098292191            1 
  182000    1.1914934   -2.7153979    201.45847  0.092242891  0.098273878            2 
  183000    1.1890849   -2.6832698    203.69055  0.092755258  0.098252346            1 
  184000    1.1880342   -2.7107489    204.98928  0.092839348  0.098235736            1 
  185000    1.1697992    -2.730958    205.26848  0.092463281  0.098219076            4 
  186000    1.1936373   -2.7297111    205.83332  0.092219231  0.098193833            3 
  187000    1.1885646   -2.7024529    207.08353  0.092283212  0.098167552            2 
  188000     1.206604    -2.701744    208.14295  0.092261944  0.098142778            1 
  189000    1.1576348   -2.6787265    210.18326  0.092673397   0.09812095            3 
  190000    1.1907338    -2.718644    211.47913  0.092754003  0.098102318            1 
  191000    1.1888446   -2.7084733    212.35198  0.092649207  0.098076427            1 
  192000    1.1848667    -2.721063    214.58995  0.093137998  0.098060054            4 
  193000    1.1784709   -2.7018302    215.07238  0.092863722  0.098039486            3 
  194000    1.1727565    -2.691477    215.98217  0.092775848  0.098019502            1 
  195000    1.1766591   -2.7118384    216.43231  0.092492438    0.0980018            1 
  196000     1.171363   -2.7194261    216.71107  0.092139062  0.097974705            1 
  197000    1.1886455   -2.7192647    218.38943  0.092381316  0.097943495            2 
  198000    1.1754384   -2.6982629    218.78997  0.092083322  0.097907164            2 
  199000    1.1778453   -2.6901673    219.54551  0.091936979   0.09786191            2 
  200000    1.1664316   -2.7380958    220.17613  0.091740054   0.09782203            1 
  201000    1.1561886   -2.7169364    222.28111  0.092156348  0.097777969            4 
  202000    1.1851975   -2.7045498    224.17354  0.092480834  0.097735633            4 
  203000    1.1810732   -2.7419754    224.09648  0.091993628  0.097693339            2 
  204000    1.2093412   -2.7081591    225.39884  0.092074688  0.097652852            2 
  205000     1.171128   -2.6961658    226.73673  0.092169401   0.09761927            1 
  206000    1.1397685   -2.7261094    227.78722  0.092146935   0.09758655            3 
  207000     1.157451   -2.7187384    229.29127  0.092307275  0.097552871            1 
  208000    1.1843699   -2.6910672    230.46061  0.092331976  0.097522385            2 
  209000    1.1608318   -2.7369764    232.34398  0.092641141  0.097502965            4 
  210000    1.1780756   -2.6878989    234.71538  0.093141025  0.097490777            1 
  211000    1.1865881   -2.7162008    235.70529  0.093090556  0.097490312            1 
  212000    1.1574687   -2.6994771    237.89191  0.093510971  0.097490271            2 
  213000    1.1657722   -2.7030427     239.1436  0.093561659  0.097488502            1 
  214000    1.1791086   -2.6973518    239.08066  0.093099944  0.097491617            2 
  215000    1.1702798   -2.7113512    242.32713  0.093925244  0.097495418            2 
  216000    1.1692667   -2.7099811    242.40908  0.093522023  0.097497027            1 
  217000    1.1598313   -2.7134206    243.39244  0.093468679  0.097497295            1 
  218000    1.1620457   -2.7113394    244.22361   0.09335765  0.097491647            1 
  219000    1.1597096    -2.711949    244.67371   0.09310263  0.097483267            2 
  220000    1.1767532   -2.7173703    245.49373   0.09299005  0.097468452            2 
  221000    1.1497194   -2.7191615    246.13258  0.092810174  0.097453354            1 
  222000    1.1610585   -2.7269097    247.15505  0.092775918  0.097430582            2 
  223000    1.1776074    -2.751112    248.48027  0.092855108  0.097405466            1 
  224000    1.1515249    -2.739784    249.18099  0.092701261  0.097376046            2 
  225000    1.1703594   -2.7236044    248.85098  0.092167028  0.097347798            1 
  226000    1.1454512   -2.7019263    249.98952  0.092179027  0.097321265            3 
  227000    1.1367797   -2.7026489    251.04909  0.092161926  0.097281959            2 
  228000    1.1552729   -2.7231225    250.76305  0.091653162  0.097237536            3 
  229000    1.1564096    -2.698885    251.67746  0.091585684   0.09719273            2 
  230000    1.1522853   -2.7397792    253.93425  0.092005164  0.097149683            2 
  231000    1.1661894   -2.7246512    254.26932  0.091727747  0.097100347            1 
  232000    1.1874993   -2.7112961    255.65646  0.091830625  0.097052051            2 
  233000    1.1334952   -2.7290106    256.56472  0.091761345  0.097008225            3 
  234000    1.1664944   -2.7437891    257.81525  0.091814548  0.096961649            1 
  235000    1.1606847   -2.7314142    259.49316   0.09201885  0.096916975            2 
  236000    1.1479736   -2.7512693    260.48464  0.091979038  0.096873929            3 
  237000    1.1811709   -2.7605653    260.34538  0.091541977   0.09683272            2 
  238000    1.1632359   -2.6948848    263.73804  0.092345252   0.09679075            2 
  239000    1.1609335   -2.7520924    264.26428  0.092142357  0.096750374            3 
  240000      1.17516   -2.7449556    264.10162  0.091701951  0.096709529            1 
  241000    1.1355808   -2.7390346    265.84331  0.091923689  0.096671085            1 
  242000     1.143446   -2.7469425    266.18669  0.091662082  0.096633739            1 
  243000    1.1600909    -2.725915    268.34022  0.092023394  0.096597696            1 
  244000    1.1716207    -2.728967    268.60285  0.091735947   0.09656667            1 
  245000    1.1355591    -2.714003    269.87701    0.0917949  0.096529151            1 
  246000    1.1445564   -2.7421964    270.76224  0.091721625  0.096490453            2 
  247000    1.1341529   -2.7467009    272.69966  0.092003933   0.09645899            1 
  248000    1.1824748   -2.7383638    274.18407  0.092131744  0.096425647            2 
  249000    1.1499132   -2.7412868    276.17668  0.092428606  0.096398847            2 
  250000    1.1536844   -2.7234061    278.03299  0.092677662  0.096377191            2 
  251000    1.1440738   -2.7366445    277.69675  0.092196795  0.096348937            1 
  252000    1.1509961   -2.7329264    280.02635  0.092601307  0.096325046            5 
  253000    1.1836948   -2.7241874    279.87216  0.092184504  0.096298196            3 
  254000    1.1569159    -2.743059    281.23456  0.092268556   0.09627701            1 
  255000    1.1666059    -2.739028    282.16943  0.092212233  0.096251664            1 
  256000    1.1260559   -2.7244291    283.79692   0.09238181  0.096223049            1 
  257000     1.147199   -2.7592915    284.19144  0.092150272  0.096194322            2 
  258000    1.1328521   -2.7381162    285.42827  0.092192594  0.096167709            3 
  259000    1.1542877   -2.7451792    285.84532  0.091970824  0.096143947            3 
  260000    1.1499007   -2.7356318    288.85304  0.092581101   0.09611934            2 
  261000    1.1660432   -2.7297035    289.49086  0.092430031  0.096099836            2 
  262000    1.1563978   -2.7590743    290.29589  0.092333298  0.096085058            3 
  263000    1.1365855   -2.7276531     292.6932  0.092741826  0.096067645            2 
  264000    1.1139164   -2.7318024    294.54676  0.092975618  0.096054098            1 
  265000     1.169001   -2.7357079    294.67782  0.092665979  0.096035256            1 
  266000    1.1555695   -2.7158662    295.94854  0.092715709  0.096019668            2 
  267000    1.1775724   -2.7135453    297.37324  0.092813121  0.096005921            2 
  268000    1.1518706   -2.7353052    298.10967  0.092695791  0.095987042            2 
  269000     1.133433      -2.7752    297.22779  0.092078002   0.09596496            1 
  270000    1.1301632   -2.7198267    297.71273  0.091886644  0.095939788            1 
  271000    1.1566135   -2.7615042    298.97586  0.091935995  0.095910952            7 
  272000    1.1389237   -2.7275558    300.92008  0.092193653  0.095879317            1 
  273000    1.1321049   -2.7565172    300.72429  0.091796182  0.095855201            3 
  274000    1.1307183   -2.7349626    301.40695  0.091668779  0.095825259            3 
  275000    1.1519086   -2.7763802    300.49415  0.091058834  0.095788465            1 
  276000    1.1617156   -2.7533262    303.67235  0.091688512   0.09575086            3 
  277000    1.1200682   -2.7484385    303.80001  0.091395911  0.095712568            1 
  278000    1.1520254   -2.7149122    306.24765  0.091800853  0.095675565            2 
  279000    1.1586676   -2.7239284    307.27426  0.091778452  0.095644202            1 
  280000    1.1428908   -2.7406903     307.8131  0.091611041  0.095612346            1 
  281000    1.1488848   -2.7687071    309.70307  0.091845512  0.095582304            1 
  282000    1.1534147   -2.7197909    310.53902  0.091766851  0.095550562            3 
  283000    1.1331009   -2.7324062    311.00695  0.091580375  0.095521555            2 
  284000    1.1281543   -2.7308712    312.92454  0.091820582  0.095487083            2 
  285000    1.1437056   -2.7332854    313.55566  0.091682942  0.095454704            1 
  286000    1.1285751   -2.7313919     314.5678  0.091657283  0.095418668            1 
  287000    1.1409223   -2.7440935    314.96217  0.091452429  0.095382416            3 
  288000    1.1672747   -2.7631464    314.51527  0.091005574   0.09534166            3 
  289000    1.1565625   -2.7343568     316.3016  0.091205767   0.09530448            6 
  290000    1.1332836   -2.7418542    318.61677  0.091556544  0.095266263            1 
  291000      1.14424   -2.7334034    316.56771  0.090655128  0.095229283            1 
  292000    1.1454107   -2.7457141    320.33168  0.091418857  0.095192166            5 
  293000     1.132638   -2.7775397    322.31394  0.091670633  0.095158337            2 
  294000    1.1209128   -2.7294488    321.87663  0.091234873  0.095124158            3 
  295000    1.1288126   -2.7418518    323.19508  0.091298044   0.09508805            2 
  296000    1.1672111   -2.7787448    325.03236  0.091506857  0.095059285            1 
  297000    1.1276136   -2.7600872    325.88134  0.091436965  0.095027157            1 
  298000    1.1315716   -2.7436815    326.17227  0.091211484  0.094998932            2 
  299000    1.1662565   -2.7508768    328.46529  0.091545509  0.094969361            2 
  300000    1.1190284   -2.7598588    329.23394  0.091453871  0.094940137            1 
  301000    1.1170986    -2.739017    329.12418  0.091119651  0.094907883            6 
  302000     1.139628    -2.764359    331.00784  0.091337704  0.094876387            1 
  303000    1.1308399   -2.7575666    331.68066  0.091221304  0.094847291            2 
  304000    1.1364418   -2.7611166    331.28436  0.090812597  0.094817448            1 
  305000    1.1339685   -2.7580268    334.55174  0.091407578  0.094788831            3 
  306000    1.1322558   -2.7470042    336.26047  0.091574201  0.094760252            2 
  307000    1.1234838   -2.7562646    336.07646  0.091225967  0.094731096            1 
  308000    1.1342829   -2.7577631    337.47452  0.091308041   0.09470391            4 
  309000    1.1389983   -2.7806302    339.25377  0.091492385   0.09467647            1 
  310000    1.1398513   -2.7626417    338.73015  0.091056493  0.094646135            1 
  311000    1.1312902    -2.772473    339.54522  0.090982105  0.094614594            5 
  312000    1.1418563   -2.7588942    340.27421  0.090885206  0.094582203            1 
  313000    1.1546185   -2.7521927    342.05473  0.091068884  0.094551709            1 
  314000     1.135964   -2.7576105    344.25354  0.091362406  0.094524236            1 
  315000    1.1446388   -2.7559576    345.94143  0.091518898  0.094496789            1 
  316000    1.1324762   -2.7854275    346.75392  0.091443545  0.094469185            1 
  317000    1.1512885   -2.7841351    346.96124   0.09120958   0.09444188            3 
  318000    1.1252628   -2.7788606    347.52099  0.091069441  0.094415118            2 
  319000    1.1476386   -2.7747999    349.13151   0.09120468  0.094387585            2 
  320000    1.1252368   -2.7474973     352.2987  0.091744452  0.094361123            2 
  321000    1.1342704   -2.7588247    352.54137  0.091521644  0.094334843            5 
  322000    1.1578851   -2.7836547    348.91563  0.090299076  0.094304429            2 
  323000    1.1306566   -2.7459607    353.37773  0.091170725  0.094272939            2 
  324000      1.12246   -2.7290982     355.2552  0.091372222  0.094246269            1 
  325000    1.1253229   -2.7729234    355.46735  0.091145473  0.094221419            1 
  326000    1.1314485   -2.7742956     356.3484  0.091091105  0.094194049            2 
  327000     1.116513   -2.7668709    357.16979  0.091021864  0.094164112            2 
  328000    1.1122398   -2.7352899    358.42923  0.091064338  0.094137557            1 
  329000    1.1264044   -2.7728796     361.2936  0.091513069  0.094112776            1 
  330000    1.1407602   -2.7883141    360.55441  0.091049094  0.094088017            3 
  331000    1.1151356   -2.7547787    362.18635  0.091184881  0.094061808            2 
  332000    1.1229816   -2.7901278    361.20515  0.090663942  0.094039612            3 
  333000    1.1354579   -2.7494616    363.40015  0.090940979  0.094012683            1 
  334000     1.108606   -2.7698879    364.17876  0.090862965  0.093983804            1 
  335000    1.1049827   -2.7802439    364.61063  0.090699162  0.093955597            1 
  336000    1.1096063   -2.7913787    366.89158  0.090994935  0.093924968            1 
  337000    1.1505031   -2.7533562    366.44038  0.090613349  0.093894122            2 
  338000    1.1198779   -2.7969361    367.02535  0.090489485  0.093863037            1 
  339000    1.1066688   -2.7710184    367.91123  0.090440321  0.093830755            2 
  340000    1.0979768   -2.7899817    369.43101  0.090546816  0.093797231            2 
  341000    1.1537167   -2.7994681    369.51899  0.090302783  0.093761754            2 
  342000    1.1148284   -2.7733718    372.94081  0.090872518  0.093729292            1 
  343000    1.1177301   -2.7955225    373.20194  0.090671025  0.093697779            1 
  344000    1.1047712   -2.7848634    373.88208   0.09057221  0.093668064            2 
  345000    1.1349019   -2.7724886    375.09994  0.090603851  0.093640412            1 
  346000    1.1231422   -2.7846426    374.94138  0.090303801  0.093611344            1 
  347000    1.1046597   -2.7795607    375.39033  0.090151376  0.093577385            3 
  348000    1.0996951   -2.7801636    375.83218  0.089998127  0.093540844            2 
  349000    1.1404901   -2.7786765    376.86686  0.089987312  0.093503985            3 
  350000     1.124682   -2.7881044    377.92478   0.08998209  0.093463567            4 
  351000    1.1029706   -2.7745366    379.67698  0.090141734  0.093421476            2 
  352000    1.0936947   -2.7445229    379.09072  0.089746857  0.093380063            1 
  353000    1.1386591   -2.7922619    379.02099  0.089476154  0.093336879            1 
  354000    1.1159648   -2.7973993    380.18386  0.089497142  0.093293432            3 
  355000    1.1107454   -2.7852524    383.47196  0.090016891  0.093251857            2 
  356000    1.1213407   -2.7651618    382.18474  0.089462719  0.093212594            1 
  357000    1.1144173   -2.7581597    386.73643   0.09027461  0.093175675            2 
  358000    1.1177106   -2.7902837    386.48076  0.089962933  0.093135779            1 
  359000    1.1029924   -2.8082458    388.27336   0.09012845  0.093098582            2 
  360000    1.0877426   -2.7991871    388.28022   0.08987968   0.09306041            2 
  361000    1.0987518   -2.8032478    387.95847  0.089556433  0.093024797            1 
  362000    1.1112999   -2.7809559    388.56941   0.08944968  0.092984793            3 
  363000    1.0755846   -2.7617272    391.30741   0.08983182  0.092949125            1 
  364000    1.0999032   -2.8079319    389.16427  0.089094384  0.092908326            1 
  365000    1.1103709   -2.7726176    391.62163  0.089411331  0.092868376            1 
  366000    1.1163162   -2.7925196     394.7234  0.089873269  0.092829976            3 
  367000    1.1205068   -2.8007182    392.54027  0.089132668  0.092790279            3 
  368000    1.1207661   -2.8037422    395.26563  0.089507616  0.092754085            3 
  369000    1.0899711   -2.8152895    396.07534  0.089447909   0.09271743            4 
  370000    1.1260277    -2.779132    396.53397  0.089309454  0.092681732            1 
  371000    1.1141943   -2.8253989     397.5165  0.089289421  0.092643257            3 
  372000    1.1068373   -2.7779399    399.53674  0.089501958  0.092605847            3 
  373000    1.1062579   -2.7869845    400.76064  0.089535443  0.092567349            2 
  374000    1.1211108   -2.8002125    402.36791  0.089654169   0.09252705            3 
  375000    1.0973544   -2.7967591    403.23154   0.08960701  0.092490279            1 
  376000    1.0947621   -2.7841777    402.52492  0.089212084  0.092452705            1 
  377000    1.0722846   -2.7894958    403.27601   0.08914147  0.092414282            2 
  378000    1.1035271    -2.786409    404.17909  0.089104738  0.092376096            2 
  379000    1.0889593   -2.8067237     405.9962  0.089269174  0.092334369            1 
  380000    1.1080509   -2.7918855    405.68556  0.088966131  0.092292586            2 
  381000    1.0995197   -2.8033149    405.65894  0.088726802  0.092251748            3 
  382000    1.0867379   -2.8121699    408.82886  0.089186052  0.092209064            3 
  383000    1.0973682   -2.7853106    409.05033  0.089001377  0.092165469            4 
  384000    1.0975162   -2.8150675    407.84854  0.088508798  0.092122219            3 
  385000    1.1154796   -2.7803587     411.3598  0.089038918  0.092082659            2 
  386000    1.1102774   -2.8093225    410.38333  0.088597437  0.092041932            2 
  387000    1.0937145   -2.7894515    413.55006  0.089050401  0.091999192            1 
  388000    1.1036123   -2.7677521    413.51615  0.088813607  0.091954026            1 
  389000    1.0936595    -2.817023    414.58697  0.088814688  0.091912243            1 
  390000    1.1081206   -2.8052593    413.28421  0.088308592  0.091866694            4 
  391000    1.1047682   -2.8138406    414.86363  0.088419358  0.091822454            2 
  392000    1.0721061   -2.8185188    416.19298  0.088476398  0.091778342            1 
  393000    1.0788483   -2.7886937    416.77169  0.088373979  0.091737653            2 
  394000    1.0892625     -2.82066    418.75553  0.088569274  0.091695691            2 
  395000    1.1092365   -2.8002741    419.74644  0.088554101  0.091655574            1 
  396000    1.1082943   -2.7658414    421.31199  0.088659931  0.091616859            2 
  397000    1.0749067   -2.8015179    420.61124  0.088289513  0.091577756            1 
  398000    1.1107828   -2.7788802    423.77011  0.088729085  0.091536608            2 
  399000    1.1028969   -2.8106994    421.26648   0.08798381  0.091495185            3 
  400000    1.1427981   -2.7964206     424.6219  0.088462896   0.09145248            1 
  401000    1.0878853    -2.785654    423.51811  0.088012907  0.091409651            1 
  402000    1.0953427   -2.7818217    425.87077  0.088281669   0.09136576            3 
  403000    1.0876945   -2.8252028    425.26185  0.087936693  0.091321806            4 
  404000    1.0954161   -2.8029419    427.31822  0.088143197  0.091276489            3 
  405000     1.097121   -2.8267256      427.247  0.087910906  0.091231754            4 
  406000    1.0821476   -2.8334971    429.59046  0.088175382  0.091188584            8 
  407000    1.0895316    -2.819681    429.89072  0.088020213  0.091146333            2 
  408000    1.0870113   -2.7963031    431.80229  0.088194912  0.091103025            2 
  409000    1.0630135   -2.7941547    432.93951  0.088210984  0.091060553            3 
  410000    1.0972789   -2.8103355     433.4515  0.088099898  0.091018811            2 
  411000    1.0903017   -2.8158817    435.64051  0.088329381  0.090977734            1 
  412000    1.0823228   -2.8013456    436.39076   0.08826674  0.090937241            2 
  413000    1.0961681   -2.8108111    434.51987  0.087675518  0.090896871            2 
  414000    1.0795195   -2.8353491    437.29134  0.088021605  0.090856018            2 
  415000    1.1036861   -2.8082375    436.99476  0.087749952  0.090814924            1 
  416000    1.0911981   -2.8122241    439.08185  0.087957102  0.090774087            1 
  417000    1.0885577   -2.7688947    439.62553  0.087854823  0.090731931            2 
  418000    1.0919517   -2.8135257     438.9492  0.087509809  0.090689024            2 
  419000    1.1281847   -2.8390512    441.30164  0.087768822   0.09064742            1 
  420000    1.0979904   -2.8194891    439.75157  0.087252296  0.090602945            2 
  421000    1.0613391   -2.8068482    442.16904  0.087523563  0.090559338            1 
  422000    1.1104539   -2.7891378    444.99375  0.087873964  0.090515413            1 
  423000    1.0831164   -2.8339176    443.23627  0.087319991  0.090469184            1 
  424000    1.0767659   -2.8382504    446.12976  0.087682737  0.090425371            1 
  425000    1.0804736   -2.8124358    447.27099  0.087700195  0.090380958            1 
  426000    1.0810659   -2.8118295    445.13016  0.087075539  0.090334333            2 
  427000    1.1028775    -2.838495    446.69558  0.087177123  0.090287616            4 
  428000    1.0913347   -2.8182981    447.58579  0.087146766  0.090241507            3 
  429000    1.0774463   -2.7983624    449.48193  0.087311952  0.090194248            1 
  430000    1.1142683   -2.8239203    450.43478  0.087293562  0.090148227            1 
  431000    1.1157069   -2.8322103    449.30825  0.086873212   0.09010149            2 
  432000    1.0946977    -2.809211    450.77136  0.086954353  0.090054165            3 
  433000    1.0988268   -2.8022936     452.0719   0.08700383  0.090008355            2 
  434000    1.0913204   -2.8204278    452.32243  0.086851465  0.089960557            3 
  435000    1.0721727   -2.8076097    452.72222  0.086728395  0.089913585            6 
  436000    1.0917245    -2.808096    452.48432  0.086484005  0.089865604            1 
  437000    1.0561958   -2.7855188     454.3927  0.086650018  0.089816262            1 
  438000    1.0744291   -2.8239713     454.0076   0.08637892  0.089768086            2 
  439000    1.0975223   -2.8233129    454.70458  0.086314461  0.089718143            1 
  440000    1.0778829   -2.8012535    456.81611  0.086518203  0.089669688            2 
  441000    1.0926948    -2.797475    457.62128  0.086474165  0.089620789            2 
  442000     1.097039   -2.8117131    458.31944  0.086410151  0.089572682            2 
  443000    1.0772962   -2.8130134     460.5499  0.086634669  0.089525426            1 
  444000    1.0754544   -2.8560975    459.42814  0.086229004  0.089477059            3 
  445000    1.0725924   -2.8444985    460.93722  0.086317831  0.089429743            2 
  446000    1.0846211   -2.8507979    459.58335  0.085871327  0.089381953            1 
  447000    1.0648304   -2.8498691    462.08623   0.08614583  0.089334121            4 
  448000    1.0695602   -2.8420781    461.31902  0.085810829  0.089285244            1 
  449000    1.0747657   -2.8289146    463.09637  0.085949586  0.089235099            1 
  450000     1.064445    -2.801625    466.29999   0.08635185  0.089185815            4 
  451000    1.0795604   -2.8108644    465.87399  0.086081668  0.089136413            7 
  452000    1.0834486   -2.8320868    465.83698  0.085884399  0.089084293            3 
  453000    1.1094999   -2.8066579    466.51374  0.085819304  0.089033875            1 
  454000    1.0984845   -2.8231957    466.65211  0.085655674  0.088982999            2 
  455000    1.0682977   -2.8018899    468.40374  0.085788232  0.088930152            2 
  456000    1.0589905   -2.8375494    466.32088  0.085219459  0.088877821            3 
  457000    1.0532064   -2.8304098    468.04269  0.085346953  0.088822394            3 
  458000    1.0834531   -2.7893005    469.18087  0.085367698   0.08876811            3 
  459000    1.1123324   -2.8233874    469.78994  0.085292292  0.088714387            2 
  460000    1.0231731   -2.8293821    469.39333  0.085035023  0.088659153            2 
  461000    1.0588957   -2.8596788    470.58331  0.085065674   0.08860354            1 
  462000    1.0678004   -2.8522247     471.6987  0.085082737  0.088547098            1 
  463000    1.0859844   -2.8613078     471.7503  0.084908261  0.088491469            3 
  464000     1.065374   -2.8337139    471.54123   0.08468772  0.088435363            2 
  465000    1.0709196   -2.8522144    472.67473  0.084708732  0.088377962            2 
  466000    1.0678077    -2.813872    471.71519  0.084355363  0.088318326            2 
  467000    1.0705411    -2.854466    475.47917  0.084846389  0.088261454            1 
  468000    1.0591701   -2.8537529    474.21204  0.084439466  0.088203149            2 
  469000     1.073334   -2.8628455    477.32892   0.08481324  0.088144318            2 
  470000    1.0772503   -2.8219235     476.6127  0.084505798  0.088086934            2 
  471000    1.0599718   -2.8549511     478.2487  0.084615835   0.08803055            2 
  472000    1.0787467   -2.8404541    476.58348  0.084142564    0.0879767            3 
  473000    1.0849675    -2.874255    478.25634  0.084259397  0.087921348            2 
  474000    1.0422485   -2.8532039    482.57401   0.08484072  0.087866903            1 
  475000    1.0819146   -2.8293084    481.20647  0.084422187  0.087813339            2 
  476000    1.0453128   -2.8603746    483.31984  0.084614818  0.087758992            5 
  477000    1.0497518   -2.8241028    483.22672  0.084421159   0.08770462            2 
  478000    1.0680705   -2.8249776    482.70783  0.084154085   0.08765002            2 
  479000      1.08608   -2.8266955    484.00806  0.084204603  0.087597017            1 
  480000     1.069651   -2.8366426     486.3166  0.084429964  0.087545153            1 
  481000    1.0684336   -2.8571174    485.86539  0.084176262  0.087491307            3 
  482000    1.0738487   -2.8345312    488.08119  0.084384715  0.087438337            2 
  483000    1.0643102   -2.8343151     488.1761   0.08422638  0.087385325            2 
  484000     1.049107   -2.8269362    489.86537  0.084343211  0.087332863            5 
  485000     1.058862   -2.8273627    490.46815  0.084272877  0.087278276            2 
  486000    1.0715249   -2.8588319     489.1943  0.083881052   0.08722554            2 
  487000    1.0557297   -2.8282933    487.64792  0.083444203  0.087171428            1 
  488000    1.0639444   -2.8598175    490.04851  0.083683147  0.087118587            2 
  489000    1.0476922   -2.8547608    492.79569   0.08398018  0.087062412            2 
  490000    1.0599336   -2.8367946    491.45718  0.083581154  0.087008472            4 
  491000    1.0307256    -2.860664    491.89833  0.083485799  0.086953617            2 
  492000    1.0315261   -2.8634502    496.19539  0.084043934  0.086899169            4 
  493000    1.0584017   -2.8099487    496.95623  0.084002068  0.086846454            5 
  494000    1.0475629   -2.8315345    496.73205  0.083794206  0.086795525            2 
  495000    1.0618283   -2.8342703     497.2827  0.083717626  0.086742455            2 
  496000    1.0315052   -2.8474956    499.84871  0.083979957  0.086688032            1 
  497000    1.0762891   -2.8572636    498.10537  0.083518673  0.086635896            1 
  498000    1.0559254   -2.8525136    500.01518  0.083670546  0.086584919            2 
  499000    1.0653011   -2.8691161    502.83768  0.083974228   0.08653381            1 
  500000     1.061324   -2.8420955    500.13584  0.083355973  0.086481907            4 
  501000    1.0471365   -2.8549905     500.8983  0.083316417  0.086430372            1 
  502000    1.0516962   -2.8638244    504.55232  0.083757025  0.086380059            1 
  503000    1.0571676    -2.847786    504.04143   0.08350587  0.086330576            4 
  504000    1.0689402   -2.8493635    504.97776     0.083495   0.08628009            2 
  505000    1.0454526   -2.8480144    505.13675  0.083355899   0.08623014            2 
  506000     1.066779   -2.8633581    505.06924  0.083180047   0.08618123            4 
  507000    1.0300224   -2.8552264    508.54785  0.083587747  0.086132773            2 
  508000    1.0590031   -2.8784234    508.33661  0.083388552  0.086082836            2 
  509000    1.0813187   -2.8357517    509.28929  0.083380695  0.086033337            2 
  510000    1.0513229   -2.8723228    507.12255  0.082863162   0.08598277            2 
  511000    1.0328608   -2.8600248     508.9962  0.083006556  0.085931593            1 
  512000    1.0564385   -2.8373764     508.9478  0.082836556  0.085879459            2 
  513000    1.0493012   -2.8635086    511.97128  0.083166225  0.085828765            1 
  514000    1.0465417   -2.8532863    512.12385  0.083029158    0.0857785            2 
  515000    1.0471263   -2.8513716    515.37186  0.083393506  0.085729849            3 
  516000    1.0438706   -2.8486143    513.58689  0.082943619  0.085680586            2 
  517000    1.0490664   -2.8424441    516.09083  0.083186787  0.085631652            2 
  518000    1.0347509   -2.8456683    518.62244  0.083433468  0.085582807            1 
  519000    1.0565102    -2.836116    517.67375  0.083120384  0.085535094            2 
  520000    1.0452907   -2.8641423    518.59161   0.08310763  0.085488607            2 
  521000    1.0545753   -2.8612363    521.03585  0.083339068  0.085441751            2 
  522000    1.0691635   -2.8826853    520.13276  0.083035243  0.085396218            2 
  523000    1.0425658   -2.8927139    519.02926  0.082700646  0.085348825            2 
  524000    1.0594508   -2.8805824    520.63954  0.082798908  0.085302083            3 
  525000     1.022787   -2.8655931    521.50759  0.082778982  0.085257676            4 
  526000    1.0566239   -2.8816564    524.73846   0.08313347  0.085213216            2 
  527000     1.072477   -2.8556575    525.70068  0.083127875  0.085169508            3 
  528000    1.0513842   -2.8729912     523.6814  0.082651736  0.085124375            3 
  529000    1.0292518   -2.8597357    525.34181  0.082757059  0.085076845            2 
  530000    1.0570995   -2.8846745    526.24011  0.082742156  0.085031749            2 
  531000    1.0328312   -2.8797545    526.92031   0.08269308  0.084985667            2 
  532000     1.024342   -2.9067445    525.04271  0.082243533  0.084939772            1 
  533000    1.0272398   -2.8762301    526.91271  0.082381599   0.08489478            2 
  534000    1.0575549   -2.8586823    533.54875  0.083262913  0.084850372            3 
  535000    1.0339199   -2.8812282    530.36034  0.082610645  0.084806548            4 
  536000    1.0420656   -2.8698797     532.6702  0.082815641  0.084762643            2 
  537000     1.054983   -2.8950824    532.82691  0.082685741  0.084718002            2 
  538000    1.0544381   -2.8741956    533.96684  0.082708619   0.08467361            1 
  539000    1.0438939   -2.8493566    536.27995  0.082912794   0.08463139            1 
  540000    1.0494005   -2.8932931    534.07192  0.082418507   0.08458694            2 
  541000     1.014966   -2.8704899    534.05072  0.082262897  0.084542561            1 
  542000    1.0501882   -2.8614311    538.36663  0.082774697  0.084498513            2 
  543000     1.028024   -2.8674344    536.91355  0.082399255  0.084456194            3 
  544000    1.0069523   -2.8818478    537.79372  0.082382617  0.084413217            4 
  545000    1.0336156   -2.8681564    539.11786  0.082433923  0.084369388            3 
  546000    1.0488072   -2.8570655       538.27  0.082153541  0.084325223            1 
  547000    1.0344157   -2.8674312    542.07118  0.082582447  0.084282548            3 
  548000    1.0221224   -2.9031246    543.53127  0.082653781  0.084241563            2 
  549000    1.0466506   -2.8974238    542.69251  0.082375912  0.084199707            6 
  550000    1.0307563    -2.889398    543.58138  0.082360815  0.084157114            1 
  551000    1.0375853   -2.8713483    544.58272  0.082362782  0.084113965            5 
  552000    1.0382146   -2.8732261    544.60277  0.082216602  0.084071637            2 
  553000    1.0328695   -2.8721908    544.75356  0.082090651  0.084028254            2 
  554000    1.0268325   -2.8636414    545.08832  0.081992828  0.083985646            3 
  555000    1.0357613   -2.8786574    545.87697  0.081963509  0.083943226            4 
  556000    1.0289593   -2.8819828    547.42819   0.08204859  0.083899089            4 
  557000    1.0433154   -2.9040482    548.24009  0.082022755  0.083857379            1 
  558000    1.0179844   -2.9100377    549.51406  0.082066019  0.083815993            1 
  559000    1.0562994   -2.8729482    549.98196  0.081988963  0.083774768            1 
  560000    1.0278622   -2.8810002    551.47657  0.082064965  0.083733262            2 
  561000    1.0483213   -2.8645195    552.47146  0.082066468  0.083692506            3 
  562000    1.0381627   -2.8696829    552.44136  0.081915978  0.083650455            1 
  563000    1.0497918   -2.8682613    552.68146  0.081806018  0.083609153            2 
  564000    1.0228783   -2.9056924    552.44143  0.081625507  0.083567416            5 
  565000    1.0327572   -2.8703218    553.19893  0.081592762  0.083524418            3 
  566000    1.0176439    -2.858363    555.09393  0.081727611  0.083481639            3 
  567000     1.035359   -2.8711227    553.44415  0.081340997  0.083437332            1 
  568000    1.0239903   -2.8894026     554.3705  0.081333701  0.083392235            2 
  569000    1.0099563   -2.8973342    557.10753  0.081591613   0.08334731            2 
  570000    1.0411944   -2.8827823    557.16786  0.081457289  0.083303843            2 
  571000    1.0401809   -2.8830558    555.85939  0.081123671  0.083259165            1 
  572000      1.02761   -2.8668885    558.40414  0.081352585  0.083215447            5 
  573000    1.0310588   -2.9151271    560.06192  0.081451704  0.083171925            1 
  574000    1.0302192   -2.9190722    558.30727  0.081055063  0.083127811            6 
  575000    1.0605187   -2.8535984     559.5649  0.081096363  0.083083495            3 
  576000   0.99909928   -2.8858322    559.80597  0.080990447  0.083038802            2 
  577000     1.024031   -2.8693954    560.32539  0.080925099  0.082994344            2 
  578000     1.021074   -2.8863536    563.10655  0.081186066  0.082950197            4 
  579000    1.0162427   -2.9120881    562.29164   0.08092856  0.082906142            3 
  580000    1.0201002   -2.8713767    566.95155  0.081458556  0.082862259            3 
  581000    1.0345626   -2.8946558    565.68449  0.081136616  0.082818619            1 
  582000    1.0109158   -2.8590855    563.91769  0.080744228  0.082774149            3 
  583000     1.011577   -2.8928895      565.897  0.080888651  0.082730352            4 
  584000     1.017189   -2.9007515    563.69232  0.080435547  0.082686126            1 
  585000    1.0188605   -2.8624605     568.0878  0.080924188  0.082642896            2 
  586000    1.0483484   -2.8803132    568.05414  0.080781305  0.082598407            1 
  587000   0.98262173   -2.9019598    567.58797  0.080577508  0.082553111            3 
  588000    1.0310123   -2.8990335    567.99693  0.080498431  0.082507525            3 
  589000    1.0136312   -2.9110137    567.49031  0.080290083  0.082461677            3 
  590000    1.0026485   -2.9088222    568.49411  0.080295779  0.082415358            3 
  591000    1.0035013   -2.8807028    570.45063  0.080435791  0.082369558            1 
  592000     1.026598     -2.91997    570.58222  0.080318443   0.08232316            2 
  593000    1.0334319    -2.918653    570.28892  0.080141782  0.082276497            1 
  594000   0.99604351   -2.8860876    574.07711  0.080538315  0.082230636            2 
  595000    1.0402174   -2.9264346    571.40511  0.080028727  0.082184308            2 
  596000    1.0296439    -2.921133    572.74582   0.08008191  0.082137798            2 
  597000   0.99297136   -2.8917675    576.19637  0.080429421  0.082091386            3 
  598000    1.0405446   -2.9220835    573.09273   0.07986242  0.082045679            5 
  599000    1.0288585   -2.8910219    577.74764  0.080376689  0.081999684            2 
  600000    1.0184064   -2.8946499    574.23834  0.079755325  0.081953059            2 
  601000    1.0258768   -2.8683176    578.80547  0.080255888  0.081906918            3 
  602000    1.0206141   -2.9184704    575.46162  0.079659692  0.081860752            3 
  603000       1.0511   -2.8915502    578.78471  0.079986831  0.081814163            2 
  604000    1.0261688   -2.8971772    577.65942  0.079699148  0.081768729            1 
  605000    1.0054743   -2.9330726    577.09478  0.079489638  0.081723013            1 
  606000    1.0115225   -2.9037877     578.4801  0.079548969  0.081677439            2 
  607000    1.0010252   -2.9227746    582.20637  0.079929486  0.081633808            1 
  608000   0.99624642   -2.9155384    581.56633  0.079710298  0.081590266            2 
  609000     1.011395   -2.9000549    581.55316  0.079577608  0.081545977            2 
  610000    1.0053247   -2.8903004    583.80221    0.0797544  0.081501544            3 
  611000    1.0178566   -2.9109349    582.16201  0.079400165   0.08145815            3 
  612000    1.0156704     -2.90578    586.48382  0.079858907   0.08141482            3 
  613000   0.99767494   -2.9045217    589.38983  0.080123685  0.081373329            1 
  614000    1.0119384   -2.9288999    587.03483  0.079673566  0.081332637            2 
  615000   0.97713203    -2.855734    589.36795  0.079860156  0.081290298            1 
  616000    1.0032465   -2.9230027    588.97339  0.079677136  0.081247766            2 
  617000   0.99777594   -2.8941013    590.45897  0.079748645  0.081206895            3 
  618000    1.0175975    -2.917467    589.28792  0.079461694  0.081163709            4 
  619000    1.0149165   -2.9177112    592.48726  0.079764036  0.081121338            2 
  620000    1.0018961   -2.9121385    591.09241  0.079447904   0.08108045            2 
  621000     1.009629   -2.8979857    594.74809  0.079810533  0.081040076            2 
  622000    1.0071819   -2.9220046    595.40471  0.079770191  0.080998932            3 
  623000     1.012954   -2.8905402    597.49868  0.079922242  0.080958935            2 
  624000    1.0068743   -2.8926142     597.6118  0.079809269  0.080919895            3 
  625000   0.99046753    -2.939075    596.34956  0.079513274  0.080880823            1 
  626000   0.99829027   -2.9120989    596.99167  0.079471734  0.080840849            2 
  627000    1.0080725   -2.9184411    596.77286  0.079315903  0.080801276            1 
  628000   0.98912185   -2.9233209    599.79748  0.079590961  0.080761559            2 
  629000     1.001095   -2.8947763    599.36499  0.079407126  0.080722526            3 
  630000    1.0086676   -2.9075628    600.30103  0.079404897  0.080684684            1 
  631000    0.9971632   -2.9315667     600.9186  0.079360618  0.080645596            4 
  632000   0.99540553   -2.8964808    605.39054  0.079824701  0.080606538            3 
  633000     1.012464    -2.945263    601.29764  0.079159773  0.080567837            2 
  634000    1.0002647   -2.9173904    606.26374  0.079687662    0.0805291            3 
  635000    1.0171814   -2.9286616    607.65199  0.079744355  0.080491009            2 
  636000   0.98969456   -2.9162152    607.30352  0.079573312  0.080453091            2 
  637000    1.0019935   -2.9288982    606.10155   0.07929115  0.080415056            7 
  638000   0.98584736   -2.9191662    607.52063  0.079352224  0.080377076            2 
  639000   0.99260822   -2.9138189    606.77328  0.079130578  0.080338959            2 
  640000   0.97500266   -2.9016992    609.17163  0.079319223  0.080301762            2 
  641000     1.012298   -2.9307662    608.80254  0.079147496  0.080263774            2 
  642000   0.98678865    -2.905825    610.62461  0.079260723  0.080225082            2 
  643000   0.96327348   -2.9328213    611.87568  0.079299596  0.080187694            2 
  644000   0.98967251   -2.9455647     612.7489  0.079289454  0.080149693            3 
  645000   0.99336332   -2.8984781    611.15216  0.078960227   0.08011252            3 
  646000    1.0079831   -2.9263274    612.68104  0.079035222  0.080074659            3 
  647000     1.000005   -2.9135059      614.886  0.079197064  0.080037294            3 
  648000   0.98588474   -2.9297424    613.29153  0.078869796  0.080000136            4 
  649000   0.97433894   -2.9331822    613.83958  0.078818641  0.079960933            5 
  650000    1.0082891   -2.9254483    613.45658   0.07864828  0.079922278            3 
  651000    1.0090314   -2.9252001    612.86931  0.078452293  0.079883723            4 
  652000    1.0095275     -2.93462    616.33048  0.078774346   0.07984409            2 
  653000    1.0119261   -2.9401458    614.96321  0.078479225  0.079803938            3 
  654000   0.99880215   -2.9485337    617.56035  0.078690157   0.07976391            3 
  655000    1.0061456    -2.927431    618.73738  0.078719769  0.079724541            5 
  656000    1.0146155   -2.9178498    618.87335  0.078617041  0.079685128            2 
  657000   0.98054096   -2.9437542    618.24205  0.078417307  0.079646073            3 
  658000    1.0255482   -2.9294967      619.351  0.078438577  0.079606856            2 
  659000    0.9804564   -2.9291456    618.11025  0.078162651  0.079567413            3 
  660000   0.97718946   -2.9181691    621.44579  0.078465378   0.07952867            4 
  661000    1.0198134    -2.922653    620.14754  0.078182998  0.079490629            4 
  662000   0.99528173   -2.9508018    623.06572  0.078432241  0.079452119            3 
  663000   0.97461346   -2.9482996    620.46771  0.077987395  0.079412752            2 
  664000   0.99399854    -2.926632    622.86301  0.078170559  0.079373256            3 
  665000   0.99078459   -2.9179236    622.12932  0.077961067  0.079333077            2 
  666000   0.98477057   -2.9500727    624.33038  0.078119417  0.079293559            2 
  667000   0.99575312   -2.9139613    626.82428  0.078313878  0.079255057            1 
  668000   0.99204146   -2.9054937    627.62802  0.078296908  0.079216732            2 
  669000   0.99039068   -2.9680776    628.50983  0.078289715  0.079178527            1 
  670000   0.99135198   -2.9179653    627.58558  0.078057908  0.079138854            2 
  671000    0.9943065   -2.9066272     628.7762  0.078089443  0.079100531            2 
  672000   0.95558685   -2.9285055    625.65469  0.077586146  0.079061072            3 
  673000    1.0048896   -2.9101302    631.22259  0.078160301  0.079021505            2 
  674000   0.99022788   -2.9458431     630.3047  0.077930848  0.078982905            5 
  675000    1.0004438   -2.9460485    627.98967  0.077529589  0.078943387            2 
  676000   0.97625694   -2.9428166    632.99092  0.078031425  0.078905794            1 
  677000    1.0042521   -2.9494441    632.13159  0.077810388   0.07886713            1 
  678000   0.99198722   -2.9250855    635.14288  0.078065742    0.0788287            5 
  679000   0.99430923     -2.91787    634.82056  0.077911213   0.07879044            4 
  680000   0.98401717   -2.9640789    633.42053  0.077625065  0.078751844            2 
  681000   0.99816689   -2.9573901    636.97849  0.077946463  0.078713668            2 
  682000    0.9718138   -2.9558616     637.2916   0.07787043  0.078675601            2 
  683000   0.97005688   -2.9409683    635.55229  0.077544203  0.078637009            4 
  684000    1.0027015    -2.932841    637.08848  0.077617992  0.078598973            3 
  685000    1.0057503   -2.9481989    638.46329  0.077671933  0.078561234            3 
  686000   0.97692748   -2.9662326     636.7674  0.077352697  0.078524032            2 
  687000   0.96614238   -2.9284243    639.95411  0.077626651  0.078485844            2 
  688000   0.95265026   -2.9484565    638.76111  0.077369321  0.078448792            2 
  689000   0.97929307   -2.9428776    640.48793  0.077465884  0.078413282            4 
  690000   0.97712284   -2.9459711    643.94584  0.077771237  0.078377166            2 
  691000   0.97765236   -2.9423706    641.76283   0.07739542  0.078340586            2 
  692000    1.0003339   -2.9576779    642.84013  0.077413311  0.078305248            2 
  693000   0.95952863   -2.9594442    643.72678  0.077408223  0.078268901            1 
  694000   0.98803175   -2.9011214    647.68245  0.077771668  0.078232522            3 
  695000   0.99378254   -2.9595955     642.1673  0.076998477   0.07819628            2 
  696000   0.97939341   -2.9388293     646.7747    0.0774395  0.078158679            1 
  697000    0.9750886   -2.9673355    646.01114  0.077237104  0.078122044            3 
  698000    1.0067709   -2.9811404    645.10392  0.077018138  0.078084606            4 
  699000   0.98393879   -2.9473457    648.75381  0.077343086  0.078047894            3 
  700000   0.97022694   -2.9528445    649.44006  0.077314292  0.078011104            6 
  701000   0.97491727   -2.9523604     650.4669   0.07732607  0.077974073            1 
  702000   0.98156357   -2.9534426    647.97562  0.076920183  0.077936968            3 
  703000   0.97244468   -2.9486357    651.19733  0.077192666  0.077900025            2 
  704000   0.97185714   -2.9304682    648.16468  0.076724039  0.077863528            1 
  705000   0.96627433   -2.9606407    651.20565  0.076974664  0.077826343            2 
  706000   0.97624827   -2.9648467    651.02279   0.07684405  0.077788876            3 
  707000   0.96202812   -2.9424178     652.9401  0.076961351  0.077751432            3 
  708000   0.96831578   -2.9654964    652.81836  0.076838319  0.077713571            2 
  709000   0.96751899   -2.9606306    652.79709  0.076727444  0.077676259            2 
  710000   0.99752894   -2.9663312    652.05582  0.076532373  0.077638343            3 
  711000   0.97089431   -2.9428704    655.57702  0.076837438  0.077600763            3 
  712000    0.9764885   -2.9475889    657.06263  0.076903398   0.07756395            2 
  713000   0.96077378   -2.9729222    653.64828   0.07639648  0.077526419            6 
  714000   0.96511973    -2.934866    655.20805  0.076471527  0.077488822            3 
  715000   0.95110727   -2.9256537    659.29803  0.076841262  0.077451843            2 
  716000    0.9683572   -2.9581079    655.18698  0.076255468  0.077414229            3 
  717000     0.979518   -2.9799064    659.08248  0.076601869  0.077376552            2 
  718000   0.96906822    -2.944651    661.16202  0.076736539    0.0773387            1 
  719000   0.99082714   -2.9297724    661.56976   0.07667707  0.077300431            2 
  720000   0.95943534   -2.9493857    658.07828  0.076166468  0.077261805            2 
  721000   0.96619661   -2.9641833    659.96132   0.07627847   0.07722331            5 
  722000   0.97009249   -2.9605136    663.05893  0.076530347  0.077184866            3 
  723000   0.97269416   -2.9282419    662.07496  0.076311083  0.077147125            3 
  724000   0.95591894   -2.9667682    660.48493  0.076022667   0.07710945            4 
  725000   0.95578097   -2.9484264    664.26521  0.076352323  0.077072281            3 
  726000   0.97218449   -2.9601862     663.5503  0.076165094  0.077035489            2 
  727000   0.95329203    -2.946493    665.08981  0.076236797   0.07699813            3 
  728000   0.98024888   -2.9653954    664.63676  0.076080215   0.07696062            2 
  729000   0.97396119   -2.9825126    665.34455  0.076056761  0.076923767            2 
  730000   0.93016286   -2.9485504    664.39668  0.075844369  0.076886061            2 
  731000   0.96050947   -2.9659479    665.68065  0.075886987  0.076848021            2 
  732000   0.96502515   -2.9707163    668.21695  0.076072057  0.076810821            2 
  733000   0.96463782   -2.9793359    666.89303  0.075817762   0.07677385            2 
  734000   0.95088406   -2.9492259    670.56229   0.07613105  0.076736834            1 
  735000   0.95898789   -2.9507861    670.76401  0.076050341  0.076700001            3 
  736000   0.95568785     -2.94508    673.22724   0.07622591  0.076663784            3 
  737000    0.9458485   -2.9675738    670.84601  0.075853234  0.076628134            4 
  738000   0.95902326   -2.9768733    669.90957  0.075644712   0.07659225            4 
  739000   0.95487312   -2.9773197    671.83149  0.075759077  0.076556315            1 
  740000   0.95121247   -2.9835107    673.49138  0.075843624  0.076520552            6 
  741000   0.97035869   -2.9658351     673.0619  0.075692971  0.076485159            6 
  742000   0.94811967   -2.9783194     676.5328  0.075980773  0.076450119            1 
  743000   0.95399779   -2.9525968    675.01344  0.075708102  0.076413924            2 
  744000   0.97282067   -2.9468405    678.01894  0.075942982  0.076378122            3 
  745000   0.95561878     -2.96191    677.27582  0.075757922   0.07634295            3 
  746000   0.95164029   -2.9629436    676.41867   0.07556062  0.076306796            2 
  747000   0.95947638   -2.9710136    678.38563  0.075678897  0.076270549            2 
  748000    0.9709956   -2.9787672    676.50169  0.075367835  0.076233961            3 
  749000    0.9470422   -2.9983318    678.01802  0.075435916  0.076197503            2 
  750000   0.95604148   -2.9751771    680.33048  0.075592275  0.076161914            3 
  751000   0.98044449   -2.9722951    679.25923  0.075372751   0.07612703            3 
  752000    0.9478997   -2.9656046    680.81466  0.075444887  0.076090805            2 
  753000   0.95135999   -2.9710686     681.0726   0.07537324  0.076055115            4 
  754000   0.93662667   -2.9871907    682.57713  0.075439559  0.076020448            2 
  755000   0.94985612   -2.9918091    685.21232  0.075630499  0.075984949            2 
  756000   0.95383218   -2.9782209    684.92485  0.075498771  0.075949871            2 
  757000   0.96448285    -2.959894    684.69994  0.075374278  0.075914197            2 
  758000   0.95752784    -3.007556    684.83177  0.075289332  0.075878431            2 
  759000   0.96265996   -2.9744002     688.7515  0.075620498  0.075844092            2 
  760000   0.94981958   -2.9695444    687.89962   0.07542759  0.075809864            1 
  761000   0.94132192   -2.9769716    686.10549  0.075132007  0.075775717            3 
  762000   0.96198091   -3.0213075    690.13606  0.075474198  0.075741155            4 
  763000     0.947258   -2.9497319    690.70028  0.075436903  0.075706423            1 
  764000   0.94452795   -2.9730013    689.52178  0.075209618  0.075671974            2 
  765000   0.95611024   -2.9986941     691.9574  0.075376623  0.075638447            2 
  766000   0.97322789   -2.9750146    691.76449  0.075257233  0.075605048            1 
  767000    0.9511422   -3.0126668    691.42497  0.075122226  0.075571706            2 
  768000   0.94470618   -2.9804968    695.78004  0.075496966  0.075538715            3 
  769000   0.94633962   -2.9766763    696.39603  0.075465543  0.075505455            2 
  770000   0.93855318   -2.9951542    698.00671  0.075541852  0.075473414            3 
  771000   0.92669107    -2.954818    700.74678  0.075740032  0.075441115            2 
  772000    0.9430186   -2.9862454    698.25914  0.075373396  0.075409558            4 
  773000   0.94828545    -2.985378    700.26193  0.075491799  0.075377363            2 
  774000    0.9481216    -2.979755    696.23886  0.074961118  0.075344429            1 
  775000   0.94538197   -2.9898943    699.02637  0.075164126  0.075310762            2 
  776000   0.95904334   -3.0095708    696.55161  0.074801504  0.075277607            2 
  777000   0.94871503   -2.9975588    701.65355  0.075252419  0.075244599            3 
  778000   0.94863764   -2.9818184    698.22696  0.074788664  0.075211833            3 
  779000    0.9498049   -3.0077835    701.19372  0.075010025  0.075178911            3 
  780000   0.95550292   -2.9907497    698.11543  0.074584982  0.075145171            3 
  781000    0.9240494   -2.9888947    700.64812  0.074759723  0.075111845            4 
  782000   0.93599316   -2.9937272    701.25062  0.074728327  0.075078193            6 
  783000   0.93782982   -2.9787658    705.31506   0.07506546  0.075045074            1 
  784000   0.95174929   -2.9837041    702.22513  0.074641276  0.075012172            3 
  785000   0.94183515   -3.0046921    705.08089  0.074849351  0.074978127            2 
  786000   0.92522631   -3.0028691     704.8092  0.074725318  0.074945035            4 
  787000   0.95094538   -2.9935705    707.06691  0.074869431  0.074912306            4 
  788000   0.91904465   -3.0125664    707.58779  0.074829504  0.074879605            1 
  789000   0.95311775   -3.0134007    706.97843  0.074670303  0.074847173            3 
  790000    0.9281225    -3.010785     706.8076  0.074557764  0.074814201            3 
  791000   0.96092548   -2.9974606    706.68538   0.07445063  0.074781755            2 
  792000   0.95630695   -2.9927075    707.67102  0.074460334   0.07474897            4 
  793000   0.92450087   -3.0076152    711.16377  0.074733478  0.074716756            3 
  794000   0.94734768   -3.0268716     708.9417   0.07440614   0.07468454            4 
  795000   0.93505874   -2.9890639    713.29547  0.074768918  0.074653138            3 
  796000   0.95487648   -3.0078667    712.32133  0.074573003  0.074621699            1 
  797000   0.94975855    -3.003113    709.97971  0.074234599  0.074589105            4 
  798000   0.94198049   -3.0153032    713.98196  0.074559519  0.074556471            3 
  799000   0.95357407   -3.0081375     709.7068  0.074020317  0.074524443            6 
  800000   0.94140397   -2.9778628    715.80249   0.07456276  0.074492386            2 
  801000   0.91133058   -2.9927999    713.06987   0.07418538  0.074460019            4 
  802000   0.92637156   -3.0240965    714.99868  0.074293296  0.074427734            8 
  803000   0.93316517   -3.0047041    713.70166  0.074066175  0.074394264            3 
  804000   0.93598408   -2.9970577    714.10348  0.074015701  0.074361584            2 
  805000   0.93568572   -3.0017508    716.83754  0.074206785  0.074329042            2 
  806000   0.93969331   -2.9995435     718.4578  0.074282237  0.074296681            4 
  807000   0.92924893   -3.0328463    719.24589  0.074271571  0.074264913            2 
  808000   0.92408476   -3.0202957     717.6574  0.074015821  0.074233026            2 
  809000   0.91850769   -3.0072918    721.39749  0.074309589  0.074201024            1 
  810000    0.9434051   -3.0048951    721.03087  0.074180131   0.07416923            5 
  811000    0.9419536    -3.012892    719.87176   0.07396956  0.074137891            3 
  812000   0.90639794   -3.0053502    723.37099  0.074237581  0.074106351            2 
  813000   0.92252875   -3.0348996    722.13608  0.074019688  0.074075023            3 
  814000   0.93079401   -3.0212717    724.35768  0.074156191  0.074044115            4 
  815000   0.94031736   -3.0159381    727.17892  0.074353673  0.074013805            2 
  816000   0.90992625   -3.0139895    723.96528  0.073934363  0.073983071            4 
  817000   0.92854113   -3.0119243    725.50041   0.07400045  0.073952799            4 
  818000   0.93009597   -3.0319423     725.8711  0.073947748  0.073922528            1 
  819000   0.91122928   -3.0079865    727.85638  0.074059461  0.073892121            3 
  820000   0.92403067    -3.001055    724.74558  0.073653006  0.073861094            2 
  821000    0.9353567   -3.0085507    728.44942  0.073939243  0.073830502            3 
  822000   0.92321894   -3.0165164    729.17012  0.073922356   0.07380029            3 
  823000   0.93285881   -3.0201709    732.63393  0.074183266  0.073770037            2 
  824000   0.89605556   -2.9761237    731.27413  0.073955717  0.073739765            3 
  825000   0.91648167   -2.9823619     732.0524  0.073944687  0.073709457            5 
  826000   0.92135154    -2.997988    733.06536  0.073957361  0.073678858            2 
  827000   0.90597064   -3.0251349    732.26204  0.073786985  0.073648516            3 
  828000   0.94309967    -3.019113    732.10685  0.073682251  0.073618371            2 
  829000   0.91683836    -3.005177    736.29827  0.074014703  0.073588248            2 
  830000   0.93432077   -3.0333501     733.4741  0.073641978  0.073558041            5 
  831000   0.90508728   -3.0325115    733.20766   0.07352664  0.073526973            2 
  832000   0.90306281   -3.0243333    734.17674   0.07353533  0.073496289            3 
  833000   0.93080423   -3.0192976    734.45081  0.073474471  0.073465612            4 
  834000   0.90715038   -3.0014199    736.77627  0.073618732  0.073436138            2 
  835000   0.91937939   -3.0095892    739.76608   0.07382895  0.073406235            3 
  836000    0.9309723   -3.0084082    738.12724  0.073577277  0.073376761            2 
  837000   0.93068013   -3.0155048    740.52135  0.073727733  0.073347017            4 
  838000   0.92703233   -3.0216408    737.34306  0.073323693  0.073317789            2 
  839000    0.9217834   -3.0341885    738.63836  0.073364954  0.073287354            2 
  840000   0.89575599   -3.0238736    740.15726    0.0734283  0.073257773            3 
  841000   0.93930097   -3.0225453     740.1932   0.07334455  0.073228162            3 
  842000   0.90876514   -3.0145948    741.79771  0.073416242  0.073198459            2 
  843000   0.91582127   -3.0111347    745.72963  0.073717836  0.073169223            3 
  844000   0.91925654   -3.0003081    743.29735  0.073390339  0.073140121            4 
  845000   0.92214591   -3.0071493    744.17899  0.073390433  0.073111451            1 
  846000   0.90209882   -3.0232501    743.25144  0.073212317  0.073082608            3 
  847000   0.92664056   -3.0236226    744.62749  0.073261264  0.073052714            4 
  848000   0.91982899   -3.0054373    748.48473  0.073553924  0.073023794            1 
  849000   0.92900463   -3.0316842    746.37905  0.073260605   0.07299506            2 
  850000   0.90717661   -3.0127026    746.88005  0.073223534  0.072965629            3 
  851000   0.90570484   -3.0562044     746.0866  0.073059792  0.072935722            2 
  852000    0.9114443   -3.0385516    750.24776   0.07338104  0.072905926            2 
  853000   0.91329969    -3.029108    751.00709  0.073369196  0.072875985            2 
  854000   0.91235667   -3.0158845    750.01606  0.073186579  0.072846131           12 
  855000   0.90619641   -3.0187117    751.01496  0.073198339  0.072816338            8 
  856000   0.89649583   -3.0401707    748.40149  0.072858401  0.072786211            3 
  857000   0.90199847   -3.0125481    749.17988  0.072849074   0.07275595            8 
  858000   0.91509486   -3.0613457    750.14618  0.072858021  0.072725629            2 
  859000   0.92239917   -3.0482426    751.83221  0.072936769   0.07269539            5 
  860000   0.90717943   -3.0088362    751.35783  0.072805991  0.072665679            4 
  861000   0.89976725   -3.0437731    752.34933  0.072817395  0.072636123            3 
  862000   0.90330227   -3.0322935     751.5813  0.072658672  0.072605957            4 
  863000   0.91565644   -3.0389361     750.8137  0.072500357  0.072575424            4 
  864000   0.93273274   -3.0515643     753.2472  0.072651158  0.072543833            4 
  865000   0.90929304   -3.0261397    755.11891  0.072747487  0.072513817            2 
  866000   0.91509505    -3.029558    752.03845  0.072367057  0.072482745            2 
  867000   0.89350712   -3.0457091    754.04354  0.072476311  0.072451525            2 
  868000   0.92405809   -3.0286469     753.9111  0.072380098   0.07242011            3 
  869000   0.88932778   -3.0287583    752.54002  0.072165326  0.072388093            3 
  870000   0.89390831   -3.0558429    754.97134  0.072315262  0.072356053            2 
  871000   0.91423196    -3.041781    757.19493  0.072444979  0.072324513            3 
  872000   0.90392151   -3.0376597    753.34819  0.071994284  0.072293084            5 
  873000    0.9152174   -3.0463746    758.77999  0.072430316  0.072261582            1 
  874000   0.89726121   -3.0455067     757.5946   0.07223442  0.072230364            4 
  875000   0.90278751   -3.0330458     757.7181  0.072163628  0.072198735            2 
  876000   0.90206077   -3.0624565    760.52871  0.072348622  0.072167052            2 
  877000   0.89353963   -3.0603861    756.30289  0.071864585  0.072135976            2 
  878000   0.90442836    -3.048709    760.38118  0.072169816    0.0721043            2 
  879000   0.88174738   -3.0306753      760.831  0.072130357  0.072072251            3 
  880000   0.88745569   -3.0460785    760.95111  0.072059764  0.072040604            2 
  881000   0.89463826   -3.0387328    761.98996  0.072076236   0.07200859            5 
  882000   0.91435757   -3.0308314    764.15484  0.072199059  0.071976815            2 
  883000   0.89091307   -3.0398887    764.05837  0.072108189   0.07194528            7 
  884000   0.90398815   -3.0321334    760.96818  0.071735311  0.071913302            4 
  885000   0.90814748   -3.0139244    762.58671  0.071806659  0.071881602            5 
  886000   0.89376251   -3.0420931    763.66347  0.071826888  0.071849753            3 
  887000     0.891664    -3.021725    765.25808  0.071895724  0.071818457            3 
  888000   0.91676754   -3.0348071    764.89058  0.071780272  0.071786392            3 
  889000   0.89387138   -3.0533213    765.08625  0.071717871  0.071754813            3 
  890000   0.89269958   -3.0386319    765.50703  0.071676689  0.071723287            2 
  891000   0.91878426   -3.0696195    767.35884  0.071769439  0.071691762            3 
  892000   0.88235252   -3.0675946    765.43207  0.071508975  0.071660114            4 
  893000   0.89039542    -3.046045     765.6419  0.071448479  0.071628949            4 
  894000   0.90035147       -3.052     770.2365   0.07179684  0.071598114            3 
  895000   0.90373129   -3.0411573     771.4092   0.07182581  0.071566936            3 
  896000   0.91200111    -3.047194    770.07461  0.071621522  0.071535469            3 
  897000   0.91203046   -3.0523172    771.62251  0.071685481  0.071503823            3 
  898000   0.90125962   -3.0652468     770.4125  0.071493365   0.07147235            2 
  899000   0.88312787   -3.0620573     767.6926  0.071161716  0.071440925            2 
  900000   0.88768437   -3.0761824     770.5577  0.071347935  0.071409059            2 
  901000   0.90518071   -3.0664528    772.24116   0.07142445   0.07137803            2 
  902000   0.90698523   -3.0361258    771.00495  0.071231056  0.071347186            3 
  903000    0.8785437    -3.048402    773.45701  0.071378461  0.071315375            3 
  904000   0.90219073   -3.0375164    775.23004  0.071462946  0.071284907            3 
  905000   0.90907649   -3.0535077    775.02837  0.071365412  0.071253734            6 
  906000   0.88428291   -3.0399287    774.05698  0.071197294  0.071223259            4 
  907000   0.91232885   -3.0520261    774.14464   0.07112685  0.071192394            3 
  908000   0.88945948   -3.0370923    776.02699  0.071221273  0.071161745            3 
  909000   0.89239882   -3.0415092    778.93828  0.071409816  0.071129847            3 
  910000   0.89941411   -3.0771208    778.56866  0.071297496  0.071099124            2 
  911000   0.89886163   -3.0838017    777.49573  0.071121087   0.07106843            2 
  912000   0.88781875   -3.0558374    777.80686  0.071071533  0.071038127            3 
  913000   0.86959927    -3.080474    776.94631  0.070915143  0.071007374            6 
  914000   0.89110859   -3.0509608    780.59386  0.071170119   0.07097603            3 
  915000   0.88650748   -3.0818497    782.32725  0.071250205  0.070945395            7 
  916000   0.88760646   -3.0456903    781.35793  0.071084237  0.070914417            2 
  917000   0.88079193   -3.0722166    781.67877  0.071035875  0.070884248            5 
  918000   0.89754124   -3.0689215    783.27558  0.071103448  0.070854008            3 
  919000   0.89678571    -3.089906    782.59275   0.07096416  0.070823023            4 
  920000   0.87840356   -3.0561171    783.26346  0.070947777  0.070790999            2 
  921000   0.88754114   -3.0775286     781.4276  0.070704633   0.07075931            3 
  922000   0.90266715   -3.0746563    781.69312  0.070651945  0.070727843            4 
  923000   0.89058581   -3.0567675    780.73654  0.070489034  0.070696422            3 
  924000   0.86784757    -3.067714    782.68285   0.07058828  0.070664591            2 
  925000   0.85815098   -3.0489591    784.27003  0.070654957   0.07063252            2 
  926000   0.88497911    -3.066255    782.41379  0.070411608  0.070600835            4 
  927000   0.88867649   -3.0742395    783.67521  0.070449048  0.070568886            2 
  928000   0.88235215   -3.0814282    786.67447  0.070642463  0.070536584            3 
  929000   0.86873574   -3.0578687    783.17066  0.070252122  0.070504291            4 
  930000    0.8781829   -3.0589416    784.84684  0.070326778  0.070472002            5 
  931000   0.87615735   -3.0902989    785.91499  0.070346848  0.070439551            3 
  932000   0.87061081   -3.0840378    783.67819  0.070071369   0.07040716            2 
  933000   0.88480133   -3.0674311    786.79758  0.070274882  0.070374455            4 
  934000   0.88817924   -3.0713197    786.66596  0.070187898  0.070341691            3 
  935000   0.88271585   -3.0404778     786.6971  0.070115606   0.07030954            3 
  936000   0.86629902    -3.084932    788.87217  0.070234346  0.070277719            5 
  937000   0.89038787   -3.0623113    787.94515  0.070076943  0.070245499            3 
  938000    0.8685196   -3.0810098    787.36367  0.069950575  0.070213143            4 
  939000   0.87659619   -3.0453359    791.78248  0.070268236  0.070181344            5 
  940000   0.87521209    -3.070121    789.70702  0.070009487   0.07014903            4 
  941000   0.87657623   -3.0488665     790.8403   0.07003545  0.070117399            2 
  942000   0.87265694   -3.0748032    794.34367  0.070271025  0.070085376            6 
  943000   0.87414171   -3.0562449    789.37295  0.069757242  0.070052762            3 
  944000   0.88686107   -3.0731114    793.77176  0.070071659  0.070020587            2 
  945000   0.88435732   -3.0677751    788.80894  0.069559871  0.069987775            2 
  946000   0.87078466   -3.0687742    791.91478  0.069759935   0.06995464            4 
  947000   0.87644626   -3.0842453    791.18342  0.069621913  0.069921031            3 
  948000   0.87169013   -3.0900072    789.63441  0.069412307  0.069887075            5 
  949000   0.89670939   -3.0668846    788.47151  0.069237048  0.069853815            3 
  950000   0.85874195   -3.0748801    794.00345  0.069649426  0.069820331            3 
  951000   0.87538514   -3.0919331    789.91414  0.069217853  0.069785857            3 
  952000   0.86924185   -3.1081354     793.4903  0.069458184  0.069751315            3 
  953000   0.88489283   -3.0626074     795.4685  0.069558281  0.069717394            3 
  954000   0.88982986   -3.1038915     794.7635  0.069423786  0.069683796            4 
  955000   0.87107781   -3.0834202    793.09843  0.069205797  0.069649957            3 
  956000    0.8820329    -3.109211    794.16975  0.069226792  0.069615856            2 
  957000   0.88569558   -3.0760394    790.16389  0.068805633  0.069580932            2 
  958000   0.88110298   -3.0759268    795.04336   0.06915826  0.069546524            4 
  959000   0.88327369   -3.1055913    794.42668  0.069032558  0.069512878            4 
  960000   0.87428167   -3.0638054    798.24015  0.069291679  0.069479163            2 
  961000   0.85931511   -3.0932074    797.38582  0.069145493  0.069445106            5 
  962000   0.86768736   -3.0956941    798.45667  0.069166378  0.069411126            3 
  963000   0.87614445   -3.1175007     795.8132  0.068865802  0.069377732            4 
  964000   0.86809917   -3.0994952    800.22168  0.069175456  0.069344039            5 
  965000   0.87625678   -3.0826741     801.0056  0.069171468  0.069310918            2 
  966000   0.86393778   -3.1224854    798.96523  0.068923847  0.069277937            1 
  967000   0.88352059   -3.1062001     803.4012   0.06923485  0.069244938            3 
  968000    0.8814316   -3.0895778    804.11775  0.069225013  0.069212361            8 
  969000   0.85040418   -3.0947491    807.95147  0.069483271  0.069180474            5 
  970000   0.86657762   -3.0644646    807.66801  0.069387286  0.069148076            3 
  971000   0.86231393   -3.0947413    806.27416  0.069196204  0.069116361            6 
  972000   0.86187801    -3.091106    805.11421  0.069025566   0.06908476            4 
  973000    0.8384689   -3.0920943    807.49417  0.069158459  0.069053037            3 
  974000   0.88014788   -3.1101192    805.09465  0.068882157  0.069020962            3 
  975000   0.87561949   -3.0947669    806.53145  0.068934312  0.068988983            2 
  976000   0.86893369   -3.0814429    808.20493  0.069006568  0.068957508            2 
  977000   0.87037429   -3.0698423    808.15442  0.068931629  0.068926304            4 
  978000   0.86215931   -3.0948519    806.26642  0.068700274  0.068894624            4 
  979000   0.87591385    -3.092133    808.56688  0.068825917  0.068862545            2 
  980000   0.88652603   -3.0931355     808.4163  0.068742883   0.06883069            4 
  981000   0.86782375   -3.1226908     806.1749  0.068482408  0.068798105            4 
  982000   0.84105729   -3.1084178    810.37278  0.068768905  0.068765346            8 
  983000   0.86257628    -3.100365    807.52558  0.068457577  0.068732865            4 
  984000   0.85543783   -3.1035243     813.6694  0.068908316  0.068700579            3 
  985000   0.86256703   -3.1129044    811.48783  0.068653793  0.068668375            3 
  986000   0.85341791   -3.1389675    810.56645  0.068506292  0.068636494            3 
  987000   0.85885466   -3.0993019    813.71245  0.068702504  0.068603625            2 
  988000   0.86221185   -3.0975392    810.87821  0.068393911  0.068571656            5 
  989000   0.86327191   -3.0983786    815.38734  0.068704696  0.068540092            3 
  990000   0.83567553   -3.1006278    813.64786  0.068488877  0.068507307            3 
  991000   0.86882972   -3.0849234    815.27476  0.068556573  0.068475291            3 
  992000   0.85830949    -3.099804    815.56625   0.06851195  0.068443034            2 
  993000   0.86349673   -3.1198928    815.67394  0.068451993  0.068410575            7 
  994000   0.85989174   -3.1146773    813.55857  0.068205782  0.068377206            6 
  995000   0.84159777   -3.1058543    814.69896  0.068232743  0.068344755            2 
  996000   0.84149252   -3.1156789    813.40751  0.068056184  0.068312032            3 
  997000   0.86664961   -3.1078933    813.65537   0.06800864  0.068278314            2 
  998000   0.85725343   -3.1195967    814.95359  0.068048897  0.068245629            7 
  999000   0.85152917   -3.1306549    815.14352  0.067996623   0.06821246            4 
 1000000   0.86263967   -3.1246238    819.21501  0.068267918  0.068180048            6 
 1001000    0.8460874   -3.1101391    816.73197  0.067993005  0.068147987            6 
 1002000   0.86609843   -3.1202606    819.61916  0.068165266   0.06811616            1 
 1003000    0.8667261   -3.1367199    819.83764  0.068115457   0.06808453            1 
 1004000   0.85939272   -3.1021669    818.98142  0.067976546  0.068052544            3 
 1005000    0.8564948   -3.1197923    819.57928  0.067958481  0.068020415            6 
 1006000   0.86691091   -3.1035963    820.83872  0.067995255  0.067988554            3 
 1007000   0.85680811   -3.1429772    820.84908   0.06792859  0.067957116            5 
 1008000   0.85048215   -3.1262637    820.70067  0.067848931  0.067925481            3 
 1009000   0.86912058   -3.1337907    822.07418  0.067895126  0.067893453            3 
 1010000   0.87447843   -3.1361094    821.20176  0.067755921  0.067861816            3 
 1011000   0.85297685    -3.115949    824.74248  0.067980752  0.067830184            3 
 1012000   0.84596947    -3.122021    824.40238  0.067885572  0.067798065            3 
 1013000   0.84361854    -3.122896    825.76076  0.067930303   0.06776657            5 
 1014000   0.84982805   -3.1047852    826.94026  0.067960245  0.067735198            3 
 1015000   0.83418104    -3.123348    828.74832  0.068041734  0.067704371            3 
 1016000   0.85026064   -3.1424097    826.64676  0.067802392  0.067673654            4 
 1017000   0.84848869   -3.1236876    830.41989  0.068044894  0.067643044            3 
 1018000   0.83873829   -3.1157585    831.47688  0.068064577  0.067612868            5 
 1019000   0.85363053   -3.1418758    829.24399  0.067815178  0.067582426            2 
 1020000   0.83591953   -3.1158968    830.37025  0.067840707  0.067552378            2 
 1021000    0.8588476   -3.1456529    831.86372  0.067896157  0.067522513            3 
 1022000   0.85901948   -3.1446025    830.97203  0.067757015  0.067492245            6 
 1023000   0.83836436   -3.1196903    832.95455  0.067852277    0.0674623            2 
 1024000   0.85633846   -3.1076393    830.23753  0.067564903   0.06743278            3 
 1025000   0.81955473   -3.1360866    832.76664  0.067704605  0.067402795            2 
 1026000   0.83105436   -3.1339703    832.61539  0.067626331  0.067372517            4 
 1027000   0.83860542   -3.0889564    834.78627  0.067736633  0.067342798            7 
 1028000   0.85235752   -3.1140552    836.60449  0.067818133  0.067313063            2 
 1029000   0.85065668    -3.117045    835.31838  0.067648071  0.067283559            2 
 1030000   0.84951113   -3.1421946    833.49769  0.067435088  0.067253408            3 
 1031000   0.83309301   -3.1313386    835.62026  0.067541243  0.067224383            6 
 1032000   0.85299571   -3.1394166    834.49826  0.067385195  0.067194672            2 
 1033000   0.83248197   -3.1344464    838.19155  0.067617905  0.067164768            5 
 1034000    0.8569848   -3.1126307    839.97211  0.067696011  0.067134989            2 
 1035000   0.84807055   -3.1263392    840.25227  0.067653162   0.06710527            4 
 1036000   0.84224281    -3.107463    837.59105  0.067373798  0.067075385            4 
 1037000   0.84920245   -3.1285715    840.21652   0.06751981    0.0670453            3 
 1038000    0.8510019     -3.13365    838.01612  0.067278109  0.067015146            3 
 1039000   0.85160194   -3.1229823    841.31115  0.067477634  0.066984741            4 
 1040000   0.82472592   -3.1354999    837.58301  0.067114023  0.066954834            3 
 1041000   0.84299245   -3.1314772    839.06177  0.067167929  0.066925558            5 
 1042000   0.83225972   -3.1252182    840.97867  0.067256772  0.066896183            2 
 1043000   0.85050306   -3.1455555    841.73182  0.067252463  0.066867093            2 
 1044000   0.82686673   -3.1330972    841.71749    0.0671869  0.066837256            3 
 1045000   0.83837444   -3.1481898    842.41939   0.06717858   0.06680757            3 
 1046000   0.83983666   -3.1547104    841.84953  0.067068956  0.066778362            6 
 1047000   0.85228422   -3.1258055    847.95581  0.067490911  0.066749376            2 
 1048000    0.8384604   -3.1425541    843.32004  0.067057891  0.066720384            5 
 1049000   0.82224669   -3.1405755     842.8102  0.066953464   0.06669086            1 
 1050000   0.82051896   -3.1502312    847.54118  0.067265173  0.066662132            2 
 1051000   0.83172797   -3.1248545    846.93265  0.067152922  0.066633371            1 
 1052000   0.81671687   -3.1449225    849.28012  0.067275041   0.06660556            5 
 1053000   0.83571251   -3.1477171    845.68109  0.066926329  0.066577098            3 
 1054000   0.83693233   -3.1636795    848.38773  0.067076829  0.066548463            3 
 1055000   0.85076861   -3.1689989    845.60192    0.0667932  0.066519569            3 
 1056000   0.81981172   -3.1401923    850.61877   0.06712585  0.066491054            5 
 1057000   0.83876066    -3.138728    849.76791  0.066995263  0.066461865            2 
 1058000   0.83742723   -3.1434592    850.84193  0.067016535  0.066433106            2 
 1059000   0.83813012   -3.1600473     850.8741  0.066955784  0.066404901            5 
 1060000   0.81824929   -3.1765035    849.12564  0.066755161  0.066376067            3 
 1061000   0.83282836    -3.147277    852.17984  0.066932127  0.066347414            8 
 1062000   0.82615239   -3.1418225    850.04766  0.066701794  0.066318251           15 
 1063000   0.83297983   -3.1367304    847.61875  0.066448632  0.066288765            4 
 1064000   0.82750835   -3.1580256    851.90719  0.066722054  0.066259688            5 
 1065000   0.84167625   -3.1516955      852.331  0.066692567  0.066230598            3 
 1066000   0.80534006    -3.131794    851.30937  0.066550139  0.066201859            4 
 1067000    0.8463915   -3.1466792    855.29203  0.066798815  0.066173152            5 
 1068000   0.84085249   -3.1364098    852.78875  0.066540945  0.066144259            3 
 1069000   0.82933726   -3.1558936    854.63617  0.066622714  0.066115164            4 
 1070000   0.82948089   -3.1382398    855.71292  0.066644308  0.066086173            3 
 1071000   0.81121456   -3.1520141    853.98623   0.06644773  0.066057253            7 
 1072000   0.82633098   -3.1437172    857.41549  0.066652324  0.066028633            9 
 1073000    0.8231108   -3.1474454    858.95166  0.066709511  0.065999962            5 
 1074000   0.82751615   -3.1655592    853.55694  0.066228813  0.065970642            4 
 1075000   0.83645089   -3.1750585    857.07073  0.066439592  0.065942201            2 
 1076000   0.83422755   -3.1801149    854.66281  0.066191358  0.065913615            4 
 1077000   0.81174058   -3.1469902    861.33949  0.066646509  0.065884561            6 
 1078000   0.82602253   -3.1549019    858.90229  0.066396281  0.065856111            2 
 1079000   0.83344881   -3.1177913    858.64038  0.066314518  0.065827813            4 
 1080000   0.80889435   -3.1573703    861.05687  0.066439573  0.065799529            3 
 1081000   0.83313773   -3.1544872    863.89235  0.066596697  0.065771151            1 
 1082000   0.82476259   -3.1775038    858.15747  0.066093459  0.065742572            5 
 1083000   0.82270182   -3.1453628    863.76197  0.066463679  0.065713768            4 
 1084000   0.83742788    -3.140171    862.07824  0.066272927  0.065685719            3 
 1085000   0.81209782   -3.1627828    861.06415  0.066133959  0.065657221            2 
 1086000   0.81141897   -3.1476627    862.50513  0.066183635  0.065629242            4 
 1087000   0.81206209   -3.1507523    863.51127  0.066199883  0.065601304            4 
 1088000   0.81379117   -3.1643308    862.34308  0.066049562  0.065573212            3 
 1089000   0.80869765   -3.1319165    867.59054  0.066390461  0.065545514            4 
 1090000   0.81353901   -3.1683271    865.72973  0.066187288   0.06551754            5 
 1091000   0.82784645   -3.1340246    870.03576  0.066455527  0.065490088            2 
 1092000   0.82964257   -3.1676166    866.56469  0.066129784  0.065462422            6 
 1093000   0.82180964   -3.1594478     867.6678  0.066153385  0.065434595            7 
 1094000   0.82211221   -3.1793116    865.77653  0.065948852  0.065406348            4 
 1095000   0.81719729   -3.1817473    866.73374  0.065961472  0.065378737            4 
 1096000   0.81884849   -3.1623507    866.93431  0.065916538  0.065351173            2 
 1097000   0.83991932   -3.1728664    870.79699  0.066149878  0.065323477            7 
 1098000   0.81311111   -3.1751478    870.81866  0.066091276  0.065295871            6 
 1099000   0.81122504   -3.1591298    869.94374  0.065964797  0.065267887            4 
 1100000   0.81304603   -3.1515234    870.18244  0.065922912  0.065240472            7 
 1101000   0.80324246   -3.1557211    872.26012  0.066020293  0.065212556            6 
 1102000   0.81159719   -3.1614317    869.71352   0.06576781   0.06518445            3 
 1103000   0.81265642   -3.1555004    870.41893  0.065761478  0.065156404            9 
 1104000   0.80546502   -3.1753743    870.09013  0.065677093   0.06512882            2 
 1105000   0.82321024   -3.1666344    872.47282  0.065797347  0.065101115            5 
 1106000   0.83614701   -3.1696542     871.9819  0.065700866  0.065073312            2 
 1107000   0.80929478   -3.1599121    873.42425  0.065750094  0.065045078            6 
 1108000   0.82195762   -3.1661637    871.32099  0.065532566  0.065016726            3 
 1109000   0.82214652   -3.1710336    873.61108  0.065645557  0.064988015            5 
 1110000   0.81357456   -3.1768098    872.45966  0.065499974  0.064959865            5 
 1111000   0.80914041   -3.1653071     874.4219  0.065588202  0.064931327            5 
 1112000   0.80311202   -3.1731415    875.01984  0.065574028  0.064903115            3 
 1113000   0.80849768   -3.1789523    876.20959  0.065604192  0.064874639            6 
 1114000   0.78961464   -3.1630961    875.76256  0.065511861  0.064846473            2 
 1115000   0.80442485   -3.1949096    874.68191   0.06537234  0.064818147            6 
 1116000   0.79839111   -3.1609338    877.91471   0.06555516  0.064789856            5 
 1117000   0.80050098   -3.1855551     878.2023  0.065517927   0.06476153            2 
 1118000   0.82943611   -3.1732558    876.24106  0.065313138   0.06473347            6 
 1119000   0.81170092   -3.1887864     878.4226  0.065417233  0.064705335            3 
 1120000    0.8092533   -3.1621148    873.46661  0.064990075  0.064677517            3 
 1121000   0.79812076   -3.1948261    876.59064  0.065164336  0.064649223            2 
 1122000   0.79254185   -3.1983744    877.28088  0.065157522  0.064621313            4 
 1123000   0.79789332   -3.1925131    878.78358  0.065211011  0.064593751            8 
 1124000   0.80109765   -3.1732126    879.82009   0.06522984  0.064566224            7 
 1125000   0.80328642   -3.2177705    878.79729  0.065096095  0.064538451            8 
 1126000   0.79946944   -3.1772163    882.65782  0.065323995  0.064510841            5 
 1127000   0.81808606   -3.1872102    880.69643  0.065121002  0.064483298            3 
 1128000   0.81083922   -3.1593601    883.11656  0.065242063  0.064455365            4 
 1129000   0.79548307   -3.1859999    880.17411  0.064967088   0.06442753            4 
 1130000   0.79397822    -3.157182    880.50865  0.064934266  0.064399813            4 
 1131000   0.79616103   -3.1864241    882.98517  0.065059326  0.064372041            4 
 1132000   0.77786825   -3.1716727    883.66192  0.065051672   0.06434443            4 
 1133000   0.79671854   -3.1892149    882.06753  0.064876988  0.064316733            4 
 1134000   0.79866986   -3.2015666    884.46027   0.06499561  0.064289162            5 
 1135000   0.77544798   -3.2044369    883.87824  0.064895612  0.064260848            5 
 1136000   0.80428703   -3.1866533    886.07129  0.064999361  0.064233114            3 
 1137000   0.80997789   -3.1838657    885.86838  0.064927322  0.064205713            4 
 1138000   0.80599653   -3.1946303    886.72082  0.064932691  0.064178076            4 
 1139000   0.79602958   -3.1993324    891.41469  0.065219103  0.064150597            4 
 1140000   0.79768176   -3.1900124    884.47326  0.064654478  0.064123298            3 
 1141000   0.76906292   -3.1929801    886.64611  0.064756508  0.064095935            3 
 1142000   0.79739028   -3.2107424    887.47037  0.064759951  0.064068903            5 
 1143000   0.78021203   -3.2014202    889.43191  0.064846304  0.064041621            6 
 1144000   0.79422591   -3.2002796    886.32296  0.064563153  0.064014264            6 
 1145000   0.80686669    -3.179077    890.81902   0.06483399  0.063986848            3 
 1146000   0.78026841   -3.2104464    889.47283  0.064679525  0.063959557            2 
 1147000   0.80611486   -3.1849536    888.61024  0.064560465  0.063931974            2 
 1148000   0.80446516   -3.1790797    889.39947  0.064561518  0.063904015            9 
 1149000   0.77934452   -3.1917393    887.49374  0.064367112  0.063876176            1 
 1150000   0.79151811   -3.2106892    889.72409   0.06447276  0.063848269            3 
 1151000   0.78245886   -3.2074129     893.1487   0.06466469  0.063820306            4 
 1152000   0.78746517   -3.2068278    889.76656  0.064363901   0.06379288            7 
 1153000   0.78621018   -3.1767334    893.76775  0.064597264  0.063765533            3 
 1154000   0.79250352   -3.2110176    893.19838  0.064500172  0.063737909            3 
 1155000   0.78817937   -3.2139353    891.80747  0.064343973  0.063709888            2 
 1156000   0.78240924   -3.1942286     894.7383  0.064499589   0.06368223            6 
 1157000    0.7963201   -3.1967834     895.8579  0.064524482  0.063654773            4 
 1158000   0.79321645   -3.1939771    895.72082  0.064458896  0.063627241            3 
 1159000   0.80335422   -3.1864395    895.68078  0.064400401  0.063600327            8 
 1160000   0.78353209   -3.1878045    894.51971  0.064261473  0.063573203            4 
 1161000   0.79082122   -3.2363697    894.04499  0.064172049  0.063545972            3 
 1162000   0.79418458   -3.1953838     893.2539  0.064060091  0.063518264            2 
 1163000   0.76370933   -3.2061621    895.45503  0.064162728  0.063490747            3 
 1164000   0.80064094   -3.1862454    894.48598  0.064038229  0.063462957            4 
 1165000   0.80035852    -3.196231    896.54595  0.064130612     0.063435            3 
 1166000   0.78575428   -3.2125992    897.75052  0.064161701  0.063407298            4 
 1167000   0.78435689   -3.2243203    896.40165  0.064010401  0.063379581            5 
 1168000    0.7790189   -3.2244067    895.78981  0.063911944  0.063351663            4 
 1169000   0.78124182    -3.213229    898.20578  0.064029497  0.063324221            5 
 1170000    0.7840148   -3.2283517    899.88073  0.064094069  0.063296867            3 
 1171000   0.78546272    -3.198592    898.92975  0.063971659  0.063269419            2 
 1172000   0.79113736   -3.1863294    899.41155  0.063951333  0.063241737            8 
 1173000   0.79803929   -3.1918551    899.59918  0.063910144  0.063213991            3 
 1174000   0.79183647   -3.2160577    897.37167  0.063697591  0.063186771            3 
 1175000   0.78050611   -3.2089088    901.53327   0.06393853  0.063158812            5 
 1176000   0.79083793   -3.2199676    902.45295   0.06394933  0.063131178            3 
 1177000   0.79170511   -3.1991813    901.83866  0.063851505  0.063103473            8 
 1178000    0.7717503   -3.2124182    904.05926   0.06395439  0.063075714            3 
 1179000   0.77476543   -3.2113814    902.00879  0.063755216  0.063047898            3 
 1180000   0.78797275   -3.2360408    899.11701  0.063496964  0.063019669            4 
 1181000   0.77604906   -3.2126616    899.36553  0.063460734  0.062991438            4 
 1182000   0.78069796    -3.235868    900.88774  0.063514364  0.062963377            3 
 1183000    0.7748432   -3.2250191     901.4107  0.063497514  0.062935777            5 
 1184000   0.76176432   -3.1845621    906.80217  0.063823351  0.062908301            5 
 1185000   0.76789934   -3.2299392    903.73419  0.063553741  0.062880525            5 
 1186000   0.77841654   -3.2010689    903.17307  0.063460727  0.062853261            3 
 1187000   0.78974223   -3.2088243    904.83836  0.063524176  0.062825766            5 
 1188000   0.78918572   -3.2200811    904.53337  0.063449311  0.062798182            6 
 1189000   0.78063348   -3.1990669    906.62962  0.063542867  0.062770607            5 
 1190000   0.78667598   -3.2302302    904.11283  0.063313223   0.06274244            7 
 1191000   0.76260228   -3.2220254    903.90864  0.063245777  0.062714329            6 
 1192000   0.77751016   -3.2031359    906.51382  0.063374847  0.062686402            3 
 1193000   0.77434104   -3.2375372     907.3549  0.063380477  0.062658268            4 
 1194000    0.7905688   -3.2032475    906.85705  0.063292647   0.06263035            3 
 1195000   0.76318075   -3.2081415    905.58558  0.063151016  0.062601959            5 
 1196000   0.79243967   -3.2361161    904.08752  0.062993835  0.062573968            3 
 1197000   0.76125166   -3.2160643    904.96055  0.063001988  0.062545331            2 
 1198000   0.77962559   -3.2256834    905.75691  0.063004793   0.06251733            3 
 1199000   0.77109346   -3.2336627    905.85673  0.062959183  0.062489172            4 
 1200000    0.7902403   -3.2292515    907.83866  0.063044351  0.062460637            4 
 1201000   0.76898267   -3.2409248    905.60114  0.062836605  0.062432364            5 
 1202000   0.76048332   -3.2423968    907.64489  0.062926018  0.062404235            3 
 1203000   0.79399013   -3.2159729    907.81598  0.062885563  0.062376229            5 
 1204000   0.76496019   -3.2166499    909.14147  0.062925074  0.062348475            2 
 1205000   0.76772936   -3.2352884    911.83886  0.063059396   0.06232089            2 
 1206000   0.77550189   -3.2332787    910.84091   0.06293815  0.062293188            2 
 1207000   0.76018403    -3.234412    911.64319  0.062941396  0.062265205            4 
 1208000   0.78551238   -3.2337762     908.2177  0.062652987  0.062237099            5 
 1209000   0.78873527    -3.222627    911.38373  0.062819391  0.062209254            3 
 1210000     0.773919   -3.2247855    913.50705  0.062913709  0.062181879            8 
 1211000   0.76934848    -3.263028    911.63827  0.062733159  0.062153929            3 
 1212000   0.77183213   -3.2214347    916.53598   0.06301815  0.062125889            9 
 1213000   0.77038586   -3.2223215    914.08682  0.062797941  0.062098364            5 
 1214000   0.77657259   -3.2478844    911.62821  0.062577444  0.062070156            6 
 1215000   0.76934007   -3.2460663    912.82611  0.062608101  0.062042183            3 
 1216000   0.76748595   -3.2463847    914.83556  0.062694323  0.062014544            3 
 1217000   0.77382303   -3.2340004    916.39795  0.062749791  0.061986802            4 
 1218000   0.76393125    -3.233143    913.27421  0.062484552  0.061958869            7 
 1219000   0.76787578   -3.2385698    917.75013  0.062739276  0.061931241            4 
 1220000   0.76928956   -3.2530388    912.23493  0.062311129  0.061903497            3 
 1221000   0.73660322   -3.2274695    916.93174  0.062580654  0.061875638            2 
 1222000   0.76193728   -3.2068261    917.14092  0.062543707  0.061847933            3 
 1223000    0.7640811   -3.2259088    917.90352   0.06254453  0.061820326            9 
 1224000   0.77037141   -3.2680505    916.35641    0.0623881  0.061792942            8 
 1225000   0.76737709   -3.2187486    919.75018  0.062568039  0.061765592            3 
 1226000   0.74363889   -3.2448155    918.13564  0.062407262  0.061738762            4 
 1227000   0.76248796   -3.2442507    920.16809  0.062494437   0.06171184            3 
 1228000   0.76720982   -3.2539475    919.36181  0.062388831  0.061685083            3 
 1229000   0.75654953   -3.2474248    919.92966   0.06237657  0.061658062            5 
 1230000   0.77195529   -3.2369228    920.84939   0.06238817  0.061631103            3 
 1231000   0.75564281   -3.2510404    919.40252  0.062239542   0.06160393            2 
 1232000   0.74665412    -3.258709    921.39312  0.062323668   0.06157675            4 
 1233000   0.75455854   -3.2483207    921.09114  0.062252713   0.06154995            5 
 1234000   0.76227833   -3.2387835    922.39335  0.062290205  0.061523076            4 
 1235000   0.76099245   -3.2269858    924.02311  0.062349737  0.061495908            5 
 1236000   0.75417381   -3.2222903    921.63237  0.062138105  0.061468614            2 
 1237000   0.76543395   -3.2355075    923.59255  0.062219924  0.061441367            2 
 1238000   0.76923608   -3.2450187    925.50076  0.062298113  0.061413897            5 
 1239000   0.74467349   -3.2572825    924.37277  0.062171964  0.061386663            6 
 1240000    0.7636001   -3.2603335    924.93441   0.06215957  0.061359568            8 
 1241000   0.76249307   -3.2480958    927.39329  0.062274597  0.061333027            4 
 1242000   0.77290086   -3.2489666    924.64319  0.062039935  0.061306147            3 
 1243000   0.75788233   -3.2628491    923.62101  0.061921495  0.061279107            3 
 1244000   0.76064264   -3.2685758    928.25426  0.062182091  0.061252118            7 
 1245000   0.75230849   -3.2524945    927.51777  0.062082849  0.061225172           11 
 1246000   0.75753316   -3.2674092    927.40128  0.062025233  0.061198133            7 
 1247000   0.73816241   -3.2773032    929.03637  0.062084761  0.061171157            3 
 1248000   0.74536899   -3.2422943     929.5783  0.062071201  0.061144344            7 
 1249000   0.74524068   -3.2297542     931.8919  0.062175867  0.061117473            4 
 1250000   0.75384528   -3.2619053    925.72492  0.061714995  0.061090305            4 
 1251000   0.76196016   -3.2789821    930.57082  0.061988464  0.061063184            4 
 1252000    0.7581128   -3.2660078    931.46154  0.061998239  0.061036476            5 
 1253000   0.75819511   -3.2455094    929.25582  0.061802063  0.061009167            8 
 1254000   0.75155577    -3.256959     929.9715  0.061800339  0.060981789            6 
 1255000   0.74832344   -3.2412733    929.16269   0.06169739  0.060954724            4 
 1256000   0.74974634   -3.2475646     929.1658  0.061648474  0.060927858            8 
 1257000   0.76219791   -3.2562952    932.86712  0.061844811  0.060900819            2 
 1258000   0.75028256   -3.2647696    929.17631   0.06155116  0.060873727            2 
 1259000    0.7618702   -3.2747551    928.89223  0.061483467  0.060846355            3 
 1260000   0.75529381   -3.2452517    932.57592  0.061678302   0.06081902            6 
 1261000   0.76542089    -3.276995    929.57956  0.061431374  0.060791861            4 
 1262000   0.76038069   -3.2522992    931.07099   0.06148118  0.060764607            6 
 1263000   0.74258926   -3.2637322    934.67279   0.06167015  0.060738023            4 
 1264000   0.74189027   -3.2885713    932.30298  0.061465122  0.060710839            4 
 1265000   0.75406116   -3.2734245    933.79285  0.061514681  0.060683811            4 
 1266000   0.75857599   -3.2706174    932.26679  0.061365639  0.060656549            5 
 1267000   0.75048267   -3.2887778    934.30322  0.061451146  0.060629705            3 
 1268000     0.737047   -3.2726167    935.45861  0.061478615  0.060602787            8 
 1269000   0.73394694   -3.2722638     932.6497  0.061245712  0.060575653            6 
 1270000   0.73961996    -3.273614    933.03191  0.061222566  0.060548646            4 
 1271000   0.74962463   -3.2575889    934.37243  0.061262289  0.060521554            7 
 1272000   0.74721737   -3.2655812    935.08236  0.061260637  0.060494408            3 
 1273000   0.74297759   -3.2572051    937.17499  0.061349502  0.060467151           22 
 1274000   0.74324275   -3.2520021    936.37944  0.061249309  0.060439863            3 
 1275000   0.73154501   -3.2771144    934.96299  0.061108692   0.06041248            4 
 1276000   0.74400576   -3.2717067    934.06863  0.061002392   0.06038481            4 
 1277000   0.75753022   -3.2906749    935.17141  0.061026586  0.060357549            3 
 1278000   0.74948032   -3.2734732    932.99689  0.060837043  0.060329646            5 
 1279000   0.74254297   -3.2634272    932.26605  0.060741859  0.060301482            5 
 1280000   0.76894945   -3.2741597    934.46604  0.060837633  0.060273382            7 
 1281000   0.73869406   -3.2457318    936.12577  0.060898111  0.060245283            5 
 1282000   0.75828121   -3.2612827    936.09096  0.060848346  0.060217427            5 
 1283000   0.74166937   -3.2591136    935.24933  0.060746254  0.060189175            8 
 1284000   0.74574114   -3.2607903    935.85298  0.060738122  0.060161019            6 
 1285000    0.7521252   -3.2643902    935.27767  0.060653545  0.060132468            5 
 1286000   0.74340503   -3.2780748    935.86379  0.060644361  0.060103979            2 
 1287000   0.75553548   -3.2655516     935.8765  0.060598064   0.06007539            6 
 1288000   0.72938416   -3.2957492    936.38983  0.060584228   0.06004672            4 
 1289000   0.73327572   -3.2817886    936.30592  0.060531802  0.060017992            6 
 1290000   0.72276022   -3.2750431     935.7105  0.060446415  0.059989566            6 
 1291000   0.75823986   -3.2836483    934.34116  0.060311203  0.059961126            4 
 1292000   0.75408494   -3.2567652    938.12547  0.060508609  0.059932862            6 
 1293000   0.73048695   -3.2804409     938.0344  0.060455942  0.059904416            9 
 1294000   0.74041968   -3.2548982    937.21546  0.060356483  0.059875626            4 
 1295000   0.73646431   -3.2760128    937.96395   0.06035804  0.059847085           10 
 1296000   0.74225125   -3.2850723     938.6887   0.06035807  0.059818816            4 
 1297000   0.72758918   -3.2873183    939.24001  0.060346955   0.05979046            6 
 1298000   0.72339262   -3.2703025    937.47113  0.060186898  0.059762322            5 
 1299000   0.72317327    -3.284713    939.04499  0.060241531  0.059733853            4 
 1300000   0.74523541    -3.288876    940.33408  0.060277826  0.059705493            7 
 1301000   0.74296736   -3.2545356    940.07836  0.060215114  0.059677144            3 
 1302000   0.73225436   -3.3063132    940.71937  0.060209893  0.059648747            7 
 1303000   0.72008376   -3.2936794    939.77907  0.060103548  0.059620347            2 
 1304000   0.72611958   -3.2829204    942.06178  0.060203335  0.059592045            5 
 1305000   0.73241257    -3.288756    942.49483  0.060184855  0.059563793            3 
 1306000   0.73321356    -3.277873    943.66025  0.060213135   0.05953579            6 
 1307000   0.71894906   -3.2890179    943.72707  0.060171326  0.059507734            9 
 1308000   0.74267857   -3.2955766    941.60229  0.059989952  0.059479685            6 
 1309000   0.72490244   -3.2950558     944.9026  0.060154227  0.059451879            6 
 1310000   0.71375377   -3.3156136    940.94012  0.059856242  0.059423433            9 
 1311000   0.72547794   -3.2712497    942.71389  0.059923334  0.059395051            4 
 1312000   0.71799242    -3.287265    943.12344  0.059903674  0.059366878            4 
 1313000   0.74370129   -3.2894946    941.75126  0.059770961  0.059338607            4 
 1314000   0.72813543     -3.29227    943.16037  0.059814838  0.059310363            6 
 1315000   0.71182518   -3.2984435    943.41542  0.059785514  0.059282006            5 
 1316000   0.72950344   -3.3021344    944.92774   0.05983585  0.059253602            5 
 1317000   0.71482851   -3.2949194    942.67031  0.059647577  0.059225625            6 
 1318000   0.72810909   -3.2919549    948.60679  0.059977667  0.059197942            6 
 1319000   0.73251537   -3.3265294    944.84802  0.059694719  0.059170086            6 
 1320000   0.71940965   -3.3023988     945.3626  0.059681982  0.059142191            7 
 1321000   0.73317513   -3.2999238    947.60175  0.059778057  0.059114219            9 
 1322000   0.70194661   -3.3009099    950.08814   0.05988957  0.059086752            7 
 1323000   0.71057313   -3.2904079    949.57717  0.059812117  0.059059136            4 
 1324000   0.73706109   -3.2869252    945.60641   0.05951702  0.059031761            6 
 1325000   0.72756424   -3.3199168    947.12884  0.059567852  0.059003973           10 
 1326000   0.73133968   -3.2942906    951.31515   0.05978602   0.05897627            5 
 1327000   0.71515916   -3.3332674    946.25644  0.059423288  0.058948462            8 
 1328000   0.72737102   -3.3259598    948.96823  0.059548709  0.058920573            4 
 1329000   0.71135095   -3.3085217    950.89568   0.05962476  0.058892802            4 
 1330000   0.74050243   -3.2916192    950.25872   0.05954002  0.058865219            4 
 1331000   0.71121581   -3.2899336    949.31891  0.059436446  0.058837838            7 
 1332000   0.72488696   -3.2966951    952.46119  0.059588413  0.058810508            5 
 1333000   0.72913186    -3.298704    951.21688  0.059465922  0.058783386            7 
 1334000    0.7268623   -3.3042441    948.80491  0.059270671  0.058755841            5 
 1335000   0.72508937    -3.297363    952.21994  0.059439447  0.058728365            9 
 1336000   0.72527366   -3.3050037    951.73077  0.059364444  0.058701268            5 
 1337000   0.72469708   -3.3118498    951.47084  0.059303842  0.058673824            5 
 1338000    0.7174299   -3.2913716    954.20347  0.059429713  0.058646491            5 
 1339000    0.7281073   -3.2962789    953.92501  0.059367999  0.058619271            4 
 1340000   0.72245505   -3.3075531    954.04532  0.059331177    0.0585917            7 
 1341000   0.71551102   -3.3179532    950.36235  0.059058063   0.05856385            7 
 1342000   0.72423959   -3.3187675    954.67263  0.059281708  0.058536375            3 
 1343000    0.7217112   -3.3015101       952.89  0.059126955  0.058509078            5 
 1344000   0.71889599   -3.3138653    955.16134  0.059223793  0.058481828            4 
 1345000   0.70868501    -3.314889     956.0646  0.059235725  0.058454726            4 
 1346000   0.72638896      -3.3246    955.26936  0.059142482   0.05842773            4 
 1347000   0.72450275   -3.3118362    957.92074  0.059262605  0.058400729            5 
 1348000    0.7119457   -3.3059325    961.03627  0.059411243  0.058373709            8 
 1349000   0.71467205   -3.3276821    958.70254  0.059223038  0.058346779            4 
 1350000   0.73009867   -3.3308394    957.46001   0.05910247  0.058319906            7 
 1351000   0.71750553   -3.3179235    961.29997  0.059295582  0.058292808            6 
 1352000   0.69373678   -3.3055435    958.58149  0.059084164  0.058265658            5 
 1353000   0.70957416   -3.3256522    958.94071   0.05906262  0.058238685            4 
 1354000    0.7096913   -3.3487691     958.5548  0.058995249  0.058211517            4 
 1355000    0.6968632   -3.3198493    958.93795  0.058975274  0.058184304            4 
 1356000   0.70222975   -3.3190984    957.16602  0.058822887  0.058157472            3 
 1357000   0.70915803   -3.3423677    959.89697  0.058947247  0.058130549            6 
 1358000   0.71438672   -3.3353315    959.83682  0.058900149  0.058103712            3 
 1359000    0.7207336   -3.3371785    961.85245  0.058980405  0.058076987            7 
 1360000   0.71479004   -3.3118173    962.60839  0.058983357  0.058050389            7 
 1361000   0.70577257   -3.3154874      958.944   0.05871565  0.058023899            2 
 1362000   0.71155644   -3.3503114    961.60566  0.058835393  0.057996955            4 
 1363000   0.72172948   -3.3141492     961.7152  0.058798924  0.057970231            5 
 1364000   0.70585514   -3.3292266    963.71842  0.058878203  0.057943293            5 
 1365000   0.71131217   -3.3181785    959.40791  0.058571912  0.057916135            5 
 1366000   0.72075469   -3.3279205    960.70391  0.058608096  0.057888932            9 
 1367000   0.71496164   -3.3430141    963.35603  0.058726898  0.057861634           14 
 1368000   0.71383085   -3.3346921    961.42221  0.058566168  0.057834255            4 
 1369000   0.69871454   -3.3470327    960.79079  0.058484952  0.057807396            5 
 1370000   0.71704606   -3.3056818    961.19936  0.058467114  0.057780063            6 
 1371000   0.71266714   -3.3360407    960.55172  0.058385103  0.057752959            3 
 1372000    0.7047369    -3.315514    960.42744     0.058335  0.057725679            7 
 1373000   0.70979939   -3.3302791    963.44604  0.058475724  0.057698349            5 
 1374000   0.70465611   -3.3184774    964.77145  0.058513552  0.057671119            6 
 1375000   0.70664645   -3.3345772    963.30536  0.058382143  0.057643844            4 
 1376000   0.70096197   -3.3251407    964.61757  0.058419184  0.057616625            3 
 1377000    0.7098146   -3.3162613    966.29647  0.058478363  0.057589599            8 
 1378000   0.70938463   -3.3518407    964.94683  0.058354308  0.057562339            6 
 1379000    0.6881661   -3.3388838    967.53455  0.058468368  0.057535393            5 
 1380000    0.7046606   -3.3493142    961.93412  0.058087809  0.057508395            4 
 1381000   0.69803496    -3.303148    968.85316  0.058463261  0.057481308            3 
 1382000    0.6926767   -3.3289133    966.18834  0.058260272  0.057454358            5 
 1383000   0.70781492    -3.337439     966.7317  0.058250886  0.057427432            9 
 1384000   0.69628352    -3.349992     965.3384  0.058124904  0.057400564           14 
 1385000   0.70172491   -3.3508941    966.37441  0.058145271  0.057373427            6 
 1386000   0.69956702   -3.3299835    965.33541  0.058040849  0.057346381            4 
 1387000   0.69675196   -3.3374883    965.61373  0.058015725  0.057319167           10 
 1388000   0.71274505   -3.3152669    966.52552   0.05802867  0.057292045            7 
 1389000   0.69785435    -3.352597    970.02532  0.058196863  0.057265249            4 
 1390000   0.70836713   -3.3401341    967.32517  0.057993116  0.057238281            5 
 1391000   0.70121864   -3.3448637    967.08559  0.057937071  0.057211427            6 
 1392000   0.69068231   -3.3189163    969.85381  0.058061172  0.057184407            5 
 1393000   0.69753846   -3.3556716     966.3489  0.057809817  0.057157212            6 
 1394000   0.68275798   -3.3386581    968.70499  0.057909194   0.05713004            5 
 1395000   0.71581071   -3.3271497    966.05623  0.057709452  0.057102818            6 
 1396000   0.68387514   -3.3412313    971.23531  0.057977275  0.057075912           10 
 1397000    0.7105711   -3.3529074    969.24637   0.05781713  0.057049164            4 
 1398000   0.71071137   -3.3269873    970.79139   0.05786787  0.057022187            5 
 1399000   0.69309862   -3.3431632    968.62544  0.057697489  0.056995065            7 
 1400000   0.68980638   -3.3830467    969.77819  0.057724892  0.056967852            5 
 1401000   0.68628136   -3.3624943    969.77021  0.057683215  0.056940766            8 
 1402000   0.69329875    -3.356152    971.06757  0.057719185  0.056913594            5 
 1403000   0.68754653   -3.3496731    971.79496  0.057721249  0.056886518            4 
 1404000   0.69831598   -3.3526509    968.99427  0.057513905  0.056859372            3 
 1405000   0.69402387   -3.3585574    969.06657  0.057477258  0.056831998            5 
 1406000   0.69262703   -3.3452687    968.61283  0.057409485  0.056804887            4 
 1407000    0.6877596   -3.3535964    970.52445  0.057481903  0.056777937            5 
 1408000   0.70102974   -3.3371975    973.15999  0.057597064  0.056751166            7 
 1409000   0.70615331   -3.3331183    969.40388  0.057334036  0.056724272            8 
 1410000   0.67836114   -3.3516908    971.49332  0.057416863  0.056697467            7 
 1411000   0.70270125   -3.3418318     974.1071   0.05753054  0.056670939            4 
 1412000   0.68351866   -3.3382089    975.62093  0.057579139  0.056644368            7 
 1413000   0.69795831   -3.3303138    975.61175  0.057537848  0.056617691            3 
 1414000   0.68913082   -3.3552394    975.92303  0.057515501  0.056591366            5 
 1415000   0.67868091   -3.3624412    975.57036  0.057454085  0.056564529            5 
 1416000   0.68415524   -3.3509904    976.14749  0.057447475  0.056537867            5 
 1417000   0.68471498   -3.3625447    976.97055  0.057455337   0.05651136            3 
 1418000   0.69862147   -3.3710602    976.21637  0.057370497  0.056484829            7 
 1419000   0.69202193   -3.3562385    974.99875   0.05725856  0.056458066            2 
 1420000   0.70409914   -3.3547343    975.65229   0.05725659  0.056431312           11 
 1421000   0.69101494   -3.3570757    975.87196  0.057229179  0.056404674           13 
 1422000   0.69082591   -3.3415861      976.907   0.05724959  0.056377922            6 
 1423000   0.67387586   -3.3706613    974.73328  0.057082061  0.056351221            7 
 1424000   0.69057199   -3.3746214    976.23316  0.057129749  0.056324533            9 
 1425000   0.68058282   -3.3451012    979.76266  0.057296062  0.056297907            7 
 1426000   0.68705316   -3.3607374    978.79466  0.057199314  0.056271494            3 
 1427000   0.68241428   -3.3630789    973.95342  0.056876514  0.056244715            8 
 1428000   0.67706531   -3.3697012    979.08218  0.057135982  0.056218085            9 
 1429000   0.67878204    -3.376239    977.88911  0.057026423  0.056191491            6 
 1430000   0.68163336   -3.3619386    976.37091  0.056898072  0.056164552           13 
 1431000   0.69853786   -3.3515761    977.59236  0.056929441  0.056137934            5 
 1432000   0.67826405   -3.3626858    978.64763  0.056951096  0.056111387            5 
 1433000   0.68036636   -3.3911655    977.20847  0.056827662  0.056084684            9 
 1434000   0.68719319   -3.3675361    979.00837   0.05689263   0.05605767            5 
 1435000   0.67855055   -3.3794444    975.89422  0.056672138   0.05603097            4 
 1436000   0.67243925   -3.3680269    980.01652  0.056871897   0.05600422            4 
 1437000   0.69191916   -3.3790374    981.30011  0.056906757  0.055977484           11 
 1438000   0.66834357   -3.3757476    979.02758  0.056735488  0.055950633            5 
 1439000   0.67826444   -3.3759374    979.32674  0.056713386  0.055924065            6 
 1440000    0.6797535   -3.3395464    981.86247  0.056820745  0.055897812            6 
 1441000   0.69605968   -3.3606602    983.68977  0.056886986  0.055871376            9 
 1442000   0.67056905   -3.3693745    979.77418  0.056621254  0.055844922            6 
 1443000   0.66829218   -3.3854206    979.69873  0.056577658  0.055818142            7 
 1444000   0.66278323   -3.3668657    979.83381  0.056546273  0.055791508            5 
 1445000   0.69973873   -3.3786587    983.76479   0.05673384  0.055765104           10 
 1446000   0.67296979   -3.3745953    980.27202  0.056493316  0.055738359            7 
 1447000   0.67412731   -3.3759931    983.30424  0.056628901   0.05571176            6 
 1448000   0.67306063   -3.3883933     979.8524  0.056391137  0.055685248            6 
 1449000   0.67451488    -3.381557    981.89424  0.056469648  0.055658624            7 
 1450000   0.67641692   -3.3866321    982.91324  0.056489267  0.055632086            3 
 1451000   0.67838711   -3.3975152    980.68493   0.05632236  0.055605601           25 
 1452000    0.6698878   -3.3928801    980.37732  0.056265916  0.055578981           11 
 1453000   0.67470484   -3.3639188     985.5472  0.056523698  0.055552428            3 
 1454000   0.67126053   -3.4030367    983.40603  0.056362106  0.055525932           13 
 1455000   0.66971522   -3.3772532    984.15811  0.056366444  0.055499318            9 
 1456000   0.66383193   -3.4087321    985.32234  0.056394365  0.055472798            5 
 1457000   0.68568571   -3.3876176    986.64029  0.056431039  0.055446517            6 
 1458000   0.66959838   -3.3571534    987.22028  0.056425485  0.055420032            9 
 1459000   0.67682654    -3.389752    983.00448  0.056146018   0.05539358            9 
 1460000      0.65257   -3.3949678     984.7409  0.056206672  0.055366817            4 
 1461000   0.65814683   -3.4060314    985.63689  0.056219307  0.055340303            3 
 1462000    0.6593376   -3.4052324    985.42167  0.056168586   0.05531354            3 
 1463000   0.67045501   -3.4034374    984.31987  0.056067434  0.055286979            4 
 1464000   0.67102443   -3.3946584    985.41542  0.056091497  0.055260286            6 
 1465000   0.67962297   -3.3776183    985.85583  0.056078261  0.055233728            5 
 1466000   0.65686653   -3.4024923    987.20561  0.056116736   0.05520712            4 
 1467000   0.66637488   -3.3795953    986.68591  0.056048961  0.055180563            7 
 1468000   0.67078084   -3.3878997    986.82852  0.056018876  0.055154194            7 
 1469000    0.6585562   -3.3833988     986.5664  0.055965872   0.05512776            4 
 1470000   0.67098213   -3.3871548    985.18785  0.055849651  0.055101042            6 
 1471000   0.66793189   -3.4067507     987.7747  0.055958231  0.055074327           11 
 1472000   0.67151902   -3.4007684    990.16317  0.056055433  0.055047808           11 
 1473000   0.65939668   -3.4011168    987.18816   0.05584907  0.055021074            7 
 1474000   0.66717932   -3.3917884    988.91417  0.055908761  0.054994264            3 
 1475000   0.65877192   -3.3885731     986.6637  0.055743712  0.054967744           10 
 1476000   0.65110744   -3.4090644    988.33438   0.05580027  0.054941191            6 
 1477000   0.66219439   -3.4072458    988.59911  0.055777427  0.054914539            5 
 1478000   0.66587815   -3.3960241    986.44483  0.055618224   0.05488822            5 
 1479000   0.66135675   -3.3926597    988.83371  0.055715219   0.05486179            5 
 1480000   0.67398025   -3.3893112    989.15942  0.055695913  0.054835305            5 
 1481000   0.65544281   -3.4098043    988.76214  0.055635952  0.054808775            8 
 1482000   0.65223985   -3.3874625    988.87553  0.055604787  0.054781942            7 
 1483000    0.6544363   -3.4119458    987.64104  0.055497923  0.054755509           13 
 1484000   0.64902029   -3.4120483    987.84463  0.055471958  0.054728967            8 
 1485000   0.65532218   -3.4164665    987.38083  0.055408576  0.054702317            5 
 1486000   0.65356304   -3.4152144    990.91665  0.055569574  0.054675728            5 
 1487000   0.64884296   -3.4252323    992.01881   0.05559397   0.05464926            4 
 1488000   0.66283066   -3.4212012    989.67278  0.055425223  0.054622839            6 
 1489000   0.66182764   -3.4092548    987.13624   0.05524604  0.054596392            2 
 1490000   0.64371466   -3.3932692    992.49433  0.055508631  0.054569785            7 
 1491000   0.64580808   -3.4025474     991.7823  0.055431607   0.05454343            5 
 1492000   0.65653553   -3.3998519    990.42517  0.055318653  0.054516835            6 
 1493000   0.65793095   -3.4141544    991.34257  0.055332807  0.054490575            5 
 1494000    0.6564528   -3.4095313    993.28578   0.05540416  0.054464372            8 
 1495000   0.65708714   -3.4147764    991.14187  0.055247596  0.054437937            5 
 1496000   0.64571009   -3.4169248    990.92569  0.055198624  0.054411303            3 
 1497000   0.66537027   -3.3950674    991.29728  0.055182436  0.054384928           14 
 1498000   0.65524422   -3.3962738    991.54742  0.055159514  0.054358106            5 
 1499000   0.64797745   -3.3962117    992.25321  0.055161953   0.05433162           13 
 1500000    0.6712582   -3.3973155    992.38194   0.05513233  0.054304961            8 
 1501000   0.65740402   -3.4106186    993.92667  0.055181361  0.054278344           12 
 1502000     0.650411   -3.4165657    993.23945  0.055106494  0.054251827            6 
 1503000   0.65927389   -3.3911325    992.03911  0.055003277  0.054225203            6 
 1504000   0.65907077   -3.4238091    990.36883   0.05487416  0.054198786           11 
 1505000   0.65035285   -3.4151636    992.66051  0.054964591  0.054172049            9 
 1506000   0.64184139   -3.3997676     994.8566  0.055049613  0.054145406            7 
 1507000   0.66138834    -3.418392    994.32561  0.054983721  0.054118598            4 
 1508000   0.64982641   -3.4130445    992.98009  0.054872905    0.0540916            8 
 1509000   0.64794355   -3.4169873    993.71724   0.05487725  0.054064681           13 
 1510000   0.65800069   -3.4263567    991.28325  0.054706581   0.05403772            4 
 1511000   0.66039496    -3.426283    987.76672  0.054476435  0.054010943            5 
 1512000    0.6525231    -3.420995    992.52254  0.054702521  0.053984012           11 
 1513000   0.63674458    -3.451241    990.69783  0.054565864  0.053956917            9 
 1514000   0.66803363   -3.4336174    992.50031  0.054629035  0.053930004            9 
 1515000   0.64804355   -3.4268597    997.06129  0.054843855  0.053903155            5 
 1516000   0.64148833   -3.4391696    994.09452  0.054644597  0.053876198            5 
 1517000   0.64995877   -3.4137832    994.43935  0.054627518  0.053849385            6 
 1518000   0.64099575   -3.4412576     992.2513  0.054471415  0.053822459            4 
 1519000   0.65103676   -3.4029725    993.24611  0.054490131  0.053795504           11 
 1520000   0.65149435   -3.4206021     992.1328  0.054393246   0.05376852            7 
 1521000   0.64208457   -3.4404811    993.59881  0.054437804   0.05374157            5 
 1522000   0.65125199   -3.4091178    997.27342  0.054603231  0.053714652            5 
 1523000   0.63744167   -3.4389121    993.57128  0.054364811  0.053687615            4 
 1524000   0.64194102   -3.4389913    997.82038  0.054561482  0.053660525           17 
 1525000   0.64153136   -3.4246342    995.66289  0.054407808  0.053633607            8 
 1526000   0.65900122   -3.4399402    993.31594   0.05424399  0.053606834            9 
 1527000   0.63338223   -3.4261553    997.32195  0.054427087  0.053580068            5 
 1528000   0.61916271   -3.4162546    998.57105  0.054459591   0.05355324           17 
 1529000    0.6385855     -3.42364    996.38867  0.054305029  0.053526469            8 
 1530000   0.64385759   -3.4366618    997.29346  0.054318816  0.053499648            5 
 1531000    0.6334068   -3.4314919    997.42188  0.054290327  0.053472938            8 
 1532000   0.64733014   -3.4315167    996.63175   0.05421191  0.053446312            6 
 1533000   0.64644429   -3.4296741     1000.407  0.054381767  0.053419634            6 
 1534000   0.63347602   -3.4515208    998.91492  0.054265261  0.053393064            6 
 1535000   0.64275438   -3.4358391    997.86977  0.054173169   0.05336635            7 
 1536000   0.63505976   -3.4246122    995.78717  0.054024911  0.053339731            7 
 1537000   0.64283018   -3.4187758    998.93602  0.054160487  0.053313252            3 
 1538000   0.63536933   -3.4191622    996.64968  0.054001391  0.053286568           10 
 1539000   0.64191326   -3.4407937    996.92983  0.053981472  0.053259881            3 
 1540000    0.6355269   -3.4548134    995.77287  0.053883813  0.053233213            7 
 1541000   0.62997869   -3.4357229    997.33591  0.053933372  0.053206405            6 
 1542000   0.62783751   -3.4367274    997.18121  0.053890035  0.053179737           10 
 1543000   0.63227392   -3.4383678    998.60692  0.053932108     0.053153            6 
 1544000   0.63264209   -3.4352881     997.4981  0.053837333  0.053126379           10 
 1545000   0.65729423   -3.4462058    999.91103  0.053932634   0.05309978            5 
 1546000   0.64417053   -3.4513687    997.01915  0.053741869  0.053073227            7 
 1547000   0.62663105   -3.4535959    999.26708   0.05382822  0.053046404            3 
 1548000    0.6391382   -3.4462859    998.39539  0.053746522  0.053019549           10 
 1549000    0.6371994   -3.4535629    999.36755  0.053764125  0.052992767            6 
 1550000   0.63149467   -3.4596208    999.38575  0.053730417  0.052965857            3 
 1551000   0.64347086   -3.4238346    1003.5501  0.053919518  0.052939151           16 
 1552000   0.64673234    -3.445852      1001.42  0.053770402  0.052912463            5 
 1553000   0.64802148   -3.4454773    999.65657  0.053641155  0.052885689            9 
 1554000   0.62855349   -3.4370029    1000.9768  0.053677433  0.052858897           21 
 1555000   0.64287558    -3.453458    998.78964  0.053525704  0.052831929           11 
 1556000   0.62123603   -3.4521213    995.59761  0.053320352  0.052804744            6 
 1557000   0.63349566   -3.4584474    997.66724  0.053396876   0.05277772            5 
 1558000   0.63101407     -3.45341     999.9516  0.053484788  0.052751021            6 
 1559000   0.63519713     -3.43385    1003.1384  0.053620826  0.052724577            3 
 1560000   0.64652493   -3.4588811    999.39884   0.05338669  0.052698082           10 
 1561000   0.62746271   -3.4588264    1001.3212  0.053455116  0.052671418            6 
 1562000   0.63537722    -3.437658    1003.1714  0.053519603  0.052644659            4 
 1563000   0.62407413   -3.4404049    1001.0764   0.05337366  0.052618104            5 
 1564000   0.62948337   -3.4536271    1006.4435  0.053625508  0.052591548           11 
 1565000   0.63400805   -3.4435155    999.55738  0.053224568  0.052564937            4 
 1566000   0.62253024   -3.4561418     1001.805  0.053310184  0.052538266            5 
 1567000   0.64230571   -3.4632607    999.97932  0.053179075    0.0525116           17 
 1568000   0.64044934   -3.4609967    1003.6441  0.053339929   0.05248499            9 
 1569000   0.63631458   -3.4657971    1004.6872  0.053361334  0.052458362           15 
 1570000   0.63306032   -3.4666383    1002.8955  0.053232246  0.052431723           11 
 1571000   0.63794477   -3.4525197    1003.2717  0.053218318  0.052404831            6 
 1572000   0.62145236   -3.4755435    1002.6343  0.053150673  0.052378175            3 
 1573000   0.62343371   -3.4656961    1001.2619  0.053044178  0.052351269            6 
 1574000   0.62339317   -3.4588752     1002.208  0.053060568  0.052324524            9 
 1575000   0.62796515    -3.466381    1004.5304  0.053149757  0.052297791           11 
 1576000   0.64422114   -3.4696975    1002.6186  0.053014941  0.052271051            7 
 1577000   0.62301344   -3.4460644    1001.4485  0.052919495  0.052244195            8 
 1578000   0.61655229   -3.4799221    1006.4529  0.053150236  0.052217401           10 
 1579000   0.63174458   -3.4626547    1002.4422  0.052904909  0.052190684            9 
 1580000   0.62623784   -3.4761264    1004.0923  0.052958455  0.052164016           12 
 1581000   0.62223005   -3.4466495    1004.9892  0.052972234  0.052137272            8 
 1582000   0.62682429   -3.4714229    1007.9642  0.053095457  0.052110562            7 
 1583000   0.62688412   -3.4615294     1005.556  0.052935143  0.052083997           12 
 1584000   0.60224103   -3.4849882    1006.3971  0.052945975  0.052057328           10 
 1585000   0.62170593   -3.4618012    1006.6378  0.052925225  0.052030892            9 
 1586000   0.60800034   -3.4919106     1003.018  0.052701663  0.052004146           12 
 1587000   0.62682888   -3.4756058    1008.1833  0.052939683  0.051977628            5 
 1588000   0.63246774   -3.4718485    1006.3388  0.052809553  0.051951251            8 
 1589000   0.62084415   -3.4651307    1004.7368  0.052692304  0.051924896           10 
 1590000   0.63085356   -3.4824855    1004.9149  0.052668495  0.051898611            6 
 1591000   0.60653359   -3.4568205    1009.1375  0.052856563  0.051872312            7 
 1592000   0.61027249   -3.4690089    1008.6179  0.052796161  0.051845968            6 
 1593000   0.61504108   -3.4648904    1007.1331  0.052685346   0.05181959           17 
 1594000   0.61633249    -3.482965      1005.48  0.052565873   0.05179314            7 
 1595000   0.62726236   -3.4923091     1006.316  0.052576594  0.051766668           13 
 1596000   0.62186493   -3.4819106    1007.4149  0.052601031  0.051740116            6 
 1597000   0.61715432   -3.4723469    1006.2422    0.0525069  0.051713638           18 
 1598000   0.62008893   -3.4743476    1008.0727  0.052569498  0.051687294            7 
 1599000    0.6264385   -3.4874844    1006.8682  0.052473846  0.051660954            6 
 1600000   0.61995898   -3.5045149    1004.8954  0.052338301  0.051634444            4 
 1601000   0.61830657   -3.4667761    1010.3241   0.05258818  0.051608036           10 
 1602000   0.60866377   -3.4701853    1009.0607  0.052489633   0.05158181           10 
 1603000   0.60910437   -3.4773173    1004.5552  0.052222664  0.051555459           12 
 1604000    0.6057811   -3.4799081    1007.5357  0.052344958  0.051529291           12 
 1605000   0.60749769   -3.4771805    1008.4698  0.052360842  0.051502853           11 
 1606000   0.60111103    -3.483158    1007.9624  0.052301909  0.051476391            9 
 1607000   0.61496749   -3.5130873    1008.2455  0.052284044  0.051449906            6 
 1608000   0.61459661   -3.4869765    1011.8782  0.052439791  0.051423446           12 
 1609000   0.61296836   -3.5095423    1009.2664   0.05227193  0.051397011            5 
 1610000   0.60836619    -3.483581     1009.455  0.052249224  0.051370401            6 
 1611000   0.59829023   -3.4820505    1008.6173  0.052173457  0.051343944            4 
 1612000   0.61115234    -3.487187    1008.8088  0.052150993  0.051317339            8 
 1613000   0.61499625   -3.4936256    1008.0983  0.052081953    0.0512906           25 
 1614000   0.60843397   -3.4880633    1005.1227  0.051896048   0.05126425           14 
 1615000   0.61297226   -3.4818362    1012.9917  0.052269951  0.051237774            4 
 1616000   0.60360612   -3.5039365    1011.9339   0.05218306   0.05121154            7 
 1617000   0.60312972   -3.4969372     1010.095  0.052056019  0.051185109            7 
 1618000   0.60286095   -3.4745642    1008.4651  0.051939899   0.05115867            9 
 1619000   0.61887717   -3.4949112    1009.8693  0.051980095  0.051132042            9 
 1620000   0.59598694   -3.4742471    1014.5723  0.052189932  0.051105721            6 
 1621000   0.60679373     -3.48811    1008.4615  0.051843588  0.051079235           12 
 1622000   0.58292893   -3.5034667    1009.8013  0.051880463   0.05105275            4 
 1623000   0.61617016   -3.4897711    1010.4572  0.051882172  0.051026296           11 
 1624000   0.59447049   -3.4854541    1008.9008  0.051770362  0.050999694            8 
 1625000    0.6125172   -3.4968545    1009.5626  0.051772442  0.050973083           13 
 1626000   0.58963196   -3.4933308    1010.5016  0.051788726  0.050946592            7 
 1627000   0.60811332   -3.4968558    1011.4342  0.051804663   0.05092032           15 
 1628000   0.59970623   -3.5147896    1009.4494  0.051671243  0.050894011           20 
 1629000   0.59990695   -3.5013403    1011.6759  0.051753424  0.050867546           14 
 1630000   0.60012244   -3.5110462    1009.0336  0.051586583  0.050841033           16 
 1631000   0.60043566   -3.5043049    1009.8005  0.051594138  0.050814672           17 
 1632000   0.58287664    -3.495369    1009.3626  0.051540165  0.050788333            9 
 1633000   0.59382526   -3.5022795    1014.9251  0.051792461  0.050762128            6 
 1634000   0.59987471   -3.4959563    1013.2335  0.051674493  0.050735976            6 
 1635000   0.60351873   -3.4912432    1012.6217  0.051611709  0.050709777            5 
 1636000   0.59619036   -3.4964634    1016.3062  0.051767841  0.050683513           10 
 1637000   0.58049401   -3.4850928    1011.5242   0.05149278  0.050657203           14 
 1638000   0.59426533   -3.5308026    1009.4351  0.051355064  0.050630694           11 
 1639000   0.61207102   -3.5166902    1012.1417  0.051461344  0.050604347            9 
 1640000   0.61128125    -3.518807    1014.2323  0.051536192  0.050578058           19 
 1641000   0.60985682   -3.5051344     1013.449  0.051465009  0.050551775           10 
 1642000   0.60126883   -3.4884487     1013.903  0.051456709   0.05052549           17 
 1643000   0.59260682   -3.5082029    1013.2919  0.051394395  0.050499326            9 
 1644000    0.6031749   -3.5061301    1014.5228  0.051425528  0.050472966            7 
 1645000   0.58980531   -3.5174925    1014.3423  0.051385123  0.050446786            4 
 1646000   0.59111821   -3.5016561    1011.2249  0.051196078  0.050420639            9 
 1647000   0.59762716   -3.5183961    1014.6666   0.05133913  0.050394507           12 
 1648000   0.59072591   -3.4925929    1014.9709  0.051323367  0.050368345           19 
 1649000   0.59841442   -3.5135414    1013.5898   0.05122245  0.050342512            6 
 1650000   0.60005716   -3.5197483    1016.4649   0.05133661  0.050316522           14 
 1651000   0.60542932   -3.5083901    1014.1274  0.051187532  0.050290415            7 
 1652000   0.58864484   -3.4982097    1013.0425  0.051101821  0.050264552            6 
 1653000   0.59109315   -3.5026723    1014.1132  0.051124883  0.050238598            8 
 1654000   0.58443758    -3.514538    1015.4498  0.051161317  0.050212521           22 
 1655000   0.58971153   -3.5164539    1016.2417  0.051170278   0.05018655            9 
 1656000   0.58785108   -3.5069411    1015.7691  0.051115595  0.050160732            4 
 1657000   0.59178279   -3.5266091    1015.7267  0.051082613   0.05013488            7 
 1658000   0.58728086   -3.5158737     1018.207  0.051176467  0.050109072           10 
 1659000   0.59221298   -3.5143348    1014.8805  0.050978528  0.050083068            7 
 1660000   0.58302903   -3.5222518    1016.4494  0.051026578  0.050057021            9 
 1661000   0.58660725   -3.5296265    1014.7017  0.050908172  0.050030964            9 
 1662000   0.58384734   -3.5415193    1018.0738   0.05104662  0.050005053           10 
 1663000    0.5882709   -3.5147987    1018.9362  0.051059141  0.049979108            5 
 1664000    0.5929499    -3.513311    1015.8558  0.050874187  0.049953341            9 
 1665000   0.58671158   -3.5358272    1014.6232  0.050781942  0.049927443           10 
 1666000   0.60239561   -3.5139871     1015.698  0.050805222  0.049901421            9 
 1667000   0.59175531   -3.5120249    1016.9119  0.050835428  0.049875383           10 
 1668000   0.61247198   -3.5309056    1013.1555  0.050617279  0.049849357           11 
 1669000   0.59094325   -3.5471037    1016.0706  0.050732505  0.049823187           11 
 1670000   0.59579035   -3.5399086    1015.3918  0.050668256  0.049796979           22 
 1671000    0.5890372   -3.5413584    1013.6341  0.050550272  0.049770958           12 
 1672000   0.58632682   -3.5562751     1016.489  0.050662331  0.049744722           10 
 1673000   0.57583141   -3.5157947    1017.6016  0.050687468  0.049718434           13 
 1674000   0.57746452   -3.5426863    1017.2542  0.050639893  0.049692299            8 
 1675000   0.56591152   -3.5360971    1017.3231  0.050613087  0.049666231            6 
 1676000   0.58008665   -3.5112741    1014.7133  0.050453126  0.049640002            8 
 1677000   0.56843199   -3.5367105    1015.0222  0.050438391   0.04961375            9 
 1678000   0.58648072   -3.5254832    1015.8748  0.050450677  0.049587542            7 
 1679000   0.57968843   -3.5233707    1017.4138  0.050497012   0.04956125           13 
 1680000   0.59025796   -3.5249395    1016.4903  0.050421147  0.049535341            8 
 1681000   0.58893711   -3.5474444    1016.9639   0.05041463  0.049509296           10 
 1682000   0.57555289   -3.5393204    1015.3882  0.050306589  0.049482948           29 
 1683000   0.57896864   -3.5438944    1017.6214  0.050387275  0.049456699            7 
 1684000   0.56720822   -3.5403682    1019.0462   0.05042786  0.049430497            8 
 1685000   0.56846638   -3.5416806    1015.6472  0.050229834  0.049404343            8 
 1686000   0.59447835   -3.5392156     1017.798  0.050306347  0.049378258            6 
 1687000   0.57908781   -3.5448477    1017.5915  0.050266328  0.049351939            6 
 1688000   0.57260135   -3.5376707    1017.5181  0.050232922  0.049325556           11 
 1689000   0.57620362   -3.5521039    1015.7622  0.050116547  0.049299132           12 
 1690000   0.58631854   -3.5395369    1016.6745  0.050131877  0.049272724           16 
 1691000   0.58874068   -3.5370647    1015.4009  0.050039469  0.049246277           11 
 1692000   0.57425568   -3.5561617    1015.0629  0.049993248  0.049219935           16 
 1693000   0.56857985   -3.5389321    1016.6846  0.050043542   0.04919346            9 
 1694000    0.5994208   -3.5279135    1015.9331   0.04997703  0.049167224            6 
 1695000   0.59573836    -3.537445    1018.2511  0.050061508  0.049140835            8 
 1696000   0.58034644   -3.5545868    1014.9966   0.04987208  0.049114506            9 
 1697000   0.58374666   -3.5403055    1016.5402  0.049918493  0.049088123            6 
 1698000   0.59074503   -3.5439595    1017.7988  0.049950863  0.049061816            5 
 1699000   0.57005691   -3.5541946    1016.3828  0.049852009  0.049035361            6 
 1700000   0.56525324   -3.5550526    1016.8372  0.049844962  0.049008868            6 
 1701000   0.57687949   -3.5653815     1015.568  0.049753478  0.048982397            6 
 1702000   0.56733434   -3.5561115    1018.2282  0.049854492  0.048956118            6 
 1703000   0.58203012   -3.5448255    1018.6152  0.049844155  0.048929679            7 
 1704000   0.56881166   -3.5683912    1015.3526  0.049655352  0.048903274            4 
 1705000   0.57039376   -3.5606124    1016.9116  0.049702423  0.048876968           27 
 1706000   0.56840134   -3.5595403    1018.4528  0.049748573   0.04885066           13 
 1707000   0.58076359    -3.552938    1015.2198  0.049561601  0.048824275           13 
 1708000   0.57170549   -3.5514929    1018.0564   0.04967098  0.048797816           10 
 1709000   0.56184926   -3.5615138    1018.1859  0.049648229   0.04877142            8 
 1710000   0.57478219   -3.5450841    1016.4891  0.049536507  0.048745062           10 
 1711000   0.56533046    -3.563299    1016.6433  0.049515063  0.048718751            4 
 1712000   0.58116014   -3.5714604    1015.6819  0.049439343  0.048692378           10 
 1713000   0.58684598   -3.5731205    1017.2915  0.049488785  0.048666046           12 
 1714000   0.56819802    -3.550125    1017.0816  0.049449707  0.048639689            8 
 1715000   0.57612762   -3.5839683    1013.6606  0.049254647  0.048613342            8 
 1716000   0.56654973    -3.566647     1016.534  0.049365483  0.048586929            9 
 1717000   0.56965059   -3.5607965     1018.061  0.049410843   0.04856063           22 
 1718000   0.56525079   -3.5863079    1017.5785  0.049358677  0.048534176           10 
 1719000   0.57236681   -3.5514748    1017.1736  0.049310334    0.0485078            9 
 1720000   0.57180384   -3.5636018    1014.3804  0.049146339  0.048481386           10 
 1721000   0.57674749   -3.5741234    1017.3163  0.049259943  0.048455093            6 
 1722000   0.56290859   -3.5788804    1018.2556  0.049276791  0.048428741            9 
 1723000   0.56675821   -3.5743648    1018.3185  0.049251235  0.048402256           15 
 1724000    0.5510469   -3.5564296    1018.2414  0.049218937  0.048375916            6 
 1725000   0.55993243   -3.5641456     1014.582  0.049013621  0.048349302            5 
 1726000   0.57066378   -3.5721186    1017.2019  0.049111718  0.048322808           11 
 1727000    0.5679283    -3.583306    1014.9031  0.048972356  0.048296273           13 
 1728000   0.56304873   -3.5633454    1019.6008  0.049170561  0.048269757           13 
 1729000   0.57469133   -3.5453119     1019.327   0.04912893  0.048243302            9 
 1730000   0.57086374   -3.5787334    1015.4122  0.048911954  0.048216865           14 
 1731000   0.56291114   -3.5612574    1015.2858  0.048877616  0.048190373            9 
 1732000   0.56130866   -3.5652419    1017.2234  0.048942619  0.048163936           20 
 1733000    0.5622772   -3.5863186    1017.0121  0.048904216  0.048137574            8 
 1734000   0.55218709   -3.5851166    1017.6867  0.048908434  0.048111137            8 
 1735000   0.56321382   -3.5924668    1018.6388  0.048925974  0.048084713            5 
 1736000   0.55151798   -3.5803356     1017.808  0.048857911  0.048058248           10 
 1737000   0.55836835   -3.5654447     1018.382  0.048857319  0.048031834           14 
 1738000   0.56368973   -3.5840686    1018.6785  0.048843427   0.04800544            9 
 1739000   0.56603961   -3.5756938    1020.0648  0.048881772  0.047979063            4 
 1740000   0.56977787   -3.5810947    1018.1579  0.048762354  0.047952595            6 
 1741000   0.56287634     -3.57321    1016.6023  0.048659886  0.047926331            8 
 1742000   0.54378013   -3.5635997    1016.0798  0.048606954   0.04789994            9 
 1743000   0.55096726   -3.5669177    1018.4285  0.048691359  0.047873613            7 
 1744000   0.56700468   -3.5857965    1017.9283  0.048639542  0.047847334           11 
 1745000   0.54378007    -3.577495    1020.5892  0.048738741  0.047821002            4 
 1746000   0.54528291    -3.587437    1019.3602  0.048652168  0.047794768           19 
 1747000   0.56299291   -3.5706835    1020.4634  0.048676943  0.047768469           12 
 1748000   0.56300477   -3.5681657     1016.942  0.048481217   0.04774224           11 
 1749000   0.54684236   -3.5967833    1018.7046   0.04853748  0.047715981            9 
 1750000   0.55841745   -3.5847806    1019.7668  0.048560322  0.047689731            7 
 1751000    0.5632524   -3.5925804    1021.0963  0.048595865  0.047663483            6 
 1752000   0.54737001   -3.5767636    1020.4102  0.048535494  0.047637168           12 
 1753000   0.55992725    -3.589557    1022.0323  0.048584919  0.047611001            8 
 1754000   0.56095568   -3.6027233    1019.9569  0.048458613  0.047584874            6 
 1755000   0.55721588   -3.5715739    1021.4001  0.048499532  0.047558793            9 
 1756000   0.54106873   -3.6086142    1019.5312   0.04838322  0.047532895           15 
 1757000   0.56029132    -3.588695    1021.9001  0.048468039  0.047506804           17 
 1758000   0.54625559   -3.5790106    1020.3187  0.048365507   0.04748071           10 
 1759000   0.55170377   -3.5887435    1021.5113  0.048394508  0.047454627           10 
 1760000   0.55323442   -3.5842941    1020.7879  0.048332761  0.047428631            7 
 1761000   0.54809932   -3.5959466    1017.0044  0.048126273  0.047402531            7 
 1762000   0.53951045    -3.598598    1017.1703  0.048106807  0.047376351            6 
 1763000   0.54217937   -3.5969201    1018.5679  0.048145582  0.047350291           12 
 1764000   0.54525784   -3.5948429    1017.9344  0.048088358  0.047324161           13 
 1765000   0.55121218   -3.5929608     1020.049  0.048160956  0.047297926            9 
 1766000   0.54119783   -3.5872437    1023.1653  0.048280731  0.047271766            8 
 1767000   0.54139839   -3.5886059    1020.9565   0.04814924  0.047245703            5 
 1768000   0.53909729   -3.5789599    1022.7305  0.048205623  0.047219725            8 
 1769000   0.55315354   -3.5811701    1021.0282   0.04809818   0.04719381            9 
 1770000   0.53807285   -3.6068869    1019.9758  0.048021459  0.047167946           11 
 1771000    0.5417968    -3.587467    1021.5798  0.048069818  0.047141895           13 
 1772000   0.55569442   -3.6104874    1019.3444  0.047937568   0.04711586           17 
 1773000   0.56323033   -3.5944227    1020.4584  0.047962888  0.047089955            8 
 1774000   0.53107527   -3.5922979    1019.0172  0.047868152  0.047063855           16 
 1775000   0.54482558   -3.5942032    1021.1084  0.047939361  0.047037768            9 
 1776000   0.53591829   -3.6048859    1020.4661  0.047882229  0.047011727           10 
 1777000    0.5397543   -3.6165247    1018.6976  0.047772351  0.046985652           15 
 1778000   0.53718889   -3.6048115    1021.0832  0.047857293  0.046959591           16 
 1779000   0.54252803    -3.594079    1023.5182  0.047944453   0.04693352            5 
 1780000   0.52750217   -3.6059714     1020.918  0.047795786  0.046907607           14 
 1781000   0.53654642    -3.610103    1019.7589  0.047714714  0.046881682           22 
 1782000   0.53879101   -3.6109308    1020.0966  0.047703732  0.046855654           13 
 1783000   0.54883754   -3.6282691    1021.1401  0.047725746  0.046829596           11 
 1784000   0.53896755   -3.6248937    1022.1953  0.047748287  0.046803434           10 
 1785000   0.53584231   -3.5901438    1020.7573  0.047654404    0.0467775            4 
 1786000   0.54101169   -3.6073022    1021.2477  0.047650602  0.046751659           11 
 1787000   0.54699527   -3.6250024    1020.6686  0.047596933  0.046725699           15 
 1788000   0.54796167   -3.6049497    1023.0044  0.047679174  0.046699786           19 
 1789000   0.53694026   -3.6108178     1022.841  0.047644912  0.046674064           18 
 1790000   0.53455834   -3.6159081    1021.8556  0.047572423   0.04664822            8 
 1791000   0.55126336   -3.6154521    1021.1357  0.047512364  0.046622141           19 
 1792000   0.55623955   -3.6230912    1022.7596  0.047561366  0.046596147           18 
 1793000   0.53857436   -3.6219437     1019.558  0.047386038  0.046570189           22 
 1794000    0.5325464   -3.6178513    1022.3827  0.047490835  0.046544342           25 
 1795000   0.52874289   -3.6202102    1016.7358  0.047202218  0.046518363           16 
 1796000   0.53116684    -3.629363    1022.8404  0.047459185  0.046492316            9 
 1797000   0.53839818   -3.6256354    1023.1261  0.047446027  0.046466374           11 
 1798000    0.5360108   -3.6154121    1023.3603  0.047430491  0.046440554           25 
 1799000   0.53388692   -3.6171739    1021.7883  0.047331308  0.046414579           27 
 1800000   0.53945068   -3.6094948     1022.631   0.04734403  0.046388631           15 
 1801000   0.54211769   -3.6116617    1021.5201  0.047266339  0.046362609           21 
 1802000   0.53867137   -3.6175822    1022.7797  0.047298357  0.046336584            8 
 1803000   0.53377829   -3.6253625      1020.69  0.047175539  0.046310648           13 
 1804000   0.54468899   -3.6112198    1022.4108  0.047228882  0.046284681            9 
 1805000    0.5425264   -3.6341959    1023.2909  0.047243349   0.04625865            6 
 1806000   0.52714991   -3.6306714    1022.5921  0.047184944  0.046232617           13 
 1807000   0.53591326    -3.640665    1020.2095  0.047048952  0.046206549            8 
 1808000   0.53094495   -3.6303333    1022.3946  0.047123644  0.046180302           10 
 1809000   0.52334072   -3.6398776    1018.8701  0.046935235  0.046154202           12 
 1810000   0.52889234   -3.6230255    1023.2846  0.047112551  0.046128173           10 
 1811000   0.53978185   -3.6445858     1021.215  0.046991302  0.046102295           16 
 1812000   0.52155418   -3.6328658    1019.1173  0.046868897  0.046076193           10 
 1813000   0.52668736   -3.6211145    1018.7813  0.046827604  0.046050152            8 
 1814000   0.51483247   -3.6318831    1021.2128  0.046913487  0.046024134           13 
 1815000   0.53096401   -3.6347685    1021.6186  0.046906272  0.045998189           11 
 1816000   0.52315186   -3.6414703    1021.4898  0.046874531  0.045972161            8 
 1817000    0.5311711   -3.6238089    1020.1919   0.04678921   0.04594609            6 
 1818000   0.52227197   -3.6386934    1019.0488  0.046711073  0.045920039           10 
 1819000   0.52474872   -3.6232304    1020.2296  0.046739491  0.045894004           16 
 1820000   0.54447883   -3.6465569    1020.5417    0.0467281   0.04586802           14 
 1821000   0.53003091   -3.6410965    1020.6759   0.04670858  0.045841876           17 
 1822000   0.52344506   -3.6367973    1019.1074  0.046611205  0.045815631           10 
 1823000   0.52786202   -3.6547541    1018.2183  0.046544995  0.045789334           16 
 1824000   0.53364429   -3.6261918    1018.3217  0.046524202  0.045763212           22 
 1825000   0.52249501   -3.6319902     1021.602  0.046648495  0.045737192            7 
 1826000   0.53292904    -3.643033    1019.2261  0.046514517  0.045711177           19 
 1827000   0.52071591   -3.6268109    1020.6805  0.046555398   0.04568525           16 
 1828000   0.52962015   -3.6387941    1020.4924  0.046521354  0.045659266           12 
 1829000   0.51734104   -3.6440553    1021.2399  0.046529977  0.045633328           16 
 1830000   0.53135737   -3.6564133     1020.952  0.046491439  0.045607237           27 
 1831000   0.53429261   -3.6449543    1020.7329  0.046456075  0.045581066            9 
 1832000   0.52037504   -3.6508985    1018.6498  0.046335964  0.045554997           11 
 1833000   0.52435185   -3.6429371    1019.4842  0.046348619  0.045528855           35 
 1834000   0.52294259   -3.6419483    1019.6994  0.046333124  0.045502794           20 
 1835000   0.52048638   -3.6329432    1021.6448   0.04639622  0.045476866           16 
 1836000   0.51260153   -3.6302991    1021.0487  0.046343897  0.045450921           11 
 1837000   0.51621976    -3.637984    1019.2029  0.046234934  0.045425135           12 
 1838000    0.5221916   -3.6418142     1024.433  0.046446909  0.045399249           18 
 1839000   0.52181616   -3.6391153    1021.2271  0.046276379  0.045373391           15 
 1840000   0.51834798   -3.6386803    1022.8397  0.046324263  0.045347597           13 
 1841000   0.52233989   -3.6396691     1023.162  0.046313688  0.045321808           10 
 1842000   0.52033423   -3.6526493     1021.298  0.046204219  0.045296063           15 
 1843000    0.5213639   -3.6637296     1018.185  0.046038387  0.045270199           11 
 1844000   0.51055367   -3.6587066    1020.6194  0.046123436  0.045244226           13 
 1845000   0.52387629   -3.6507376    1021.2904  0.046128744  0.045218367           17 
 1846000   0.51578301   -3.6563133    1022.1929  0.046144498  0.045192455           23 
 1847000   0.52038774   -3.6490739    1021.0708  0.046068886  0.045166588           29 
 1848000   0.51747425     -3.65431    1019.3701  0.045967267  0.045140734           12 
 1849000   0.50759934   -3.6560056    1021.1585  0.046023008  0.045114828           18 
 1850000   0.51351468   -3.6479179    1021.4058  0.046009269  0.045089049           19 
 1851000   0.52011719   -3.6547167    1022.2226  0.046021185  0.045063223           26 
 1852000   0.52709073    -3.638237    1022.6131  0.046013907  0.045037416            9 
 1853000   0.51609281   -3.6597351    1017.6813  0.045767281  0.045011595           14 
 1854000   0.52335135    -3.673007    1018.8348  0.045794445  0.044985619           12 
 1855000   0.51021823   -3.6684143    1020.1852  0.045830421  0.044959592            8 
 1856000   0.51520539    -3.642427    1016.3646  0.045634187  0.044933624           16 
 1857000   0.50576678    -3.660665    1019.1785  0.045735888   0.04490772           22 
 1858000    0.5143273       -3.671    1020.4981  0.045770454  0.044881733           15 
 1859000   0.50968457    -3.665362    1019.0385  0.045680408  0.044855825           16 
 1860000    0.5141857   -3.6736315    1022.8252  0.045825503  0.044829884           19 
 1861000   0.50324593   -3.6613366    1021.2844  0.045731883  0.044803954           14 
 1862000   0.50754118   -3.6717831    1020.5426  0.045674123  0.044778019           15 
 1863000   0.52507227   -3.6540541    1023.6532  0.045788747   0.04475213           18 
 1864000   0.50534606   -3.6560865    1020.3187  0.045615104  0.044726246           33 
 1865000   0.50430681   -3.6580924    1018.5579  0.045511972  0.044700411            8 
 1866000   0.51649433   -3.6797687    1020.0009  0.045552022  0.044674504            9 
 1867000   0.51586086   -3.6819426    1022.5757  0.045642548  0.044648657           20 
 1868000   0.50236893   -3.6683059    1023.8085  0.045673113  0.044622771           11 
 1869000   0.51568113   -3.6618176     1020.293   0.04549193  0.044596894           10 
 1870000   0.51554373    -3.664768    1020.7423  0.045487625  0.044571007            7 
 1871000   0.50443934   -3.6799194    1020.1318  0.045436123  0.044545144           15 
 1872000   0.50573576   -3.6701343    1019.5264  0.045384902  0.044519315           20 
 1873000   0.49976538   -3.6558681    1020.9421  0.045423657    0.0444936           13 
 1874000   0.50929654    -3.691518    1022.1194  0.045451769  0.044467824           17 
 1875000   0.50453489   -3.6703831    1022.4584  0.045442596  0.044442031           25 
 1876000   0.50205489    -3.663197    1022.1675  0.045405449  0.044416208           12 
 1877000   0.50583296   -3.6728656    1022.7618  0.045407644  0.044390396           12 
 1878000   0.51433592   -3.6852693    1020.0298  0.045262237  0.044364641           28 
 1879000   0.50920278   -3.6748055    1021.4747   0.04530223   0.04433885           13 
 1880000   0.51362484   -3.6625835    1024.9684  0.045432996  0.044313161            7 
 1881000   0.49283145    -3.690278    1020.2477  0.045199703   0.04428739           19 
 1882000   0.50942222   -3.6716543    1024.4047  0.045359755  0.044261679           12 
 1883000   0.50424317   -3.6820627    1019.1153  0.045101579  0.044235952           20 
 1884000   0.51246558   -3.6855053    1021.9315  0.045202209  0.044210273           21 
 1885000   0.50845956   -3.6779584    1021.4283  0.045155984  0.044184694           13 
 1886000    0.5068855   -3.6865831    1022.8035  0.045192804  0.044159038           10 
 1887000    0.5052553   -3.6774934    1021.5451  0.045113278  0.044133502           14 
 1888000      0.50657   -3.6732646    1019.9776  0.045020199  0.044108104           16 
 1889000   0.49019317   -3.6966933    1021.0911  0.045045485  0.044082524           31 
 1890000   0.49264628   -3.6819016    1021.6607  0.045046768   0.04405685           11 
 1891000   0.49770166   -3.6826354    1026.0379  0.045215842  0.044031338            8 
 1892000   0.50287177   -3.6803452    1022.3897  0.045031259  0.044005813           13 
 1893000   0.49965016   -3.6916319    1021.5135  0.044968897  0.043980314           20 
 1894000   0.49373352   -3.6966535    1022.1165  0.044971688  0.043954773            9 
 1895000   0.50587281   -3.6984091     1024.391  0.045047975  0.043929262           11 
 1896000   0.49951675   -3.6879572    1022.1638  0.044926329   0.04390367           18 
 1897000   0.49533803   -3.6964116    1022.8165  0.044931319  0.043878138           13 
 1898000   0.50286554   -3.6796697    1022.2597  0.044883196    0.0438527           13 
 1899000   0.49283538   -3.6818742    1020.9893  0.044803812  0.043827205            8 
 1900000   0.49633351   -3.6898687    1019.7321  0.044725094  0.043801664           15 
 1901000   0.50484342   -3.7076632    1022.5274  0.044824099  0.043776144            8 
 1902000   0.50093682   -3.6894681    1022.1848  0.044785523  0.043750726           10 
 1903000   0.49274858   -3.6972014    1023.9201   0.04483798   0.04372537           26 
 1904000    0.4936501   -3.7099096    1022.2133  0.044739726       0.0437            8 
 1905000   0.49232325   -3.6951611    1020.1306  0.044625136  0.043674509           13 
 1906000   0.49501071   -3.6769382    1021.9103  0.044679534   0.04364912           16 
 1907000   0.49680424   -3.7066685    1019.0035  0.044529081  0.043623737           17 
 1908000   0.49667896   -3.6754864    1020.0148  0.044549912  0.043598378           13 
 1909000   0.50489338   -3.7118613    1023.9552  0.044698586  0.043573052           11 
 1910000   0.48883345   -3.7018182    1020.3574  0.044518213    0.0435476           20 
 1911000   0.49441381     -3.70436    1023.3728  0.044626408  0.043522221           15 
 1912000   0.48739185   -3.7057483     1020.408   0.04447385    0.0434967           20 
 1913000   0.48890053   -3.7033182    1024.0988  0.044611379  0.043471269           22 
 1914000   0.48339116   -3.6929461    1023.7802  0.044574198  0.043445759            9 
 1915000   0.49078379   -3.7182031    1023.7536  0.044549765  0.043420315           27 
 1916000   0.48178453    -3.706036    1022.3948  0.044467416  0.043394954           14 
 1917000   0.49130725   -3.6984844    1020.2373  0.044350429  0.043369567            8 
 1918000   0.49644746   -3.7146857    1020.4184  0.044335174  0.043344174            9 
 1919000   0.48400116   -3.7039404     1021.723  0.044368724  0.043318843           17 
 1920000   0.48765279   -3.7015596     1022.431  0.044376347  0.043293513           16 
 1921000    0.4916394   -3.7007251    1021.4642  0.044311307  0.043268137           19 
 1922000   0.47470294   -3.7104331    1023.5258  0.044377635  0.043242737           29 
 1923000    0.4847314   -3.6892567    1022.7022  0.044318866  0.043217515           12 
 1924000   0.48051731   -3.7062531    1021.5625  0.044246471  0.043192265           15 
 1925000   0.48962456   -3.6914028    1024.3747  0.044345226  0.043167047           11 
 1926000   0.47726128   -3.7028592    1021.2642  0.044187617  0.043141924            9 
 1927000   0.49728199   -3.7066494    1025.2692  0.044337882  0.043116774           28 
 1928000   0.48645099   -3.7152469    1024.6131  0.044286528  0.043091636           21 
 1929000   0.48064112   -3.7088094    1021.2978  0.044120347  0.043066517           18 
 1930000    0.4718538   -3.7040023    1022.3149  0.044141404  0.043041454           24 
 1931000    0.4837151   -3.7161673    1022.6239  0.044131879   0.04301631           22 
 1932000    0.4813148    -3.698731    1022.8075  0.044116957  0.042991135           20 
 1933000   0.48003941   -3.7093941    1020.3694  0.043989025  0.042966055           14 
 1934000   0.47853154   -3.6955726    1022.0224  0.044037503  0.042940974           18 
 1935000   0.47672185    -3.706941    1020.4482  0.043946951  0.042915942           23 
 1936000    0.4782981   -3.7110453    1022.6824   0.04402042  0.042890851           20 
 1937000   0.48632888   -3.7142126    1022.8116  0.044003253  0.042865747           30 
 1938000   0.47932453   -3.7173341    1023.1157  0.043993622  0.042840581           10 
 1939000   0.47212594   -3.7361196    1022.1196  0.043928124  0.042815374           18 
 1940000   0.47984006   -3.7224732    1023.3313  0.043957528  0.042790198           16 
 1941000   0.47844537   -3.7198307    1021.5147  0.043856891  0.042765129           16 
 1942000   0.48177102   -3.7034868    1020.0374  0.043770913  0.042740122           33 
 1943000   0.47471152   -3.7234478    1023.9142  0.043914658  0.042715076           16 
 1944000   0.47193828   -3.7309531    1021.1769  0.043774732  0.042690054           12 
 1945000    0.4749101   -3.7044297    1019.5229  0.043681358  0.042665052           11 
 1946000   0.47989848   -3.7110848    1023.2925  0.043820338  0.042640119           18 
 1947000   0.46798919    -3.736162    1021.2294  0.043709526  0.042615174           22 
 1948000    0.4797444   -3.7306083    1021.7147  0.043707852  0.042590165           23 
 1949000   0.48730255   -3.7172114    1022.3003  0.043710463  0.042565171           16 
 1950000   0.46833618   -3.7221513    1022.0767  0.043678491  0.042540286           16 
 1951000   0.47842166   -3.7373374    1023.9043  0.043734167   0.04251535           23 
 1952000   0.47680995   -3.7056777    1023.6396  0.043700459  0.042490437           21 
 1953000   0.47599313   -3.7298971     1023.532  0.043673493  0.042465513           19 
 1954000   0.47409122   -3.7285752     1022.528  0.043608324  0.042440529           18 
 1955000   0.46945037   -3.7326272    1023.9159  0.043645179  0.042415596           20 
 1956000   0.46491974   -3.7220951    1023.3359  0.043598157  0.042390758           13 
 1957000   0.47388449   -3.7221958    1024.4265  0.043622319  0.042365958           12 
 1958000   0.47468295   -3.7314634    1023.8337  0.043574807  0.042341103           23 
 1959000   0.47164734   -3.7175311    1023.7195  0.043547708  0.042316192           19 
 1960000   0.46519322    -3.735746    1022.4636  0.043472093  0.042291249           16 
 1961000   0.47534564   -3.7399342    1022.8582  0.043466693  0.042266368           10 
 1962000   0.46611608   -3.7264811    1020.2685  0.043334545   0.04224154           12 
 1963000   0.46890156    -3.718839    1023.1376  0.043434265  0.042216606           10 
 1964000   0.46398548    -3.721221    1024.2481   0.04345927  0.042191672           19 
 1965000   0.47206545   -3.7410208    1020.0548   0.04325932   0.04216675           34 
 1966000   0.46737798   -3.7414116    1022.3629   0.04333515  0.042141793           25 
 1967000   0.47585925   -3.7314529     1023.262  0.043351213  0.042116876           37 
 1968000   0.46093068     -3.74631    1024.6067  0.043386125   0.04209198           22 
 1969000   0.47685232   -3.7515784    1022.4715  0.043273723  0.042067033           29 
 1970000   0.46299346   -3.7544413    1022.1669   0.04323887  0.042042009           25 
 1971000   0.47467317    -3.758775    1020.8355  0.043160643  0.042017046           35 
 1972000   0.47137763   -3.7676253    1021.9124  0.043184261  0.041992126           23 
 1973000   0.45418893   -3.7379809    1021.1776  0.043131341   0.04196722           33 
 1974000   0.45792785   -3.7367959    1021.9567  0.043142382  0.041942412           16 
 1975000   0.46708507   -3.7322152    1022.4873  0.043142923    0.0419176           40 
 1976000   0.46049913   -3.7407361    1020.8916  0.043053795  0.041892877           19 
 1977000   0.45213367   -3.7444538    1021.3336  0.043050647  0.041868027           19 
 1978000   0.45759598     -3.75781    1021.4247  0.043032722  0.041843205           17 
 1979000   0.46736068   -3.7443919    1021.7867  0.043026219  0.041818433           13 
 1980000   0.46803336   -3.7408591    1022.4278  0.043031473  0.041793671           14 
 1981000   0.45999018   -3.7406454    1022.5179  0.043013539  0.041768958           15 
 1982000   0.46343519   -3.7451223    1021.2741  0.042939544  0.041744242           15 
 1983000   0.46981224    -3.747327    1021.5053  0.042927607  0.041719497           30 
 1984000   0.47280507   -3.7602503    1021.0744  0.042887869  0.041694735           29 
 1985000   0.46518352   -3.7385033    1020.2557  0.042831894  0.041670013           16 
 1986000   0.46087994   -3.7647654    1020.7999  0.042833163  0.041645184            9 
 1987000   0.46592784   -3.7605017    1019.4342  0.042754329  0.041620341           25 
 1988000   0.45852696   -3.7688493    1019.2854  0.042726586  0.041595467           46 
 1989000   0.45845983   -3.7614607    1021.8399   0.04281213  0.041570648           27 
 1990000   0.44878312    -3.756497    1019.4619  0.042691035  0.041545787           35 
 1991000   0.45278883   -3.7495066    1018.6502   0.04263562  0.041521027           24 
 1992000   0.46145689    -3.731275    1020.9574  0.042710733  0.041496291           43 
 1993000   0.47021697   -3.7692933    1023.9727  0.042815382  0.041471685           29 
 1994000   0.46061216   -3.7671002    1020.4154  0.042645242  0.041446937           44 
 1995000   0.45856119   -3.7600289      1021.33   0.04266207  0.041422151           27 
 1996000   0.46061437   -3.7460713    1019.7648   0.04257535  0.041397419           29 
 1997000   0.45011799   -3.7536312    1019.1308  0.042527573  0.041372633           27 
 1998000   0.46242493   -3.7618084    1019.3662  0.042516106  0.041347884           22 
 1999000    0.4591397    -3.760494    1018.1197  0.042442877  0.041323069           13 
 2000000   0.45446256   -3.7567423    1020.0786  0.042503276  0.041298374           13 
 2001000    0.4579457    -3.764856    1018.7014  0.042424679  0.041273669           19 
 2002000   0.45065797   -3.7598202    1021.0453  0.042501053  0.041248984           19 
 2003000   0.45079758   -3.7673094    1021.1178  0.042482852   0.04122429           16 
 2004000   0.45852141   -3.7499367    1020.2901  0.042427231  0.041199599           23 
 2005000   0.45412203   -3.7590312    1018.7003  0.042339995  0.041174847           29 
 2006000   0.44863204   -3.7634606    1018.6045  0.042314909  0.041150146           13 
 2007000    0.4413393   -3.7601476    1019.3297  0.042323935   0.04112533           12 
 2008000   0.44687227    -3.764214    1020.2459  0.042340884   0.04110062            8 
 2009000   0.45272074   -3.7671274    1021.7317  0.042381437  0.041075845           11 
 2010000   0.45183559   -3.7901007    1019.8083  0.042280607  0.041051147           16 
 2011000   0.45266039    -3.761696     1018.785  0.042217181  0.041026454           18 
 2012000   0.44872341   -3.7673686     1017.582  0.042146373  0.041001785            8 
Loop time of 4911.41 on 48 procs for 2000000 steps with 4000 atoms

Performance: 70366.702 tau/day, 407.215 timesteps/s
99.4% CPU use with 48 MPI tasks x no OpenMP threads

MPI task timing breakdown:
Section |  min time  |  avg time  |  max time  |%varavg| %total
---------------------------------------------------------------
Pair    | 322.65     | 338.82     | 361.84     |  53.2 |  6.90
Neigh   | 33.067     | 34.229     | 35.431     |  10.9 |  0.70
Comm    | 302.28     | 328.95     | 348.8      |  65.1 |  6.70
Output  | 4.1509     | 4.1528     | 4.1894     |   0.3 |  0.08
Modify  | 4146       | 4160.6     | 4172.4     |  10.8 | 84.71
Other   |            | 44.68      |            |       |  0.91

Nlocal:        83.3333 ave          91 max          77 min
Histogram: 1 4 12 7 4 9 3 4 0 4
Nghost:        2199.31 ave        2214 max        2181 min
Histogram: 3 2 3 3 6 6 13 4 5 3
Neighs:        14596.1 ave       16524 max       13292 min
Histogram: 3 5 12 8 6 3 5 3 1 2
FullNghs:      29191.7 ave       32068 max       26939 min
Histogram: 1 5 13 7 5 4 6 2 1 4

Total # of neighbors = 1401200
Ave neighs/atom = 350.30000
Neighbor list builds = 108473
Dangerous builds = 3

#clear
#
#next RN
#
#jump SELF
Total wall time: 1:21:54
