
units lj                  # Use reduced LJ style units
atom_style atomic         # Uncharged point particles
atom_modify map hash      # Needed for indexing of clusters etc
                          # Used to be able to find where atoms are in relation to each other.

lattice fcc 1.0 spacing 1 1 1
Lattice spacing in x,y,z = 1.5874011 1.5874011 1.5874011
region box block 0 10 0 10 0 10 units lattice
create_box 2 box
Created orthogonal box = (0.0000000 0.0000000 0.0000000) to (15.874011 15.874011 15.874011)
  3 by 4 by 4 MPI processor grid
create_atoms 1 box
Created 4000 atoms
  using lattice units in orthogonal box = (0.0000000 0.0000000 0.0000000) to (15.874011 15.874011 15.874011)
  create_atoms CPU = 0.004 seconds
set type 1 type/fraction 2 0.51 78393
Setting atom values ...
  2042 settings made for type/fraction
mass 1 1.0
mass 2 1.0
pair_style lj/cut  3.5
pair_modify tail  yes
pair_coeff 1  1  1.0  1.0   # Intearaction between 1 and 1 set with epsilon = 1 and sigma = 1
pair_coeff 1  2  1.5  0.8
pair_coeff 2  2  0.5  0.88

write_data data.0
System init for write_data ...
Neighbor list info ...
  update every 1 steps, delay 10 steps, check yes
  max neighbors/atom: 2000, page size: 100000
  master list distance cutoff = 3.8
  ghost atom cutoff = 3.8
  binsize = 1.9, bins = 9 9 9
  1 neighbor lists, perpetual/occasional/extra = 1 0 0
  (1) pair lj/cut, perpetual
      attributes: half, newton on
      pair build: half/bin/atomonly/newton
      stencil: half/bin/3d
      bin: standard
WARNING: Not all mixed pair coeffs generated from mixing. Use write_data with 'pair ij' option to store all pair coeffs. (../write_data.cpp:312)


#############################
#   M E L T   S Y S T E M   #
#############################

velocity all create 2.4 1741580 mom yes dist gaussian # Assign velocities
                                                    # Temperature 2.4, random number seed, zero linear momentum
                                                                                # Gaussian distribution

timestep 0.002   # simulation timestep
thermo 1000       # output thermodynamic data every 1000 steps bf 100

# Define a fix  in this case with index 1 applied to all
# particles in the simulation. This fix is for simulations
# in the anisotropic NPT ensemble. Note that we use the MTK
# correction.
fix 1 all npt temp 2.4 2.4 0.1 iso 5.68 5.68 0.5 mtk yes tchain 5 pchain 5 # Use NPT ensemble
                                                                         # Set temperature and pressure and damping
                                                                         # Numbers of thermostats in chain and in barostat
run 10000          # run for 10000 steps
Per MPI rank memory allocation (min/avg/max) = 3.642 | 3.644 | 3.648 Mbytes
Step Temp E_pair E_mol TotEng Press Volume 
       0          2.4   -5.2404118            0   -1.6413118   -4.2035775         4000 
    1000    2.4935035   -4.8725259            0   -1.1332058    5.7257167    3687.6627 
    2000    2.4066879   -4.8478397            0   -1.2387103    5.6215189    3695.0305 
    3000    2.3857448   -4.9043236            0   -1.3266011     5.349139    3695.2526 
    4000     2.342183   -4.8625207            0   -1.3501245    5.5742288    3691.5835 
    5000    2.4228072   -4.7968981            0   -1.1635958    6.2297086    3681.1231 
    6000    2.4334041   -4.9095039            0   -1.2603102    5.8806756    3652.5443 
    7000     2.406734    -4.846037            0   -1.2368385    5.7767853    3692.4385 
    8000    2.4012149   -4.8168023            0   -1.2158805    5.8253173    3693.1463 
    9000     2.381784   -4.8456918            0    -1.273909    5.4856987    3712.0861 
   10000    2.4096885   -4.9287424            0   -1.3151133    5.3050547    3683.2849 
Loop time of 2.65207 on 48 procs for 10000 steps with 4000 atoms

Performance: 651567.064 tau/day, 3770.643 timesteps/s
99.4% CPU use with 48 MPI tasks x no OpenMP threads

MPI task timing breakdown:
Section |  min time  |  avg time  |  max time  |%varavg| %total
---------------------------------------------------------------
Pair    | 1.2054     | 1.2468     | 1.3042     |   2.2 | 47.01
Neigh   | 0.21675    | 0.22253    | 0.23539    |   0.9 |  8.39
Comm    | 0.79198    | 0.87443    | 0.94688    |   3.5 | 32.97
Output  | 0.00024906 | 0.00025566 | 0.00040223 |   0.0 |  0.01
Modify  | 0.23484    | 0.29265    | 0.32941    |   3.5 | 11.03
Other   |            | 0.01543    |            |       |  0.58

Nlocal:        83.3333 ave          93 max          71 min
Histogram: 1 0 0 10 6 11 11 4 4 1
Nghost:        1736.00 ave        1765 max        1710 min
Histogram: 4 4 5 6 7 3 10 3 3 3
Neighs:        10366.3 ave       12237 max        8564 min
Histogram: 1 2 4 9 8 11 8 2 2 1

Total # of neighbors = 497584
Ave neighs/atom = 124.39600
Neighbor list builds = 910
Dangerous builds = 223

# Equilibrate just above the melting temperature to avoid step fn in T

fix 1 all npt temp 1.25 1.25 0.1 iso 5.68 5.68 0.5 mtk yes tchain 5 pchain 5
run 2000
Per MPI rank memory allocation (min/avg/max) = 3.644 | 3.646 | 3.649 Mbytes
Step Temp E_pair E_mol TotEng Press Volume 
   10000    2.4096885   -4.9287424            0   -1.3151133    5.3050547    3683.2849 
   11000    1.2650493   -6.9672893            0   -5.0701898       5.6684     2869.357 
   12000    1.2382714    -7.055881            0   -5.1989383    5.5110749     2852.208 
Loop time of 0.655844 on 48 procs for 2000 steps with 4000 atoms

Performance: 526954.567 tau/day, 3049.506 timesteps/s
99.6% CPU use with 48 MPI tasks x no OpenMP threads

MPI task timing breakdown:
Section |  min time  |  avg time  |  max time  |%varavg| %total
---------------------------------------------------------------
Pair    | 0.28682    | 0.31413    | 0.36729    |   2.9 | 47.90
Neigh   | 0.040292   | 0.042995   | 0.049371   |   0.8 |  6.56
Comm    | 0.19226    | 0.25144    | 0.28281    |   3.6 | 38.34
Output  | 5.02e-05   | 5.1398e-05 | 6.5158e-05 |   0.0 |  0.01
Modify  | 0.038559   | 0.042401   | 0.045306   |   0.9 |  6.47
Other   |            | 0.004829   |            |       |  0.74

Nlocal:        83.3333 ave          95 max          75 min
Histogram: 1 4 7 10 10 9 3 1 2 1
Nghost:        2064.83 ave        2095 max        2041 min
Histogram: 3 4 7 9 6 3 10 4 1 1
Neighs:        13391.5 ave       15212 max       11886 min
Histogram: 3 3 8 7 8 4 9 3 0 3

Total # of neighbors = 642791
Ave neighs/atom = 160.69775
Neighbor list builds = 143
Dangerous builds = 16

#############################
# L I N E A R  Q U E N C H  #
#############################

# Define solid atoms. This closely follows ten Wolde  Ruiz-Montero and Frenkel  Faraday Discuss  1996  104  93-110
# Compute components of the per-atom q6 vector
compute q6 all orientorder/atom degrees 1 6 components 6 nnn NULL cutoff 1.3 # compute the Q6 parameter.
                                                                             # Use all neighbours within 1.3 unit cell.

# get number of connections
compute coord_number all coord/atom orientorder q6 0.5

# An atom is solid if it has 8 or more connections (of a possible 14)
variable is_solid atom c_coord_number>=8
group solid dynamic all var is_solid    # Must be dynamic to update
dynamic group solid defined

# do clustering
compute cluster solid cluster/atom 1.3 # Create a cluster where all atoms within are solid and max 1.3 units from another member

# define chunks one chunk per cluster
compute clus_chunks solid chunk/atom c_cluster nchunk every compress yes  # Says which atoms are in which chunk

# count the size of each chunk
compute size_chunks solid property/chunk clus_chunks count


# Find the maximum entry in the vector of chunk sizes
variable max_n equal max(c_size_chunks)


# Thermo style which includes this variable
# thermo_style custom step temp pe vol v_max_n

thermo ${N}  # Print the thermo information every 100 steps
thermo 1000  

# Reset the npt fix at a lower temperature (below freezing)
fix 1  all npt temp  ${temp} ${temp}  0.1  iso  5.68  5.68  0.5  mtk yes tchain  5  pchain  5
fix 1  all npt temp  0.45 ${temp}  0.1  iso  5.68  5.68  0.5  mtk yes tchain  5  pchain  5
fix 1  all npt temp  0.45 0.45  0.1  iso  5.68  5.68  0.5  mtk yes tchain  5  pchain  5

dump dmp2 all dcd ${N} traj.dcd
dump dmp2 all dcd 1000 traj.dcd


compute msd all msd com yes
variable twopoint equal c_msd[4]/6/(step*dt+1.0e-6)
fix 9 all vector 10 c_msd[4]
variable fit equal slope(f_9)/6/(10*dt)
thermo_style custom step temp pe c_msd[4] v_twopoint v_fit v_max_n

fix 1 all npt temp 1.25 ${temp} 0.1 iso 5.68 5.68 0.5 mtk yes tchain 5 pchain 5
fix 1 all npt temp 1.25 0.45 0.1 iso 5.68 5.68 0.5 mtk yes tchain 5 pchain 5
run 5000000 # 5000000  # Run for this many steps
Neighbor list info ...
  update every 1 steps, delay 10 steps, check yes
  max neighbors/atom: 2000, page size: 100000
  master list distance cutoff = 3.8
  ghost atom cutoff = 3.8
  binsize = 1.9, bins = 8 8 8
  4 neighbor lists, perpetual/occasional/extra = 1 3 0
  (1) pair lj/cut, perpetual
      attributes: half, newton on
      pair build: half/bin/atomonly/newton
      stencil: half/bin/3d
      bin: standard
  (2) compute orientorder/atom, occasional
      attributes: full, newton on
      pair build: full/bin/atomonly
      stencil: full/bin/3d
      bin: standard
  (3) compute coord/atom, occasional
      attributes: full, newton on
      pair build: full/bin/atomonly
      stencil: full/bin/3d
      bin: standard
  (4) compute cluster/atom, occasional
      attributes: full, newton on
      pair build: full/bin/atomonly
      stencil: full/bin/3d
      bin: standard
Per MPI rank memory allocation (min/avg/max) = 9.841 | 9.846 | 9.850 Mbytes
Step Temp PotEng c_msd[4] v_twopoint v_fit v_max_n 
   12000    1.2382714    -7.055881 1.0704842e-30 7.4339181e-33 8.3333333e+20            2 
   13000    1.2602828   -7.0885927   0.45120368 0.0028923312  0.036448278            2 
   14000    1.2310452   -7.0803676   0.86809109 0.0051672087  0.035258612            4 
   15000    1.2140229    -7.126594    1.2908213 0.0071712291  0.035264049            1 
   16000    1.2608488   -7.0460763    1.7096437  0.008904394  0.035391197            2 
   17000    1.2336354   -7.1019275    2.0907805  0.010248924  0.034788786            2 
   18000      1.20741   -7.0544087    2.4771894  0.011468469  0.034153042            1 
   19000    1.2721855   -7.0905859    2.9226187  0.012818503  0.034015521            3 
   20000    1.2551708   -7.0726194    3.3486061  0.013952525  0.034297471            1 
   21000    1.2449713     -7.01991    3.7437717  0.014856237  0.034242085            2 
   22000     1.234125   -7.0520515    4.0655133  0.015399671  0.033954974            3 
   23000    1.2651869   -7.0347802    4.4974341  0.016295051  0.033868174            1 
   24000    1.2231473   -7.0842799    4.8550051  0.016857656  0.033668869            2 
   25000    1.2442333   -7.0432105    5.2921915  0.017640638  0.033556524            2 
   26000    1.2506136   -7.1120907    5.6884319  0.018232153   0.03353332            2 
   27000    1.2498688   -7.1382946    6.1192859  0.018886685  0.033556703            4 
   28000    1.2556079   -7.0564727    6.5634743  0.019534149  0.033579452            2 
   29000    1.2514291   -7.1081179    6.8774562  0.019762805  0.033600144            2 
   30000    1.2824819   -7.0888717     7.291394  0.020253872  0.033537974            3 
   31000     1.232719   -7.0719729    7.6125745   0.02046391  0.033470022            1 
   32000    1.2571742    -7.095332    7.9722384  0.020761037  0.033333811            2 
   33000    1.2299904    -7.058252    8.4025338  0.021218519  0.033225984            1 
   34000    1.2406292   -7.1130326    8.8965753  0.021805331  0.033219318            2 
   35000    1.2372528   -7.0535341    9.3608172   0.02228766  0.033278722            2 
   36000    1.2271989   -7.1088121    9.7507493  0.022571179  0.033330745            1 
   37000    1.2633877   -7.1250316    10.132086  0.022820014  0.033385359            2 
   38000    1.2271158   -7.0230721    10.550816  0.023137754  0.033431025            1 
   39000    1.2549823   -7.1000367     10.90332  0.023297693  0.033431928            2 
   40000    1.2585919   -7.1262852    11.188323  0.023309006  0.033390162            2 
   41000    1.2176648   -7.0583867    11.623829  0.023625669  0.033325253            2 
   42000     1.257725   -7.0871852    11.884567   0.02358049  0.033259774            2 
   43000    1.2378293   -7.0773205    12.337054   0.02390902  0.033188859            2 
   44000    1.2295957   -7.0829802     12.72295  0.024096496  0.033118234            3 
   45000    1.2301296   -7.1326236     13.11184  0.024281185  0.033064385            2 
   46000    1.2664937   -7.0929515    13.607301  0.024650906  0.033048276            3 
   47000    1.2382434   -7.1218231    13.986806  0.024799301  0.033038128            2 
   48000    1.2768327     -7.10164    14.324333  0.024868634  0.033022715            4 
   49000    1.2489187   -7.0779726    14.721999  0.025037414  0.032996743            3 
   50000    1.2109696   -7.0996911    14.954283  0.024923805  0.032959565            2 
   51000    1.2515577   -7.0940853    15.313231  0.025021619  0.032884832            2 
   52000    1.2320882   -7.0676877    15.762122  0.025259811  0.032819553            3 
   53000    1.2456204   -7.1004826    16.128486  0.025359255  0.032760561            2 
   54000    1.2489442    -7.119001    16.426173  0.025349032   0.03269734            1 
   55000    1.2706831   -7.1089096    16.797718  0.025451087  0.032635479            2 
   56000    1.2514446   -7.1456364    17.111139  0.025463005  0.032567461            2 
   57000    1.2689675    -7.128515     17.58665  0.025711477   0.03250987            2 
   58000    1.2455707   -7.1529367    17.928836  0.025759822  0.032471554            5 
   59000    1.2371694   -7.1069648    18.378699  0.025958615  0.032437682            3 
   60000    1.2333996   -7.1204619    18.897898   0.02624708  0.032411992            2 
   61000    1.2464279   -7.1187026    19.275184  0.026332219  0.032408233            1 
   62000     1.261239   -7.1179354    19.655823  0.026419117  0.032404006            1 
   63000    1.2338414   -7.1029342    20.044057  0.026513303     0.032403            2 
   64000    1.2362054   -7.1899896     20.39549  0.026556627  0.032398501            1 
   65000    1.2230652   -7.1277883    20.739689  0.026589345  0.032377637            1 
   66000    1.2418744   -7.0887781    21.201182  0.026769169  0.032365117            2 
   67000    1.2585134   -7.0890358    21.446603  0.026674879  0.032350428            2 
   68000    1.2344578   -7.1428047    21.891676  0.026828034  0.032330963            1 
   69000    1.2349096   -7.1217438    22.134237   0.02673217  0.032304636            2 
   70000    1.2383792   -7.1348146    22.475853  0.026756968   0.03226618            2 
   71000    1.2426254   -7.1327993    22.894681  0.026871691  0.032238709            2 
   72000    1.2481205   -7.1626128     23.23768  0.026895462  0.032208491            3 
   73000    1.2506273   -7.0440017    23.746357  0.027107713  0.032188404            2 
   74000    1.2458515   -7.1436633    24.055547  0.027089579  0.032165178            3 
   75000     1.260733   -7.0596231    24.494799  0.027216444  0.032139675            5 
   76000    1.2560175   -7.1453024     24.81763  0.027212314  0.032117331            1 
   77000    1.2428137   -7.1049491    25.217191  0.027291332   0.03210152            2 
   78000    1.2315584   -7.0775505    25.517709   0.02726251  0.032079815            1 
   79000    1.2083232   -7.0875131    26.094698  0.027526052  0.032062334            3 
   80000    1.2296429   -7.1054336    26.398042   0.02749796  0.032049919            2 
   81000    1.2527022   -7.1209678    26.879509  0.027653815  0.032047528            2 
   82000    1.2313071   -7.0980217    27.165759  0.027607478  0.032046226            3 
   83000    1.2331075   -7.0830705    27.635136   0.02774612  0.032052811            6 
   84000    1.2239614   -7.0975779    28.071573  0.027848782  0.032056007            2 
   85000    1.2485398   -7.1483043    28.262798  0.027708626  0.032057482            2 
   86000    1.2417143   -7.1385271    28.684651  0.027795205  0.032044939            4 
   87000    1.2479423   -7.0948097    28.953212  0.027732961  0.032035615            2 
   88000    1.2394624   -7.1230367    29.238636  0.027688102  0.032020588            1 
   89000    1.2298073   -7.1285657     29.95668  0.028049326   0.03201156            2 
   90000    1.2579361   -7.1595269    30.314902  0.028069354  0.032011803            1 
   91000    1.2171634   -7.1331336    30.710924  0.028123557  0.032006354            3 
   92000    1.2229358   -7.1280381    31.228662  0.028286831  0.032009075            1 
   93000    1.2458371    -7.092852    31.581007  0.028298393   0.03201981            1 
   94000    1.2195322   -7.1156636    31.943382  0.028318601  0.032033357            1 
   95000    1.2361776   -7.1173209    32.552101  0.028554475  0.032047887            3 
   96000    1.2341155   -7.0931489    32.728315  0.028409995  0.032061606            1 
   97000    1.2098874   -7.1096015    32.988515  0.028340648  0.032062838            1 
   98000    1.2274194   -7.1307593    33.306366  0.028321739  0.032055546            1 
   99000    1.2618781   -7.1170228    33.712294  0.028377352  0.032049577            2 
  100000    1.2218283    -7.123855    34.181338  0.028484449  0.032046078            5 
  101000    1.2295629   -7.1208844     34.49635  0.028462335  0.032042914            3 
  102000    1.2036793   -7.1482972    34.780536  0.028415471  0.032036921            2 
  103000    1.2105416   -7.1055401    35.152056  0.028440174  0.032031345            1 
  104000    1.2392969   -7.0864529    35.658506   0.02857252  0.032027537            5 
  105000    1.2389513   -7.0959453    35.823763  0.028431558  0.032016991            1 
  106000    1.2489062   -7.1276459    36.117049  0.028393906  0.032005364            1 
  107000     1.218415   -7.1164252    36.573006   0.02848365   0.03198816            1 
  108000    1.2316644   -7.1208376    36.865177  0.028445352  0.031970785            2 
  109000    1.2112268   -7.1741134    37.179847   0.02842496  0.031955166            3 
  110000     1.219476   -7.1344691     37.63354  0.028510257  0.031941241            3 
  111000    1.2403547   -7.1278119    37.991176  0.028521904  0.031930785            2 
  112000    1.2349713   -7.1350708    38.347263   0.02853219  0.031921428            2 
  113000    1.2329305   -7.1242395    38.864775  0.028661338  0.031908638            2 
  114000    1.2163162   -7.1258198    39.116869  0.028594202   0.03189781            2 
  115000    1.2456393   -7.1294999    39.660508  0.028739498  0.031885226            3 
  116000    1.2011378   -7.1455118    39.864025  0.028637949    0.0318745            1 
  117000    1.2372714   -7.1065091    40.411969  0.028783453  0.031865382            1 
  118000    1.2556177   -7.0660851    40.833136  0.028836961   0.03186184            2 
  119000    1.2377765   -7.1494012    40.962635  0.028685318  0.031851197            2 
  120000    1.2209545   -7.1416934     41.21452  0.028621194  0.031832781            3 
  121000    1.2457138   -7.1484912    41.640612  0.028678107  0.031821045            3 
  122000    1.2419327   -7.1421856    42.135493  0.028781074  0.031811797            1 
  123000     1.243798   -7.1153565    42.263279  0.028633658  0.031794391            5 
  124000    1.2012569   -7.1033487    42.744934  0.028726434  0.031775723            2 
  125000    1.2355495   -7.1053165    42.964299  0.028642866  0.031755952            5 
  126000    1.2621429    -7.157404    43.254804  0.028607674  0.031735175            3 
  127000    1.2490511   -7.1739349    43.557312  0.028580913  0.031715752            1 
  128000    1.2276975   -7.1206308    44.304691    0.0288442  0.031698392            2 
  129000    1.2536644   -7.0765853     44.67208  0.028857933  0.031685403            1 
  130000    1.2328083   -7.0973824    44.982452  0.028834905  0.031669429            4 
  131000    1.2198185   -7.1155881    45.078982  0.028676197  0.031650063            2 
  132000    1.2313988   -7.1285853    45.453353  0.028695299  0.031628557            2 
  133000    1.2215017   -7.1283869    45.742554  0.028660748  0.031606757            1 
  134000    1.2179173   -7.1342152     46.28946  0.028786977  0.031587554            2 
  135000    1.2242203   -7.1051184    46.771663  0.028871397  0.031570893            2 
  136000      1.23037   -7.0894865    46.997108  0.028797247  0.031557954            3 
  137000    1.2297476   -7.1763069    47.372646  0.028815478  0.031542596            1 
  138000    1.2393456   -7.1437198    48.011564   0.02899249  0.031533785            2 
  139000    1.2500126   -7.0994308    48.289173  0.028950343  0.031525651            4 
  140000    1.2478417   -7.1698176    48.484906  0.028860063  0.031515602            3 
  141000    1.2359172   -7.1255295    49.083646  0.029009247  0.031505257            2 
  142000    1.2077411   -7.1390379    49.492671  0.029044994  0.031496614            1 
  143000    1.2134423   -7.0993342    49.954249  0.029110867  0.031488479            4 
  144000    1.2404002   -7.1508896    50.139425  0.029015871  0.031483217            4 
  145000    1.2210045   -7.1518756     50.74408  0.029163265  0.031479003            5 
  146000    1.2506482    -7.176461    50.738711  0.028960451  0.031473181            3 
  147000    1.2042362   -7.1012127    51.243916  0.029049839  0.031462771            1 
  148000    1.2149337   -7.1334889    51.457243  0.028973672  0.031453536            3 
  149000    1.2091466   -7.1211544    51.990392    0.0290774  0.031442958            2 
  150000    1.2475992    -7.127332    52.020447  0.028900248    0.0314293            1 
  151000    1.2386725   -7.1322313    52.352076  0.028891874  0.031414893            2 
  152000    1.2051571   -7.1770405      52.9752  0.029043421  0.031401966            1 
  153000     1.203136   -7.1818747    53.035202  0.028886275  0.031390492            3 
  154000    1.2141085   -7.1232817    53.772961  0.029097923  0.031379001            1 
  155000    1.2319084   -7.1632813    53.944106  0.029002207  0.031370702            1 
  156000    1.2248722   -7.1125614    54.464422  0.029094242  0.031361196            2 
  157000    1.2325943   -7.1248441    54.966466  0.029175406  0.031356512            3 
  158000    1.2090726   -7.1500986    55.325039  0.029179873  0.031351018            6 
  159000    1.2246567   -7.1616817    55.366873  0.029018277   0.03134398            1 
  160000     1.227596   -7.1309195    56.091549  0.029214348  0.031337823            1 
  161000    1.2293868   -7.1853054    56.269332  0.029124913   0.03133156            3 
  162000    1.2455886   -7.1359567    57.015754  0.029329092  0.031326107            2 
  163000    1.2391164   -7.1155137    57.344383  0.029317169   0.03132327            3 
  164000    1.2191643   -7.1253904     57.62156  0.029279248  0.031319894            2 
  165000    1.2160816   -7.1485778    57.817591  0.029200803   0.03131346            2 
  166000    1.2378054   -7.1273596    57.967191  0.029099995  0.031304116            1 
  167000    1.2212805   -7.1302494    58.603329  0.029243178  0.031295271            2 
  168000    1.2229074   -7.1970394    58.689652  0.029111931  0.031285098            2 
  169000     1.236276   -7.1556639      59.1396  0.029161538  0.031276689            2 
  170000    1.2172978    -7.146578    59.303527  0.029070356  0.031268181            2 
  171000    1.2069182   -7.1935717    59.545253  0.029018154  0.031258381            3 
  172000    1.2397223   -7.1533033    60.321521  0.029225543  0.031247334            5 
  173000    1.2147283   -7.1773653    60.618183   0.02919951  0.031239736            1 
  174000    1.1898983   -7.0981856    61.036631  0.029232103  0.031232064            1 
  175000     1.214521   -7.1572748    61.426854  0.029250883  0.031222762            2 
  176000     1.190317   -7.1180762    61.705418   0.02921658  0.031214566            3 
  177000    1.2355045   -7.1936535    61.801497   0.02909675  0.031203275            3 
  178000    1.2391152   -7.1425649    62.190122  0.029115225  0.031193088            3 
  179000    1.2142224   -7.1797442    62.696823  0.029188465  0.031182226            2 
  180000    1.2306952   -7.1554545    63.171701  0.029246158  0.031171871            1 
  181000    1.2388673   -7.1011952    63.572079  0.029268913  0.031164565            2 
  182000    1.2251981   -7.1011598     63.68328  0.029159011  0.031156865            1 
  183000    1.2238446   -7.1717898    64.094089  0.029186744  0.031148192            4 
  184000    1.2097939   -7.1256993    64.461332  0.029194444  0.031138061            1 
  185000    1.2275124   -7.1147748    64.805414  0.029191628  0.031128693            3 
  186000    1.2044525    -7.133652    65.291718  0.029252562  0.031118104            2 
  187000    1.2181601   -7.0999273    65.240759  0.029073422  0.031104805            2 
  188000    1.2310236   -7.2027296    65.530027  0.029046998  0.031088319            3 
  189000    1.2070961   -7.1831429    65.723539  0.028978632  0.031071605            1 
  190000    1.2108707   -7.1964833    66.192369  0.029031741   0.03105575            3 
  191000    1.2132841   -7.1191469    66.796895  0.029143497  0.031041281            2 
  192000    1.2313633   -7.1164162    66.939313  0.029053521  0.031026446            2 
  193000    1.2311301   -7.1601583    67.217977  0.029023306  0.031010127            3 
  194000    1.2147443   -7.1534193     67.71766  0.029088342  0.030996596            3 
  195000    1.2104669   -7.1568214    68.060943  0.029085873  0.030983708            2 
  196000    1.2118458   -7.1808283    68.569388  0.029153651  0.030972617            1 
  197000    1.2467761   -7.1070368    69.134126  0.029244554  0.030964335            2 
  198000    1.2365127   -7.1644564    69.166865  0.029110633  0.030954943            4 
  199000    1.2312027   -7.1718106    69.437896  0.029077846  0.030943846            6 
  200000    1.2258524   -7.1492541    69.918492  0.029132705   0.03093227            5 
  201000    1.2072157   -7.1568203    70.375349  0.029177176   0.03092406            4 
  202000    1.2360594   -7.1437242    70.649552  0.029145855   0.03091341            3 
  203000    1.2270787   -7.1691727    71.095918  0.029185517  0.030903104            2 
  204000     1.213784   -7.1415375    71.462088  0.029192029  0.030893996            1 
  205000    1.1954609   -7.1485173    71.810477  0.029191251  0.030884326            2 
  206000    1.2005673   -7.1514676    71.898094  0.029084989  0.030873917            4 
  207000     1.235127   -7.1528602    72.341938  0.029123163  0.030862798            3 
  208000    1.2260447   -7.1500222    72.705296  0.029128724  0.030851419            2 
  209000    1.2119705   -7.2121618    72.869594  0.029054862  0.030840003            3 
  210000    1.2260836    -7.176887    73.715624  0.029252232   0.03082891            8 
  211000    1.1802053   -7.1851488    73.836674  0.029161404  0.030817702            3 
  212000    1.2207368   -7.1645881     74.36947  0.029233282  0.030807519            2 
  213000     1.229335   -7.1840345    74.683502  0.029218897  0.030799686            3 
  214000    1.2228095   -7.1436164    75.539993  0.029415885  0.030793986            2 
  215000    1.2243715   -7.1444548     75.86846   0.02940638  0.030790081            3 
  216000    1.2201849   -7.1571673    75.961461  0.029306119  0.030784821            1 
  217000     1.230207   -7.1406689    76.367849  0.029327131  0.030778651            2 
  218000    1.1993415   -7.2010053    75.864221  0.029000084  0.030769593            2 
  219000    1.2312969   -7.1583668    76.307642  0.029036394  0.030757055            2 
  220000    1.1923475   -7.1761986    76.854162  0.029111425  0.030745626            1 
  221000    1.2086691   -7.2447776    76.919667  0.029004399  0.030733536            5 
  222000    1.1901096   -7.1800513    77.505742  0.029093747  0.030721456            4 
  223000    1.2234207   -7.2028497     77.69181  0.029032814  0.030710016            2 
  224000    1.2060614   -7.1896562     78.06224  0.029041012  0.030696384            2 
  225000    1.2045735    -7.196506    78.515611  0.029079856  0.030682174            2 
  226000    1.1909207   -7.1846202    78.530024  0.028956498  0.030670321            1 
  227000    1.2466199   -7.1782043    79.187632  0.029070349  0.030659621            3 
  228000    1.2129792   -7.1797634    79.650022   0.02911185  0.030649222            1 
  229000    1.2210598   -7.1335699    80.159859  0.029170254  0.030639081            2 
  230000    1.2443496   -7.1854134     80.18297  0.029051801  0.030628297            1 
  231000    1.2287249   -7.1727304     80.58783  0.029072089  0.030617527            2 
  232000    1.2075739   -7.1557374    80.902248  0.029059716  0.030607166            2 
  233000    1.2070581   -7.1638252    81.236395  0.029054504  0.030595117            1 
  234000    1.2048936   -7.1787688    81.336913  0.028966137  0.030581823            2 
  235000    1.2079495    -7.132422    82.005415  0.029079934  0.030570475            2 
  236000    1.2265799   -7.1388657    82.616562  0.029172515  0.030561382            3 
  237000    1.2220092   -7.1903198    82.700843  0.029079059  0.030551667            1 
  238000    1.2250933   -7.1309238    83.408306  0.029204589  0.030542631            3 
  239000    1.2103954   -7.2155208    83.102402  0.028975733  0.030531681            2 
  240000    1.2489826   -7.1620989    83.895033   0.02913022   0.03052184            4 
  241000    1.2224615   -7.1790443    84.244382  0.029130146  0.030514371            6 
  242000    1.2217266   -7.2143976     84.61841  0.029138571  0.030507394            3 
  243000    1.2161704   -7.2270512    84.900054  0.029115245  0.030500781            3 
  244000    1.2183651   -7.1775982    85.502607   0.02920171   0.03049377            2 
  245000    1.2040874   -7.1673357    85.788588  0.029179792  0.030487184            1 
  246000    1.2112987   -7.1783818    86.060393   0.02915325  0.030478988            2 
  247000    1.2026751   -7.1744528    86.572298  0.029207928  0.030470796            3 
  248000    1.2221875   -7.1737674    87.169008  0.029290661  0.030463827            3 
  249000    1.2162231   -7.1807036    87.133576   0.02916117  0.030457652            1 
  250000     1.180575   -7.1720603      87.6277  0.029209233  0.030450376            3 
  251000    1.1981545   -7.1902832    87.776699   0.02914233  0.030443377            2 
  252000    1.2141958   -7.2006218     88.16807  0.029156108  0.030436655            1 
  253000    1.2175781   -7.1578762    88.388179  0.029113366  0.030430935            1 
  254000     1.209995   -7.1473977    89.112279  0.029236312  0.030426619            2 
  255000    1.2287839   -7.1560339    89.870279  0.029369372  0.030423525            4 
  256000    1.2156628   -7.1547324    89.956837  0.029282825  0.030421867            1 
  257000    1.1896053   -7.1813518    90.508769   0.02934785  0.030418682            3 
  258000    1.1908356    -7.207354    90.483898  0.029226065  0.030415141            4 
  259000    1.2160279    -7.186419    91.076653  0.029303942  0.030411575            3 
  260000    1.1934496   -7.1010134    91.835327    0.0294344  0.030410048            2 
  261000    1.2109971   -7.1785513     91.91871  0.029348247  0.030406698            2 
  262000    1.2227227      -7.1884    92.220215  0.029332129  0.030403763            3 
  263000    1.2240782   -7.1532003    92.779907  0.029397943  0.030401397            2 
  264000    1.2162764   -7.1974259    93.568112  0.029535389  0.030400155            1 
  265000    1.2248249   -7.1406933    93.610226  0.029437178  0.030398866            2 
  266000    1.2077974   -7.1587444     94.22035  0.029517654  0.030399004            2 
  267000    1.2100506   -7.1798772    94.662571  0.029545122  0.030398915            1 
  268000    1.1968468   -7.1627093    95.020251  0.029546098  0.030400795            4 
  269000    1.2106846   -7.1723094    95.142077  0.029474001  0.030402017            4 
  270000    1.2265537   -7.1761208    95.089362  0.029348568   0.03040029            4 
  271000    1.2419138   -7.1657749    95.460985  0.029354546  0.030398463            2 
  272000    1.1953588   -7.1960032    95.774897  0.029342799  0.030398699            2 
  273000    1.2146131   -7.1722497    96.353056    0.0294118  0.030396305            1 
  274000    1.2037782   -7.1816797    96.658668  0.029397405  0.030394279            2 
  275000    1.2085022   -7.1798321    97.504697  0.029546878  0.030393031            1 
  276000    1.2355034   -7.2062937    97.272997  0.029369866  0.030391234            2 
  277000    1.2042136   -7.1639925    97.843777  0.029435553  0.030389428            1 
  278000    1.2091035   -7.1581049    98.405113  0.029497935  0.030388725            1 
  279000    1.2011036   -7.2159192    98.273317  0.029352842  0.030387806            2 
  280000    1.2034572   -7.1939975    99.075632  0.029486795  0.030385728            2 
  281000    1.2173916   -7.1963833    99.315203  0.029452907  0.030383866            1 
  282000    1.2033329   -7.2043189    99.420892  0.029379696  0.030383156            3 
  283000    1.2099948   -7.1629361    100.19791  0.029504684  0.030382978            2 
  284000    1.1515223   -7.1625526    100.34608  0.029444271  0.030381868            2 
  285000    1.1884241   -7.1774583    100.97267  0.029524171   0.03038031            2 
  286000    1.2265361   -7.2119389    100.92365  0.029406657  0.030378047            3 
  287000    1.2169185   -7.1969167    101.31185  0.029416914   0.03037544            1 
  288000    1.2160735   -7.1586448    101.46202  0.029358223  0.030372655            2 
  289000    1.2138947   -7.1618875    102.25569  0.029485493  0.030369846            1 
  290000    1.2147749    -7.175443    102.45054  0.029439811  0.030366953            1 
  291000    1.2044813   -7.1297571    103.26007  0.029570468  0.030363762            2 
  292000    1.2479296   -7.2118964    103.30542   0.02948214   0.03036125            2 
  293000    1.2007003   -7.2720069    103.05107  0.029309178  0.030358605            2 
  294000    1.2203078   -7.1734805     103.7187  0.029398724  0.030356223            2 
  295000    1.1946728   -7.2078366    103.95767  0.029366574   0.03035481            2 
  296000    1.1996503   -7.1813901    104.69386  0.029474622  0.030353536            2 
  297000    1.1881078   -7.1708835    105.17367  0.029510007  0.030351476            3 
  298000    1.1896391   -7.1443383    105.62315  0.029536676  0.030352273            2 
  299000    1.2103719   -7.2374496    105.56808  0.029422542  0.030351422            1 
  300000    1.2198301   -7.1851797    106.20754  0.029502095  0.030350566            2 
  301000    1.1949376    -7.212208    106.11061  0.029377246    0.0303491            3 
  302000    1.2116315   -7.1530068    106.65022  0.029428869  0.030347266            3 
  303000    1.1856552   -7.2086725    106.64565  0.029330487  0.030344751            2 
  304000    1.2319474   -7.2249801    107.34176  0.029424825  0.030341505            1 
  305000    1.1670343   -7.2210142    107.76469  0.029443905  0.030338433            1 
  306000    1.2195201   -7.2048988    107.96805  0.029403065  0.030336232            5 
  307000    1.1869629   -7.1883702    109.12223  0.029620584  0.030335277            1 
  308000     1.196157   -7.1953211    109.35263  0.029586751  0.030336028            4 
  309000    1.1969787   -7.1990987    109.94826  0.029651633  0.030337823            1 
  310000    1.1936825   -7.1700034    110.19967  0.029623566  0.030339145            3 
  311000    1.2097158   -7.2500108    110.11581  0.029505844  0.030339177            2 
  312000    1.1893674   -7.2130519     110.4874  0.029510522  0.030339916            1 
  313000    1.1854486   -7.2567804     110.8262  0.029506444  0.030340165            3 
  314000    1.1948488   -7.1810197    111.86391  0.029687875  0.030342517            2 
  315000    1.1924635   -7.2260594    112.26443  0.029699586  0.030345159            2 
  316000     1.170802   -7.2148979    112.73991   0.02973099  0.030347934            2 
  317000    1.1929859   -7.1600711    113.26211  0.029774478  0.030351652            2 
  318000    1.2168052   -7.2005905     113.4156   0.02972107  0.030354732            1 
  319000    1.1906675   -7.2376908    113.34256  0.029608818  0.030356769            1 
  320000    1.2028162   -7.1593944    114.29316  0.029763843  0.030359018            3 
  321000    1.2114947   -7.1852591    114.64088  0.029761391  0.030362149            1 
  322000    1.1857853   -7.1450589    115.05164   0.02977527  0.030364323            2 
  323000    1.1914688   -7.1553179     115.2054  0.029722757  0.030367631            2 
  324000    1.1799721   -7.2293174    114.94777  0.029564755  0.030368522            2 
  325000    1.2063328   -7.2219721    115.13571  0.029521976  0.030367655            2 
  326000    1.2090832   -7.2594571    115.58899  0.029547288  0.030365862            2 
  327000    1.1904727   -7.2156427    115.90018  0.029536234    0.0303644            3 
  328000    1.2093422   -7.2281413    116.10235  0.029497547  0.030362916            2 
  329000    1.1972791   -7.1682156    116.80384  0.029585572  0.030360282            4 
  330000    1.2100503   -7.2028711    116.56621  0.029435911  0.030356296            2 
  331000    1.2131288   -7.2110751    116.65487  0.029369302  0.030353022            1 
  332000    1.1974287   -7.2011782    117.39703  0.029467125   0.03035037            1 
  333000    1.2267019    -7.252304    117.79097  0.029477219  0.030347567            3 
  334000    1.2029256   -7.2272794    118.14493  0.029477277  0.030345195            2 
  335000    1.1860282   -7.2390746    118.47963  0.029472544   0.03034341            1 
  336000    1.2010594   -7.2482011    118.60498  0.029415917  0.030341127            4 
  337000    1.1988318   -7.1999483    119.58282  0.029570429  0.030339354            2 
  338000    1.1956964   -7.2177693    119.68389  0.029507862  0.030337352            1 
  339000    1.2004933   -7.1726236    120.10266  0.029523761  0.030334981            2 
  340000    1.2304994   -7.2553118    119.70444  0.029339324  0.030332064            3 
  341000    1.1959208   -7.1811938    121.12871  0.029601347  0.030329524            3 
  342000    1.1875078   -7.2309547    120.77158  0.029427774  0.030328276            1 
  343000    1.2178283    -7.214721    121.22747  0.029452737  0.030325126            3 
  344000    1.2031484   -7.2175918     121.5671  0.029449393  0.030322226            1 
  345000    1.1994034   -7.1808747    122.31167  0.029543882  0.030321029            3 
  346000    1.1939855   -7.1835945    122.90792  0.029602101  0.030320276            2 
  347000     1.167158   -7.2262134    122.51485  0.029422395  0.030318785            4 
  348000    1.1840176   -7.2475271    122.80731   0.02940788  0.030315802            1 
  349000    1.2088959   -7.2648125    122.95468  0.029358806  0.030312774            6 
  350000    1.2188747   -7.2144395    123.93516  0.029508371  0.030310088            2 
  351000    1.1797604   -7.1702961    124.78047  0.029624994  0.030308766            2 
  352000    1.2073414   -7.1976549    124.82902  0.029552326  0.030306926            1 
  353000    1.2089229   -7.2416005    124.79685  0.029461013  0.030305264            2 
  354000    1.1805559   -7.2391489    125.31209  0.029499079  0.030303281            2 
  355000     1.208309   -7.2769438    125.44257  0.029446613  0.030301866            2 
  356000    1.2141319   -7.2092571    126.11294   0.02952082  0.030300257            3 
  357000    1.2045764   -7.2611591    126.67279  0.029568812  0.030299744            2 
  358000    1.1866577    -7.169158     127.7052  0.029726536  0.030300147            5 
  359000    1.2300313   -7.2278733    127.64117   0.02962887  0.030301055            2 
  360000    1.2085373   -7.2416896    128.03837  0.029638513  0.030301306            2 
  361000    1.1992742   -7.2119769    128.71338  0.029712231  0.030301574            4 
  362000    1.1895292   -7.2102051    128.78967  0.029647713  0.030302691            2 
  363000    1.1577342   -7.2273183    129.84232  0.029807696  0.030303286            1 
  364000    1.1945399   -7.2303488    129.69186  0.029691359  0.030303874            1 
  365000    1.1748146   -7.2322382    130.01458  0.029683693  0.030304245            1 
  366000     1.182243   -7.2205977    129.73926  0.029539905  0.030303433            1 
  367000    1.1944014   -7.2834482    130.47169  0.029625725  0.030301959            2 
  368000    1.1675824   -7.2581661    130.56652  0.029566694   0.03030055            2 
  369000    1.1796785    -7.216565    131.49073  0.029695287  0.030300441            1 
  370000    1.2006244   -7.2742344    131.06573  0.029519308  0.030299549            5 
  371000    1.2183707   -7.2679886    131.54065  0.029546417  0.030298314            3 
  372000    1.1544268    -7.284246    131.54077  0.029467019  0.030295787            2 
  373000    1.2206552   -7.2352628    132.29612  0.029556773  0.030293648            2 
  374000    1.2137376   -7.2701564    132.33469  0.029486339  0.030292022            2 
  375000    1.1791372   -7.2459343      133.069  0.029570888  0.030291665            3 
  376000    1.1754567   -7.3035114    133.00538  0.029478143  0.030290092            2 
  377000    1.1656445     -7.25679     133.4915  0.029507404  0.030287923            1 
  378000    1.1882661   -7.2577465    134.17476  0.029579974  0.030285743            1 
  379000    1.2118078   -7.1958967     134.5259  0.029579133    0.0302843            2 
  380000    1.1939636   -7.2118106    134.24218  0.029439075  0.030281312            1 
  381000    1.2207394   -7.2536439    134.67837  0.029457211   0.03027842            3 
  382000    1.1808682   -7.1968131    135.33266  0.029522832  0.030275361            2 
  383000    1.1854933   -7.2006013    135.42953  0.029466826  0.030272398            2 
  384000    1.1910168   -7.2161912    135.75331  0.029460354  0.030269056            3 
  385000    1.2035437   -7.2126842    135.84015  0.029402629  0.030265282            3 
  386000    1.1865878   -7.2304531     136.1617  0.029395876  0.030261131            2 
  387000     1.183314   -7.2449937    135.89831  0.029263202  0.030256427            2 
  388000    1.1702768   -7.2471828    136.31933  0.029278206   0.03025073            2 
  389000    1.1797973   -7.2296259    137.13646  0.029377989  0.030245177            2 
  390000    1.1845899   -7.2367178    137.68209  0.029419251  0.030240433            3 
  391000    1.1802681   -7.1983293    137.60042  0.029326602  0.030236468            3 
  392000    1.1824871   -7.2703061     137.6534  0.029263054  0.030230965            3 
  393000    1.1995487   -7.2652744    137.66526  0.029191106  0.030225396            3 
  394000    1.1970349   -7.2169159    139.00542   0.02940047  0.030220331            3 
  395000    1.2154418   -7.2786117    138.92922  0.029309962  0.030215419            5 
  396000    1.1955029   -7.2303089    139.28339  0.029310477  0.030210352            3 
  397000    1.1863867   -7.2494774    139.66837  0.029317457  0.030204834            2 
  398000    1.1939384    -7.264747    139.72618  0.029255899  0.030199926            2 
  399000    1.1745881   -7.2537551    139.95497  0.029230362  0.030194598            1 
  400000    1.1823453   -7.2483145    140.35679  0.029240998    0.0301895            2 
  401000    1.1845194   -7.2458666    140.97642  0.029296844  0.030184402            2 
  402000    1.1737085   -7.2219032    141.63732  0.029360969   0.03017843            1 
  403000    1.1727909   -7.2808121     141.0348  0.029163524  0.030172911            2 
  404000    1.1920114   -7.2283207    141.84992  0.029259473  0.030167564            2 
  405000    1.2086265   -7.2754358    142.00881  0.029219919  0.030163134            2 
  406000    1.1889717   -7.2426785    142.96427  0.029344062   0.03015888            1 
  407000    1.1841591   -7.2096867    143.90262  0.029464091  0.030155476            3 
  408000    1.1774327   -7.2070584    144.06334  0.029424703  0.030152571            5 
  409000    1.1722997   -7.2520129    144.48221  0.029438102  0.030149678            2 
  410000    1.1795721   -7.2261142    144.86922  0.029444964  0.030146739            6 
  411000    1.1752013   -7.2646095    144.68187  0.029335335  0.030143026            3 
  412000    1.1844317   -7.1841101     145.6885  0.029467739  0.030139904            3 
  413000    1.1828876   -7.2948838     145.2391  0.029305709  0.030135704            2 
  414000    1.1868486   -7.1866814    146.64934  0.029518788  0.030131456            4 
  415000    1.1975427    -7.226714    146.33224  0.029383984  0.030127447            1 
  416000    1.1856505   -7.2721756     146.7127  0.029389563  0.030124531            2 
  417000    1.1594785   -7.2074256    147.52783   0.02948198  0.030121509            2 
  418000    1.1817943   -7.2099848    147.62447  0.029430716  0.030119512            5 
  419000    1.1836637   -7.2678372    147.83437  0.029402221  0.030117043            3 
  420000    1.1958705    -7.236338    148.34515  0.029433562  0.030114433            2 
  421000    1.1835261   -7.2451251    148.68435   0.02943079  0.030111843            4 
  422000    1.1775827   -7.2518214    149.37814  0.029498053  0.030109512            4 
  423000    1.1601306   -7.2247349    150.16205  0.029582752  0.030107778            2 
  424000    1.2079622   -7.2404111    150.08201  0.029497249  0.030106622            2 
  425000    1.2034664   -7.2927216     150.6257  0.029534451  0.030105262            1 
  426000    1.1811086   -7.2243877    151.07585  0.029553179  0.030103722            3 
  427000    1.1557434   -7.2035946    151.61777   0.02958973  0.030102198            3 
  428000    1.1603067   -7.2398863    151.65086  0.029527037  0.030100532            4 
  429000    1.1620332   -7.2196824    151.80123  0.029487418  0.030098978            2 
  430000    1.1723467   -7.2558352    152.49327   0.02955296  0.030098123            6 
  431000    1.1495862   -7.2976353    152.25248  0.029437835  0.030096743            5 
  432000    1.1832763   -7.2702517    153.10397  0.029533945  0.030094553            3 
  433000    1.1942954   -7.2374945    152.85018  0.029416893  0.030093258            2 
  434000    1.1787029   -7.2426585     154.1391  0.029596601  0.030092535            2 
  435000    1.1740247   -7.2704985    154.11147  0.029523271   0.03009106            4 
  436000    1.1690001   -7.2383413    154.20395  0.029473233  0.030089093            3 
  437000    1.1796578    -7.264436    154.07577  0.029381344  0.030086803            8 
  438000    1.1664009   -7.2735766    154.51025  0.029396926  0.030084338            1 
  439000    1.1556107   -7.2788891    155.35695  0.029490688  0.030081936            3 
  440000    1.2004845   -7.2432436    155.82637   0.02951257  0.030079042            1 
  441000    1.1722944   -7.2267575    155.92608  0.029464489  0.030077005            3 
  442000    1.1815927   -7.2919169    155.90489  0.029393834  0.030074825            2 
  443000      1.14906   -7.2461961    156.72393  0.029481552  0.030072981            5 
  444000    1.1661905   -7.2401478    157.08228  0.029482411  0.030070797            4 
  445000    1.1589181   -7.2293964    157.41982  0.029479368  0.030068257            9 
  446000    1.1671975   -7.2138237    157.92415  0.029507502  0.030066543           12 
  447000    1.2131032   -7.2804384     158.4764  0.029544445  0.030064639            2 
  448000    1.1491109   -7.2634462    158.27608  0.029441235  0.030061886            1 
  449000    1.1692976   -7.2774554    158.62394  0.029440227  0.030059502            2 
  450000    1.1789069   -7.2556475    159.65258  0.029565292  0.030057351            1 
  451000     1.171878   -7.2328681    160.04581  0.029572396  0.030056255            3 
  452000    1.1602406    -7.243416    160.46763  0.029584741  0.030055257            2 
  453000    1.1673496   -7.2610033    160.24604  0.029478669  0.030054876            2 
  454000    1.1996241   -7.2644334    161.13311  0.029576562  0.030053671            3 
  455000    1.1596419   -7.2019328    161.53605  0.029585357  0.030052482            3 
  456000    1.1901052   -7.2571071    161.72302  0.029554646   0.03005187            3 
  457000    1.1748572   -7.2706604     161.8341   0.02951023  0.030051872            3 
  458000    1.1848815   -7.2520955     161.9884  0.029473873   0.03005178            3 
  459000     1.177056   -7.2518928    162.93374  0.029581289   0.03005073            3 
  460000    1.2121049   -7.2277824    163.29062  0.029581634  0.030049477            2 
  461000    1.2028168   -7.2361007    163.13042  0.029488507  0.030048221            1 
  462000    1.1953363   -7.2605232    164.05249  0.029590998  0.030046737            3 
  463000    1.1658838   -7.2510495    164.35327  0.029581222   0.03004565            2 
  464000    1.1716409    -7.293183    163.96858  0.029448379  0.030044588            1 
  465000    1.1822023   -7.2175521    164.94968  0.029560875  0.030042791            2 
  466000    1.1663433   -7.2541025    164.57469   0.02943038  0.030040975            3 
  467000    1.1642223   -7.2015404    165.37508  0.029510185  0.030039243            5 
  468000    1.1637543   -7.2655696    165.00761  0.029381697  0.030036384            2 
  469000    1.1541336   -7.2621686    164.85932  0.029292701  0.030032898            1 
  470000     1.163793   -7.2933021    165.29125  0.029306959  0.030029409            3 
  471000    1.1759623    -7.274903    165.47875   0.02927791   0.03002586            2 
  472000    1.1710415   -7.2322042    166.16888  0.029337725  0.030021895            2 
  473000    1.2004411   -7.3198718    165.75969   0.02920361   0.03001777            3 
  474000    1.1796631   -7.2470575    166.79785  0.029324516  0.030013907            2 
  475000     1.190399   -7.2468466     167.3278  0.029355755  0.030009513            3 
  476000    1.1947119   -7.2933902    166.87084  0.029214083   0.03000539            3 
  477000     1.191397   -7.2393309    167.26337  0.029221414  0.030001034            3 
  478000    1.1560141     -7.21473    168.00604  0.029289756  0.029996378            2 
  479000     1.154714   -7.3247393    167.32496  0.029110118  0.029990942            3 
  480000    1.1750464   -7.3143945    167.37486  0.029058136  0.029985314            2 
  481000    1.1797826   -7.2629714    168.83388  0.029250498  0.029979958            2 
  482000    1.1371272   -7.2554818    168.66951  0.029161394  0.029974744            2 
  483000    1.1600648   -7.2863795    168.77912  0.029119932  0.029968672            2 
  484000    1.1601633   -7.2619235     169.1274  0.029119732  0.029962894            2 
  485000    1.1788259   -7.3071899    169.84589  0.029183142  0.029957137            4 
  486000     1.179102   -7.2906243    170.50636  0.029236345  0.029951876            2 
  487000    1.1491309   -7.2758473    170.22161  0.029127586  0.029946165            1 
  488000    1.1801413   -7.2788274    169.84959   0.02900437  0.029939795            2 
  489000     1.191803   -7.2680595    170.46838  0.029050507  0.029933521            2 
  490000    1.1764869   -7.3103602    170.59287  0.029012393  0.029927027            4 
  491000    1.1658429   -7.2522905    171.31918  0.029076576  0.029920899            1 
  492000    1.1646984   -7.3028718    171.67238  0.029077299  0.029914438            3 
  493000    1.1690186   -7.2709892    172.42306  0.029145209  0.029908502            3 
  494000    1.1937571   -7.2166785    172.25545  0.029057936  0.029901978            2 
  495000     1.207383   -7.3080655    172.09585  0.028972366  0.029895314            2 
  496000    1.1824164    -7.264235    172.25875  0.028941322  0.029888313            3 
  497000    1.1852887   -7.2572555    173.35233  0.029066453  0.029881129            4 
  498000    1.1810007   -7.2762755     172.9267  0.028936864  0.029874422            1 
  499000    1.1648059   -7.2987867    173.01809  0.028894136  0.029867389            2 
  500000    1.1658696   -7.2538353     173.6752  0.028945866  0.029860125            1 
  501000    1.1804536    -7.327593    173.98548    0.0289397  0.029852983            7 
  502000    1.1519511   -7.2517504    175.09603  0.029066406  0.029846134            1 
  503000    1.1790198   -7.2845077    175.38797  0.029056986  0.029840374            2 
  504000    1.1605507   -7.2821587    175.49882  0.029017662  0.029834485            2 
  505000    1.1536041   -7.2714505    176.31222  0.029094425  0.029828869            2 
  506000    1.1674216   -7.2475521    176.54896  0.029075916  0.029823434            1 
  507000    1.1743268   -7.3131842    176.29224  0.028976371  0.029817421            3 
  508000    1.1762355    -7.285685    177.01066  0.029037182  0.029811074            1 
  509000    1.1810648   -7.2925616    177.45638  0.029053108  0.029804798            1 
  510000    1.1636099   -7.2956013    177.23076  0.028959274  0.029799212            3 
  511000    1.1550576    -7.311174    177.33572   0.02891972  0.029793103            4 
  512000    1.1675801   -7.3007974    177.78256  0.028935964  0.029787059            4 
  513000    1.1790687   -7.2891756    178.95615    0.0290702  0.029780922            8 
  514000    1.1515064   -7.2976449    179.36222  0.029079478  0.029775459            6 
  515000    1.1751017   -7.2810822    179.31436  0.029015269  0.029770198            3 
  516000    1.1633225   -7.2654118    179.63539  0.029010883  0.029764963            1 
  517000    1.1663634   -7.2883205    180.06757  0.029024431  0.029758963            2 
  518000    1.1729543   -7.2728684    180.63126  0.029059083  0.029753596            2 
  519000    1.1517428    -7.307898    180.14933  0.028925711  0.029748088            1 
  520000    1.1591429   -7.3067563    180.70576  0.028959256   0.02974224            1 
  521000     1.141671   -7.2965617    180.99306  0.028949625  0.029736577            1 
  522000    1.1698429   -7.3294092    180.77388  0.028859177  0.029730065            3 
  523000     1.135541   -7.2950145    182.00561  0.029000256  0.029723726            1 
  524000     1.162708   -7.2790037    181.79713  0.028911757  0.029717903            3 
  525000    1.1898116   -7.2308376    182.64486  0.028991247  0.029712162            3 
  526000    1.1624334   -7.3416734    181.76018  0.028795972  0.029706838            3 
  527000    1.1588254   -7.3029008    183.00258   0.02893779  0.029701267            4 
  528000    1.1560533   -7.2698395    183.34258  0.028936644  0.029695206            3 
  529000    1.1965965   -7.2555394    184.35218  0.029040986  0.029690101            2 
  530000    1.2038705    -7.291765    183.99193  0.028929549  0.029685294            2 
  531000     1.177284   -7.2906083    184.73132  0.028991105  0.029680027            8 
  532000    1.1643983    -7.275727    185.27932  0.029022449  0.029674545            2 
  533000    1.1654852   -7.3109575    185.21129  0.028957363  0.029668369            3 
  534000    1.1630837   -7.2735227    184.93435  0.028859918  0.029662465            1 
  535000    1.1830851   -7.3075925    185.12274  0.028835317  0.029656081            1 
  536000    1.1683693   -7.2965548      185.445  0.028831624  0.029649564            2 
  537000    1.1515253   -7.3057558    185.45364  0.028779273  0.029643179            1 
  538000    1.1530859   -7.3279155     186.0246  0.028814219  0.029636647            3 
  539000    1.1535876   -7.2578792    186.41575  0.028821236  0.029629752            4 
  540000    1.1619805   -7.3030121    186.58072   0.02879332  0.029622425            2 
  541000    1.1483233   -7.3585253    186.19159  0.028680159  0.029615096            1 
  542000      1.17579   -7.2743773    187.05516  0.028760018  0.029608012            1 
  543000    1.1762109   -7.3003776    187.38392  0.028757508  0.029600925            2 
  544000    1.1700847    -7.301101    187.52774  0.028726676  0.029593909            2 
  545000     1.198939   -7.2537729    188.05526  0.028754627  0.029586976            4 
  546000    1.1703918   -7.2979545    187.87061   0.02867378  0.029579962            2 
  547000    1.1740692   -7.3438994    188.10931  0.028657726  0.029572038            2 
  548000    1.1685855   -7.3398184    188.97005  0.028736322  0.029565026            2 
  549000     1.191197   -7.3149074    189.28365   0.02873158  0.029558094            4 
  550000    1.1562026   -7.2913245    189.97818  0.028784573  0.029551441            2 
  551000    1.1502282   -7.3000787     189.3752  0.028641137   0.02954498            2 
  552000    1.1668957   -7.2816202    189.88483  0.028666187  0.029538293            1 
  553000    1.1506085   -7.2992323    190.89012  0.028765841  0.029530687            3 
  554000    1.1666718   -7.3345519    190.75621  0.028693774   0.02952356            1 
  555000    1.1601084   -7.3338294    190.78658  0.028646634  0.029516478            3 
  556000    1.1458732   -7.3069763    191.29593  0.028671452  0.029508915            4 
  557000    1.1733888   -7.3221032    191.63934  0.028671356  0.029501155            4 
  558000    1.1799752   -7.2725451    192.25921  0.028712546  0.029493799            5 
  559000    1.1663747   -7.2952514    192.92825  0.028760919  0.029487098            3 
  560000    1.1518423   -7.3167048    192.73984  0.028681525  0.029480118            3 
  561000    1.1551496   -7.3228008    192.78911  0.028637718  0.029472648           13 
  562000     1.166388   -7.3008916    193.36611  0.028672318  0.029465368            1 
  563000    1.1638229    -7.275607    193.24873  0.028604015  0.029458458            4 
  564000    1.1576894   -7.3007624    193.95215  0.028657232  0.029451657            2 
  565000    1.2021634   -7.2820448    193.65849  0.028563199  0.029444024            4 
  566000    1.1625359   -7.2866499    194.19372  0.028591537   0.02943655            2 
  567000    1.1751664    -7.289632    195.18794  0.028687234  0.029429325            4 
  568000    1.1681469   -7.2835812    195.15827  0.028632375  0.029421781            3 
  569000    1.1752427   -7.2599427    195.65203  0.028654369  0.029414313            5 
  570000    1.1696549   -7.2795324    195.96211  0.028649431  0.029406611            3 
  571000    1.1708636   -7.3059741    195.25643  0.028496268  0.029399067            5 
  572000    1.1428422   -7.3176832    196.43166  0.028617666  0.029391568            2 
  573000    1.1596307   -7.2982993    196.74166  0.028612807  0.029384264            2 
  574000    1.1658391   -7.3744259    195.83126  0.028430787  0.029376543            5 
  575000    1.1506973   -7.2963113     197.4025  0.028609058   0.02936893            4 
  576000    1.1768253   -7.2681877    197.79471  0.028616133  0.029361716            2 
  577000    1.1362222   -7.3068512    197.28146  0.028492411   0.02935428            4 
  578000    1.1479538   -7.3302033     197.7394  0.028509141    0.0293466            3 
  579000    1.1712824   -7.3078871    198.64449  0.028590169  0.029339177            3 
  580000    1.1474242   -7.3079199    199.35555  0.028643039  0.029332294            4 
  581000    1.1503109   -7.3259542    198.76196    0.0285086  0.029325019            3 
  582000    1.1639336   -7.3114634     199.5557  0.028573268  0.029318311            2 
  583000    1.1489353   -7.3125554    199.83102  0.028563611  0.029311636            2 
  584000    1.1652657   -7.2949048    200.43857  0.028601393  0.029305177            2 
  585000     1.176328   -7.2753608    200.85264  0.028611487  0.029298608            1 
  586000    1.1782992   -7.3252981    200.64795  0.028533553  0.029292113            2 
  587000    1.1625717   -7.2635975    200.96103   0.02852939  0.029285367            1 
  588000    1.1569595   -7.2887745    200.87112   0.02846813  0.029278425            1 
  589000    1.1680845   -7.3322299    201.01315  0.028439891  0.029271215            1 
  590000    1.1452752   -7.3206453    201.56524  0.028469667  0.029263978            2 
  591000    1.1335353   -7.2812562    202.51592  0.028555545   0.02925642            5 
  592000    1.1531114   -7.3056211    202.29501  0.028476212  0.029249248            2 
  593000    1.1630849   -7.3590661    202.18152  0.028412243  0.029242318            2 
  594000    1.1620782   -7.3220588    202.86682  0.028460553  0.029235239            6 
  595000     1.163848    -7.318995    202.86601  0.028412606  0.029228173            3 
  596000    1.1655838   -7.3277275      203.391  0.028438339  0.029220546            2 
  597000     1.181403   -7.2778268    203.61149   0.02842148  0.029213156            1 
  598000    1.1618794   -7.3075261    204.45636  0.028491689  0.029205831            3 
  599000    1.1558099   -7.2855211    204.96054  0.028514265  0.029198586            2 
  600000    1.1873096   -7.2915985    204.55014  0.028409741  0.029191378            5 
  601000    1.1749241   -7.3169307    204.89888  0.028410827   0.02918386            2 
  602000    1.1337343   -7.3226233    204.52587  0.028311997  0.029176358            2 
  603000    1.1739055    -7.322063    205.63573  0.028418427  0.029169159            4 
  604000    1.1885105   -7.3750438     205.1429   0.02830338  0.029161666            1 
  605000    1.1606546   -7.3116835     206.1294   0.02839248   0.02915503            1 
  606000    1.1383517   -7.2709394    207.32314  0.028509783  0.029147841            3 
  607000    1.1387202   -7.3129798     207.1563  0.028439909  0.029141041            3 
  608000    1.1579923   -7.3274996    206.90137  0.028358192  0.029133972            4 
  609000    1.1452788   -7.3193348     207.1766  0.028349288  0.029127022            3 
  610000    1.1202311   -7.2885687    208.81582  0.028526752  0.029120121            4 
  611000    1.1481254   -7.3206177     208.2888  0.028408183  0.029113491            3 
  612000    1.1481646   -7.3354128    208.92865  0.028448891  0.029106667            4 
  613000    1.1154782   -7.3689767    208.45569  0.028338185  0.029099606            3 
  614000    1.1337635   -7.3384791    209.82254  0.028477544  0.029092729            2 
  615000    1.1495859   -7.3301864    209.61242  0.028402767    0.0290866            1 
  616000    1.1636406   -7.3255793    210.40507  0.028463889  0.029080049            1 
  617000    1.1574379   -7.2743999    210.99007  0.028496768  0.029073939            2 
  618000     1.142747   -7.3613494    210.71777  0.028413939  0.029067941            3 
  619000     1.164046   -7.3448022    211.34726  0.028452782  0.029061795            3 
  620000    1.1541952   -7.3313353    211.43496  0.028418677  0.029055732            2 
  621000    1.1294869   -7.3025065    212.61615  0.028531421  0.029049717            1 
  622000    1.1667949   -7.2754157    212.84466  0.028516165  0.029043917            2 
  623000    1.1524827   -7.3227458    212.85784  0.028472156  0.029038773            3 
  624000    1.1405594   -7.3301585    213.21787  0.028474608  0.029033885            2 
  625000    1.1163665   -7.3049177    213.63191  0.028484255  0.029028829            3 
  626000    1.1527788   -7.3483574    213.15216  0.028374889  0.029023151            2 
  627000    1.1790774   -7.3275448    213.71841  0.028404892  0.029016937            2 
  628000    1.1432585   -7.3445339    214.69315  0.028489007  0.029010877            3 
  629000    1.1558767   -7.3588034    213.93056  0.028342682  0.029004865            2 
  630000    1.1744253   -7.3281832    214.28239  0.028344232  0.028998498            2 
  631000    1.1411359   -7.3641398    214.44981  0.028321422  0.028991918            1 
  632000    1.1306563   -7.3428089    214.87999  0.028333332  0.028984694            1 
  633000    1.1320937   -7.3275447    214.72954  0.028268766  0.028977444            2 
  634000    1.1364125   -7.3258254    214.96354  0.028254934  0.028970101            2 
  635000    1.1536318   -7.3279066    215.11813  0.028230726   0.02896291            3 
  636000    1.1649964   -7.3550402    215.60221  0.028249766  0.028955745            3 
  637000    1.1684978   -7.3329272    215.71125  0.028219682  0.028948679            4 
  638000    1.1370099   -7.2848145     216.6488   0.02829791  0.028942066            7 
  639000    1.1546436   -7.3389175    216.40961  0.028222432  0.028935228            2 
  640000    1.1396411   -7.3194091    216.66604  0.028211724  0.028928041            1 
  641000    1.1534338   -7.3356045    216.98382  0.028209025  0.028920216            1 
  642000     1.155281   -7.3614193     216.5393  0.028107385  0.028912415            3 
  643000     1.143478   -7.3477764    217.82071  0.028229744   0.02890498            3 
  644000    1.1819433   -7.3761814    217.43506  0.028136007  0.028897277            3 
  645000    1.1481684   -7.3666734    217.57389  0.028110321  0.028889177            2 
  646000    1.1512918   -7.3679808    217.32698  0.028034956   0.02888092            3 
  647000    1.1545075   -7.3649663    217.63152   0.02803085   0.02887256            2 
  648000    1.1398586   -7.2896703    218.60749  0.028113103  0.028864299            1 
  649000    1.1620483   -7.3581806    218.35487  0.028037349  0.028855995            1 
  650000    1.1607151   -7.3298776    219.11867  0.028092137  0.028847831            3 
  651000    1.1381019   -7.3512533     219.0051  0.028034447   0.02883939            2 
  652000    1.1554704    -7.295131    219.25799  0.028023771  0.028831111            2 
  653000    1.1371685   -7.3567294    219.18836   0.02797197  0.028822945            3 
  654000     1.175254   -7.3382512    219.22201  0.027933487  0.028813984            3 
  655000    1.1230217   -7.3204875    219.71915   0.02795409  0.028805195            3 
  656000    1.1262151   -7.3645743    219.56151  0.027891452  0.028796105            3 
  657000     1.152322   -7.3742781    220.72538  0.027996623  0.028787465            2 
  658000    1.1521432   -7.3121788    221.20021  0.028014211  0.028779163            3 
  659000     1.130461   -7.3101455    221.34418  0.027989906  0.028770266            5 
  660000    1.1284389   -7.3603476    221.51181  0.027968663  0.028761875            3 
  661000    1.1528247   -7.3454005    220.94304  0.027854645  0.028752963            2 
  662000    1.1336172   -7.3169571    221.82261  0.027923289   0.02874437            3 
  663000    1.1423511   -7.3734101    221.89302  0.027890022  0.028735931            2 
  664000    1.1505347   -7.3510738    222.43206   0.02791567  0.028727855            3 
  665000    1.1363916   -7.3107338    223.37692  0.027992096  0.028719536            2 
  666000     1.151989   -7.3811595    222.67777  0.027862583  0.028711226            2 
  667000    1.1371817   -7.3407216     223.0256  0.027864267  0.028702176           10 
  668000    1.1404887   -7.3505301    223.44115  0.027874395  0.028693308            6 
  669000    1.1539843   -7.3303841    223.50636  0.027840852   0.02868476            7 
  670000    1.1286297   -7.3707767    224.08055  0.027870715  0.028676206            3 
  671000    1.1761669   -7.3415843    224.58838  0.027892247  0.028667631            2 
  672000    1.1612197   -7.3288168    225.57924  0.027973615  0.028659003            2 
  673000     1.124957   -7.3586644    224.62893   0.02781438  0.028650553            3 
  674000     1.147899   -7.3319441     225.3925   0.02786752  0.028642237            2 
  675000    1.1509699   -7.3487052    225.54511  0.027845076   0.02863377            2 
  676000      1.14391   -7.3876253    225.58608  0.027808935  0.028625291            3 
  677000    1.1433668   -7.3476441    225.45651  0.027751909  0.028616425            2 
  678000    1.1517043   -7.3376282    226.37773  0.027824205  0.028607802            3 
  679000    1.1761298    -7.388814    226.48766  0.027796718  0.028599284            2 
  680000    1.1187132   -7.3651956    226.98615   0.02781693   0.02859113            1 
  681000    1.1435003   -7.3510737    227.41104  0.027828076   0.02858263            2 
  682000    1.1446045   -7.3707611    227.55697  0.027805103  0.028574515           10 
  683000    1.1402859   -7.3566849    227.85569   0.02780084  0.028566122            5 
  684000    1.1317173   -7.3350184    229.42988  0.027951984  0.028557974            2 
  685000    1.1456848   -7.3551825    228.93266  0.027850689  0.028549723            2 
  686000    1.1379516    -7.370104     228.1284   0.02771239  0.028541378            2 
  687000    1.1608296   -7.3229267    228.57907  0.027726719   0.02853319            1 
  688000    1.1475977   -7.3800784    228.92617  0.027728461  0.028524747            2 
  689000    1.1426434    -7.392065    228.89451  0.027684387   0.02851592            3 
  690000    1.1283303   -7.3755353    228.79718   0.02763251  0.028507318            3 
  691000     1.142271   -7.3834228    229.68338  0.027699394  0.028498931            2 
  692000    1.1332646   -7.3523309    230.33703  0.027738081  0.028490539            4 
  693000    1.1469269   -7.3741262    230.49313  0.027716826  0.028482145            2 
  694000    1.1484105   -7.3380949    231.67063  0.027818279  0.028473861            3 
  695000    1.1236958   -7.3366871    231.34951   0.02773975  0.028465898            1 
  696000    1.1686004    -7.331795    231.77725  0.027751108  0.028457838            4 
  697000    1.1116329   -7.3487054    232.33624  0.027778125  0.028450194            3 
  698000    1.1220537   -7.3387356    232.14409  0.027715388  0.028442303            1 
  699000    1.1500255   -7.3593503    232.14153  0.027675433   0.02843474            3 
  700000    1.1297562   -7.4026235    232.72532  0.027705396   0.02842698            2 
  701000    1.1424084   -7.3625278    232.56892   0.02764728  0.028418758            2 
  702000    1.1437204   -7.3138062    233.51816  0.027720579  0.028411128            2 
  703000    1.1492766   -7.3783885    233.43022  0.027670723  0.028403058            6 
  704000    1.1189373   -7.3745212    233.28092  0.027613745  0.028394497            2 
  705000    1.1535519   -7.4098617    233.91277  0.027649263  0.028385654            2 
  706000    1.1324851   -7.3777128    233.94381  0.027613765  0.028377147            2 
  707000     1.147869   -7.3671267    234.71321  0.027665395  0.028368952            7 
  708000    1.1448602   -7.3656681    235.32455  0.027698275  0.028361118            4 
  709000    1.1569365    -7.356071    235.47381  0.027676752  0.028352867            1 
  710000    1.1450288   -7.3334892    236.30192  0.027734967  0.028344711            6 
  711000    1.1486072   -7.3891666    235.38205  0.027588144  0.028336411            2 
  712000    1.1408463   -7.4235571    235.35911  0.027546712  0.028328216            4 
  713000    1.1105199   -7.3897913    236.14499  0.027599929  0.028319916            1 
  714000    1.1482851   -7.3892466    235.90498  0.027533261  0.028311583            8 
  715000    1.1527821    -7.360242    236.24782   0.02753471  0.028302908            5 
  716000     1.139278   -7.3328477    236.66243  0.027544509  0.028294777            3 
  717000    1.1439036   -7.3438189    237.25562  0.027575037   0.02828681            1 
  718000    1.1277485   -7.3946119    237.79014  0.027598669  0.028278449            1 
  719000    1.1535859   -7.3708325    237.57037  0.027534813  0.028270083            2 
  720000    1.1532403   -7.3807058    237.38616   0.02747525  0.028261407            4 
  721000    1.1273717   -7.3947886    238.38973  0.027553136   0.02825276            3 
  722000    1.1279337   -7.3641886    238.54372  0.027532747  0.028244502            3 
  723000    1.1589765   -7.3329782    238.80017  0.027524224  0.028235804            2 
  724000    1.1595235   -7.3655433    238.19278  0.027416296   0.02822649            1 
  725000    1.1213235   -7.3825266    237.67936  0.027319467  0.028217224            2 
  726000    1.1300839   -7.3832406    238.70504  0.027399568  0.028207987            6 
  727000     1.136598   -7.3695045    239.11489   0.02740886  0.028198703            2 
  728000    1.1425267   -7.3639651    238.73065  0.027327226  0.028189628            8 
  729000    1.1377191   -7.3359034    239.45678  0.027372745  0.028180464            5 
  730000    1.1250427   -7.4130117    239.25606  0.027312336  0.028171106            3 
  731000    1.1232423   -7.3825562    239.82641  0.027339992  0.028162048            3 
  732000    1.1289731   -7.3433914    240.69519  0.027401547  0.028153159            3 
  733000    1.1323688   -7.4264035    239.05037  0.027177168  0.028143838            2 
  734000    1.1178768   -7.3875165    240.26541  0.027278089  0.028134319            1 
  735000    1.1741774   -7.4018578    240.65625  0.027285289  0.028125174            1 
  736000    1.1444274   -7.3363494    241.50875   0.02734474  0.028116223            3 
  737000    1.1370595   -7.3902552    240.76458  0.027223493  0.028107143            4 
  738000     1.134806   -7.3779483    241.49861   0.02726949  0.028097663            2 
  739000    1.1238193   -7.3471574    242.05726  0.027295587  0.028088476            3 
  740000    1.1152194   -7.3286049    242.43328  0.027301045  0.028079492            3 
  741000    1.1235293   -7.4377369    242.34701  0.027254499  0.028070336            3 
  742000    1.1209832    -7.371972    243.50481    0.0273478  0.028061558            1 
  743000    1.1341391    -7.388744    243.11882  0.027267701  0.028052863            5 
  744000    1.1307712   -7.3945971    243.79861  0.027307192  0.028044286            4 
  745000    1.1437103   -7.3887293    244.00411  0.027293525  0.028035404            4 
  746000    1.1532162   -7.4163454    243.87011   0.02724197   0.02802667            2 
  747000    1.1330754   -7.3576678    245.20324  0.027354222  0.028018155            2 
  748000    1.1446463   -7.4205217    244.48644  0.027237794   0.02800962            2 
  749000     1.154545   -7.4311083    244.96763  0.027254966  0.028000851            4 
  750000     1.132159   -7.3640614    245.42465  0.027269406  0.027991993            2 
  751000    1.1253062   -7.3560093     246.3696  0.027337949  0.027983693            5 
  752000    1.1193792   -7.3334452    246.57367  0.027324209  0.027975114            3 
  753000    1.1356197   -7.3629835    246.82522  0.027315762  0.027966652            2 
  754000    1.1497971   -7.3904856    246.87403  0.027284928  0.027958124            3 
  755000    1.1282844    -7.414077    245.24152    0.0270686  0.027949663            5 
  756000    1.1254171   -7.3877322    246.99428  0.027226001  0.027941163            3 
  757000    1.1296779   -7.3774989    247.32379  0.027226309  0.027932591            4 
  758000    1.1329016   -7.4023888    248.06957  0.027272381  0.027924128            3 
  759000    1.1433718   -7.3818573    247.84616  0.027211919  0.027915653            2 
  760000    1.1367607   -7.3767808    248.11138  0.027205195  0.027907056            3 
  761000    1.1211297   -7.4235058     248.8779  0.027253384  0.027898474            3 
  762000    1.1353742   -7.3792255    248.59409   0.02718658  0.027889883            1 
  763000    1.1214255    -7.422727    248.32207   0.02712124  0.027881052            2 
  764000    1.1162381   -7.3733943    248.79127  0.027136918  0.027872165            2 
  765000    1.1230248   -7.4067529    248.48753  0.027068359  0.027863458            3 
  766000     1.143318   -7.3623996    249.75204  0.027170587  0.027855084            2 
  767000    1.1555625   -7.4062765    249.63667  0.027122628   0.02784647            5 
  768000    1.1203683   -7.4020367    250.17332  0.027145542  0.027837722            1 
  769000    1.1085549   -7.4385217    249.48365  0.027035506  0.027828643            3 
  770000    1.1303226   -7.4205528    250.14969  0.027072478   0.02781943            4 
  771000    1.1232641   -7.4466444    249.88327  0.027008568   0.02781024            4 
  772000    1.1521221   -7.3773706    250.68091  0.027059683  0.027801053            2 
  773000    1.1250635   -7.3748967    250.88567  0.027046752  0.027791891            5 
  774000    1.1107147    -7.414452    250.34358  0.026953444  0.027782767            2 
  775000     1.125042   -7.3944171    251.20423  0.027011208  0.027773529            2 
  776000    1.1433455   -7.4069975    251.09766  0.026964954  0.027764537            3 
  777000    1.1421818   -7.3623496    252.21403  0.027049982  0.027755811            3 
  778000    1.1396631   -7.4104913    252.26733  0.027020922  0.027746722            2 
  779000    1.1040843   -7.4251044    252.52485  0.027013784  0.027737808            1 
  780000    1.1326274   -7.4292476    252.98775  0.027028606  0.027728743            3 
  781000    1.1239293   -7.3815596    253.73825  0.027074077  0.027719862            2 
  782000     1.103248   -7.4127843    252.76482  0.026935722  0.027710767            6 
  783000    1.0925916   -7.3853438    253.96207  0.027028743  0.027701749            2 
  784000    1.1026008    -7.443108    253.96627  0.026994714  0.027692837            1 
  785000    1.1056302      -7.4069     254.5221  0.027019331  0.027684019            5 
  786000    1.1086149   -7.3840655    254.11537  0.026941833  0.027675469            2 
  787000    1.1307544   -7.3538505    254.83979  0.026984306  0.027667341            3 
  788000    1.1223677   -7.4068142    256.18727  0.027092563  0.027659144            1 
  789000    1.1290778   -7.3615405    255.44297  0.026979613  0.027651192            4 
  790000     1.126189   -7.3849351    256.76398  0.027084808  0.027643015            2 
  791000    1.1126397   -7.3883664      256.807  0.027055099  0.027634929            2 
  792000    1.1478394   -7.4233622    256.25642  0.026963007  0.027626692            4 
  793000    1.1225542   -7.3884645    257.13942  0.027021797  0.027618448            3 
  794000    1.1023717   -7.3583423    257.86361  0.027063771  0.027610439            2 
  795000    1.1341765   -7.4285285    257.28262  0.026968828  0.027602068            4 
  796000    1.1507939   -7.3885264    257.57269  0.026965315  0.027593464            4 
  797000    1.1298638   -7.4273707    257.79078  0.026954285   0.02758519            2 
  798000    1.1139957   -7.4464077    258.45745  0.026990126  0.027576881            3 
  799000    1.1069228   -7.4060432    258.90305  0.027002822  0.027568747            3 
  800000    1.1363496   -7.4226227    258.66397  0.026944164  0.027560813            2 
  801000    1.1452756   -7.4173175    258.98831  0.026944269   0.02755263            3 
  802000    1.1060067   -7.3726225    259.60424  0.026974672  0.027544631            4 
  803000    1.1284555   -7.3985231    260.03797  0.026986091  0.027536698            2 
  804000    1.1254317   -7.4093318     260.4345  0.026993626  0.027529247            2 
  805000    1.1366085   -7.4127093    259.84199  0.026898757  0.027521263            2 
  806000    1.1237115   -7.4228811    260.52269  0.026935762  0.027513649            3 
  807000    1.1080681   -7.4022566     261.7361  0.027027685  0.027506062            2 
  808000    1.1449821   -7.4237211    261.55836  0.026975904  0.027498475            2 
  809000    1.1512354   -7.4274988    261.65054  0.026952054  0.027490906            2 
  810000    1.1265869   -7.4227819    261.66053  0.026919807  0.027483169            6 
  811000    1.1005899   -7.4566089    261.39691  0.026859526  0.027475082            3 
  812000    1.1464947    -7.434267    261.74456  0.026862126  0.027467037            7 
  813000    1.1039893    -7.421043    262.47147  0.026903594  0.027458742            4 
  814000     1.126353   -7.4083926    262.68584  0.026892489  0.027451067            4 
  815000    1.1329238   -7.3766616     263.1017  0.026902014  0.027443476            3 
  816000    1.1261314   -7.4280745    262.37836  0.026795175  0.027435664            4 
  817000    1.1331222   -7.4339264    263.06007  0.026831912   0.02742777            2 
  818000    1.1139693   -7.4096784    264.54276  0.026950159  0.027419767            2 
  819000    1.1256911   -7.4255745    264.05243  0.026867362   0.02741208            2 
  820000    1.1168159   -7.4007939    264.94141   0.02692494  0.027404283            2 
  821000    1.1307104   -7.3886042    264.66746  0.026864338  0.027396494            3 
  822000    1.1052983   -7.3884319    264.86078  0.026851255   0.02738883            2 
  823000    1.1205426   -7.4298109    265.19961  0.026852938  0.027380818            2 
  824000    1.1268663   -7.3950111    265.72055  0.026873033  0.027372884            3 
  825000    1.1140529   -7.4412603    265.49547  0.026817724  0.027365037            4 
  826000    1.1155601   -7.4037556    265.73833  0.026809759  0.027357452            3 
  827000    1.1437111   -7.4412374    265.76002  0.026779526   0.02734991            1 
  828000    1.1042719   -7.4113096    267.15668  0.026887749  0.027342374            1 
  829000    1.0924107   -7.4387184     266.8763  0.026827131  0.027334764            3 
  830000    1.0974238    -7.417806    266.88305  0.026795487  0.027327224            2 
  831000    1.1167376   -7.3995953    268.25255  0.026900577  0.027319627            2 
  832000    1.1201102   -7.4391471    267.77696  0.026820609   0.02731219            2 
  833000    1.1216831   -7.4529217    268.50223  0.026860967  0.027304925            1 
  834000    1.0909792   -7.3917889    268.62526  0.026841053  0.027297335            2 
  835000     1.128928   -7.4188868    268.46205  0.026792619  0.027289716            2 
  836000    1.1137172   -7.4222657    269.15019  0.026829165  0.027282205            1 
  837000    1.1263587   -7.3678287    270.00938  0.026882654  0.027274938            6 
  838000    1.1076181   -7.4100817    269.44956  0.026794905  0.027267681            2 
  839000    1.1052417   -7.4017585    270.16082  0.026833613  0.027260292            3 
  840000    1.1265745   -7.3677527     270.7211  0.026857252  0.027253087            4 
  841000    1.1278889   -7.3625938    270.58144  0.026811478  0.027245686            4 
  842000    1.1428582   -7.4336531    269.97146  0.026719265  0.027238161            3 
  843000    1.1083862   -7.4536533    269.92185  0.026682666  0.027230573            3 
  844000    1.1055063   -7.4758718    269.81574  0.026640575   0.02722283            1 
  845000    1.1209689   -7.4924986    270.17483  0.026644461  0.027215101            2 
  846000    1.1130838   -7.4750267    270.69087  0.026663797  0.027207434            3 
  847000    1.1283666   -7.4217509    271.89315  0.026750605  0.027200101            2 
  848000    1.1298226   -7.3811578    273.04899  0.026832644  0.027192973            4 
  849000    1.1035384   -7.4410813    272.05709   0.02670368  0.027186072            2 
  850000    1.1151239   -7.4208966    272.48728  0.026714439  0.027178794            7 
  851000    1.1139509   -7.3876338    272.99018  0.026732294   0.02717155            2 
  852000    1.1350596   -7.4176176    274.03485  0.026803095  0.027164244            3 
  853000    1.1032378    -7.399677    273.86152   0.02675474   0.02715706            2 
  854000    1.1133578   -7.3900064    273.00302  0.026639639   0.02714962            3 
  855000      1.12741   -7.4209047    274.16895   0.02672212  0.027142173            4 
  856000    1.1210985   -7.4313344    272.91258  0.026568592  0.027134691            2 
  857000    1.1434196   -7.4059425    273.54706  0.026599287  0.027126976            2 
  858000    1.0995211   -7.3916355    274.10427  0.026622404  0.027119331            7 
  859000    1.1209492   -7.4640776    273.22971  0.026506568  0.027111473            5 
  860000    1.1205976     -7.41625    274.68898  0.026617149  0.027103563            1 
  861000    1.1264472   -7.4440404    274.01325  0.026520833  0.027095518            3 
  862000    1.1348486   -7.4093865    274.94804  0.026580437  0.027087702            3 
  863000    1.1473271   -7.4562458    274.93731  0.026548601  0.027079842            1 
  864000    1.1032792   -7.4769646    274.46583  0.026472399  0.027071675            6 
  865000    1.1182184   -7.4513988    275.10413  0.026503288  0.027063631            1 
  866000    1.0890624   -7.4821679    275.03036  0.026465585  0.027055362            3 
  867000     1.140896   -7.4068225     276.1482  0.026542503  0.027047111            3 
  868000    1.1336185   -7.4419597    276.61587  0.026556823   0.02703891            5 
  869000    1.1237739   -7.4955991     274.5846  0.026331473  0.027030427            1 
  870000    1.0918251   -7.4932029     275.6021  0.026398669  0.027021955            3 
  871000    1.1418408   -7.4024224    277.43083  0.026543325  0.027014164            2 
  872000    1.0920409   -7.4372756    276.99633  0.026471362  0.027006482            2 
  873000    1.1084114   -7.4814439     276.6237   0.02640547  0.026998611            2 
  874000    1.1040521   -7.4033042    277.15236  0.026425663    0.0269906            5 
  875000    1.1070964     -7.44672    278.04261  0.026480249  0.026982631            6 
  876000    1.1309103   -7.4202692    278.18396  0.026463467  0.026974722            4 
  877000    1.1316939   -7.4557878    278.86276  0.026497792  0.026966666            2 
  878000     1.100419   -7.4309996    278.40119  0.026423803  0.026958703            3 
  879000    1.1184103   -7.4501651    278.89017  0.026440099  0.026950894            1 
  880000    1.1122586   -7.4508977    278.68758  0.026390869  0.026942882            2 
  881000    1.0946743   -7.4050295    278.51768  0.026344843  0.026934729            2 
  882000    1.1284977    -7.480778    278.79289  0.026340976  0.026926534            3 
  883000    1.1229677   -7.4562799    278.44871  0.026278663  0.026918361            1 
  884000    1.1130647   -7.3828642    279.87675  0.026383555  0.026910127            3 
  885000    1.1187884    -7.444485    279.55423  0.026323374  0.026901926            3 
  886000    1.1367763    -7.387082    280.79007  0.026409901  0.026893567            2 
  887000    1.1091039   -7.4210071    279.63733  0.026271828  0.026885477            4 
  888000    1.1017948   -7.4291052    280.56987  0.026329755  0.026877308            3 
  889000     1.107323   -7.4238263    280.82672  0.026324214  0.026868867            3 
  890000    1.1113935   -7.4611048    280.70492  0.026283232  0.026860599            3 
  891000    1.1241045   -7.4757471    281.50404  0.026328474  0.026852318            2 
  892000    1.1195222   -7.4410546    281.14585  0.026265494  0.026843975            2 
  893000    1.1152987    -7.461763    280.91657  0.026214686   0.02683551            4 
  894000     1.114388   -7.4195032    282.48995  0.026332024  0.026827107            2 
  895000    1.0864595   -7.4597107    282.02436  0.026259252  0.026818871            2 
  896000    1.1407247   -7.4479974     282.0424  0.026231622  0.026810438            4 
  897000    1.0890997   -7.4407696     281.8971   0.02618888  0.026802018            4 
  898000    1.1186003   -7.3933083    282.62797   0.02622754  0.026793505            5 
  899000    1.0913331   -7.4801336    282.33426   0.02617114  0.026785026            2 
  900000    1.1166733    -7.408261    283.16914  0.026219365  0.026776342            4 
  901000    1.0896832   -7.4899719    282.61487  0.026139001  0.026767908            3 
  902000    1.0810294   -7.4015288    283.12058  0.026156742  0.026759321            3 
  903000    1.0838252   -7.4688573     284.2274  0.026229918    0.0267508            5 
  904000    1.1035152   -7.4669164    284.20911  0.026199218  0.026742364            3 
  905000    1.1131354   -7.4789557    283.98859  0.026149962  0.026733722            3 
  906000    1.0954326   -7.4706939    284.84099  0.026199502  0.026725427            4 
  907000    1.1160688   -7.4544153    284.01536  0.026094759  0.026717088            3 
  908000     1.119901   -7.4414668    283.92245  0.026057493   0.02670846            3 
  909000    1.1026684   -7.4122306    285.43727    0.0261677  0.026700113            4 
  910000    1.1178166   -7.4586338    285.28913  0.026125378  0.026691793            3 
  911000    1.1039687   -7.3819508     285.7302  0.026137047  0.026683273            6 
  912000    1.0903008   -7.4668679    285.09861  0.026050677  0.026674925            3 
  913000    1.1216369   -7.4708471    285.57125  0.026065284  0.026666582            4 
  914000    1.1090241   -7.4811744    286.56376  0.026127258  0.026658024            4 
  915000    1.0958994   -7.4812278    286.47395  0.026090524  0.026649588            4 
  916000    1.1138765   -7.4739492    287.32663  0.026139614  0.026641392            4 
  917000    1.1241535   -7.4696571     287.0415  0.026085196  0.026633193            3 
  918000    1.0889487   -7.4541247    287.47137  0.026095803   0.02662521            3 
  919000    1.0954191   -7.4464979    288.62382  0.026171909  0.026617233            2 
  920000    1.1053936    -7.468174    288.33638  0.026117425  0.026609306            3 
  921000    1.1132194   -7.4475726    288.48155  0.026102203  0.026601277            4 
  922000    1.1517074   -7.4582808    289.15969  0.026135186  0.026593137            2 
  923000    1.1115486   -7.4333683    288.69614  0.026065018  0.026585286            2 
  924000    1.1011671    -7.483623    289.02444  0.026066418  0.026577298            2 
  925000    1.1085725   -7.4723611    290.10624  0.026135697  0.026569307            2 
  926000    1.1039018   -7.4350647    289.90207  0.026089099  0.026561362            1 
  927000    1.0958146   -7.4545583    290.51566  0.026116115  0.026553297            4 
  928000    1.0978869   -7.4839581    288.54998  0.025911457  0.026545348            3 
  929000    1.0724761   -7.4680447    289.58448  0.025976362  0.026537236            1 
  930000    1.1073266   -7.4259065    291.38356  0.026109638  0.026529177           11 
  931000    1.0967694   -7.4262996    291.87111  0.026125234  0.026521448            2 
  932000    1.0898208   -7.4891675    289.95769  0.025926117  0.026513382           10 
  933000    1.0899598   -7.4835752    290.96773  0.025988543  0.026505279            4 
  934000     1.086851   -7.4311922    292.74247  0.026119064   0.02649743            1 
  935000    1.0946236   -7.4469368    291.27044  0.025959932  0.026489876            6 
  936000    1.1005238   -7.4736322    292.04527  0.026001182  0.026482009            4 
  937000    1.0974139   -7.4899635    293.08419   0.02606583  0.026474221            4 
  938000    1.0915977   -7.4698744    291.72202  0.025917024  0.026466285            3 
  939000    1.1100091    -7.460523    291.84667  0.025900485  0.026458424            1 
  940000    1.1011844    -7.452546    292.68711  0.025947439  0.026450413            1 
  941000    1.1189039   -7.4949004     292.6812  0.025919341  0.026442357            2 
  942000    1.0984878   -7.4667967    293.89317  0.025999042  0.026434547            2 
  943000    1.1097689   -7.4696439    294.22917  0.026001164  0.026426706            1 
  944000    1.1205423   -7.4748004    294.14941   0.02596658   0.02641891            2 
  945000    1.0967678   -7.5090569    293.38468  0.025871665  0.026411033            3 
  946000    1.1104747   -7.4959796    293.27592  0.025834735  0.026402899            1 
  947000    1.1045551   -7.4579062    294.05042  0.025875609  0.026394844            1 
  948000    1.1113482   -7.4865749    293.66161  0.025814136  0.026386832            2 
  949000    1.0934976   -7.4769248    294.13596  0.025828588  0.026379103            4 
  950000    1.1019051   -7.4778565    295.44693  0.025916397  0.026371499            2 
  951000    1.0633895   -7.5013755    295.21594  0.025868904   0.02636357            3 
  952000    1.0983515   -7.4870627    295.62947   0.02587793  0.026355522            3 
  953000    1.1128769   -7.4479092     296.6551   0.02594046  0.026347675            1 
  954000    1.0852184   -7.5341453    295.48701  0.025811234  0.026339887            3 
  955000    1.0969747   -7.4524879    297.78832  0.025985019   0.02633206            3 
  956000    1.0982733   -7.4847779    297.55704  0.025937678  0.026324351            5 
  957000    1.1323374   -7.4371806    297.17698   0.02587748  0.026316443            2 
  958000    1.0923572   -7.4742226    297.01934  0.025836756  0.026308382            2 
  959000     1.094861   -7.4239173    297.62483  0.025862429  0.026300382            2 
  960000    1.1152255   -7.4716034    296.78184  0.025762312  0.026292328            2 
  961000    1.1142812   -7.4903579    297.59582  0.025806089  0.026284028            5 
  962000    1.1069694   -7.4783904    297.02735   0.02573002  0.026275929            4 
  963000    1.1027284    -7.485267    297.27155  0.025724433  0.026267821            4 
  964000    1.0815496   -7.4563294    298.55997  0.025809126  0.026259553            3 
  965000    1.1004696   -7.5204162    297.57085  0.025696964  0.026251379            3 
  966000    1.0827189    -7.473527    297.99371  0.025706841  0.026243104            3 
  967000    1.0782885     -7.50547    298.76128  0.025746405   0.02623501            3 
  968000    1.1188482   -7.5003734    299.00621  0.025740893   0.02622692            2 
  969000    1.1102262   -7.5395623    297.79044  0.025609773  0.026218561            2 
  970000    1.1006467   -7.4856254    298.83117  0.025672781   0.02621024            4 
  971000    1.0999655   -7.4538232    300.80595  0.025815822  0.026202114            5 
  972000    1.1083921   -7.5061224    299.34349  0.025663879  0.026193964            2 
  973000    1.0836883   -7.4321963    300.38641  0.025726825  0.026186088            5 
  974000     1.102295   -7.5484425    299.72146   0.02564352  0.026177956            3 
  975000    1.1241388   -7.4638211    300.95164  0.025722362  0.026169896            2 
  976000    1.0937779   -7.4799925    301.33842  0.025729032  0.026161951            4 
  977000    1.1026759   -7.4626707    301.91537  0.025751908   0.02615412            2 
  978000    1.1059237    -7.497221    302.01054  0.025733686  0.026146384            4 
  979000     1.088189   -7.5058593     301.4431  0.025659099  0.026138624            2 
  980000    1.1109505   -7.4788814    301.57695  0.025644299   0.02613074            5 
  981000    1.1180253   -7.4827983    302.61717  0.025706521   0.02612287            2 
  982000    1.1228097   -7.4895288    301.71629  0.025603894  0.026114991            4 
  983000    1.1094913   -7.4984171    301.77575  0.025582888  0.026106991            2 
  984000    1.0758287    -7.485333    301.86746  0.025564656  0.026098873            3 
  985000    1.0742835   -7.4917165     302.5736  0.025598443  0.026090828            1 
  986000    1.0895913   -7.4637268    302.52046   0.02556799  0.026082526            3 
  987000     1.098899   -7.4863195    301.44338  0.025451147  0.026074155            2 
  988000    1.1027358   -7.4717064    303.45313    0.0255949  0.026066002            1 
  989000    1.1010489   -7.5336233    302.77178  0.025511609  0.026057781            2 
  990000    1.0955411   -7.5001245    303.81003  0.025573235  0.026049584            3 
  991000    1.1109732   -7.4601091      304.536  0.025608476  0.026041488            2 
  992000    1.0858013   -7.4626618     303.9041  0.025529579  0.026033427            1 
  993000    1.0756359   -7.4792849    304.71771  0.025572147  0.026025319            4 
  994000    1.0889051   -7.4923511    304.23141  0.025505651  0.026016996            2 
  995000    1.1077805   -7.5184385    304.20579  0.025477871  0.026008619            2 
  996000    1.0855342   -7.5123522     304.2039  0.025452133  0.026000074            5 
  997000    1.0736185   -7.4699644    304.90612  0.025485299  0.025991622            3 
  998000    1.1083068    -7.453513    305.19866   0.02548419  0.025983429            3 
  999000     1.090086   -7.4884588    305.38305  0.025474062  0.025975185            3 
 1000000     1.108257    -7.468738    305.90485  0.025492071   0.02596685            3 
 1001000    1.0893043   -7.4940602    305.27562  0.025414221  0.025958566            3 
 1002000    1.0858893   -7.5172272    304.80352  0.025349594  0.025950188            3 
 1003000     1.104806   -7.4754512     305.6928  0.025398206  0.025941572            3 
 1004000    1.0827405   -7.4730856    307.34573  0.025510103  0.025933175            2 
 1005000    1.1070884   -7.4642658    306.07231   0.02537913  0.025924827            3 
 1006000    1.0871984   -7.5160912    306.30799  0.025373425  0.025916066            3 
 1007000     1.077732   -7.5032302    306.72591  0.025382812  0.025907345            4 
 1008000    1.1000842   -7.5492116    306.11268  0.025306935  0.025898712            3 
 1009000    1.0951809   -7.4993706    307.11219  0.025364403  0.025890121            5 
 1010000       1.1234   -7.5813418     307.0971  0.025338044  0.025881598            2 
 1011000    1.0869468   -7.5044353    308.19222   0.02540325  0.025873043            2 
 1012000    1.1093394   -7.5034012    309.04183  0.025448109  0.025864742            9 
 1013000    1.0742164   -7.5069021    308.60037  0.025386671    0.0258564            3 
 1014000    1.0995258   -7.4927025    308.62816  0.025363918  0.025848172            4 
 1015000    1.0854199   -7.4928886     308.5676  0.025333958  0.025840079            2 
 1016000    1.0771782   -7.4407501    310.64924   0.02547976   0.02583208            2 
 1017000    1.1104883    -7.456509    310.36975  0.025431805  0.025824147            5 
 1018000    1.1122542   -7.4815586    310.29969  0.025401088  0.025815982            3 
 1019000    1.0991219   -7.5370458    309.46543  0.025307935  0.025807701            3 
 1020000    1.0825545   -7.4851548    310.11223  0.025335967  0.025799561            2 
 1021000    1.0613305   -7.5026813    310.50573  0.025343269  0.025791396            6 
 1022000    1.0986276   -7.4844035    311.41094  0.025392282  0.025783168            1 
 1023000    1.0919375   -7.5160195    309.66922   0.02522558  0.025775192            4 
 1024000    1.0913164   -7.4539026    311.85375  0.025378723  0.025767042            3 
 1025000    1.0542137   -7.5090047     310.8373  0.025271325  0.025758983            7 
 1026000    1.0902075   -7.4499975    312.65498  0.025394329  0.025751143            5 
 1027000    1.0996273   -7.4758959     312.2233  0.025334575   0.02574336            4 
 1028000    1.0688639   -7.4623634    313.45543  0.025409811  0.025735523            1 
 1029000    1.0724004   -7.5044815    312.44522  0.025303306  0.025727605            3 
 1030000    1.0933085   -7.4820004    312.03621  0.025245648   0.02571951            1 
 1031000    1.0981253    -7.501378    312.65027  0.025270794  0.025711363            3 
 1032000    1.0595319   -7.5481044    312.54341  0.025237679  0.025703094            3 
 1033000    1.0818267   -7.4667518    313.74799  0.025310422   0.02569496            2 
 1034000    1.0768074   -7.5299426    312.56785  0.025190832  0.025686934            2 
 1035000    1.1002605   -7.5149277    312.84467  0.025188782  0.025678705            3 
 1036000    1.0794942   -7.4551023    315.16205  0.025350872  0.025670593            3 
 1037000    1.0716701   -7.5164208     313.9057  0.025225466    0.0256625            2 
 1038000    1.0758582   -7.4831288    314.16927  0.025222325  0.025654512            3 
 1039000    1.0850247   -7.4928638    314.91152  0.025257581  0.025646505            1 
 1040000    1.0951746   -7.5176111    313.99292  0.025159689  0.025638295            4 
 1041000    1.1080942    -7.497938    314.97225  0.025213917  0.025630146            4 
 1042000    1.0890551   -7.4938631     314.2238  0.025129862  0.025622014            1 
 1043000    1.0904902   -7.4822163    315.95358  0.025243974  0.025613953            3 
 1044000    1.0760784   -7.5054603     314.4014  0.025095897  0.025605894            3 
 1045000    1.0676354   -7.4950388    315.71075  0.025176296  0.025597789            4 
 1046000     1.072859   -7.4975576    316.20341  0.025191476  0.025589629            3 
 1047000    1.0616105   -7.5289759     315.3934  0.025102945  0.025581524            2 
 1048000    1.0815819   -7.4983632    316.61072  0.025175789  0.025573511            3 
 1049000    1.1024554   -7.4963764    316.51342  0.025144059  0.025565358            3 
 1050000    1.0950583    -7.493355    315.07615  0.025006044  0.025556937            2 
 1051000    1.0800869   -7.4841325    315.75263  0.025035889  0.025548438            4 
 1052000    1.0854032   -7.5170076    316.15917  0.025044294  0.025540099            1 
 1053000    1.0892432   -7.4590226    317.28014  0.025109223  0.025531781            7 
 1054000    1.0728805   -7.5243007    315.88656  0.024975219  0.025523425            2 
 1055000    1.0514848    -7.476508    317.50721  0.025079558  0.025515048            4 
 1056000    1.1024187   -7.4938105    317.65894  0.025067782   0.02550672            2 
 1057000    1.1103901   -7.4764719    317.28371  0.025014483  0.025498443            3 
 1058000    1.0985589   -7.4922539    317.99995  0.025047255  0.025489946            3 
 1059000    1.1096819   -7.5567824    317.36176  0.024973384  0.025481631            4 
 1060000    1.0985506    -7.509233    318.03391  0.025002666  0.025473316            2 
 1061000    1.1090183   -7.4759644    319.04858  0.025058795  0.025465158            2 
 1062000    1.0857571   -7.5327041    318.25653  0.024973048  0.025456934            3 
 1063000    1.0803666   -7.4856084    318.87219   0.02499782  0.025448554            3 
 1064000    1.0878744   -7.5150195    318.67432  0.024958828  0.025440375            3 
 1065000    1.0737185   -7.5057459    318.74134  0.024940637  0.025432019            3 
 1066000       1.0807    -7.553845    317.71117  0.024836708  0.025423386            4 
 1067000    1.0755971   -7.5395516    318.28744  0.024858438  0.025414727            3 
 1068000    1.0997023   -7.4800324    319.62013  0.024939148  0.025406342            5 
 1069000    1.0910207   -7.5307527    320.04282   0.02494877  0.025397941            3 
 1070000    1.0645715   -7.5040022    319.65287  0.024895083  0.025389727            3 
 1071000    1.0744439   -7.5214291    319.75341  0.024879661  0.025381322            4 
 1072000    1.0680855   -7.5371931    320.64107  0.024925456   0.02537303            3 
 1073000    1.0697883   -7.5095041    320.69915  0.024906737  0.025364759            2 
 1074000    1.0787626   -7.4948663    320.77337  0.024889306  0.025356543            3 
 1075000    1.0704771   -7.5106892    321.28739  0.024905999  0.025348175            2 
 1076000    1.0911189   -7.5321753    321.66412  0.024912029  0.025339914            3 
 1077000    1.0656095   -7.5257534    320.39058  0.024790358  0.025331586            3 
 1078000    1.0744119   -7.5311343    321.01105  0.024815325  0.025323229            2 
 1079000    1.0888893   -7.5590128    321.05277  0.024795549  0.025314754            2 
 1080000    1.0655126   -7.5530472       321.12  0.024777778  0.025306279            3 
 1081000    1.0754393   -7.5173256    322.58784  0.024868011  0.025297864            2 
 1082000    1.0515067    -7.584597    321.84509  0.024787823  0.025289514            2 
 1083000    1.0869317   -7.5475061    322.39259  0.024807063  0.025281153            3 
 1084000    1.0870667    -7.518031    322.49372  0.024791953  0.025272936            3 
 1085000    1.0772106   -7.5695067    322.03186  0.024733629  0.025264599            2 
 1086000    1.0799879     -7.53856    323.51677  0.024824798  0.025256308            4 
 1087000    1.0692668    -7.551371    323.65531  0.024812582  0.025247879            6 
 1088000    1.0991279   -7.5568326    323.63617   0.02478831  0.025239465            4 
 1089000     1.060296   -7.5499252     323.3932  0.024746955   0.02523111            2 
 1090000    1.0610818   -7.5168505    324.49799  0.024808715  0.025222886            1 
 1091000    1.0858532   -7.5611289    324.14237  0.024758812  0.025214655            3 
 1092000    1.0921119   -7.5364126    324.92539  0.024795894  0.025206683            2 
 1093000    1.0906659   -7.5465658     324.7333  0.024758562  0.025198542            3 
 1094000    1.0664753   -7.5170367    324.76198  0.024738115  0.025190208            2 
 1095000    1.1004533   -7.5321222    323.88036   0.02464843  0.025181801            4 
 1096000    1.0619352   -7.5406213    324.59008  0.024679903  0.025173437            4 
 1097000    1.0744702   -7.5701557    323.80229  0.024597561  0.025164932            6 
 1098000    1.0572739   -7.5157424    325.66804  0.024716761  0.025156516            2 
 1099000    1.0653401   -7.5231218     325.1333  0.024653723  0.025148028            2 
 1100000     1.054788   -7.4997275    327.44254  0.024806253   0.02513975            4 
 1101000    1.0750886   -7.5132025    326.12327  0.024683869  0.025131436            5 
 1102000    1.0681044   -7.5176176    326.06785  0.024657279   0.02512311            3 
 1103000    1.0752937    -7.510918    326.44555   0.02466346  0.025114726            3 
 1104000    1.0629666   -7.5643537    325.57672  0.024575538  0.025106426            3 
 1105000    1.0580087   -7.5310675    326.28584  0.024606775  0.025098185            2 
 1106000    1.0559949   -7.5298586    327.71167  0.024691958  0.025089716            4 
 1107000    1.0583625   -7.5666185    327.55856  0.024658127  0.025081583            2 
 1108000    1.0451515    -7.559596    327.22645  0.024610894  0.025073272            3 
 1109000    1.0529073   -7.5263333    328.13206  0.024656752  0.025065056            1 
 1110000    1.0692625   -7.5668718    328.18608  0.024638595  0.025056966            3 
 1111000    1.0788293   -7.5686757    328.42915   0.02463465  0.025048744            3 
 1112000    1.0958503   -7.5561113    328.52627  0.024619774  0.025040563            3 
 1113000    1.0863924   -7.5415674    328.97741  0.024631432  0.025032474            2 
 1114000    1.0651545   -7.5192275    328.77507  0.024594185  0.025024149            2 
 1115000    1.0787746   -7.5743504    328.01802  0.024515547  0.025015889            3 
 1116000    1.0744619   -7.5161732    329.28195  0.024587959  0.025007615            4 
 1117000    1.0986037   -7.5676741    328.03198  0.024472693  0.024999206            2 
 1118000     1.060134   -7.5251305    329.51467   0.02456132  0.024990858            5 
 1119000    1.0567798   -7.5180939    330.17379  0.024588456  0.024982721            6 
 1120000    1.0748251   -7.5708541    329.28766   0.02450057  0.024974473            6 
 1121000    1.0856863   -7.5382232    329.58884  0.024501103  0.024966171            4 
 1122000      1.07302   -7.5247211     329.8805  0.024500928  0.024957687            5 
 1123000    1.0759492   -7.5447139    330.26179  0.024507405  0.024949139            3 
 1124000    1.0957091    -7.548983     330.7282  0.024520181   0.02494063            4 
 1125000    1.0679771   -7.5235968    329.90111  0.024437119  0.024932068            2 
 1126000    1.0572697   -7.5315123    329.97869  0.024421158  0.024923543            2 
 1127000    1.0982832   -7.5620038    330.80833  0.024460835  0.024915071            1 
 1128000    1.0690484   -7.5103257     331.3522  0.024479329  0.024906764            3 
 1129000     1.077319   -7.5655764    331.16248  0.024443644  0.024898385            3 
 1130000    1.0746705    -7.615205    330.19033  0.024350319  0.024889926            4 
 1131000    1.0584366   -7.5447965    331.27732   0.02440888  0.024881426            3 
 1132000    1.0502744   -7.5142568    332.31577  0.024463764  0.024873031           10 
 1133000    1.0623985   -7.5731557      331.851  0.024407988  0.024864596            4 
 1134000    1.0741406   -7.5065768    332.95957  0.024467928  0.024856278            4 
 1135000    1.0713189    -7.517144    331.84381   0.02436445  0.024847984            3 
 1136000    1.0948265   -7.5544639    331.59251  0.024324568  0.024839635            4 
 1137000    1.0591716   -7.5287811    333.21344  0.024421976  0.024831408            5 
 1138000    1.0658567   -7.5484346     333.1744  0.024397657  0.024823219            2 
 1139000    1.0725449   -7.5081618    334.06154  0.024441143  0.024815056            3 
 1140000    1.0783134    -7.551024    333.96275  0.024412482  0.024806972            4 
 1141000    1.0852998   -7.5406672    333.81247   0.02438011   0.02479894            6 
 1142000    1.0612586   -7.5647055    333.88401  0.024363982  0.024790931            4 
 1143000    1.0806907   -7.5797562    334.39432  0.024379872  0.024782823            6 
 1144000     1.082864   -7.5231733    335.65992  0.024450752  0.024774827            3 
 1145000    1.0607324   -7.6096675    334.44455  0.024340942  0.024766763            2 
 1146000    1.0636896   -7.5728908    335.77931  0.024416762  0.024758769            2 
 1147000    1.0387414   -7.5129831    335.92463  0.024406032  0.024750716            2 
 1148000    1.0699644   -7.5461076    336.09368  0.024397044  0.024742974            4 
 1149000    1.0645158   -7.5976619    335.51938  0.024334159   0.02473495            2 
 1150000    1.0720208   -7.5661828    335.86099  0.024337753  0.024726895            4 
 1151000    1.0845932   -7.5547434    336.56905  0.024367872  0.024718951            4 
 1152000     1.051597   -7.5479923    336.41162  0.024335331  0.024711103            3 
 1153000    1.0712829   -7.5767068    336.28467   0.02430505  0.024703092            2 
 1154000    1.0594353   -7.5557891    337.54959  0.024375332  0.024695254            3 
 1155000    1.0392773   -7.5674367    336.75156  0.024296649  0.024687546            1 
 1156000    1.0593362   -7.5575493    337.55914  0.024333848  0.024679894            4 
 1157000    1.1021397   -7.5685821    338.28979  0.024365442  0.024672159            1 
 1158000    1.0537672   -7.5354584    338.76253  0.024378421  0.024664256            2 
 1159000    1.0644269   -7.5823115    337.30981  0.024252934  0.024656246            3 
 1160000    1.1000877   -7.5868801    337.57631  0.024251172  0.024648308            2 
 1161000    1.0803495   -7.5947183    338.18935  0.024274286  0.024640363            2 
 1162000    1.0572925   -7.5749536    338.28882  0.024260529   0.02463236            2 
 1163000    1.0498198   -7.5443055    339.31079  0.024312897  0.024624512            2 
 1164000    1.0644169   -7.5832594    339.38485  0.024297312  0.024616753            4 
 1165000    1.0480297   -7.5566615    339.72624  0.024300876  0.024609075            5 
 1166000    1.0883256   -7.5148741    339.85484  0.024289225  0.024601363            3 
 1167000    1.0586612   -7.5338436    339.85505  0.024268427  0.024593718            3 
 1168000     1.042441   -7.5412599    340.36298  0.024283888  0.024586024            3 
 1169000    1.0870834   -7.5499671    340.63383  0.024282423  0.024578494            6 
 1170000    1.0768441   -7.5618376     341.1824  0.024300741  0.024570802            3 
 1171000    1.0647397   -7.5581553    340.39038  0.024223625  0.024563125            3 
 1172000    1.0660875   -7.5330529    342.58212  0.024358797  0.024555518            3 
 1173000    1.0510058   -7.5611845    341.78012  0.024281054  0.024548072            4 
 1174000    1.0353887   -7.5675418    341.75545  0.024258621  0.024540376            2 
 1175000    1.0541839   -7.5676278    342.77526  0.024310302  0.024532857            4 
 1176000     1.040525   -7.5732413    343.00045  0.024305587  0.024525571            3 
 1177000     1.075427   -7.5340147    342.91894  0.024279166  0.024518212            2 
 1178000    1.0732761   -7.5353189    343.82433  0.024322604  0.024510899            5 
 1179000    1.0623569   -7.5733712     343.2925  0.024264383  0.024503762            4 
 1180000    1.0602281   -7.5735741    343.59439   0.02426514  0.024496566            4 
 1181000    1.0558948    -7.574374    344.42118  0.024302934  0.024489318            2 
 1182000    1.0551144   -7.5465097    343.42653  0.024212248   0.02448202            4 
 1183000    1.0520225   -7.5937854     344.9555  0.024299486  0.024474814            2 
 1184000    1.0443341   -7.5882317    344.89826  0.024274934   0.02446767            1 
 1185000    1.0610379   -7.5281535    345.47886  0.024295278  0.024460648            3 
 1186000    1.0316159   -7.5492217    345.23222  0.024257463  0.024453586            2 
 1187000    1.0432439   -7.5557814    344.99285  0.024220223  0.024446439            2 
 1188000    1.0718361   -7.5890159    346.03258  0.024272768  0.024439362            4 
 1189000    1.0612608   -7.5726611    346.33772   0.02427374  0.024432299            4 
 1190000    1.0518904   -7.5259727    346.10963  0.024237369  0.024425006            3 
 1191000    1.0657223   -7.5667216    345.15358  0.024150125  0.024417887            2 
 1192000    1.0695284   -7.5710842    346.29982  0.024209999  0.024410722            3 
 1193000    1.0696817   -7.5905882    346.09548  0.024175431  0.024403352            8 
 1194000    1.0399865   -7.6190068    345.27038  0.024097598  0.024395917            2 
 1195000    1.0512182   -7.5885117     347.0986  0.024204923   0.02438859            4 
 1196000    1.0590595   -7.5664069    346.56293  0.024147361  0.024381218            2 
 1197000    1.0425018   -7.5896545    347.62114  0.024200859  0.024373875            3 
 1198000    1.0761779   -7.5665619    346.66569  0.024114196  0.024366496            2 
 1199000    1.0374163   -7.6089888    347.43759  0.024147734  0.024359114            2 
 1200000    1.0750772   -7.5328295    348.52235  0.024202941  0.024351925            2 
 1201000    1.0482213   -7.5529483    348.14608  0.024156681  0.024344781            6 
 1202000    1.0524318   -7.5654032     349.5646  0.024234928  0.024337776            3 
 1203000    1.0888168   -7.5847521    348.10938  0.024113978  0.024330717            3 
 1204000    1.0490879   -7.5768332    349.31881  0.024177659  0.024323799            4 
 1205000    1.0618881   -7.5857119    350.07985  0.024210225  0.024316878            5 
 1206000    1.0541535   -7.6256623    349.41831  0.024144438  0.024309958            2 
 1207000    1.0438883   -7.6066436     348.9564  0.024092543  0.024302965            1 
 1208000    1.0337823   -7.5236286    350.19994  0.024158385  0.024296079            2 
 1209000    1.0604818   -7.5720807    351.38859  0.024220333  0.024289183            3 
 1210000    1.0606337   -7.5331391    350.79948  0.024159744  0.024282425            2 
 1211000    1.0400356    -7.536191    352.21963   0.02423752  0.024275835            3 
 1212000    1.0863248   -7.5834854    350.89804  0.024126653  0.024269086            6 
 1213000    1.0618575   -7.5684118    351.52067  0.024149538   0.02426226            3 
 1214000    1.0551153   -7.5422031    352.61366  0.024204672   0.02425552            4 
 1215000    1.0530886   -7.5653908    350.85556  0.024064167  0.024248677            2 
 1216000    1.0646969   -7.6005788    351.87283  0.024114092  0.024241904            3 
 1217000    1.0597089   -7.6131875    351.04316  0.024037467  0.024234827            4 
 1218000    1.0671797   -7.6077776    350.91865  0.024009212  0.024227822            4 
 1219000    1.0608392   -7.6135364     351.1176  0.024003117  0.024220771            3 
 1220000    1.0502211   -7.5720181     352.9095   0.02410584  0.024213656            5 
 1221000     1.035187   -7.6418286    350.67759  0.023933769  0.024206578            4 
 1222000    1.0697574    -7.623459    352.09397  0.024010773  0.024199316            3 
 1223000    1.0439367   -7.5787678    352.47969  0.024017423   0.02419213            3 
 1224000    1.0722217   -7.6069442    353.08386  0.024038934  0.024185139            3 
 1225000    1.0754201   -7.6022304    352.81837  0.024001249  0.024178036            3 
 1226000    1.0601989   -7.5929152    352.87639  0.023985617  0.024170986            3 
 1227000    1.0194147   -7.5899476    352.38476  0.023932679   0.02416386            4 
 1228000    1.0625602   -7.6367972    352.74231  0.023937453  0.024156713            2 
 1229000    1.0557218   -7.6416515    352.63319  0.023910577  0.024149614            2 
 1230000    1.0328426   -7.6120016    353.79534  0.023969874  0.024142517            2 
 1231000    1.0802962   -7.5870803    353.39434  0.023923256  0.024135337            5 
 1232000    1.0674185   -7.5760627    355.03542  0.024014842   0.02412831            5 
 1233000    1.0710871   -7.5850761    354.53212  0.023961349   0.02412114            1 
 1234000    1.0605017   -7.5667414    354.88167  0.023965537   0.02411407            2 
 1235000    1.0661083   -7.5891128    355.17152   0.02396569  0.024106909            3 
 1236000    1.0503891   -7.6030408     354.4629  0.023898523   0.02409979            6 
 1237000    1.0614603   -7.6123964    354.19443  0.023861118  0.024092551            4 
 1238000    1.0293681   -7.5807162    355.23646  0.023911986  0.024085461            2 
 1239000    1.0611374   -7.6317071     354.9786  0.023875343  0.024078347            1 
 1240000      1.05856    -7.592415    356.02592  0.023926473  0.024071066            3 
 1241000    1.0443455   -7.6302986    355.20538  0.023852094  0.024063885            2 
 1242000    1.0317025   -7.6260518    355.26769   0.02383707   0.02405662            3 
 1243000     1.025681   -7.6389643    355.50886  0.023834061  0.024049321            2 
 1244000     1.052038   -7.5729478    356.97528  0.023913135  0.024042313            3 
 1245000    1.0589439   -7.5933639    357.00075  0.023895632  0.024035252            4 
 1246000    1.0287879   -7.6215723    356.42214  0.023837757  0.024028277            5 
 1247000    1.0586061   -7.6394493     356.6782  0.023835753  0.024021253            3 
 1248000    1.0378452   -7.5971474    357.39313  0.023864392  0.024014341            3 
 1249000    1.0505772   -7.5973017    356.77405   0.02380398  0.024007355            3 
 1250000    1.0559651   -7.6284003    356.96676  0.023797784  0.024000209            5 
 1251000    1.0322238   -7.5838839    357.79607  0.023834004  0.023993116            3 
 1252000    1.0657878   -7.5966697    359.10015  0.023901767  0.023986145            5 
 1253000    1.0463126   -7.6187756    356.90512  0.023736707  0.023979142            4 
 1254000    1.0517942   -7.6131101    358.23996  0.023806483  0.023972215            1 
 1255000    1.0510437   -7.5787982    359.12613  0.023846356  0.023965488            2 
 1256000    1.0717077   -7.5726499    359.43025  0.023847548  0.023958774            3 
 1257000    1.0332169   -7.5733943    359.23827  0.023815849  0.023952117            4 
 1258000    1.0388954   -7.6028494    359.94351  0.023843635  0.023945352            5 
 1259000    1.0565184   -7.5768234    360.50095  0.023861593  0.023938406            5 
 1260000    1.0323384   -7.6143729     359.7888  0.023795555  0.023931759            4 
 1261000    1.0570134   -7.5794452    361.45174  0.023886581  0.023925134            2 
 1262000    1.0617007   -7.6247504    360.32604   0.02379332  0.023918573            2 
 1263000    1.0358591   -7.6075995    361.52769  0.023853767  0.023911899            4 
 1264000    1.0455538   -7.6022879    361.76694  0.023850668  0.023905217            3 
 1265000    1.0498766   -7.5708546    362.07826  0.023852323  0.023898597            3 
 1266000    1.0549911   -7.5492189    362.28082  0.023846815  0.023891989            8 
 1267000    1.0793248   -7.5968781    362.43238  0.023837962    0.0238855            3 
 1268000    1.0652076    -7.617672    361.75698  0.023774775  0.023879015            6 
 1269000     1.069448   -7.6169749    361.39315  0.023732148  0.023872337            5 
 1270000    1.0705992   -7.6708085    360.81815  0.023675731   0.02386552            2 
 1271000    1.0589799   -7.6064348    362.71369  0.023781385  0.023858833            3 
 1272000    1.0409385   -7.6343365    362.08712   0.02372164  0.023852003            2 
 1273000    1.0588907   -7.6780247    360.73551  0.023614527  0.023845107            4 
 1274000    1.0391279   -7.6114477     362.6516  0.023721324   0.02383826            5 
 1275000    1.0440268   -7.5691343    364.13169  0.023799457  0.023831557            2 
 1276000    1.0444594   -7.6256752    363.39776  0.023732873  0.023824757            1 
 1277000    1.0225167   -7.6215231    364.01772  0.023754746  0.023818086            3 
 1278000    1.0503422   -7.6339979    364.11116  0.023742251  0.023811378            4 
 1279000    1.0401964   -7.6161888    363.09406  0.023657418  0.023804669            5 
 1280000    1.0398903    -7.600673    364.68991  0.023742833  0.023798034            2 
 1281000    1.0409816    -7.591177     364.8807   0.02373671  0.023791452            4 
 1282000    1.0378914   -7.5777557    365.91248  0.023785262  0.023784986            2 
 1283000    1.0560916   -7.6271176    365.27791  0.023725507  0.023778297            3 
 1284000    1.0512806   -7.5682374    365.89059  0.023746793  0.023771799            2 
 1285000    1.0517769    -7.615027    365.11538   0.02367804   0.02376532            4 
 1286000    1.0405191   -7.6156527    366.09101   0.02372285  0.023758603            2 
 1287000    1.0569675    -7.627906    365.18878  0.023645997  0.023751963            3 
 1288000    1.0520553   -7.6344422    365.41392  0.023642205  0.023745204            2 
 1289000    1.0493295   -7.6191924    365.45595   0.02362658  0.023738385            3 
 1290000    1.0278697   -7.5951017     365.3371  0.023600588  0.023731549            4 
 1291000    1.0443236   -7.6320017    366.12929  0.023633442  0.023724758            2 
 1292000    1.0410022   -7.6283566    366.33309  0.023628296  0.023717893            2 
 1293000    1.0493043   -7.6388578      366.122  0.023596416  0.023711129            5 
 1294000    1.0335992   -7.6308592    367.70495  0.023680123  0.023704315            2 
 1295000    1.0376717   -7.5948646    366.46666  0.023582153  0.023697517            2 
 1296000    1.0539555   -7.6151878    366.96049  0.023595711  0.023690667            3 
 1297000    1.0554175   -7.6085592    367.11578  0.023587496  0.023683938            3 
 1298000    1.0192682   -7.5913668    367.40421  0.023587841  0.023677126            2 
 1299000    1.0611168   -7.6343391    366.99886  0.023543678  0.023670375            4 
 1300000    1.0354926    -7.633367    367.96775  0.023587677  0.023663482            3 
 1301000    1.0500695   -7.6211999    367.32974  0.023528679   0.02365675            3 
 1302000    1.0517265   -7.5868737    368.94301  0.023613864  0.023649985            3 
 1303000    1.0542244   -7.6231433    367.33169   0.02349269  0.023643254            4 
 1304000    1.0571499   -7.5819297    369.55866   0.02361699  0.023636473            4 
 1305000    1.0286678   -7.6115656    369.36744  0.023586682  0.023629763            3 
 1306000    1.0633273   -7.6138777    369.75659  0.023593453  0.023623047            2 
 1307000    1.0496481   -7.6302696    368.85844  0.023518136   0.02361638            3 
 1308000    1.0387779   -7.6603613    369.08334  0.023514484  0.023609477            2 
 1309000    1.0487031   -7.6596824    368.77079  0.023476623  0.023602537            4 
 1310000     1.047747   -7.6503187    368.63298  0.023449935  0.023595669            2 
 1311000    1.0071854   -7.6332726    368.19705  0.023404339  0.023588793            6 
 1312000    1.0409474    -7.605405     370.2262  0.023515384  0.023581918            5 
 1313000     1.045969   -7.6148559     369.6827  0.023462979   0.02357521            5 
 1314000    1.0119859   -7.6215252    370.53681  0.023499291  0.023568492            2 
 1315000    1.0421707   -7.6479473    370.94185  0.023507088  0.023561707            6 
 1316000    1.0461552   -7.6341325    370.42583   0.02345655  0.023554813            2 
 1317000    1.0146406   -7.6242395    369.10808  0.023355358  0.023547922            3 
 1318000    1.0356442   -7.5856444    371.72631  0.023503181  0.023541059            1 
 1319000    1.0498497   -7.6437978    370.18232  0.023387814  0.023534139            7 
 1320000    1.0298816   -7.6355142    370.69097  0.023402208  0.023527249            3 
 1321000     1.028901   -7.6327388    370.52992  0.023374332    0.0235204            3 
 1322000    1.0557003   -7.6300461    370.67926  0.023366066  0.023513535            3 
 1323000     1.057985   -7.6512755    371.53131  0.023402073  0.023506559            2 
 1324000    1.0331597   -7.6600185    370.66676  0.023329982  0.023499436            4 
 1325000    1.0462866   -7.6478496    370.32896   0.02329113  0.023492319            2 
 1326000    1.0432192   -7.5975923    371.74952  0.023362841  0.023485327            5 
 1327000     1.023483   -7.6614274    371.22734  0.023312443  0.023478236            5 
 1328000    1.0339602   -7.6133871    371.80081  0.023330874  0.023471121            4 
 1329000    1.0531291   -7.6361187    371.61745  0.023301822  0.023464046            4 
 1330000    1.0380672   -7.6378118    370.83741  0.023235427  0.023456994            4 
 1331000    1.0500147   -7.6316709    372.00349  0.023290978  0.023449692            7 
 1332000      1.05312   -7.6626192    370.66184  0.023189554  0.023442438            4 
 1333000     1.023388    -7.660184    370.50663  0.023162455  0.023435121            6 
 1334000    1.0579329   -7.6276819    371.79966  0.023225866  0.023427778            4 
 1335000    1.0283526   -7.6194001    371.81315   0.02320931  0.023420587            3 
 1336000    1.0513299   -7.6307891    372.37588  0.023227039  0.023413384            2 
 1337000    1.0391402   -7.6368046     372.1641  0.023196466  0.023406027            2 
 1338000    1.0312397   -7.6199932    373.22911   0.02324546  0.023398711            3 
 1339000    1.0472907   -7.6414013    372.70976  0.023195778  0.023391478            4 
 1340000    1.0223681   -7.6332867    374.55756  0.023293381  0.023384375            2 
 1341000    1.0406131   -7.6301617    373.80713  0.023229377  0.023377345            3 
 1342000    1.0370113   -7.6145602    372.64397  0.023139839  0.023370306            2 
 1343000    1.0156529   -7.6209777    374.25398   0.02322251  0.023363187            2 
 1344000    1.0346288      -7.6257     373.9335  0.023185361     0.023356            4 
 1345000    1.0353576   -7.6600961    373.16146  0.023120289  0.023348751            3 
 1346000    1.0370664   -7.6482894    373.07307  0.023097639  0.023341451            3 
 1347000    1.0328241   -7.6525974    372.90145  0.023069874  0.023334147            6 
 1348000    1.0507968   -7.6530884    374.59965  0.023157743  0.023326894            3 
 1349000    1.0330906   -7.6035878    374.90731  0.023159582  0.023319611            5 
 1350000    1.0281899   -7.6728267    374.37525  0.023109583  0.023312384            6 
 1351000     1.030939    -7.670072    374.50276  0.023100343  0.023305256            2 
 1352000    1.0434454   -7.6164067     374.7567  0.023098909  0.023298082            3 
 1353000     1.032156   -7.6532715     375.6045  0.023134054  0.023291045           10 
 1354000    1.0313857    -7.647594    376.24944  0.023156662  0.023283933            9 
 1355000    1.0653601   -7.6469301    376.25776  0.023140084  0.023276851            2 
 1356000    1.0627162   -7.6275352    376.01352  0.023108009  0.023269858            5 
 1357000    1.0323426   -7.6113144    377.36832  0.023174178  0.023262836            2 
 1358000    1.0461162   -7.6604694    376.45631  0.023101148  0.023255806            3 
 1359000    1.0488298   -7.6293933     377.3491  0.023138895  0.023248809            4 
 1360000    1.0370836   -7.6868856     376.2397  0.023053903  0.023241873            2 
 1361000    1.0424052   -7.6287958    377.87887   0.02313733  0.023234878            2 
 1362000    1.0457063   -7.6541577     377.7804  0.023114317  0.023227867            2 
 1363000    1.0365847   -7.6748659    377.80914  0.023099116  0.023220809            7 
 1364000    1.0390672   -7.6662265    376.89982  0.023026626  0.023213759            2 
 1365000    1.0381913   -7.6587479     378.4651  0.023105317  0.023206757            2 
 1366000    1.0388129    -7.640361    378.06733  0.023064137  0.023199785            2 
 1367000    1.0299826   -7.6462756    378.26404  0.023059256  0.023192956            4 
 1368000    1.0116093     -7.66362    378.32791  0.023046291  0.023186056            2 
 1369000    1.0421687   -7.6345811    378.99253  0.023069913  0.023179085            2 
 1370000    1.0173788   -7.6449406    378.97792  0.023052185  0.023172126            1 
 1371000    1.0390776   -7.7215231    377.99304  0.022975507  0.023165106            4 
 1372000    1.0221242    -7.662466    378.58122  0.022994486  0.023158004            2 
 1373000    1.0327613   -7.6410109    379.57575  0.023038101  0.023151109            5 
 1374000    1.0396027   -7.6459189    379.66369  0.023026667  0.023144202            4 
 1375000    1.0268582   -7.6495944    380.46895  0.023058724  0.023137437            7 
 1376000    1.0280478   -7.6518529    381.30684  0.023092711  0.023130724            3 
 1377000    1.0005726   -7.6548594    380.80545  0.023045597  0.023123887            4 
 1378000    1.0385831   -7.6227513    380.42529  0.023005883  0.023116972            2 
 1379000    1.0107296   -7.6203749    381.96556  0.023082279  0.023110135            1 
 1380000    1.0288631   -7.6601153    381.34054   0.02302781  0.023103442            4 
 1381000    1.0526704   -7.6502695    380.29041  0.022947768   0.02309652            2 
 1382000    1.0105287   -7.6279771    382.58645  0.023069612  0.023089644            3 
 1383000    1.0233273   -7.6808576    381.78053   0.02300437  0.023082817            3 
 1384000    1.0120094   -7.6605478    381.59133  0.022976356  0.023076022            3 
 1385000    1.0443653   -7.6387626     382.7764  0.023031071  0.023069283            3 
 1386000    1.0424697    -7.667967    381.90363  0.022961979  0.023062512            2 
 1387000     1.015333   -7.6465113    383.44755  0.023038185  0.023055729            4 
 1388000    1.0084079   -7.7210118    380.89416  0.022868285  0.023048886            2 
 1389000    1.0494147   -7.6529465    382.67755  0.022958816  0.023042149            4 
 1390000    1.0237431   -7.6304602    383.46818  0.022989699  0.023035378            2 
 1391000    1.0073228   -7.6776956    383.20579  0.022957452  0.023028527            7 
 1392000     1.027231   -7.6434659    383.68722  0.022969781  0.023021707            7 
 1393000    1.0201987   -7.6424635    383.80825  0.022960532   0.02301489            2 
 1394000    1.0308626   -7.6861052    383.44938  0.022922608  0.023008121            3 
 1395000    1.0092837   -7.6552329    383.88711  0.022932324  0.023001245            2 
 1396000    1.0005571   -7.7093451    383.16956  0.022873063  0.022994404            3 
 1397000    1.0226537    -7.673941    383.19363  0.022858126  0.022987398            2 
 1398000    1.0305689   -7.6275234    384.21708  0.022902782  0.022980533            3 
 1399000    1.0209859   -7.6392376    384.04093  0.022875919  0.022973774            3 
 1400000    1.0117637   -7.6521685    384.74152  0.022901281  0.022966983            2 
 1401000    1.0167585   -7.6303206    385.01806  0.022901383  0.022960282            3 
 1402000    1.0025591    -7.640984    384.33248  0.022844298  0.022953742            3 
 1403000    1.0330882   -7.6375905    384.92244  0.022863058  0.022946936            3 
 1404000    1.0266976   -7.6389155    385.21453   0.02286411  0.022940213            3 
 1405000     1.016044   -7.6508231    385.42915  0.022860566  0.022933446            5 
 1406000    1.0295437   -7.6974073    385.16104  0.022828416   0.02292672            6 
 1407000    1.0418492   -7.6621154    386.14506  0.022870472  0.022920034            2 
 1408000    1.0028285   -7.6989595     385.8629  0.022837529  0.022913309            4 
 1409000    1.0221988   -7.6864242    385.30458    0.0227883  0.022906431            3 
 1410000    1.0383686   -7.6975462    385.68537  0.022794644  0.022899616            2 
 1411000    1.0101973   -7.6365283    385.74261  0.022781869  0.022892891            4 
 1412000    1.0255815   -7.6728572    387.00817  0.022840425  0.022886095            3 
 1413000    1.0400601   -7.6433673     386.2718  0.022780833  0.022879362            2 
 1414000    1.0334859   -7.7211569    385.09141  0.022695156  0.022872448            3 
 1415000    1.0396812   -7.7130705    385.72427  0.022716388   0.02286538            8 
 1416000    1.0272769   -7.6557506    386.35123  0.022737243  0.022858405            5 
 1417000    1.0075195   -7.6659448    385.52923  0.022672855  0.022851461            4 
 1418000    1.0225209    -7.694899      385.331  0.022645217  0.022844387            4 
 1419000    1.0483872     -7.65203    386.93878  0.022723678  0.022837497            3 
 1420000   0.99201485   -7.7450529    385.37107  0.022615673  0.022830375            3 
 1421000    1.0134704   -7.6653602     386.5355  0.022668045  0.022823334            4 
 1422000    1.0456708   -7.6575293    387.08477  0.022684292  0.022816413            4 
 1423000    1.0060298   -7.6543108    387.81105  0.022710884  0.022809512            4 
 1424000    1.0251557   -7.7026544    386.28763  0.022605784  0.022802485           11 
 1425000    1.0406204   -7.6521555    388.99261  0.022748106  0.022795651            4 
 1426000    1.0408235   -7.6333715    388.25615  0.022689116  0.022788854            2 
 1427000    1.0059014   -7.6556955    388.14873  0.022666943  0.022781892            2 
 1428000    1.0189599   -7.7283182    388.57338  0.022675851  0.022774945            2 
 1429000    1.0147096    -7.653154    387.78532  0.022614026  0.022767811            6 
 1430000     1.015943   -7.6528355    388.79137   0.02265684  0.022760735            3 
 1431000    1.0099306   -7.6600126    388.69498  0.022635393  0.022753742            2 
 1432000    1.0286872   -7.7042739    388.58524  0.022613201  0.022746692            4 
 1433000    1.0340592   -7.7330174    388.55095  0.022595426  0.022739632            4 
 1434000    1.0278557   -7.6783794    390.19507  0.022675213  0.022732658            2 
 1435000    1.0300044   -7.6566391    390.11319  0.022654657  0.022725796            6 
 1436000    1.0277835   -7.6549773    390.87894  0.022683318  0.022718943            2 
 1437000    1.0432079   -7.7127237    388.72244  0.022542475  0.022711935            3 
 1438000    1.0434335   -7.6941926    389.32617  0.022561785  0.022704825            2 
 1439000    1.0236945   -7.7223105    388.95393   0.02252455  0.022697793            2 
 1440000    1.0298631   -7.7230113    388.10365  0.022459702  0.022690638            3 
 1441000    1.0360488   -7.7068278    388.93053  0.022491934  0.022683576            2 
 1442000     1.014562   -7.7155296    388.88254  0.022473563  0.022676424            7 
 1443000     1.010967   -7.6541703    391.20423  0.022592067  0.022669445            2 
 1444000     1.022968   -7.6963632    389.84725   0.02249811  0.022662252            3 
 1445000    1.0126362   -7.6631815    391.72026  0.022590557  0.022655226            4 
 1446000   0.99994794   -7.6838875    391.52264  0.022563545  0.022648185            7 
 1447000   0.99828855   -7.7348211    389.22774  0.022415788   0.02264093            4 
 1448000    1.0270731   -7.7010974    389.92973  0.022440708  0.022633761            2 
 1449000    1.0092294   -7.6788042    391.27328  0.022502489  0.022626638            3 
 1450000    1.0084947   -7.6906183    390.73306  0.022455923  0.022619568            3 
 1451000    1.0250509   -7.6985176    391.10886   0.02246203  0.022612489            3 
 1452000    1.0418147   -7.7375466    389.73768  0.022367865    0.0226054            7 
 1453000    1.0203367   -7.6810768    390.93997  0.022421425  0.022598138            4 
 1454000    1.0217992   -7.6976663    391.10477   0.02241545  0.022591096            3 
 1455000    1.0347209    -7.715441     390.2727  0.022352388  0.022584043            4 
 1456000    1.0260877   -7.6945999    393.01953  0.022494249  0.022576897            4 
 1457000    1.0117595   -7.6878387    392.48549  0.022448267  0.022569822            3 
 1458000    1.0156486   -7.6904917     393.3049  0.022479704  0.022562752            2 
 1459000    1.0050462   -7.6964093    392.25124  0.022404114  0.022555713            5 
 1460000    1.0041594   -7.6791793     393.3152  0.022449498  0.022548765            5 
 1461000    1.0167354    -7.696828     391.8787  0.022352196  0.022541729            4 
 1462000    1.0273593   -7.6712102    393.83142  0.022448211  0.022534764            2 
 1463000    1.0174193   -7.6727137    392.54683  0.022359696  0.022527835            2 
 1464000    1.0232136    -7.687558    393.05466   0.02237333   0.02252079            3 
 1465000    1.0080615   -7.7188418    392.84493  0.022346128   0.02251362            5 
 1466000      1.02917   -7.6902932    393.47087  0.022366466  0.022506603            7 
 1467000    1.0490244   -7.7059395    392.80809   0.02231357  0.022499394            3 
 1468000     1.010132   -7.6965532    392.52999  0.022282583  0.022492296            3 
 1469000     1.043333   -7.7064407    393.46239  0.022320308  0.022485134            3 
 1470000    1.0057798   -7.6709855    393.33268  0.022297771  0.022477917            4 
 1471000    1.0306165   -7.7117548    394.14152  0.022328434  0.022470663            4 
 1472000    1.0127836   -7.7413499    392.63195  0.022227805  0.022463428            2 
 1473000    1.0065308   -7.6809138    393.03332  0.022235422  0.022456204            1 
 1474000    1.0209161   -7.6827688    393.97375  0.022273504  0.022449021            5 
 1475000    1.0262692   -7.6748043    394.88996  0.022310167  0.022441912            3 
 1476000    1.0302589   -7.7054974    395.42452  0.022325233  0.022434739            4 
 1477000    1.0240387     -7.68737     394.8613   0.02227834  0.022427589            4 
 1478000    1.0088062   -7.7140007     394.7055  0.022254483  0.022420485            4 
 1479000   0.99381836   -7.6873346    395.33651  0.022274989  0.022413398            2 
 1480000    1.0117746   -7.7180498    395.32206  0.022259125  0.022406345            4 
 1481000    1.0077486   -7.7323682    395.05898  0.022229292  0.022399241            3 
 1482000   0.99043457   -7.7192553    395.97278  0.022265676  0.022392214            5 
 1483000    1.0057679   -7.6920189    396.76625  0.022295249  0.022385225            2 
 1484000    1.0020236   -7.6882898    397.09016  0.022298414  0.022378177            3 
 1485000    1.0353319   -7.7134848    395.72944  0.022207039   0.02237118            3 
 1486000    1.0310488   -7.6929444    397.45938  0.022289108  0.022364254            4 
 1487000    1.0009945   -7.6764668    397.20247  0.022259721   0.02235734            5 
 1488000    1.0331405    -7.672011    398.15017  0.022297836  0.022350538            2 
 1489000    1.0095933    -7.699946    397.60806  0.022252522  0.022343665            2 
 1490000    1.0265111   -7.6972215    396.60908  0.022181716   0.02233674            3 
 1491000    1.0175108   -7.7204341    398.23587  0.022257761    0.0223298            4 
 1492000    1.0223912   -7.7111997    397.14908  0.022182142  0.022322814            4 
 1493000     1.004664   -7.7139751    397.57753  0.022191199  0.022315819            4 
 1494000    1.0086252   -7.7069627    398.49999  0.022227799  0.022308938            6 
 1495000    1.0278636   -7.7484695    397.48246  0.022156213  0.022302083            4 
 1496000     1.015152   -7.6971255    399.64061   0.02226162  0.022295154            3 
 1497000    1.0172897   -7.7141885    398.98942    0.0222105  0.022288261            4 
 1498000    1.0070788   -7.7237821    398.70407  0.022179799  0.022281429            5 
 1499000   0.99752755   -7.7345661    398.30091   0.02214259  0.022274549            3 
 1500000    1.0060956   -7.7090321    399.61481  0.022200823  0.022267629            6 
 1501000    1.0070353   -7.6949469    398.71427  0.022136036  0.022260734           10 
 1502000   0.99761774   -7.7233784    399.76879  0.022179804  0.022253925            3 
 1503000    1.0158534   -7.7167462    399.76767  0.022164985  0.022247093            6 
 1504000    1.0121361   -7.7065407    399.78474  0.022151194  0.022240212            2 
 1505000    1.0205864   -7.7272263    399.77924   0.02213617  0.022233281            4 
 1506000    1.0200705   -7.6891448    399.88845  0.022127515  0.022226395            3 
 1507000    1.0164712   -7.7047564    400.59858    0.0221521  0.022219571            4 
 1508000    1.0110807   -7.6882018    400.84561  0.022151061  0.022212668            4 
 1509000    1.0138516   -7.7125047     400.9465  0.022141954  0.022205864            2 
 1510000    1.0163566    -7.716818    402.05409  0.022188415  0.022199078            2 
 1511000    1.0025218   -7.7368991    401.40752  0.022138072  0.022192266            2 
 1512000    1.0140715   -7.7028906     402.5203  0.022184761   0.02218547            3 
 1513000   0.99026086    -7.713044    402.76635   0.02218365  0.022178822            2 
 1514000    1.0226243    -7.703867    402.34558  0.022145838  0.022172291            1 
 1515000    1.0184823   -7.6827242    402.65153  0.022148049  0.022165859            3 
 1516000    1.0027023   -7.7042018    403.53725  0.022182127  0.022159363            6 
 1517000   0.98486807   -7.7010302    402.67354  0.022120058  0.022152743            4 
 1518000   0.99501019   -7.7532524    402.64934  0.022104158  0.022146075            2 
 1519000   0.99430005   -7.7236796    403.08948  0.022113753  0.022139344            3 
 1520000    1.0120549   -7.7316901     404.0909  0.022154106  0.022132803            3 
 1521000     1.026113   -7.7255174    403.85109  0.022126402  0.022126211            2 
 1522000    1.0337862   -7.7170154    404.19058  0.022130452  0.022119722            4 
 1523000   0.98961719   -7.7143828    404.51229  0.022133524  0.022113182            8 
 1524000   0.99639923   -7.7562761    403.63033  0.022070775  0.022106728            4 
 1525000    1.0149963   -7.7127687    404.82746  0.022121719  0.022100116            3 
 1526000    1.0032231   -7.7344796    404.06563   0.02206562  0.022093583           10 
 1527000    1.0275668   -7.6989381    403.64679  0.022028312  0.022086917            5 
 1528000    1.0018361   -7.7165656    405.03125  0.022089401  0.022080362            3 
 1529000    1.0142834   -7.6825331     405.2607  0.022087459  0.022073845            2 
 1530000    0.9987539   -7.7034668    405.99116  0.022112808  0.022067386            2 
 1531000   0.98044287   -7.7173331    404.43721  0.022013782   0.02206092            3 
 1532000    1.0065049   -7.7457733     405.2766  0.022045072  0.022054362            3 
 1533000    1.0118831   -7.7210672     406.6857  0.022107289  0.022047725            4 
 1534000    1.0241888   -7.7146366    405.31725  0.022018538  0.022041117            5 
 1535000   0.97408977    -7.742105    404.66981  0.021969045  0.022034488            2 
 1536000   0.99749244   -7.7295844    405.67873   0.02200948   0.02202787            4 
 1537000   0.99795344   -7.7253597    405.77625  0.022000447  0.022021249            1 
 1538000    1.0103477   -7.7336307    405.77688  0.021986177  0.022014501            7 
 1539000    1.0110257   -7.7175148     407.1574  0.022046643  0.022007885            3 
 1540000   0.99214612   -7.7391273    406.17293  0.021979055  0.022001348            4 
 1541000    1.0169327   -7.6538041    407.75483  0.022050337  0.021994848            2 
 1542000     1.003394   -7.7503886    405.58964  0.021919025  0.021988217            2 
 1543000   0.99226116   -7.7628084    405.61046  0.021905944  0.021981336            3 
 1544000   0.99520272   -7.7393349    406.72078  0.021951683  0.021974612            9 
 1545000    1.0140927   -7.7449046    405.42007  0.021867318  0.021967824            2 
 1546000   0.99436375    -7.772163    406.00271  0.021884579   0.02196114            7 
 1547000   0.97296461   -7.7088573    407.36469    0.0219438  0.021954489            3 
 1548000    1.0178199   -7.7129909    406.81187  0.021899864  0.021947821            3 
 1549000    1.0159916   -7.7502296    406.62407  0.021875623  0.021941093            4 
 1550000    1.0167666   -7.7685016    406.63129  0.021861897  0.021934355            3 
 1551000    1.0012152   -7.6935572      409.043   0.02197738  0.021927786            3 
 1552000    1.0044039    -7.688683     408.6114  0.021940045  0.021921239            2 
 1553000    1.0021813   -7.7454241    406.38423  0.021806409  0.021914566            2 
 1554000    1.0017976   -7.7678977    407.65169  0.021860344  0.021907731            2 
 1555000    1.0050631   -7.7278342    407.18643  0.021821352  0.021900889           16 
 1556000   0.99244289   -7.7463303    408.19911  0.021861563  0.021894155            5 
 1557000    1.0129437    -7.692741    408.45829  0.021861394  0.021887352            3 
 1558000    1.0038694   -7.7219381    407.73448  0.021808648  0.021880752            3 
 1559000   0.99699192   -7.7558007    408.22306  0.021820775  0.021874036            2 
 1560000     1.009336   -7.7213738     408.2945  0.021810604  0.021867276            4 
 1561000    1.0057309   -7.7917582    407.62729  0.021761013  0.021860412           12 
 1562000   0.97223772   -7.7381849    407.58849  0.021745011  0.021853517            5 
 1563000    1.0167245   -7.7514857    408.64508  0.021787432   0.02184656            2 
 1564000    1.0140635   -7.7792947    408.41371  0.021761174  0.021839569            4 
 1565000   0.98704662   -7.7429612    407.20865  0.021683102  0.021832662            3 
 1566000   0.99216698   -7.7264166    408.65899  0.021746434  0.021825778            5 
 1567000    1.0063385   -7.7434553    408.77008  0.021738464  0.021818942            6 
 1568000    1.0107675   -7.7326029    409.05633  0.021739813  0.021812134            7 
 1569000    0.9758825   -7.7314071     409.1931  0.021733222  0.021805218            2 
 1570000    1.0004767   -7.7268975    407.96735  0.021654318  0.021798313            9 
 1571000   0.99691417   -7.7265156    408.49427  0.021668485  0.021791416            4 
 1572000    1.0096494   -7.7254607    408.52336  0.021656243  0.021784467            5 
 1573000   0.98063278   -7.7773488    407.33337  0.021579433  0.021777571            6 
 1574000   0.98051341   -7.7348676    409.01323  0.021654661  0.021770649            2 
 1575000    1.0031955   -7.7085484    409.67349  0.021675846  0.021763729            2 
 1576000   0.99575384   -7.7287598    409.68331  0.021662612  0.021756855            5 
 1577000   0.97635763   -7.7843176    409.10247  0.021618182  0.021749837            6 
 1578000   0.98968135   -7.7365761    410.65451  0.021686444    0.0217428            2 
 1579000   0.99552334   -7.7585377    409.62538  0.021618397  0.021735886            4 
 1580000    1.0356291   -7.7904856    408.54826  0.021547904  0.021728938            1 
 1581000    1.0107086   -7.7296339    410.85175   0.02165569  0.021721974            2 
 1582000   0.98758265   -7.7191451     411.3627  0.021668916  0.021715062            6 
 1583000    0.9974839   -7.7507883    410.13132  0.021590404  0.021708165            3 
 1584000   0.99361984   -7.7694405    411.55342   0.02165159   0.02170126            3 
 1585000    1.0012423   -7.7724052     410.4241  0.021578554  0.021694347            6 
 1586000   0.99608248   -7.7241902      412.099  0.021652953  0.021687427            3 
 1587000   0.99033672   -7.7553517    411.68212  0.021617419  0.021680443            4 
 1588000    1.0127263   -7.7499639    411.21962  0.021579535  0.021673518            1 
 1589000   0.98950601   -7.7857292    410.85868  0.021547025  0.021666701            3 
 1590000    1.0001215   -7.7736401    411.24181  0.021553554  0.021659794            3 
 1591000    1.0128307    -7.765288    412.12565  0.021586301  0.021652996            4 
 1592000   0.98079449   -7.7560546     412.9933  0.021618159  0.021646113            2 
 1593000   0.98918005   -7.7520492     412.5379  0.021580765  0.021639243            6 
 1594000     1.006381   -7.7986081    411.40779  0.021508144  0.021632209            7 
 1595000   0.98488362     -7.75334    412.98224   0.02157692  0.021625306            4 
 1596000    1.0006382    -7.746726    412.04284   0.02151435  0.021618413            2 
 1597000     1.000952   -7.7771043    410.89443  0.021440953  0.021611395            3 
 1598000    1.0313306    -7.805642    410.81773  0.021423536  0.021604366            3 
 1599000   0.99356955   -7.8091263    411.62374  0.021452144   0.02159725            4 
 1600000   0.97256693    -7.774686     411.9873  0.021457672  0.021590126            2 
 1601000   0.98470386   -7.7687891    411.65311  0.021426875  0.021583032            2 
 1602000    1.0029186   -7.7539629    412.96255  0.021481614  0.021576083            3 
 1603000   0.99098056   -7.7691349    412.73019  0.021456134  0.021569042            4 
 1604000   0.98542312   -7.7621863    412.48674  0.021430109  0.021562005            5 
 1605000    0.9809916   -7.7272809    413.70309  0.021479911  0.021555071           10 
 1606000   0.97465829   -7.7637935     411.9064  0.021373308  0.021548103            3 
 1607000   0.98465475    -7.765371     411.5359  0.021340795   0.02154099            3 
 1608000    1.0030086   -7.7949656    412.37333  0.021370923  0.021533789            5 
 1609000   0.98314387   -7.7353396    414.23696  0.021454162  0.021526666            2 
 1610000   0.98997181   -7.7792441    411.97698   0.02132386  0.021519505            3 
 1611000   0.99866884   -7.7779039    412.87902  0.021357284  0.021512381            3 
 1612000   0.99737304   -7.7661148      413.089   0.02135489   0.02150527            2 
 1613000    1.0009647   -7.7606235    413.96871    0.0213871  0.021498073            4 
 1614000    1.0018614   -7.7913833    412.31041  0.021288228  0.021490901            5 
 1615000   0.99605577   -7.7980016    412.97742  0.021309464  0.021483762            3 
 1616000   0.99505394   -7.7667472    414.74739  0.021387551  0.021476674            5 
 1617000    1.0078511   -7.7534948    414.98952  0.021386803  0.021469704            6 
 1618000    1.0007691   -7.7662945    413.91724  0.021318358  0.021462731            4 
 1619000   0.98831946   -7.7758992    413.79822  0.021299064  0.021455636            3 
 1620000   0.98161224   -7.7760728    414.86395  0.021340738   0.02144855            5 
 1621000   0.97362979   -7.7661605    415.29377  0.021349669  0.021441452            3 
 1622000    1.0221982   -7.7919441    414.79714  0.021310992  0.021434407            5 
 1623000   0.97645383   -7.8093498    415.57974  0.021338044  0.021427423            2 
 1624000   0.95856664   -7.7622017     415.1218  0.021301406  0.021420498           10 
 1625000     0.989263    -7.760189    415.63509   0.02131462  0.021413491            4 
 1626000    0.9757117   -7.7319147    416.12922  0.021326836  0.021406617            5 
 1627000    1.0079456   -7.7951282    416.19929  0.021317316  0.021399674            2 
 1628000   0.99108929   -7.7906151     415.7136  0.021279361  0.021392724            4 
 1629000   0.98371329   -7.7397385    417.18976  0.021341813  0.021385801            3 
 1630000   0.99587282   -7.7821411    415.95598  0.021265643  0.021378805            7 
 1631000   0.99302276    -7.729318    417.74994  0.021344264  0.021371861            6 
 1632000   0.99446695   -7.7214468     417.4868  0.021317749  0.021365057            6 
 1633000   0.98796895   -7.7590517     417.2031  0.021290218  0.021358265            5 
 1634000   0.99185927   -7.7652558    416.77916  0.021255567  0.021351387            3 
 1635000   0.98250826   -7.8334473    416.46741  0.021226677   0.02134448            2 
 1636000   0.99701238   -7.7642451    418.34452  0.021309317  0.021337538            8 
 1637000    1.0044013   -7.7944208     417.9409  0.021275753  0.021330728            2 
 1638000     1.001486   -7.8182757    417.27188  0.021228728  0.021323828            7 
 1639000    1.0004697   -7.7840923    417.85628  0.021245489  0.021316889            2 
 1640000   0.98244213   -7.7776627    417.63623  0.021221353  0.021309988            4 
 1641000     1.001151   -7.8136481    418.50187   0.02125238  0.021303062            2 
 1642000   0.99341183   -7.7959145    418.93224  0.021261279  0.021296249            3 
 1643000   0.97585601   -7.8009075    419.04241  0.021253926  0.021289431            3 
 1644000   0.99844493   -7.7901207    419.16934  0.021247432  0.021282598            2 
 1645000    0.9856884     -7.73807    419.19289  0.021235709  0.021275828            2 
 1646000   0.99156455   -7.7899807    419.20389  0.021223364   0.02126914            4 
 1647000    1.0018083   -7.7822808    418.42871  0.021171256  0.021262302            7 
 1648000   0.96116879   -7.7499805    420.60605   0.02126851  0.021255494            3 
 1649000   0.99873743   -7.8151207    418.46399  0.021147361  0.021248677            3 
 1650000   0.97437779   -7.7659034    419.90715  0.021207432   0.02124191            3 
 1651000   0.98436586   -7.7481298     419.9154  0.021195003   0.02123507            4 
 1652000    1.0075524   -7.8106516    419.02735  0.021137377  0.021228198            3 
 1653000   0.99669639   -7.7802897     419.6439  0.021155672  0.021221442            5 
 1654000    1.0061447   -7.7855738     419.5749  0.021139405  0.021214618            6 
 1655000   0.97345013   -7.7586207    420.62438  0.021179475  0.021207902            4 
 1656000   0.97265124   -7.8405363    419.99964  0.021135247  0.021201175            3 
 1657000   0.97899331   -7.7710087    420.28347  0.021136767  0.021194404            3 
 1658000   0.97561688    -7.781095    420.09556  0.021114574  0.021187687            2 
 1659000   0.99552161   -7.7865899    421.00711  0.021147635  0.021181035            3 
 1660000    0.9842817   -7.7638026    421.26807  0.021147995  0.021174287            1 
 1661000   0.97878692   -7.7715382     421.0002  0.021121824  0.021167461            2 
 1662000   0.99829037   -7.8288836    420.10271  0.021064115  0.021160609            7 
 1663000    0.9854917   -7.7993525    420.64144  0.021078445  0.021153754            5 
 1664000   0.98391097   -7.7949468    420.82469  0.021074954  0.021146922            8 
 1665000   0.98768116   -7.8156188    420.42687  0.021042386   0.02114005            4 
 1666000    0.9863246    -7.793106    420.42251  0.021029537  0.021133178           10 
 1667000   0.96510442   -7.7987543    420.86409  0.021038997  0.021126266            3 
 1668000   0.96455234   -7.7703889    421.38227  0.021052272  0.021119527            3 
 1669000   0.97369329   -7.7938725    420.77021  0.021009098  0.021112617           10 
 1670000   0.99635229   -7.7826909    421.53803  0.021034832  0.021105757            3 
 1671000   0.96210711    -7.796639    421.85788  0.021038195  0.021098879            1 
 1672000    0.9764267   -7.8127532     419.5618  0.020911174  0.021091971            5 
 1673000    1.0031044   -7.7637746     423.0455  0.021072201  0.021085098            4 
 1674000   0.98458682   -7.7841418    422.24881  0.021019953  0.021078254            8 
 1675000   0.99289331   -7.7841492    422.50001  0.021019901  0.021071367            4 
 1676000   0.99593126   -7.7491597    422.22919  0.020993894  0.021064607            5 
 1677000   0.98563848   -7.8221063      422.199  0.020979875  0.021057714            2 
 1678000    0.9757319   -7.7635746    422.56136  0.020985367  0.021050923            4 
 1679000   0.97831391   -7.8074814    421.98747  0.020944385  0.021044128            3 
 1680000   0.96944281   -7.7768586    423.24741  0.020994415  0.021037342            3 
 1681000   0.99163594   -7.7493751    424.41071  0.021039595  0.021030552            4 
 1682000   0.97286203   -7.7792436    422.44115  0.020929506   0.02102373            6 
 1683000   0.99616105   -7.7869359    423.86921   0.02098778  0.021016901            3 
 1684000   0.99454969   -7.7680197    423.86231  0.020974976  0.021010088            3 
 1685000   0.97433542   -7.7657101    423.94168  0.020966453  0.021003296            5 
 1686000   0.98131303   -7.7676329    423.09387  0.020912113  0.020996421           11 
 1687000    0.9864212   -7.7837941     423.5327  0.020921394  0.020989627            2 
 1688000   0.99038151    -7.771681    423.82215   0.02092329  0.020982821            3 
 1689000   0.97325846   -7.7816089    424.35812  0.020937346  0.020976065            3 
 1690000   0.97045942   -7.7581998    424.54004  0.020933927  0.020969318            3 
 1691000   0.98599686   -7.7921798    424.64365  0.020926653  0.020962494            6 
 1692000   0.96984447   -7.7847131     425.6008  0.020961426  0.020955713            2 
 1693000   0.97140998   -7.7955505    425.06347  0.020922597  0.020948927            4 
 1694000    0.9796051   -7.8355098    424.42188  0.020878684  0.020942115            1 
 1695000   0.97903152   -7.8427404     424.6118  0.020875703  0.020935273            4 
 1696000    0.9899171   -7.8209094    425.16222  0.020890439  0.020928514            8 
 1697000   0.98071428   -7.8163727    423.43182  0.020793155  0.020921679            9 
 1698000   0.99040029   -7.8083248    424.57747  0.020837135  0.020914817            4 
 1699000   0.97929518   -7.7874167    426.53794  0.020921029  0.020908078            3 
 1700000    1.0028678   -7.7829744    425.97844  0.020881296  0.020901335            1 
 1701000   0.99243159   -7.7975155     425.9913   0.02086965  0.020894531            6 
 1702000   0.97433741   -7.7995214    425.97574  0.020856627  0.020887793            4 
 1703000   0.98806872   -7.7910587    425.90691  0.020841011  0.020881041            4 
 1704000   0.96212722   -7.7907234     426.6211  0.020863708   0.02087432            6 
 1705000   0.99238556   -7.8105846    425.58484  0.020800823  0.020867621            6 
 1706000    0.9656476   -7.7699104    426.90216  0.020852978  0.020860917            4 
 1707000    0.9884906   -7.7490029    427.37991  0.020864084  0.020854167            3 
 1708000    0.9805961   -7.7635292    426.85615  0.020826315  0.020847456            1 
 1709000   0.98305411   -7.7901302    427.27835  0.020834716  0.020840753            8 
 1710000   0.98928547   -7.8041888     427.3601  0.020826516  0.020834051            3 
 1711000    1.0086316    -7.807403    427.14586  0.020803909  0.020827282            2 
 1712000   0.98380385   -7.8204812    426.38255  0.020754602  0.020820528            3 
 1713000   0.96519529   -7.7816899    428.20155  0.020830976  0.020813732            5 
 1714000   0.97693988   -7.7967197     427.3933  0.020779527  0.020806947            3 
 1715000   0.96239982   -7.8199966    427.09863  0.020753092  0.020800121            2 
 1716000   0.99927807   -7.8103511    426.14476  0.020694676  0.020793324            2 
 1717000   0.99398373   -7.7530623    428.42392   0.02079324  0.020786585            2 
 1718000     0.968778    -7.840142    427.62799  0.020742529  0.020779877            5 
 1719000   0.98951249   -7.7396301    429.17582  0.020805498  0.020773171            6 
 1720000   0.98306612   -7.8319996      428.441  0.020757801  0.020766468            2 
 1721000   0.99685654   -7.8517242    428.45128  0.020746237  0.020759792            2 
 1722000   0.97225684   -7.7593075    429.86916  0.020802805  0.020753089            3 
 1723000    0.9893028   -7.7862217    429.20762  0.020758736  0.020746475            2 
 1724000   0.95495781   -7.8075773    428.66201  0.020720322  0.020739761            1 
 1725000   0.97462537   -7.8219489      428.148  0.020683478  0.020733052            6 
 1726000   0.99054466   -7.7818209    428.63467  0.020694992  0.020726304            5 
 1727000   0.98593285   -7.7865806    429.76499   0.02073755  0.020719622            4 
 1728000   0.97305238   -7.8002729    428.05555  0.020643111  0.020712911            6 
 1729000   0.98076643   -7.8169751    428.71402  0.020662908  0.020706197            3 
 1730000    0.9613889   -7.8144464    428.95077  0.020662369  0.020699513            8 
 1731000   0.95459393   -7.8225923    429.39171  0.020671659  0.020692741            6 
 1732000   0.97791078   -7.8048943    428.77319  0.020629965  0.020685958            5 
 1733000   0.98155982   -7.8263193    428.68227  0.020613689  0.020679098            4 
 1734000    0.9940577   -7.8125033    428.96609  0.020615441   0.02067226            3 
 1735000   0.97039776    -7.844222    428.01264  0.020557764  0.020665384            6 
 1736000   0.99221222   -7.8248173    429.10536  0.020598375  0.020658484            5 
 1737000     0.976919   -7.7939185    428.44594  0.020554881  0.020651574            2 
 1738000   0.97322705   -7.8010043    428.34833  0.020538374  0.020644732            5 
 1739000   0.98051714   -7.8250994    429.31527    0.0205729  0.020637745           11 
 1740000   0.96572281   -7.8470781    429.19556  0.020555343  0.020630795            4 
 1741000   0.97471083   -7.8348861    428.64781  0.020517318  0.020623834            5 
 1742000   0.95198066   -7.8462437    429.28069  0.020535816  0.020616882            1 
 1743000   0.98360765   -7.8282376    429.56294  0.020537528  0.020609922            5 
 1744000     0.963785   -7.8081596    429.51225   0.02052333  0.020603048            5 
 1745000   0.97001077   -7.8276651    429.74338  0.020522607  0.020596123            3 
 1746000   0.96181879   -7.8777855    429.46932  0.020497772  0.020589154            4 
 1747000   0.98226177   -7.8263965    428.72868   0.02045071  0.020582192            2 
 1748000   0.98330197   -7.8346799    429.57441  0.020479329  0.020575206            5 
 1749000   0.97783628   -7.8174794    429.76752  0.020476821  0.020568248            3 
 1750000   0.97995397   -7.8780633    430.00483   0.02047642  0.020561262            3 
 1751000   0.97931071   -7.8278311    430.77935  0.020501587   0.02055427            5 
 1752000   0.97855068   -7.8039302    431.53609   0.02052588  0.020547351            6 
 1753000   0.97236409   -7.8256274    429.55477  0.020419983  0.020540388            2 
 1754000   0.98899787   -7.8331913    431.08846  0.020481208  0.020533496            1 
 1755000   0.97952091   -7.8222119    430.91579  0.020461339  0.020526615            4 
 1756000   0.98417905   -7.7872599    432.60333  0.020529771   0.02051973            3 
 1757000   0.98936023   -7.8335874    431.45388  0.020463568  0.020512936            3 
 1758000   0.97040315   -7.8265657    430.43912  0.020403826  0.020506046            2 
 1759000   0.96804835   -7.8386652    430.48477  0.020394389  0.020499187            4 
 1760000   0.97533079   -7.8620346    431.73993  0.020442232  0.020492267            7 
 1761000   0.96896242   -7.8548564    431.11421  0.020401013  0.020485372            6 
 1762000   0.99367408   -7.8658329    430.60028  0.020365129  0.020478415            2 
 1763000   0.98886074   -7.8538617    431.25817  0.020384674  0.020471535            6 
 1764000    1.0036426   -7.8521282    430.86818  0.020354695  0.020464599            3 
 1765000   0.97779278    -7.804008     432.1606  0.020404183   0.02045768            6 
 1766000   0.98225327   -7.8381154    432.04621  0.020387232  0.020450791            2 
 1767000   0.97048716   -7.8183668    431.63801  0.020356443  0.020443969            6 
 1768000   0.97142847   -7.8135019    432.94628  0.020406593  0.020437105            4 
 1769000   0.96249299   -7.7935215     433.2804  0.020410797  0.020430257            5 
 1770000   0.96879174   -7.8039125     433.0465  0.020388253  0.020423367            4 
 1771000   0.98115064   -7.8130449    432.16239   0.02033514  0.020416479            9 
 1772000   0.97261064   -7.8576752    432.41085  0.020335348  0.020409548            8 
 1773000   0.95685679   -7.7870942    432.85138  0.020344585  0.020402604            3 
 1774000   0.95926375   -7.8296703    432.31071  0.020307718   0.02039572            7 
 1775000   0.97084924   -7.8400371    432.10125  0.020286444  0.020388888            4 
 1776000   0.98832316   -7.8283814    432.98762  0.020316611  0.020382029            4 
 1777000   0.96770668   -7.8268589    434.08862   0.02035681   0.02037517            8 
 1778000   0.96130773   -7.8539315     433.3689  0.020311628  0.020368371            5 
 1779000   0.96889157   -7.8264369    433.35489  0.020299554  0.020361548            5 
 1780000   0.96530409   -7.8427145    433.51835  0.020295803  0.020354639            9 
 1781000   0.94731026   -7.8717728     434.0729  0.020310355  0.020347737            5 
 1782000   0.96913156   -7.8298192    433.53654  0.020273875  0.020340985            6 
 1783000   0.94884264   -7.8316043    434.50989  0.020307996  0.020334144            5 
 1784000   0.99376956   -7.8333448    434.18509  0.020281441  0.020327243            3 
 1785000    0.9550626   -7.8664204    432.67952  0.020199791  0.020320364            4 
 1786000   0.97027862   -7.7957071    435.14599  0.020303564  0.020313496            2 
 1787000   0.94411899   -7.8602385    434.62253  0.020267792  0.020306665            3 
 1788000   0.96796018   -7.8497054    432.70245  0.020166967  0.020299773            1 
 1789000    0.9644872   -7.8069321    435.69333  0.020295013  0.020292908            6 
 1790000   0.96957653    -7.855461    434.74039  0.020239311  0.020286138            5 
 1791000   0.95982556   -7.8502668    433.02867  0.020148365  0.020279285            3 
 1792000    0.9696134   -7.8337844    434.14185  0.020188888   0.02027244            9 
 1793000   0.97579207   -7.8495245    434.06355  0.020173989  0.020265622            4 
 1794000   0.94963174   -7.8417679    434.05892  0.020162529  0.020258747            3 
 1795000   0.97073925   -7.8604934     434.8248  0.020186853  0.020251878           13 
 1796000   0.95672499   -7.8541042    434.96888  0.020182298  0.020244986            2 
 1797000   0.95795462   -7.8501251    435.59679  0.020200185  0.020238169            5 
 1798000   0.96596359   -7.8440392    435.02751  0.020162565  0.020231391            4 
 1799000   0.96450738   -7.8719245    435.80593  0.020187416  0.020224596            4 
 1800000   0.96131385   -7.8403977    435.72036  0.020172239  0.020217805            5 
 1801000   0.98258869   -7.7890404    436.13102   0.02018004  0.020211086            4 
 1802000   0.96033486   -7.8444151    436.77412  0.020198581  0.020204329            4 
 1803000   0.94581267   -7.8367289      435.639  0.020134914   0.02019756            4 
 1804000   0.94700227   -7.8608523    436.01447  0.020141097  0.020190713           10 
 1805000   0.95106868   -7.8496128    436.66122  0.020159798  0.020183882            4 
 1806000   0.94858858   -7.8634839    435.65817  0.020102352  0.020177052            8 
 1807000   0.97048995   -7.8603847     435.9572  0.020105017  0.020170222            5 
 1808000   0.95593995   -7.8546327    436.95559  0.020139915  0.020163296            3 
 1809000   0.96289152   -7.8524016    437.14001  0.020137277  0.020156486            2 
 1810000   0.96878104   -7.8922662    437.67156  0.020150624  0.020149741            4 
 1811000   0.95847425   -7.8961208     435.3678   0.02003349  0.020142956            2 
 1812000   0.97560038   -7.8346969    436.39767  0.020069797  0.020136129            9 
 1813000     0.972175   -7.8571753    435.76775  0.020029774  0.020129257            5 
 1814000   0.97167805   -7.8597002    436.61747  0.020057767   0.02012244            6 
 1815000   0.96437682   -7.8782543    436.88732  0.020059106  0.020115643            9 
 1816000    0.9815637   -7.8681824    438.97958   0.02014407  0.020108907            2 
 1817000   0.97936489    -7.811418    438.30921  0.020102239  0.020102163            7 
 1818000   0.95956551   -7.8682996    435.71777  0.019972395  0.020095418            5 
 1819000   0.97363895   -7.8537459    437.79427  0.020056545   0.02008857            4 
 1820000   0.95115362   -7.8970461    437.82621  0.020046988  0.020081773            4 
 1821000   0.95141464   -7.8741419    436.64502  0.019981925  0.020074918            4 
 1822000   0.97369278   -7.8715582    437.11224  0.019992327  0.020068049            3 
 1823000   0.96000434   -7.8654177    438.05919  0.020024648  0.020061193            2 
 1824000   0.94764603   -7.8472731    438.23152  0.020021542  0.020054374            1 
 1825000   0.95304874   -7.8597311    439.23318   0.02005631  0.020047595            4 
 1826000    0.9750324   -7.8395049    437.91234  0.019985047  0.020040819            7 
 1827000   0.94448033   -7.8243528    438.56186  0.020003734  0.020034042            7 
 1828000   0.94285657   -7.8709906    437.77152  0.019956762  0.020027228           15 
 1829000   0.95354363   -7.8617875    439.49675  0.020024455  0.020020482            5 
 1830000   0.95768278   -7.8619713    438.65826   0.01997533  0.020013669            3 
 1831000   0.96714193   -7.9148883    437.88813  0.019929371  0.020006905            6 
 1832000   0.94486647   -7.8425726    440.20354  0.020023814  0.020000147            3 
 1833000   0.97088944   -7.8618911    440.15812  0.020010826  0.019993436            3 
 1834000   0.95861977   -7.8843707    439.48548  0.019969351  0.019986756            9 
 1835000   0.96576615   -7.8320941    439.83666  0.019974417  0.019980072            8 
 1836000   0.96208483   -7.8394539    440.69715  0.020002594  0.019973475            4 
 1837000   0.96104732   -7.8739406     440.0271  0.019961309  0.019966905            3 
 1838000   0.94418012   -7.8357382    440.80575  0.019985752  0.019960289            8 
 1839000   0.96305726   -7.8490307    441.12276   0.01998925  0.019953664            3 
 1840000   0.97725282     -7.85329    440.65894   0.01995738   0.01994708            3 
 1841000   0.94605587   -7.8224036    441.90486  0.020002936  0.019940474            4 
 1842000   0.96332933   -7.8749479    441.36971  0.019967866  0.019933824            4 
 1843000   0.94429049   -7.8645315    441.78767   0.01997593  0.019927245            5 
 1844000   0.93725806   -7.8839651    440.79739  0.019920345  0.019920585           10 
 1845000   0.97495012    -7.874271    440.33669  0.019888739  0.019913882            9 
 1846000   0.95954654   -7.8867512    441.21903  0.019917797  0.019907225            5 
 1847000    0.9663672   -7.8759626    442.30113  0.019955835  0.019900524            2 
 1848000   0.97607043   -7.8818583    440.00036  0.019841286  0.019893791            5 
 1849000   0.97877939   -7.8432184    441.83975  0.019913455   0.01988712            4 
 1850000   0.94869542   -7.8312572    441.54362  0.019889352  0.019880511            7 
 1851000   0.95922682   -7.8582448    441.40707   0.01987246  0.019873948            6 
 1852000   0.95431353   -7.8798897    441.72678  0.019876115    0.0198673            5 
 1853000   0.95081218    -7.839887    441.98819  0.019877145  0.019860683            5 
 1854000   0.95763097   -7.8530718    442.84934   0.01990513  0.019854141            4 
 1855000   0.95171084   -7.8578756    444.00015  0.019946098  0.019847621           11 
 1856000   0.95340308   -7.8727533    442.78793  0.019880924  0.019841107            5 
 1857000   0.97506722   -7.8726013    443.01119  0.019880236  0.019834607            3 
 1858000   0.95062918   -7.8699136    443.19753  0.019877894  0.019828041            5 
 1859000   0.95777078   -7.8758818    442.39203  0.019831093   0.01982154            3 
 1860000   0.96326144   -7.8884553    444.43208  0.019911832  0.019814993            3 
 1861000   0.95814748   -7.8767663    443.62631  0.019865051  0.019808443            5 
 1862000   0.92532884   -7.8874593    443.20564  0.019835555   0.01980187            3 
 1863000   0.95594509   -7.9135976     442.3615  0.019787149  0.019795297            9 
 1864000   0.95011176   -7.9138507    442.95614  0.019803118  0.019788671            7 
 1865000   0.96967878   -7.8688142    443.91415  0.019835306   0.01978207            3 
 1866000   0.95818858   -7.8688547    444.26556   0.01984037  0.019775397            4 
 1867000   0.94993899   -7.8798669    443.79028  0.019808529  0.019768832            3 
 1868000   0.97132379    -7.859663     443.8847  0.019802137  0.019762222            3 
 1869000   0.95093739   -7.8703259    444.28428  0.019809358  0.019755641            3 
 1870000   0.94571188   -7.9015605    442.84706  0.019734718  0.019748978            5 
 1871000   0.95819866   -7.8897393    442.28767  0.019699255  0.019742337            4 
 1872000   0.96755732   -7.8987127    442.65577  0.019705118  0.019735693            5 
 1873000   0.94074235   -7.9129054    443.24574  0.019720846  0.019729023            6 
 1874000   0.95251766   -7.8644982    444.64416  0.019772508  0.019722406            7 
 1875000   0.94917112   -7.8905857    443.64798  0.019717688  0.019715774            3 
 1876000   0.95054682   -7.8837939    444.65028  0.019751701  0.019709202            3 
 1877000   0.96282799   -7.8826279    444.23706  0.019722832  0.019702614            9 
 1878000   0.97297294   -7.8857577    444.42566  0.019720699  0.019696022            7 
 1879000   0.95978406   -7.8963626    444.30452   0.01970483  0.019689441            4 
 1880000   0.95863428    -7.881098      444.376  0.019697518  0.019682878            5 
 1881000   0.93700619   -7.8715303    445.56049  0.019739522  0.019676359            7 
 1882000   0.93960859   -7.8762235    444.37275  0.019676441  0.019669837            9 
 1883000   0.94220393   -7.8988048    446.72622  0.019770146  0.019663283           14 
 1884000    0.9375451   -7.9327013    445.45469   0.01970341  0.019656751            5 
 1885000   0.94306826   -7.9140137    445.46609  0.019693461  0.019650195            4 
 1886000    0.9430318   -7.9133719    446.20559  0.019715694  0.019643678            5 
 1887000   0.95620169   -7.8652285    445.97904  0.019695241  0.019637231            2 
 1888000   0.96197231    -7.886363    446.31835  0.019699786  0.019630744            4 
 1889000   0.94350552   -7.8917215    445.91798  0.019671695  0.019624231            3 
 1890000   0.92653465    -7.933573    447.09094  0.019713005  0.019617753            9 
 1891000   0.94086271   -7.8647032    446.43711  0.019673766  0.019611296            5 
 1892000   0.96627137   -7.8964221    446.64926  0.019672713  0.019604844            2 
 1893000   0.95424288   -7.9058427    445.58997  0.019615688  0.019598333            4 
 1894000   0.93541643   -7.9094903    445.75925  0.019612779  0.019591834            3 
 1895000   0.95478249   -7.9150738    447.32372  0.019671228  0.019585342            6 
 1896000   0.95679521   -7.9315095    447.64882  0.019675141  0.019578833            2 
 1897000   0.93926618   -7.8926179    447.93844  0.019677492  0.019572323           18 
 1898000   0.95125498   -7.9104161    446.25782  0.019593336  0.019565832            3 
 1899000   0.92318012    -7.880086    447.82933   0.01965198  0.019559402            4 
 1900000    0.9326271   -7.8806192    447.65176  0.019633849  0.019553014            6 
 1901000   0.94376999   -7.9155139    447.43863  0.019614178  0.019546691            8 
 1902000    0.9345093    -7.853391    449.08519  0.019676007  0.019540363            3 
 1903000   0.95995033   -7.9014053    447.71715  0.019605761  0.019534045            6 
 1904000   0.94173041   -7.8978957     449.2566  0.019662842  0.019527698            4 
 1905000   0.94718049   -7.9303062    447.98892  0.019597066  0.019521289            5 
 1906000   0.92431828   -7.9050148    447.64197  0.019571615  0.019514847            7 
 1907000   0.95625751   -7.9017101    447.90429  0.019572815  0.019508403            4 
 1908000    0.9260049   -7.9171493    448.02156  0.019567678  0.019501984            7 
 1909000   0.94759914   -7.9445656    448.60405  0.019582856  0.019495562            6 
 1910000   0.95507596   -7.9322345    445.71388  0.019446505  0.019489073           10 
 1911000   0.95836327   -7.8907703      450.509   0.01964543  0.019482674            4 
 1912000   0.95342929   -7.9102647    448.91591  0.019565721   0.01947629            3 
 1913000   0.93134157   -7.8897382    449.74692  0.019591694  0.019469962           11 
 1914000   0.93999226   -7.8816711    450.45509   0.01961229  0.019463689            5 
 1915000   0.94084539   -7.8718384    450.58895  0.019607874  0.019457396            8 
 1916000   0.94130894   -7.8912488    451.38199  0.019632133  0.019451134            3 
 1917000   0.93629549   -7.8463264    450.70965  0.019592664  0.019444893            7 
 1918000    0.9544803   -7.8850084    450.83752  0.019588005  0.019438739            4 
 1919000    0.9403559   -7.9330904    450.63168  0.019568859  0.019432534            4 
 1920000   0.95982255   -7.8936264    451.03568  0.019576201  0.019426313            6 
 1921000   0.95757304   -7.8856623    451.09093  0.019568407  0.019420145            5 
 1922000    0.9304575   -7.9402324    451.02101  0.019555195  0.019413963            4 
 1923000   0.95871992   -7.8871816    450.73943  0.019532823  0.019407782            7 
 1924000   0.92697146   -7.9580991    450.79419  0.019525043  0.019401586            8 
 1925000   0.94491481   -7.8860407    451.63727  0.019551397  0.019395352           10 
 1926000   0.94661414   -7.8680715    451.86544  0.019551118  0.019389142            4 
 1927000   0.92932249   -7.8896394    452.11364  0.019551705  0.019382942            3 
 1928000   0.96122423   -7.9160572    452.00775  0.019536988   0.01937671            7 
 1929000   0.94751254   -7.9089703    451.55821   0.01950744  0.019370454            5 
 1930000   0.94545011   -7.8718701    453.48705  0.019580615  0.019364261            4 
 1931000   0.93762399   -7.8974213    453.52061  0.019571924   0.01935814            3 
 1932000   0.95212927   -7.8868817    453.02168  0.019540273  0.019352046            7 
 1933000   0.94937016   -7.8806595    454.49732   0.01959378   0.01934593            2 
 1934000   0.94706542   -7.9201825    452.62451  0.019502952  0.019339824            3 
 1935000   0.92611834   -7.9120927    451.95539  0.019464057  0.019333653            5 
 1936000   0.93353962   -7.9231551    452.75844  0.019488569  0.019327451            4 
 1937000   0.93252633   -7.9171758     453.0695   0.01949189  0.019321268            3 
 1938000   0.94270848   -7.8931745    452.43949  0.019454742  0.019315093           14 
 1939000   0.95018319   -7.8783392    452.47417  0.019446199  0.019308917            4 
 1940000   0.94894308   -7.8766273    453.64426  0.019486437  0.019302775            6 
 1941000   0.93752161   -7.9066099    453.20718  0.019457632   0.01929656            7 
 1942000   0.93042679   -7.8869899    452.80885  0.019430521  0.019290366            5 
 1943000   0.94473797   -7.9310209     452.3507   0.01940087  0.019284172            2 
 1944000   0.93984481   -7.9071969    453.29456  0.019431351  0.019277937            6 
 1945000   0.96583212   -7.9590049    453.14619  0.019415004  0.019271688           10 
 1946000   0.94143311   -7.9172573    452.71831  0.019386704   0.01926542            3 
 1947000   0.95040674   -7.8704844      453.684  0.019418079  0.019259184            2 
 1948000    0.9294688   -7.8919071    453.76056  0.019411386  0.019252994            3 
 1949000   0.96299862   -7.9075627    454.62957  0.019438582  0.019246791            2 
 1950000   0.92718453   -7.8876462    455.28105  0.019456455  0.019240586            3 
 1951000   0.93184648   -7.9169204    453.19039  0.019357184  0.019234376            4 
 1952000   0.94247569   -7.9217958    453.27904  0.019351052  0.019228161           11 
 1953000   0.93851951   -7.9583315    454.04925  0.019374008  0.019221915            3 
 1954000   0.94124594   -7.9186968    452.89472  0.019314855  0.019215699            2 
 1955000   0.94867988   -7.9179722    453.51287  0.019331324   0.01920951            3 
 1956000   0.90957594   -7.8935536     454.6768  0.019371029   0.01920336            4 
 1957000   0.94160548   -7.9435748    453.33927  0.019304176   0.01919713            5 
 1958000   0.92072981   -7.9526779    452.78937  0.019270913  0.019190901            6 
 1959000   0.92746372   -7.9504904    453.27561   0.01928176  0.019184611           13 
 1960000   0.93822381   -7.9829934     451.7856  0.019208572  0.019178344            5 
 1961000   0.92132032   -7.9235948    454.62135  0.019319282  0.019172058            4 
 1962000   0.95453758   -7.9271564    453.99134  0.019282677  0.019165843            3 
 1963000   0.95642137   -7.9459999    454.34029  0.019287667  0.019159573            3 
 1964000   0.94334605   -7.9207247    454.77359  0.019296232  0.019153317            3 
 1965000   0.93117307   -7.9469044     454.8091  0.019287918  0.019147082            3 
 1966000    0.9470685   -7.9519043    455.38976   0.01930272  0.019140809            4 
 1967000   0.94689621   -7.9102317    455.34826  0.019291148  0.019134595            3 
 1968000   0.93635527   -7.9058442    455.11855  0.019271619  0.019128403            4 
 1969000   0.94214261   -7.9059085    456.00134  0.019299193  0.019122234            6 
 1970000   0.94430208   -7.9128957    455.67159  0.019275448  0.019116058            7 
 1971000   0.94869155   -7.9341905    454.98973  0.019236839  0.019109831            4 
 1972000   0.93330128   -7.9044399    456.72274  0.019300319  0.019103641            7 
 1973000   0.94305585   -7.9349464    455.42313  0.019235645  0.019097439            3 
 1974000   0.95744966   -7.9084039    455.70752  0.019237906  0.019091306           11 
 1975000    0.9083179   -7.9310873     456.6547  0.019268131  0.019085157            4 
 1976000   0.94214384   -7.8862605    456.89009  0.019268307  0.019079057            5 
 1977000   0.94104554   -7.9259215    456.19302  0.019229178  0.019072917            4 
 1978000   0.90869563   -7.9187048    456.24752  0.019221752  0.019066745            4 
 1979000   0.91826583   -7.9483651     454.3334  0.019131439    0.0190605            5 
 1980000   0.91934136   -7.8859179    456.65848  0.019219633  0.019054245            2 
 1981000   0.94155786   -7.9508459    453.43176  0.019074195  0.019047965            4 
 1982000   0.92747877   -7.9301277    456.50411  0.019193748  0.019041668           12 
 1983000   0.93367862   -7.9647902    454.43413   0.01909708  0.019035401            5 
 1984000   0.93961758   -7.9588998    456.22587  0.019162713  0.019029117           12 
 1985000    0.9400452   -7.9627293    457.06739  0.019188388   0.01902281            9 
 1986000    0.9077553   -7.9609914    456.80554  0.019167738  0.019016545           24 
 1987000   0.94166995   -7.9726435    456.40885  0.019141455  0.019010305           14 
 1988000   0.94554407   -7.9309383    456.92199  0.019153336  0.019004115            7 
 1989000   0.93110522   -7.9521379    456.54445  0.019127889  0.018997909            4 
 1990000   0.95011127   -7.9172611    456.38993  0.019111806  0.018991726            4 
 1991000   0.93509833    -7.953927    456.27348  0.019097333  0.018985498            6 
 1992000   0.93964336   -7.9723403    456.84969  0.019111851  0.018979298           11 
 1993000    0.9307659   -7.9354719    458.22903  0.019159936  0.018973118            3 
 1994000   0.94031897   -7.9427288    457.42964  0.019116919  0.018967006            3 
 1995000   0.91744746   -7.9556179    457.83789   0.01912439  0.018960825            3 
 1996000   0.93585579   -7.9651044    457.95249  0.019119593  0.018954702            6 
 1997000   0.92397794     -7.90373    458.30784  0.019124847  0.018948581            7 
 1998000   0.93590477   -7.9346785    457.94604  0.019100185  0.018942516            4 
 1999000   0.91567031   -7.9518773    457.83201  0.019085877  0.018936388            2 
 2000000   0.92642267   -7.9334826    458.62777   0.01910949  0.018930253            2 
 2001000   0.92993469   -7.9311353    458.44452  0.019092309  0.018924124            4 
 2002000   0.93848822   -7.9617023    459.55083  0.019128822  0.018918003            6 
 2003000   0.92733132    -7.936991     458.3711   0.01907019  0.018911931            5 
 2004000   0.94074923   -7.8957402    460.52698  0.019150324  0.018905882            3 
 2005000   0.90786603   -7.9456522    459.34521  0.019091655  0.018899817            5 
 2006000   0.94959089    -7.945739    458.78996  0.019059071  0.018893672            8 
 2007000   0.93105832   -7.9660725    459.64059  0.019084894  0.018887591            5 
 2008000   0.93776303   -7.9473157    458.70999  0.019036769   0.01888148            7 
 2009000   0.93450127   -7.9920292    458.66895  0.019025591  0.018875326            8 
 2010000   0.91212841   -7.9430978    460.46617  0.019090637  0.018869182            3 
 2011000   0.93220427   -7.9844922    459.39905  0.019036924  0.018863129            5 
 2012000   0.92236101   -7.9706592    458.33794  0.018983513  0.018856964            9 
 2013000   0.91592373   -7.9923949    459.82281  0.019035553  0.018850844            4 
 2014000   0.92940134   -7.9355495    460.71856  0.019063164  0.018844762            5 
 2015000   0.95861316   -7.9795164    458.92373  0.018979476  0.018838684           10 
 2016000    0.9416774   -7.9902584     459.5917  0.018997673  0.018832618           13 
 2017000   0.93307008   -7.9552789    460.97961  0.019045596  0.018826505            8 
 2018000   0.93078366     -7.97729     460.7926  0.019028436  0.018820464            4 
 2019000   0.93453103   -7.9607309    460.73107  0.019016471  0.018814397            5 
 2020000   0.91783202   -7.9349362    460.83652  0.019011407  0.018808284            4 
 2021000   0.92841553   -7.9629634    460.18048   0.01897495   0.01880216            6 
 2022000   0.93289657   -7.9622132    460.89092  0.018994845  0.018796057            4 
 2023000   0.93221474   -7.9434256    461.95127  0.019029134  0.018789979            3 
 2024000   0.95449516   -7.9946467    460.59229   0.01896378  0.018783947            4 
 2025000   0.90416117   -7.9435549    461.15932   0.01897775   0.01877792            6 
 2026000    0.9333123   -7.9814205    461.30699  0.018974456   0.01877188            5 
 2027000   0.92105671   -7.9230297    463.11287  0.019039339  0.018765925            6 
 2028000   0.91272968    -7.919112    462.09294   0.01898804  0.018759967            5 
 2029000   0.93499314   -7.9459419    462.16167  0.018981505  0.018753985            4 
 2030000   0.91941078   -7.9341641    462.04864  0.018967514  0.018747989            6 
 2031000   0.91362523   -7.9391268    461.86377   0.01895059  0.018742011            5 
 2032000   0.93145064   -7.9845871    461.23797  0.018915599  0.018736005           12 
 2033000   0.92343983   -7.9442434    461.73556  0.018926691  0.018729998            4 
 2034000   0.91171372   -7.9310866    463.57549  0.018992768  0.018723956            6 
 2035000   0.92440903   -7.9439389    462.80992  0.018952085  0.018717997            3 
 2036000   0.90602398   -7.9782041    460.75906  0.018858835  0.018711999            6 
 2037000   0.90746949   -7.9360422    461.20599  0.018867861  0.018705921            8 
 2038000   0.90748951   -7.9577335    463.15097  0.018938132  0.018699867            2 
 2039000    0.9179524   -7.9482418     461.1023  0.018845116  0.018693861            9 
 2040000   0.91918388   -7.9669023    462.04647  0.018874447  0.018687782            6 
 2041000   0.93261188   -7.9581456    463.78845  0.018936324  0.018681774            5 
 2042000   0.94306682   -7.9540276    463.66855  0.018922158  0.018675782            7 
 2043000   0.93213723    -7.978955    462.89548  0.018881362   0.01866977            4 
 2044000   0.92754104   -7.9958585    461.39597   0.01881099  0.018663722            3 
 2045000   0.92545647   -7.9480475    462.96202  0.018865608  0.018657772           14 
 2046000   0.93418976    -7.905659     463.5876  0.018881867  0.018651836            3 
 2047000    0.9098437   -7.9304956    463.53834  0.018870638  0.018645913            8 
 2048000   0.92471979   -7.9629777    464.02672  0.018881296  0.018639946            3 
 2049000    0.9339892   -7.9806372    463.23055    0.0188397  0.018633974            5 
 2050000   0.93586561   -7.9661326    463.10546  0.018825425  0.018628013            5 
 2051000   0.92661895   -7.9522299    462.18423  0.018778816  0.018621996            2 
 2052000   0.91451079   -7.9885411    463.80204  0.018835366  0.018615929            5 
 2053000   0.91913412   -7.9877136    463.82549  0.018827143  0.018609889            5 
 2054000   0.93332779    -7.980008    463.62202  0.018809722  0.018603849            4 
 2055000   0.92276045   -7.9915065    463.70422  0.018803902  0.018597758            4 
 2056000   0.92446249   -7.9686975    462.99976  0.018766203   0.01859171            4 
 2057000   0.90433896   -8.0062106      462.562  0.018739345  0.018585643            5 
 2058000   0.93396083   -7.9592832    463.03941  0.018749571  0.018579542            3 
 2059000   0.93813817   -7.9420916    464.67229  0.018806552  0.018573494            5 
 2060000   0.90817915   -7.9693474    462.86296   0.01872423  0.018567463            8 
 2061000   0.94183892   -7.9522954    463.66073  0.018747402  0.018561382            4 
 2062000   0.93610746   -7.9803701    463.12518  0.018716666  0.018555334            3 
 2063000   0.93493359   -7.9827937    464.37213  0.018757963  0.018549282            5 
 2064000   0.91201385   -7.9845956    463.71539  0.018722359  0.018543262            7 
 2065000   0.91713199   -7.9524744    464.79795   0.01875698  0.018537257            7 
 2066000   0.90634083   -7.9767149     463.8397  0.018709249  0.018531242            5 
 2067000   0.92357954    -7.980324     464.7709   0.01873774  0.018525163            6 
 2068000   0.93437125   -8.0125256    462.51086  0.018637607  0.018519082            5 
 2069000   0.91096527   -7.9773082    462.79334  0.018639977  0.018512986            3 
 2070000   0.89434305   -7.8932476    466.32228  0.018773038  0.018506909            7 
 2071000   0.91366537   -7.9258598    464.18363  0.018677918  0.018500894            2 
 2072000   0.92248516   -7.9709582    464.20564  0.018669789  0.018494862            3 
 2073000   0.92669157   -7.9783736    463.95366  0.018650654  0.018488784            2 
 2074000   0.93016985   -7.9693498    464.71661  0.018672316  0.018482707            8 
 2075000    0.9282946   -8.0296458    464.14821  0.018640491  0.018476595            3 
 2076000   0.92319381   -7.9623639    463.61123  0.018609956  0.018470492            4 
 2077000    0.9067065   -8.0112683    464.02434  0.018617571  0.018464394            2 
 2078000   0.92878186   -8.0114789    465.66282  0.018674319  0.018458325            4 
 2079000   0.93876882   -7.9859839    464.59993  0.018622733  0.018452252            2 
 2080000   0.92182396   -7.9734232    465.88716  0.018665351  0.018446231            4 
 2081000   0.91846805   -7.9492101    466.27921  0.018672081  0.018440255           11 
 2082000    0.9178289   -7.9557264     465.9111  0.018648379  0.018434254            3 
 2083000   0.91038874   -7.9826815    465.18179  0.018610249  0.018428263            4 
 2084000   0.93186926   -7.9726262    466.24598  0.018643873  0.018422222            2 
 2085000    0.9073565   -7.9660375    465.38987  0.018600714  0.018416217            7 
 2086000   0.90209904    -7.998235    465.68138  0.018603443  0.018410221            4 
 2087000   0.91770254   -7.9432459    466.66282  0.018633717  0.018404219            6 
 2088000   0.90813447   -7.9599201    466.44614  0.018616145  0.018398202            6 
 2089000   0.92590013   -7.9624284    465.86298  0.018583971  0.018392188            5 
 2090000   0.91745217   -7.9848664    466.25744  0.018590807  0.018386191            4 
 2091000   0.90700144   -7.9609503    466.89731  0.018607417  0.018380177            3 
 2092000   0.90182308   -7.9589388    466.84633  0.018596492  0.018374202            2 
 2093000   0.92850611   -7.9536434    467.10484  0.018597899  0.018368234            3 
 2094000   0.92372018   -7.9620132    466.91234  0.018581357  0.018362277            4 
 2095000   0.92200664   -7.9877865    466.77131  0.018566878  0.018356308            6 
 2096000   0.90544081   -7.9551016    467.60771  0.018591273  0.018350337            5 
 2097000   0.90615216   -7.9556249     466.6889  0.018545895   0.01834439            9 
 2098000   0.93035368   -7.9663976    467.17612  0.018556408  0.018338431            4 
 2099000   0.92125656   -7.9783697    467.76116  0.018570794   0.01833249            7 
 2100000    0.9119345   -7.9787159    467.21053    0.0185401  0.018326589            6 
 2101000   0.93154772    -7.968769    467.21375  0.018531404  0.018320691            9 
 2102000   0.91312093   -8.0009194    468.46055  0.018572017  0.018314755            5 
 2103000   0.90565511   -7.9903581    468.43757  0.018562275  0.018308877            7 
 2104000   0.91632982   -8.0152204    466.01459  0.018457485  0.018302952            3 
 2105000   0.90851099   -7.9662874    468.51323  0.018547634  0.018297064            3 
 2106000   0.90726142   -7.9433526    468.77005  0.018548989  0.018291195            3 
 2107000   0.91741132   -7.9632428    469.77543  0.018579949  0.018285401            4 
 2108000   0.91185844   -7.9996216    467.31896  0.018474026    0.0182795            6 
 2109000    0.9351623   -7.9993563     467.5395  0.018473981  0.018273586           11 
 2110000   0.90430849   -8.0205652    467.02934  0.018445077  0.018267602           17 
 2111000    0.9165079   -8.0178398    467.48791  0.018454441  0.018261572           10 
 2112000   0.93978794   -8.0055305    468.08259  0.018469168  0.018255524            7 
 2113000   0.90938629   -8.0308422     466.1359  0.018383653  0.018249475            6 
 2114000     0.912661    -7.988561    468.51391  0.018468697  0.018243474            5 
 2115000   0.93251296   -7.9888314    468.48308   0.01845875  0.018237494            5 
 2116000   0.90545969   -7.9824461    468.68825  0.018458107  0.018231502            3 
 2117000   0.89726565   -7.9834309    468.15664  0.018428462  0.018225492           10 
 2118000   0.91204845   -7.9910367    468.59331  0.018436942  0.018219475            9 
 2119000   0.92612307   -7.9890179    468.10072  0.018408869  0.018213469            7 
 2120000   0.90035076   -8.0197129    469.42135  0.018452097  0.018207472            5 
 2121000   0.91559332    -8.022711    468.57677  0.018410214  0.018201501            7 
 2122000   0.93120335   -8.0091542    468.35891  0.018392983  0.018195545            4 
 2123000   0.89805358   -8.0014574    469.18613   0.01841679  0.018189581            3 
 2124000   0.92910036   -7.9997034    469.51866  0.018421165  0.018183621            2 
 2125000   0.92428243   -8.0427441    468.05284  0.018355013  0.018177625            4 
 2126000   0.91384352   -7.9972909    468.38351  0.018359341  0.018171541            3 
 2127000   0.91086099    -7.972797    469.40023  0.018390543  0.018165522            7 
 2128000   0.92752529   -8.0092255    467.59072   0.01831104  0.018159497            6 
 2129000   0.90374334   -8.0028141    468.81374  0.018350311  0.018153496            2 
 2130000   0.92814576   -7.9689178    469.63499  0.018373826  0.018147457            6 
 2131000   0.93863205   -7.9970505    468.87646  0.018335541  0.018141486            5 
 2132000   0.90803644   -7.9960771    469.20334  0.018339718  0.018135487            4 
 2133000   0.90673433   -7.9667723    469.45503  0.018340953  0.018129482            3 
 2134000   0.92513867   -7.9816348    468.81587  0.018307399  0.018123461            5 
 2135000   0.92961123   -8.0088651    468.55774  0.018288749  0.018117473            4 
 2136000   0.91794365   -7.9886574    469.56901   0.01831964    0.0181115            4 
 2137000   0.90665355   -8.0037174    469.58182  0.018311567  0.018105463            4 
 2138000   0.90670485   -7.9896408     469.9584   0.01831768  0.018099459            2 
 2139000    0.9090611   -8.0046759    470.07404  0.018313622  0.018093441            8 
 2140000   0.92567696   -8.0118705    469.04253  0.018264896  0.018087384            3 
 2141000   0.88798719   -8.0360266    469.13084  0.018259802  0.018081333           11 
 2142000   0.90613563   -7.9917187    469.17215  0.018252885  0.018075255            8 
 2143000    0.9358665   -7.9991686    469.20023  0.018245459  0.018069244           11 
 2144000   0.89353699   -8.0090148    469.83491  0.018261618  0.018063212            6 
 2145000   0.92159257   -8.0174975    470.47759  0.018278073  0.018057184            6 
 2146000   0.92233269   -8.0326287    469.45787  0.018229958  0.018051153           25 
 2147000   0.93290861   -8.0537361    469.26581  0.018214012  0.018045099           13 
 2148000   0.89999953   -8.0009032    470.52808  0.018254504  0.018039049           14 
 2149000   0.90764692   -8.0631786    468.63494  0.018172597  0.018032975            6 
 2150000   0.91197057   -8.0050667    469.14503  0.018183916  0.018026852            7 
 2151000   0.90211451   -8.0165596    469.79633  0.018200695  0.018020754            6 
 2152000    0.9218558   -8.0102854    470.14266  0.018205648  0.018014645            5 
 2153000   0.87642129   -8.0262996    468.71119  0.018141786  0.018008599           14 
 2154000   0.90773098   -8.0148244     469.1946  0.018152066   0.01800253           12 
 2155000   0.90598155   -8.0146744    470.08496  0.018178073  0.017996499            3 
 2156000   0.90972394   -8.0500406    470.02469  0.018167312    0.0179905            3 
 2157000   0.90689968   -8.0188238    470.88201  0.018192011   0.01798449            6 
 2158000   0.90507816   -8.0109692    470.51311  0.018169335  0.017978457            6 
 2159000   0.90757569   -8.0064536    470.29305  0.018152426  0.017972428            6 
 2160000   0.89830177   -8.0144127    470.27549  0.018143345  0.017966374            9 
 2161000   0.90969932    -8.018503    471.17034  0.018169456  0.017960295           10 
 2162000   0.88293829   -8.0367674    469.64513  0.018102264  0.017954223            3 
 2163000   0.93343846   -8.0032136    469.44512  0.018086189  0.017948167           14 
 2164000   0.91116401    -8.055156    470.00109  0.018099241  0.017942122           15 
 2165000   0.90084516   -8.0229803     471.4494  0.018146628  0.017936056            8 
 2166000   0.88818534    -8.035901    470.77069  0.018112138  0.017929964            4 
 2167000    0.9109645   -8.0441828    470.07981  0.018077212  0.017923905           10 
 2168000   0.88921415     -8.00622    470.71423  0.018093259  0.017917821            4 
 2169000   0.90377805   -8.0233075    470.49851  0.018076629  0.017911791            7 
 2170000   0.89967676   -8.0464215    470.44412  0.018066211  0.017905754            8 
 2171000   0.91605253   -8.0260647    472.28927  0.018128714  0.017899673           21 
 2172000   0.89727957   -8.0085237    470.55251  0.018053733  0.017893604           15 
 2173000   0.89109438    -8.039518    471.27851  0.018073267  0.017887517           18 
 2174000   0.92399859   -8.0177895    470.60381  0.018039091  0.017881386            5 
 2175000   0.91951378   -8.0262277    469.80165  0.018000063  0.017875281           10 
 2176000   0.89557934   -8.0733962    469.41266  0.017976894    0.0178691           12 
 2177000   0.89638319   -8.0572914    470.93059  0.018026741  0.017862926            8 
 2178000   0.92805937   -8.0229849    471.19107  0.018028431   0.01785682            7 
 2179000   0.89395503   -8.0576076    468.99441  0.017936148  0.017850657            7 
 2180000   0.89423599   -8.0363732     470.3681  0.017980432  0.017844534           11 
 2181000   0.89012355    -8.020331    471.48576  0.018014892  0.017838445            4 
 2182000   0.89650678   -8.0365514    470.37948  0.017964386  0.017832373            7 
 2183000   0.87740267    -8.063157    471.88349  0.018013571  0.017826252            7 
 2184000   0.92332847   -8.0712213    470.26767  0.017943669  0.017820117           10 
 2185000    0.9169867    -8.051625    471.09582  0.017967041  0.017813975            8 
 2186000   0.90939034   -8.0495748    471.34797  0.017968435  0.017807858            3 
 2187000   0.90330908   -8.0040138    472.30155  0.017996553  0.017801791            2 
 2188000    0.9105502   -8.0376405    471.64778  0.017963429  0.017795762            2 
 2189000   0.90682812   -8.0415364    470.71687  0.017919784  0.017789702           14 
 2190000   0.89633046   -8.0440029    471.41082  0.017938007  0.017783665            3 
 2191000   0.90577755   -8.0513864    471.62334  0.017937903  0.017777621            8 
 2192000   0.88576412   -8.0581689    472.22628  0.017952641  0.017771556           12 
 2193000   0.89032353    -8.056274    470.79397  0.017890028   0.01776551           12 
 2194000   0.89084515   -8.0348462    472.25003  0.017937178  0.017759427           11 
 2195000   0.89155209    -8.025576    472.17752  0.017926254  0.017753377            7 
 2196000   0.90774605   -8.0512011    472.16527  0.017917626  0.017747356           13 
 2197000    0.8996639   -8.0461144    471.46822  0.017883031  0.017741313            7 
 2198000   0.88501639   -8.0642683    472.05252  0.017897047  0.017735269            6 
 2199000   0.89252446   -8.0086008     472.5554  0.017907966  0.017729267            2 
 2200000   0.89496225   -8.0187232    473.20411  0.017924398  0.017723271            5 
 2201000   0.89869611   -8.0315052    472.11036  0.017874843  0.017717286            5 
 2202000    0.8836217    -8.049223    472.12013  0.017867095   0.01771128            2 
 2203000    0.8970531   -8.0446433    472.70308  0.017881037  0.017705274            2 
 2204000   0.88958884   -8.0695401    472.53625  0.017866616  0.017699274            4 
 2205000   0.89097598   -8.0530789    473.09202  0.017879517  0.017693262           10 
 2206000   0.89076559   -8.0247206    473.60705  0.017890868  0.017687249            6 
 2207000   0.90302962   -8.0599659    473.78245  0.017889384   0.01768128            3 
 2208000   0.91415316   -8.0863209    472.24472  0.017823246  0.017675261            8 
 2209000   0.88713586   -8.0394924    473.19621  0.017851072  0.017669251            3 
 2210000   0.90076698   -8.0466912    473.51357  0.017854961  0.017663275           14 
 2211000   0.91251196    -8.040284    475.01929  0.017903637    0.0176573            4 
 2212000   0.90380016   -8.0148504    474.35103  0.017870367  0.017651362            6 
 2213000   0.89921231   -8.0321511    474.23703  0.017857999  0.017645395            6 
 2214000   0.90055417   -8.0070034     475.5179  0.017898145  0.017639407            4 
 2215000   0.88755621   -8.0339531      474.988  0.017870128  0.017633431            3 
 2216000   0.90540381   -8.0566036    474.73328  0.017852485  0.017627462            3 
 2217000   0.88387989   -8.0427956    474.15435  0.017822671  0.017621446            6 
 2218000   0.89732463   -8.0732082    473.59623  0.017793667  0.017615432            6 
 2219000   0.88941043   -8.0873773    473.89375  0.017796821   0.01760934           12 
 2220000   0.91423401    -8.054155    473.75445  0.017783576  0.017603308            6 
 2221000   0.89165024   -8.0635651    473.35654  0.017760638   0.01759726            4 
 2222000   0.88849527   -8.0449079    474.73504  0.017804344  0.017591208            4 
 2223000   0.90275047   -8.0400881    474.41254  0.017784246  0.017585239            3 
 2224000   0.89181501   -8.0452915    474.12476  0.017765466  0.017579223            5 
 2225000   0.90499161   -8.0575215    474.31263  0.017764518  0.017573196            6 
 2226000   0.90488374   -8.0555031    475.40059  0.017797267  0.017567201            5 
 2227000   0.89609293   -8.0207027    474.72305  0.017763922  0.017561165            4 
 2228000   0.89400079   -8.0784289    475.31649  0.017778145   0.01755518            7 
 2229000    0.9113517    -8.014846    475.93693  0.017793365  0.017549197           11 
 2230000   0.89393401   -8.0892786    473.41654  0.017691201  0.017543195           14 
 2231000   0.87833044   -8.0735702    474.40827  0.017720315   0.01753713            5 
 2232000   0.89128247   -8.0511156    474.38758  0.017711603  0.017531034            2 
 2233000   0.89322173   -8.0951349    473.58167  0.017673596  0.017524969           13 
 2234000   0.88918624   -8.0388375    476.13783  0.017761035  0.017518902           11 
 2235000   0.89366849   -8.0457771    474.51652  0.017692637  0.017512848            3 
 2236000   0.90915959   -8.0037978    476.04033  0.017741515  0.017506798            7 
 2237000   0.91106418   -8.0522948    475.19512  0.017702098  0.017500781            7 
 2238000   0.88124932   -8.0432276    473.64981  0.017636648  0.017494759            5 
 2239000   0.88915494   -8.0980894    474.63613  0.017665481  0.017488727            3 
 2240000   0.88934935   -8.0720834     474.6032  0.017656369  0.017482693           10 
 2241000   0.88014535   -8.0530178    475.15026  0.017668833  0.017476644            4 
 2242000   0.88616273   -8.0759166    473.97531   0.01761728  0.017470555            4 
 2243000   0.89121902   -8.0641111    474.44539  0.017626891  0.017464482            3 
 2244000   0.89482841   -8.0901539    473.67081  0.017590271  0.017458418            4 
 2245000   0.87764224   -8.0919104    473.91465  0.017591487  0.017452302            8 
 2246000   0.88543125   -8.0400591    476.15496  0.017666776  0.017446208           10 
 2247000   0.90869692   -8.0441178    475.06292  0.017618414  0.017440138            3 
 2248000     0.886083   -8.0542006    475.60606  0.017630711  0.017434065            4 
 2249000   0.87400527    -8.092248    474.18765  0.017570315  0.017427971            5 
 2250000   0.89647154   -8.0518658    474.70042  0.017581497  0.017421864            4 
 2251000   0.89962779   -8.0898498    474.09587  0.017551306  0.017415763            4 
 2252000   0.90763673   -8.1009304    474.85713  0.017571682  0.017409613            3 
 2253000   0.89230623     -8.09152    474.27555  0.017542371  0.017403534            9 
 2254000    0.8866416   -8.0879878    474.43641  0.017540536  0.017397385            4 
 2255000   0.89846745    -8.073361    474.56876  0.017537648  0.017391274            7 
 2256000   0.88232053   -8.0745094    474.66032  0.017533257   0.01738513           12 
 2257000   0.90541196   -8.0901562    474.39188  0.017515577  0.017378998            7 
 2258000   0.90313879   -8.0491762    474.82839  0.017523929  0.017372865           16 
 2259000   0.89797004   -8.0245633    476.42042  0.017574901  0.017366773            4 
 2260000   0.88362271   -8.0658279     475.5124  0.017533643  0.017360754            6 
 2261000   0.88872181   -8.0812953    475.10643  0.017510925    0.0173547            4 
 2262000   0.88097333   -8.0539209    475.05043  0.017501121  0.017348632            3 
 2263000   0.89996786   -8.0388243    476.47879  0.017545986  0.017342536            5 
 2264000   0.88027373   -8.0439843    477.32442  0.017569362  0.017336473            5 
 2265000   0.88838582   -8.0764426    476.01655  0.017513486  0.017330429           10 
 2266000   0.89105558   -8.0673598    475.92726  0.017502474  0.017324365           13 
 2267000   0.87233443   -8.0941412    476.23793  0.017506173  0.017318281           11 
 2268000   0.90204082   -8.0379239    476.11013  0.017493758  0.017312222            6 
 2269000   0.88694638   -8.0654161    476.39555  0.017496531  0.017306174            4 
 2270000   0.88557617   -8.0287085    476.39121  0.017488664  0.017300171            4 
 2271000   0.88319808   -8.0548417    475.96598   0.01746536  0.017294161            6 
 2272000   0.87175149   -8.0358801    476.94099  0.017493434   0.01728818            8 
 2273000   0.88198431   -8.0936329    475.13313  0.017419458  0.017282126            8 
 2274000   0.89092841   -8.0742161    475.87056  0.017438821  0.017276061            6 
 2275000   0.89187418   -8.0782158    475.76828  0.017427409  0.017269984            4 
 2276000   0.86964112   -8.0851388    476.91036  0.017461569  0.017263954            8 
 2277000   0.89523719   -8.0524253    476.97002  0.017456083  0.017257887           13 
 2278000   0.88109676   -8.1092585    475.44431  0.017392607  0.017251803            6 
 2279000   0.89429187   -8.1023269    477.08674  0.017445032   0.01724575            9 
 2280000   0.88233651   -8.0802468    476.30596  0.017408844  0.017239679            8 
 2281000   0.89025147   -8.0880714    476.13947  0.017395129  0.017233596            7 
 2282000   0.89322699   -8.0801867    477.28013   0.01742916  0.017227564            5 
 2283000   0.89826294   -8.0941972    476.46586  0.017391804  0.017221491           10 
 2284000   0.90415657    -8.067301    477.31384  0.017415128  0.017215396            9 
 2285000   0.88370689    -8.058882    476.10397  0.017363383   0.01720937            7 
 2286000   0.88810879   -8.0722517    475.77146  0.017343667   0.01720327            8 
 2287000     0.873007   -8.0622793    476.31729  0.017355972  0.017197139           20 
 2288000   0.91215053   -8.1118899    475.42464  0.017315874  0.017191019           24 
 2289000    0.9018062   -8.1080245    476.15138  0.017334767  0.017184844           38 
 2290000   0.89609188   -8.0735748    476.67781  0.017346354  0.017178707           52 
 2291000   0.89738371   -8.1190805    474.02365   0.01724224  0.017172565           28 
 2292000    0.8779678   -8.1115253    474.23526   0.01724241  0.017166423           32 
 2293000   0.87953877   -8.0812337    475.67737  0.017287301   0.01716025           28 
 2294000    0.8714252   -8.1704511    475.49728  0.017273223  0.017154077           14 
 2295000   0.89642042    -8.081708    476.38792  0.017298036  0.017147911           21 
 2296000    0.8849945   -8.1105053    476.64116  0.017299694  0.017141759           19 
 2297000   0.88815206   -8.1183495    475.29514   0.01724333  0.017135579           36 
 2298000   0.87545378   -8.0970247    476.10679  0.017265259  0.017129435           20 
 2299000   0.88739935   -8.1015737    476.91081  0.017286893  0.017123319           13 
 2300000   0.90329603     -8.07363    476.45867  0.017262995  0.017117241            5 
 2301000   0.87717104   -8.0998371    476.85628  0.017269893  0.017111164            7 
 2302000   0.88458686   -8.0900337    476.55266  0.017251399  0.017105074            8 
 2303000   0.89871365   -8.1135706    477.38938  0.017274185  0.017098978           12 
 2304000   0.88781904   -8.0712793    476.05503  0.017218425   0.01709288           13 
 2305000   0.87214192   -8.1144627    477.11849  0.017249403  0.017086784            7 
 2306000   0.87163627   -8.0943972    477.39218  0.017251813  0.017080708           22 
 2307000   0.86687633   -8.0818285    477.48671   0.01724775  0.017074628           25 
 2308000   0.86681583   -8.1109615    476.90867  0.017219406  0.017068514            6 
 2309000   0.90567604    -8.148766    476.42291  0.017194417  0.017062378           32 
 2310000   0.90117572   -8.0845917    478.05665  0.017245911  0.017056247           15 
 2311000   0.86349536   -8.0821302    477.42402  0.017215636  0.017050125            6 
 2312000    0.8802372   -8.0929128     476.7187  0.017182767  0.017044024           16 
 2313000   0.89080216   -8.1151573    477.37949  0.017199146  0.017037948            7 
 2314000    0.8928966   -8.0685142    477.43526  0.017193722  0.017031886           13 
 2315000   0.87316442   -8.0490605    478.39247  0.017220751  0.017025833            8 
 2316000   0.88176841   -8.1239955    476.55539  0.017147215  0.017019713            9 
 2317000   0.88410628   -8.0809693    478.43796  0.017207523  0.017013667            7 
 2318000   0.89200132   -8.0739336    477.64506  0.017171594   0.01700763            4 
 2319000    0.8899657   -8.0670178    478.21353  0.017184617  0.017001613            6 
 2320000   0.88989038   -8.0480611    477.54019  0.017153024  0.016995562           15 
 2321000   0.86671471   -8.0714657    478.67467  0.017186366  0.016989543            7 
 2322000   0.88261022   -8.0800369    478.55975   0.01717484  0.016983513            8 
 2323000   0.89232605   -8.0875939    477.82838   0.01714121   0.01697744            3 
 2324000   0.87809941   -8.1048853    476.27335  0.017078075  0.016971356           22 
 2325000   0.86009352   -8.0997581    478.21752  0.017140413  0.016965268           15 
 2326000   0.87445713   -8.0711269    479.90347  0.017193446  0.016959226           14 
 2327000   0.89498722   -8.0546149    479.46466  0.017170343  0.016953204           48 
 2328000   0.88109727    -8.128709    477.42041  0.017089791  0.016947148            7 
 2329000   0.87231003   -8.0932942    478.59527  0.017124491  0.016941073           14 
 2330000   0.86931004   -8.0818313    479.05337  0.017133525  0.016935018            4 
 2331000   0.86881335   -8.1157743    477.43607  0.017068357  0.016928935            5 
 2332000   0.87780962   -8.1233233    478.45746  0.017097536  0.016922859            4 
 2333000   0.88458274   -8.1380691    478.56697   0.01709412  0.016916816            3 
 2334000   0.88115439   -8.1269484    479.28851  0.017112557  0.016910716            4 
 2335000   0.86152549   -8.1403562    476.67194  0.017011847  0.016904675           15 
 2336000   0.87460336   -8.0837453    479.64226  0.017110526  0.016898633            8 
 2337000   0.87259286    -8.137058    476.94008  0.017006849  0.016892588            7 
 2338000   0.86252063   -8.1097243    479.08463  0.017076013  0.016886525           10 
 2339000   0.88183829   -8.1193618    478.27494  0.017039865  0.016880479           15 
 2340000   0.88669572   -8.0991109    478.76502  0.017050036   0.01687441            7 
 2341000   0.88937947    -8.129542    478.00748  0.017015787  0.016868352            7 
 2342000   0.87051702   -8.1078654    478.65356   0.01703151  0.016862269            8 
 2343000   0.87847184   -8.1214534    479.26247  0.017045898  0.016856136            6 
 2344000   0.87587594    -8.109653    478.01875  0.016994409  0.016850049            6 
 2345000   0.88003862   -8.1462275    477.74936  0.016977589  0.016843947            6 
 2346000   0.87754332   -8.0956931    479.66877  0.017038533  0.016837861            6 
 2347000     0.875594    -8.127898    478.41211  0.016986653   0.01683178           11 
 2348000   0.89282172   -8.1176836    479.66988  0.017024059  0.016825742            4 
 2349000   0.87626988   -8.0575698     480.9856  0.017063488  0.016819747            6 
 2350000   0.88407016   -8.0909469    480.01202  0.017021703   0.01681378           12 
 2351000   0.87448712   -8.0785691     480.1366  0.017018879  0.016807808           18 
 2352000   0.86676714   -8.0590618    480.24639  0.017015532  0.016801844            4 
 2353000   0.87049525   -8.0908353    479.82537   0.01699339  0.016795863            6 
 2354000   0.88180637   -8.0961675    479.52667  0.016975597  0.016789873            9 
 2355000   0.87734159   -8.1233597    479.27529  0.016959494   0.01678388           10 
 2356000   0.88069163   -8.0827211    480.90989  0.017010112  0.016777924            3 
 2357000   0.87933361   -8.0911512    479.66016   0.01695871  0.016771993            8 
 2358000   0.87190588   -8.0842309    480.19199  0.016970313  0.016766029            7 
 2359000    0.8905962    -8.082038    479.65338  0.016944093  0.016760024            3 
 2360000   0.88100319   -8.1090593    479.84707  0.016943753  0.016754008            4 
 2361000   0.84200429   -8.1085507    479.75517  0.016933332  0.016747998            2 
 2362000   0.86908791   -8.1086004    479.80529  0.016927932  0.016742009           12 
 2363000   0.88437103   -8.1175541    479.75933  0.016919147  0.016735971            9 
 2364000   0.88563421   -8.1143225    480.77166  0.016947676  0.016729956            6 
 2365000   0.86336379   -8.1112604    480.46132  0.016929574  0.016723931            4 
 2366000   0.87683524   -8.1093151    479.60168  0.016892141  0.016717891            5 
 2367000   0.87596846   -8.1234376    479.28001   0.01687368  0.016711827            8 
 2368000   0.85561598   -8.1326952    478.91474    0.0168537  0.016705746            5 
 2369000   0.89242491   -8.1423938     479.2268  0.016857563  0.016699661           13 
 2370000   0.88129941   -8.1143735    480.06476  0.016879914  0.016693606            7 
 2371000   0.88242404   -8.0929816    480.01842  0.016871166  0.016687531           23 
 2372000   0.88184831   -8.1252175    479.36303  0.016841028  0.016681501           32 
 2373000   0.87746045   -8.1501393    479.47864  0.016837991  0.016675459           28 
 2374000   0.87264172   -8.1290677    479.25991  0.016823221  0.016669398           36 
 2375000   0.85943389   -8.1452617    478.93402  0.016804703  0.016663275           27 
 2376000   0.87003128   -8.1180238    479.64059  0.016822411  0.016657187           31 
 2377000   0.86575074   -8.1266018    480.38517  0.016841438  0.016651097           38 
 2378000   0.87116667   -8.1306779    480.36053  0.016833492  0.016645036            4 
 2379000   0.87653353   -8.0948295    479.07387  0.016781346  0.016638999           19 
 2380000   0.86253761    -8.119998    480.94955   0.01683997  0.016632979           25 
 2381000   0.86867283   -8.1592317    479.41291  0.016779116  0.016626938           24 
 2382000   0.86832283   -8.1616959    480.09106  0.016795797  0.016620887            6 
 2383000   0.88265636    -8.117042    480.75114  0.016811832  0.016614845            6 
 2384000   0.87275398   -8.1245224    481.20397  0.016820609  0.016608845            3 
 2385000   0.86796464   -8.1189731    481.84166  0.016835837  0.016602845            6 
 2386000   0.87103806   -8.1062462    480.79343  0.016792171  0.016596864            8 
 2387000   0.87402406   -8.1164911    480.76456  0.016784128  0.016590905            7 
 2388000   0.85895274   -8.0811287    482.13241  0.016824833  0.016584944            4 
 2389000   0.85278602   -8.1556168    481.08728  0.016781334   0.01657897            8 
 2390000   0.87922863   -8.1440605     481.1154  0.016775293  0.016572988           13 
 2391000   0.89035519   -8.1502453    481.59438  0.016784971  0.016567021           10 
 2392000   0.86014524   -8.1154617    481.46877  0.016773577  0.016561042            5 
 2393000   0.87000707   -8.0853501    480.86608   0.01674558  0.016555151            3 
 2394000   0.85511334    -8.099911    482.00282  0.016778154  0.016549239            6 
 2395000   0.87058487   -8.1469513    481.78643   0.01676362  0.016543305            8 
 2396000   0.86726772   -8.1394443    481.29962  0.016739692  0.016537369           17 
 2397000   0.87093589   -8.1441823    481.66051  0.016745255  0.016531479           16 
 2398000    0.8796592   -8.1388887    482.45199  0.016765777  0.016525562           10 
 2399000   0.87369742   -8.1510859    482.09745  0.016746473  0.016519663            7 
 2400000   0.87467267   -8.1369173    482.55252  0.016755296  0.016513761            7 
 2401000   0.87120877   -8.1184198    481.10979  0.016698243  0.016507857            6 
 2402000   0.84803589   -8.1059741    482.34798  0.016734249  0.016501974            6 
 2403000   0.88918239   -8.1335022    481.90163  0.016711806  0.016496075            6 
 2404000   0.85947706   -8.1369995     482.3832  0.016721547  0.016490151            5 
 2405000   0.86192472   -8.1479167    482.34773  0.016713366  0.016484249            4 
 2406000   0.86409314   -8.1164348    482.20158  0.016701357  0.016478328            5 
 2407000   0.87969852    -8.132625     482.6438  0.016709728  0.016472468            8 
 2408000    0.8561367   -8.1360468    482.00384  0.016680642   0.01646655            7 
 2409000   0.86113753   -8.1621657     481.3227  0.016650156  0.016460602           10 
 2410000   0.87020906   -8.1452919    482.34929  0.016678744  0.016454708            6 
 2411000   0.86272726   -8.1239224    482.45308  0.016675414  0.016448821            9 
 2412000   0.86679818   -8.1134933    483.83911  0.016716387  0.016442948           15 
 2413000   0.88011695   -8.1513929    483.66176  0.016703335  0.016437064           10 
 2414000   0.85879234   -8.1161755    482.99833  0.016673513  0.016431198            3 
 2415000   0.85634667   -8.1373314    483.03141  0.016667751  0.016425325           10 
 2416000   0.86904845   -8.1160953    483.81523  0.016687887  0.016419472            3 
 2417000   0.87479964   -8.1738473    483.62186  0.016674316  0.016413604            4 
 2418000   0.87972916   -8.1431453    482.77054   0.01663808  0.016407719            8 
 2419000    0.8632641   -8.1272155    482.84442  0.016633747  0.016401847            3 
 2420000   0.86852387   -8.1214741    483.83834    0.0166611  0.016395976            6 
 2421000   0.86215261   -8.1475899    482.64675  0.016613202  0.016390128            5 
 2422000   0.85040687   -8.1063557    483.80103  0.016646058  0.016384308            7 
 2423000   0.88581748   -8.1429651    483.04247  0.016613099  0.016378466            8 
 2424000   0.85292967   -8.1164456    483.71893  0.016629501  0.016372625            6 
 2425000   0.87359474   -8.1604443    485.11289  0.016670546  0.016366762           10 
 2426000   0.85499053   -8.1402199    484.00271   0.01662554  0.016360914           12 
 2427000   0.87569324   -8.1630214     484.1831  0.016624883  0.016355036            7 
 2428000   0.85104877   -8.1341568    483.90536  0.016608503  0.016349189            5 
 2429000    0.8608243   -8.1534554    484.70403  0.016629067  0.016343361           15 
 2430000   0.85995322   -8.1429582    483.21215  0.016571061  0.016337541            8 
 2431000   0.87110126   -8.1290841    484.09237  0.016594418  0.016331694            6 
 2432000   0.85952606   -8.1711233    483.19121  0.016556716  0.016325845            9 
 2433000   0.86665527   -8.1429575    484.77506   0.01660416  0.016320012            4 
 2434000   0.88712106    -8.112743     484.4932  0.016587688  0.016314216            3 
 2435000   0.85723693   -8.1192942     484.9056   0.01659499    0.0163084            3 
 2436000   0.86148517   -8.1133418    484.98438  0.016590872  0.016302607            8 
 2437000   0.85995579   -8.1191774    486.06507  0.016621019  0.016296836            6 
 2438000   0.88662768   -8.1430639    484.85465  0.016572828  0.016291067            6 
 2439000   0.84664665   -8.1470047     483.8264  0.016530901  0.016285298           10 
 2440000   0.88629957   -8.1574308    484.90505  0.016560965  0.016279504            9 
 2441000   0.87884879   -8.1622363    484.81886  0.016551238  0.016273736            5 
 2442000   0.85477076   -8.1451508    485.46358  0.016566461  0.016267937            4 
 2443000   0.87266822   -8.1291232    484.40676  0.016523631  0.016262138            5 
 2444000   0.86430394   -8.1282771    485.78032  0.016563704  0.016256359           13 
 2445000   0.87782871   -8.1611856    484.84098  0.016524914  0.016250614            6 
 2446000   0.85914192   -8.1587369    485.54831  0.016542256  0.016244872            4 
 2447000   0.85608117   -8.1796024    484.06619  0.016485022  0.016239085           21 
 2448000   0.86298743   -8.1639981    485.21736  0.016517475  0.016233276           15 
 2449000   0.87110483   -8.1352062    486.29124  0.016547272  0.016227521           33 
 2450000   0.84311621   -8.1365509    484.89267  0.016492948   0.01622176           18 
 2451000   0.87135191   -8.1532352    485.43168  0.016504545  0.016216033            7 
 2452000   0.86278583   -8.1576054    485.84851   0.01651198  0.016210291           18 
 2453000    0.8825058   -8.1638467    484.17917  0.016448538   0.01620454           34 
 2454000   0.86897557   -8.1356865    486.52343  0.016521442  0.016198792           20 
 2455000   0.86841418   -8.1805066    485.36664  0.016475446  0.016193083           25 
 2456000   0.86567739   -8.1532485    486.44796  0.016505427  0.016187363           15 
 2457000   0.89098232   -8.1202092    486.08003  0.016486231  0.016181675            6 
 2458000   0.84660763   -8.1651686    486.31578  0.016487516  0.016176019            8 
 2459000   0.86511357   -8.1352465    487.15281  0.016509177  0.016170345           12 
 2460000    0.8778144    -8.185039    486.06982   0.01646578  0.016164648           16 
 2461000    0.8607258   -8.1676866    486.78693  0.016483371  0.016158925           10 
 2462000   0.85621132   -8.1727855    485.26093  0.016425025  0.016153236            8 
 2463000   0.84214705   -8.1730293    487.09779  0.016480504  0.016147513           16 
 2464000   0.85536027    -8.177598    487.57351  0.016489905  0.016141854           11 
 2465000    0.8638048   -8.1613151    486.71208  0.016454093  0.016136136            4 
 2466000   0.85430786   -8.1680192    486.18247  0.016429524  0.016130437           14 
 2467000    0.8403926   -8.1619126    486.68181  0.016439731  0.016124758           15 
 2468000   0.87113033   -8.1504528    487.49709  0.016460599  0.016119102            8 
 2469000   0.85248594   -8.1593759    487.04155  0.016438557  0.016113434           12 
 2470000   0.85379972   -8.1439099    487.10639  0.016434089  0.016107771            6 
 2471000   0.85549839   -8.1471332    487.76385  0.016449611  0.016102146           11 
 2472000   0.83571286   -8.1548025    488.07137  0.016453323  0.016096505           15 
 2473000   0.85611983   -8.1522773    487.12772  0.016414871  0.016090899            7 
 2474000   0.84283578   -8.1800863    487.36307  0.016416164  0.016085266           14 
 2475000   0.85594103   -8.2060993    486.04966  0.016365308  0.016079574           39 
 2476000   0.87106285   -8.1935851    485.99218  0.016356764  0.016073867           28 
 2477000   0.86117945   -8.1714478    487.24594  0.016392341  0.016068192           29 
 2478000   0.85894743   -8.1619153    487.93479  0.016408891  0.016062543           30 
 2479000   0.85493676   -8.1805385    487.05878  0.016372824  0.016056861           17 
 2480000   0.85799338   -8.1600488    487.22981  0.016371969  0.016051194           25 
 2481000   0.85518682   -8.1958762    486.62292  0.016344986  0.016045498           23 
 2482000   0.85868704   -8.1804399    487.19827  0.016357718  0.016039819           27 
 2483000   0.85241543   -8.1778889    486.78022    0.0163371  0.016034126           21 
 2484000   0.85382808    -8.182546    487.26215   0.01634669  0.016028425           49 
 2485000   0.84257931   -8.1715627    486.83329  0.016325731  0.016022743           58 
 2486000   0.87152102   -8.1541674    486.92223  0.016322145  0.016017095           65 
 2487000   0.85473096   -8.2035413    487.04574  0.016319721  0.016011394           49 
 2488000   0.84689348   -8.1951751    487.90854   0.01634206  0.016005713           19 
 2489000   0.85311205   -8.1735077     487.8077  0.016332118  0.016000067           10 
 2490000   0.85215329   -8.2024353    486.72703  0.016289392  0.015994385           26 
 2491000   0.85362593   -8.1862652    486.71992  0.016282615  0.015988716           38 
 2492000   0.83888813   -8.2047356    487.75692  0.016310759   0.01598304           28 
 2493000    0.8411587   -8.2023628    487.04496  0.016280417  0.015977372           39 
 2494000   0.86345204   -8.2216499    486.57574  0.016258211  0.015971717           28 
 2495000   0.86047507   -8.1865049    488.63632  0.016320518  0.015966086           12 
 2496000   0.84984454   -8.1426367    488.95609  0.016324656  0.015960465           11 
 2497000   0.84199801   -8.2269351    487.28593  0.016262379  0.015954848            5 
 2498000   0.84456206   -8.1763858    488.56001  0.016298372   0.01594922            3 
 2499000   0.85472045   -8.1822425    487.55328  0.016258279  0.015943578            6 
 2500000   0.86319006   -8.1964035    488.11211  0.016270404  0.015937932            2 
 2501000   0.86899134    -8.172522    488.81459  0.016287305  0.015932304           14 
 2502000   0.84649078   -8.1493796    488.12601  0.016257861  0.015926708            8 
 2503000   0.84592689   -8.1932754    488.60647  0.016267362  0.015921131            8 
 2504000   0.83450789   -8.1959586    488.31448  0.016251147  0.015915511           11 
 2505000   0.86407892   -8.1565303    489.04214  0.016268867  0.015909906            4 
 2506000   0.85289348   -8.1660157    489.17199  0.016266693  0.015904309            4 
 2507000   0.84577751   -8.2053012    488.30712  0.016231456  0.015898688            9 
 2508000   0.84845878   -8.1562377    489.35461  0.016259789  0.015893074            3 
 2509000   0.84127336   -8.1787131    487.13103  0.016179455  0.015887459           11 
 2510000   0.82676212   -8.2021205    488.58637  0.016221327  0.015881816            4 
 2511000   0.87153766   -8.1699484    488.93316  0.016226376  0.015876152           16 
 2512000   0.84042725   -8.2170249    489.05689  0.016224021  0.015870529           14 
 2513000   0.84324375   -8.1744018    487.61418  0.016169723  0.015864909            6 
 2514000   0.86471798   -8.2065858    487.95816  0.016174694  0.015859291           20 
 2515000   0.85186884   -8.1926266    487.95308  0.016168094   0.01585366            7 
 2516000   0.84353683   -8.1636336    487.15432  0.016135212  0.015848046           10 
 2517000   0.85477174   -8.2172043    487.45588  0.016138785  0.015842397            5 
 2518000   0.85086177   -8.1900087     488.5675  0.016169165  0.015836762           10 
 2519000   0.84435813   -8.1967286    487.43142  0.016125163  0.015831121            5 
 2520000   0.83155695   -8.1992868    487.90849   0.01613454  0.015825436            6 
 2521000   0.85115159   -8.1957343    487.52294  0.016115395  0.015819741           13 
 2522000   0.84458924   -8.1733352    489.54764  0.016175907  0.015814082            5 
 2523000   0.84600699   -8.1811701    489.09826  0.016154653  0.015808459            9 
 2524000   0.84686524   -8.1976811    489.64602  0.016166337  0.015802852            5 
 2525000   0.84058749   -8.1521632    490.39266  0.016184576  0.015797254            5 
 2526000   0.85284369   -8.1941237    489.01555  0.016132738  0.015791659            5 
 2527000   0.85289256   -8.2008113    487.76678  0.016085173  0.015786055            7 
 2528000   0.86860692   -8.1806135    488.96098  0.016118176  0.015780396            6 
 2529000   0.84568092   -8.1822416     489.5915  0.016132579   0.01577476            2 
 2530000   0.83485057   -8.2113112    486.87707  0.016036794  0.015769102            8 
 2531000   0.83719382   -8.1862826    489.48996  0.016116488  0.015763465           19 
 2532000   0.85280653   -8.2061694    487.71326  0.016051648  0.015757823           12 
 2533000    0.8363994   -8.1658968    489.42082  0.016101488  0.015752191            8 
 2534000   0.84290892   -8.1955944    490.17278  0.016119863  0.015746577            7 
 2535000   0.84686882   -8.1853893    488.40646  0.016055439  0.015740955            8 
 2536000   0.84020101   -8.2014061    489.47536  0.016084232  0.015735331            7 
 2537000   0.83999464   -8.1838838    489.21367  0.016069297  0.015729666            3 
 2538000    0.8481634   -8.1852866    488.51927  0.016040165  0.015724013            4 
 2539000   0.83976182   -8.2260807    488.45484  0.016031733  0.015718388            9 
 2540000   0.82350136   -8.1933028    489.05423  0.016045086  0.015712759            5 
 2541000   0.85684198   -8.1920982    489.18971  0.016043215  0.015707154            6 
 2542000   0.83396804   -8.1908503    489.29413  0.016040327  0.015701534            5 
 2543000   0.85623136   -8.2413134    489.81218  0.016050995  0.015695931            7 
 2544000   0.84722175   -8.1860557    488.73748  0.016009482   0.01569034           14 
 2545000   0.83765058   -8.2090696     489.2292  0.016019293  0.015684712           20 
 2546000   0.83336286   -8.2036387    488.92822  0.016003149  0.015679104            6 
 2547000   0.83722802   -8.1871146    489.72605   0.01602297  0.015673473            6 
 2548000   0.85069908   -8.1871855    488.42684   0.01597419  0.015667864           13 
 2549000   0.84936064   -8.1869607    488.33605  0.015964955  0.015662276           21 
 2550000   0.84891998   -8.2207867     488.2851  0.015957029  0.015656685           11 
 2551000   0.85368668   -8.2084684    489.83984  0.016001563   0.01565109            7 
 2552000   0.86068184   -8.1812313    489.58493  0.015986969  0.015645512            3 
 2553000   0.83100682   -8.1957785    489.77082  0.015986774  0.015639918            5 
 2554000   0.83774782   -8.1700386    490.06277  0.015990041  0.015634313            7 
 2555000   0.82678333   -8.2118206    488.51127  0.015933179  0.015628705            5 
 2556000   0.84555464   -8.2027506    490.11637  0.015979277  0.015623089            6 
 2557000   0.84078652   -8.2177004    489.05956  0.015938586  0.015617474            7 
 2558000   0.84764849    -8.217049    489.61027  0.015950296  0.015611863           11 
 2559000   0.83890439   -8.2036621    489.98543   0.01595628  0.015606224            4 
 2560000   0.83676733   -8.2084494     489.7467  0.015942275  0.015600614            8 
 2561000   0.83926103   -8.2047326     490.1959  0.015950667  0.015594973            6 
 2562000   0.83352793   -8.2356114    489.64172  0.015926416  0.015589363            9 
 2563000   0.84703694   -8.1767932    491.27289  0.015973238  0.015583762           11 
 2564000   0.83737207   -8.2241769    488.36002  0.015872336  0.015578162           15 
 2565000   0.84183688   -8.1934724    489.90596  0.015916373  0.015572579           10 
 2566000   0.83332341   -8.2742819    489.55469  0.015898762  0.015566968            7 
 2567000   0.84944624   -8.2141261    490.62635  0.015927359  0.015561381            6 
 2568000   0.85183238   -8.2064197    490.10277  0.015904166  0.015555825            6 
 2569000   0.85170123   -8.2157952    489.74856  0.015886485  0.015550193            6 
 2570000   0.82276199    -8.245919    489.87452  0.015884388  0.015544581           11 
 2571000   0.83942452   -8.1879225    490.66391  0.015903796  0.015539004            7 
 2572000   0.85019176   -8.2105973    490.28427  0.015885312  0.015533413            9 
 2573000   0.83622332   -8.2343162    489.17219   0.01584312  0.015527819            6 
 2574000   0.84334265   -8.2200625    489.62183  0.015851523  0.015522188            5 
 2575000   0.82573521   -8.2278688    490.94815   0.01588829   0.01551657           25 
 2576000   0.84764644   -8.2171987    489.49049  0.015834967  0.015510953           16 
 2577000   0.81201446   -8.2487439    489.93646  0.015843243  0.015505357           13 
 2578000   0.83131687   -8.2214277    490.49484  0.015855147  0.015499749           15 
 2579000   0.85210696   -8.2406594    490.10703  0.015836469  0.015494162            7 
 2580000   0.83512974   -8.2426106    491.30003  0.015868864   0.01548854           14 
 2581000   0.82878936   -8.2313545    489.87196  0.015816607  0.015482933            4 
 2582000   0.83184405   -8.2363127    489.39299  0.015795023  0.015477344           25 
 2583000   0.87177872   -8.2422861    490.42991  0.015822361  0.015471757            5 
 2584000   0.84367697   -8.2268109    489.55939  0.015788164  0.015466163            5 
 2585000    0.8402962   -8.2148763    489.38446  0.015776417  0.015460565            6 
 2586000   0.83254494   -8.2345913     489.9376  0.015788141  0.015454955           11 
 2587000   0.83118901   -8.2321497      490.288  0.015793326  0.015449379           11 
 2588000   0.81507978   -8.2288098    490.36499  0.015789702  0.015443803           12 
 2589000   0.84461746   -8.2543403    489.44527     0.015754  0.015438217            7 
 2590000   0.83809759   -8.2287319     489.7669  0.015758266  0.015432641            8 
 2591000   0.85421917   -8.2434102    490.33272  0.015770382  0.015427041           18 
 2592000   0.84184993    -8.203783    490.13484  0.015757936   0.01542147           14 
 2593000   0.83410784   -8.2130555    491.39664   0.01579241   0.01541592           12 
 2594000   0.84366562   -8.2448256    490.42942   0.01575525  0.015410374           14 
 2595000    0.8193217   -8.2170193    491.36614  0.015779259  0.015404826           16 
 2596000   0.83716217   -8.2249892    490.88978   0.01575789    0.0153993           12 
 2597000   0.83599249   -8.2482711    490.60549    0.0157427  0.015393765           10 
 2598000   0.84539876   -8.2597934    490.15815  0.015722291  0.015388194           12 
 2599000   0.82296098   -8.2250182    489.41625  0.015692454  0.015382644            8 
 2600000   0.82610235   -8.2686396    490.95116  0.015735614  0.015377066           20 
 2601000   0.81921144    -8.216555    490.63375  0.015719395  0.015371488           11 
 2602000   0.85000467    -8.220946    490.38328  0.015705332  0.015365941           14 
 2603000   0.83704094   -8.2381855    490.01578  0.015687533  0.015360394            4 
 2604000   0.82989686   -8.2735497    490.99112  0.015712722  0.015354816           22 
 2605000   0.83742873   -8.2518011    490.82994  0.015701534  0.015349243           15 
 2606000    0.8396134   -8.2626446    492.18701  0.015738904  0.015343686           18 
 2607000   0.83015688    -8.257585     490.8734  0.015690877  0.015338115           45 
 2608000   0.84824458   -8.2561707    491.15249  0.015693778  0.015332555           46 
 2609000   0.83797559   -8.2509489     491.2858  0.015692021  0.015326989           39 
 2610000   0.84157101   -8.2603451    490.46591  0.015659831   0.01532141           24 
 2611000   0.84290542   -8.2938073    490.63047  0.015659086  0.015315832           20 
 2612000   0.83451606   -8.2555505    490.02407  0.015633744  0.015310263           25 
 2613000   0.82770742   -8.2465618    491.81082  0.015684744  0.015304666           24 
 2614000   0.82865768   -8.2732259    490.47343  0.015636108  0.015299117            9 
 2615000   0.82411077   -8.2522042    491.76518  0.015671293  0.015293583           22 
 2616000   0.83014242   -8.2226407    490.37782  0.015621108   0.01528807           35 
 2617000   0.83283089   -8.2495159    491.34335  0.015645884  0.015282532           29 
 2618000    0.8290038   -8.2228553    491.32946  0.015639466  0.015276984           16 
 2619000   0.83435103   -8.2662899    490.77697  0.015615915  0.015271429           24 
 2620000   0.84817804   -8.2269074    491.34574  0.015628045  0.015265877           15 
 2621000   0.85077813   -8.2480881    491.71267  0.015633749  0.015260332           25 
 2622000   0.81110257   -8.2354553    490.71045  0.015595934  0.015254781           18 
 2623000   0.84093748   -8.2506096    490.56348  0.015585318  0.015249218           19 
 2624000   0.83911346   -8.2148496    492.63438  0.015645147  0.015243665           16 
 2625000   0.84173533     -8.25423    490.21213   0.01556229  0.015238094            7 
 2626000   0.82400608   -8.2924752    490.44556  0.015563771  0.015232527            5 
 2627000   0.82793232   -8.2314606    491.10181  0.015578664  0.015226969            8 
 2628000    0.8277404   -8.2538296     490.9813  0.015568915  0.015221416           11 
 2629000   0.85068624       -8.247    490.82503  0.015558039  0.015215833            7 
 2630000   0.82288364   -8.2660656    490.29177  0.015535227  0.015210293           16 
 2631000   0.84108624   -8.2308747    491.24629  0.015559556  0.015204709           10 
 2632000   0.83663092   -8.2573615    491.94876  0.015575885  0.015199147           21 
 2633000    0.8257412   -8.2424252    490.57778  0.015526579  0.015193606           16 
 2634000   0.83509256   -8.2687885     491.7667  0.015558298  0.015188077           10 
 2635000   0.84928937   -8.1836602    492.26625  0.015568193  0.015182566           12 
 2636000   0.84567074   -8.2318425    491.37146  0.015533999  0.015177043           15 
 2637000   0.85156805   -8.2443778     490.9772  0.015515649  0.015171506           11 
 2638000   0.84809967   -8.2986774    489.40932  0.015460239  0.015165933           14 
 2639000   0.83478633   -8.2741205    491.48102    0.0155198  0.015160379           14 
 2640000   0.82858636   -8.2718093    491.46482   0.01551341  0.015154811           23 
 2641000   0.81893855   -8.2714869    491.52923  0.015509568  0.015149274           14 
 2642000   0.82761529   -8.2951722    491.00358  0.015487118  0.015143707           18 
 2643000   0.80793983    -8.276594    491.98237  0.015512119  0.015138116           14 
 2644000   0.84207694    -8.307694    488.55597  0.015398259  0.015132551            6 
 2645000   0.80052456   -8.2784303     491.1604  0.015474493  0.015126966            5 
 2646000   0.82087261   -8.2979623    490.42299   0.01544542  0.015121418           11 
 2647000   0.84603849   -8.2319879    491.25142  0.015465666  0.015115875            6 
 2648000   0.84678585    -8.248903     492.0971  0.015486439  0.015110366           14 
 2649000    0.8136157    -8.243771    492.23292  0.015484866  0.015104857            5 
 2650000   0.83227666   -8.2651233    492.94313  0.015501356  0.015099374           13 
 2651000   0.83089358   -8.2319738    491.65913  0.015455147  0.015093864            9 
 2652000   0.83455531   -8.2782389    490.83661  0.015423473  0.015088342           19 
 2653000   0.81717649   -8.2485142    491.31167  0.015432582  0.015082834           17 
 2654000   0.81818787   -8.2768384    490.56556   0.01540334  0.015077322           13 
 2655000    0.8200572    -8.228493    490.86159   0.01540683  0.015071821           18 
 2656000   0.84162785   -8.2928747    490.86506  0.015401138  0.015066314           20 
 2657000     0.823073   -8.2922306    490.50963  0.015384194  0.015060784           17 
 2658000   0.83376591   -8.2985775    491.83581  0.015419984  0.015055233           24 
 2659000    0.8640295   -8.2589275    491.49442  0.015403486  0.015049684           38 
 2660000   0.84868931   -8.2853115    491.46929  0.015396908  0.015044128           26 
 2661000   0.83559718   -8.2466541    493.14271  0.015443527  0.015038604           35 
 2662000   0.83002955    -8.254003    492.98224  0.015432702  0.015033074           30 
 2663000   0.81746884   -8.2741076     491.2616  0.015373063  0.015027534           37 
 2664000   0.82424453   -8.2684799    491.58523  0.015377416  0.015022003           24 
 2665000   0.82262828   -8.2677357    490.54162  0.015339013  0.015016463           24 
 2666000   0.83429086   -8.2457802    491.86633  0.015374666  0.015010947           38 
 2667000   0.82103143   -8.2936218    490.77846   0.01533491  0.015005389           37 
 2668000   0.80733695   -8.2573254    490.87729  0.015332249  0.014999846           11 
 2669000   0.82590221   -8.2934378    491.62859  0.015349962  0.014994299           34 
 2670000   0.81580708   -8.2596296    491.79313  0.015349349  0.014988716           44 
 2671000   0.82513829   -8.2877726    490.41992  0.015300759  0.014983141           31 
 2672000   0.83102076   -8.2994508    491.42352  0.015326332  0.014977602           40 
 2673000   0.82695737    -8.273923    491.68495  0.015328749  0.014972053           39 
 2674000   0.81427983    -8.306038    491.15921  0.015306632  0.014966499           33 
 2675000   0.82559844   -8.3264552    490.14478  0.015269308  0.014960911           45 
 2676000   0.82406134   -8.3154933    489.64664  0.015248089  0.014955309           66 
 2677000   0.82498669   -8.3346495    490.97821  0.015283844  0.014949717           48 
 2678000   0.83619386   -8.3307965    490.33605  0.015258154  0.014944128           51 
 2679000   0.83295787   -8.2713682    491.87478  0.015300323  0.014938559           41 
 2680000   0.83246673   -8.2843386    491.98214  0.015297952  0.014932974           50 
 2681000   0.82942027   -8.2946052    490.64584   0.01525071  0.014927394           44 
 2682000   0.81066831   -8.3220807    491.31112  0.015265695  0.014921813           42 
 2683000   0.81790161   -8.2990763    491.53579  0.015266983  0.014916239           97 
 2684000   0.82373409   -8.2927356    491.47725  0.015259478  0.014910674           73 
 2685000    0.8310306   -8.3208209    490.59098  0.015226287  0.014905094           88 
 2686000   0.82040657   -8.3392591    490.32193  0.015212271  0.014899492           99 
 2687000   0.82242254   -8.3002025    490.59068  0.015214945   0.01489392          118 
 2688000   0.83933057   -8.2824364    490.83649  0.015216905   0.01488832          117 
 2689000   0.83594971   -8.2888128    491.56427    0.0152338  0.014882767          118 
 2690000   0.82668238    -8.297878    492.15436  0.015246418  0.014877236          108 
 2691000   0.82694222   -8.2887974    492.74698  0.015259104  0.014871714          116 
 2692000   0.82684849   -8.2893407    491.00148  0.015199402  0.014866186          120 
 2693000   0.82901625   -8.3078835    491.97899  0.015224006  0.014860629          121 
 2694000   0.83095453   -8.2762447    492.32543  0.015229072  0.014855083          104 
 2695000   0.84081373   -8.2783492    492.28316  0.015222114  0.014849586          112 
 2696000   0.80903935   -8.3103662     492.7028  0.015229439  0.014844066          107 
 2697000   0.80953293   -8.3086978    492.16496  0.015207173  0.014838573          127 
 2698000   0.81345909    -8.278062    491.30754  0.015175054  0.014833081          139 
 2699000   0.82875358   -8.2985133    492.87543  0.015217841  0.014827579          143 
 2700000   0.83259634   -8.2967614    491.71734  0.015176461  0.014822101          126 
 2701000   0.80731693   -8.2873699    492.88332  0.015206816  0.014816616          165 
 2702000   0.81822123   -8.3106499    491.87679  0.015170145  0.014811118          130 
 2703000   0.81057882    -8.302748    491.72657  0.015159902  0.014805602          122 
 2704000   0.81064408   -8.3273181    491.18981  0.015137753   0.01480009          143 
 2705000   0.82192672   -8.3196529    491.39128  0.015138364  0.014794561          165 
 2706000   0.81356276   -8.3046475    492.49191  0.015166664  0.014789053          164 
 2707000   0.82130808   -8.3352801    490.62556  0.015103607  0.014783529          198 
 2708000   0.82062078   -8.3466662    491.17754  0.015115015  0.014777996          184 
 2709000   0.81694586   -8.3084658    492.08948  0.015137489  0.014772472          215 
 2710000   0.79481454   -8.3438379    490.99341  0.015098198  0.014766944          223 
 2711000   0.79709358   -8.3217853    491.36351  0.015104006  0.014761403          228 
 2712000   0.80405245   -8.3448414    491.83662  0.015112974  0.014755861          231 
 2713000   0.82036551   -8.3518484    491.14784  0.015086246  0.014750281          237 
 2714000   0.83319644   -8.3972922    491.17547  0.015081536  0.014744708          232 
 2715000   0.82705217   -8.3328036    490.66051  0.015060175  0.014739138          245 
 2716000   0.81942653   -8.3482309    491.04952  0.015066566  0.014733568          265 
 2717000   0.81965371   -8.3576775    492.39729  0.015102358  0.014728006          326 
 2718000    0.8141376   -8.3655859    491.26504  0.015062087  0.014722432          295 
 2719000   0.82916602   -8.3837834    489.63836  0.015006693  0.014716845          308 
 2720000   0.82058703    -8.392349    490.12296  0.015016022  0.014711264          305 
 2721000   0.81777085   -8.3801292    490.34503  0.015017305  0.014705692          347 
 2722000   0.82993707   -8.3622592    491.44934  0.015045596  0.014700112          343 
 2723000   0.79896598   -8.3955484    490.49271  0.015010794  0.014694515          323 
 2724000   0.81742026   -8.3857687    489.88388  0.014986658  0.014688936          364 
 2725000   0.80037012   -8.3845165    490.63322  0.015004074  0.014683357          343 
 2726000    0.8362704   -8.3677185    490.50259  0.014994577  0.014677786          299 
 2727000   0.80763167   -8.3584979    490.93044  0.015002153  0.014672216          331 
 2728000   0.80080825   -8.3938399    490.55967  0.014985327  0.014666653          332 
 2729000   0.80912969   -8.3333841    491.50476  0.015008695  0.014661107          361 
 2730000   0.81009101   -8.3665812    490.52359  0.014973248  0.014655561          367 
 2731000   0.80809661   -8.3910449    491.55757  0.014999315  0.014650008          379 
 2732000   0.81115844   -8.3767243    490.89666  0.014973666  0.014644467          357 
 2733000   0.81831206   -8.3838031    491.35302  0.014982102  0.014638947          401 
 2734000   0.81039995   -8.3630461    491.86355  0.014992183  0.014633417          364 
 2735000   0.80652265   -8.3926115    491.42921  0.014973468  0.014627889          388 
 2736000   0.83169745   -8.3791135     492.1111  0.014988764  0.014622336          384 
 2737000   0.80063852    -8.382751    492.00231  0.014979975  0.014616797          323 
 2738000   0.80652572   -8.3727173    491.47135  0.014958344  0.014611247          336 
 2739000   0.80903709   -8.4159698     491.4885  0.014953404  0.014605699          410 
 2740000   0.83306037   -8.3545194    492.11375  0.014966963  0.014600157          447 
 2741000   0.81163112   -8.3682454     491.7076  0.014949155  0.014594627          447 
 2742000   0.81332389   -8.4015669    491.59842  0.014940385  0.014589088          441 
 2743000   0.82057088    -8.348581    491.74284  0.014939326  0.014583576          431 
 2744000   0.81829418    -8.399282    490.91063  0.014908608  0.014578049          452 
 2745000   0.80192259   -8.3812089    491.66112   0.01492596  0.014572504          432 
 2746000   0.82112545   -8.3776713    491.75847  0.014923479  0.014566968          444 
 2747000   0.81673242   -8.3651118    491.93222  0.014923317   0.01456145          484 
 2748000   0.80112665   -8.3991386     491.1338  0.014893674  0.014555936          520 
 2749000   0.82292141   -8.3762643    491.77101  0.014907573  0.014550442          474 
 2750000   0.81839143   -8.3469003     491.7656  0.014901988  0.014544925          586 
 2751000   0.80714754   -8.4051523    490.72213  0.014864962  0.014539402          586 
 2752000    0.8109191   -8.3531347    493.07961  0.014930948  0.014533877          589 
 2753000   0.80753452   -8.3823185    492.15619  0.014897572  0.014528355          533 
 2754000   0.81967429   -8.3869697    491.60952  0.014875621   0.01452282          616 
 2755000   0.82030346   -8.4089002    492.01482  0.014882481  0.014517294          593 
 2756000   0.79433303   -8.3994913    492.19449  0.014882514  0.014511759          625 
 2757000   0.81156781   -8.4084759    489.64241  0.014799976  0.014506191          624 
 2758000   0.81835864    -8.447476    490.54409  0.014821854  0.014500641          582 
 2759000   0.83799802   -8.4287669    490.84086  0.014825446  0.014495063          629 
 2760000   0.81508635   -8.4164976    490.97649  0.014824169  0.014489494          691 
 2761000   0.80534058   -8.4127067    491.38916  0.014831256  0.014483918          570 
 2762000   0.79720464   -8.4241258    490.84282  0.014809402  0.014478374          685 
 2763000   0.81264772   -8.4102394    490.41111  0.014791021  0.014472825          724 
 2764000   0.80692152   -8.4347849     491.0617  0.014805285  0.014467249          710 
 2765000   0.80374595   -8.4317316    491.67935  0.014818546  0.014461694          679 
 2766000   0.81980701   -8.4552441    490.33995  0.014772835  0.014456118          722 
 2767000   0.82095683   -8.4276001    491.36381  0.014798332  0.014450546          743 
 2768000   0.81340536   -8.4338657    490.73277  0.014773988  0.014444983          732 
 2769000    0.8006724   -8.4561649    490.64035  0.014765871  0.014439406          783 
 2770000   0.80336959   -8.4194396    492.00628  0.014801633   0.01443383          733 
 2771000   0.79264104   -8.4264857     491.1082  0.014769283   0.01442825          739 
 2772000   0.80792113   -8.4865455    489.55038  0.014717123   0.01442265          768 
 2773000   0.81898218   -8.4384334    490.95361  0.014753985  0.014417042          789 
 2774000    0.8047089   -8.4763357    489.73769  0.014712139  0.014411434          793 
 2775000   0.81255669    -8.467046    490.11946  0.014718302  0.014405821          794 
 2776000   0.81295058   -8.5036792    490.10735  0.014712637   0.01440019          863 
 2777000   0.82923527   -8.5009488    490.45229   0.01471769  0.014394553          814 
 2778000   0.81584628   -8.4958111    489.43713  0.014681939  0.014388917          919 
 2779000   0.79445231   -8.4596083    489.48824  0.014678189  0.014383298          870 
 2780000   0.79566848    -8.479191    490.66868  0.014708294  0.014377686          936 
 2781000   0.82119644   -8.4933849    489.87264  0.014679151  0.014372088          976 
 2782000   0.79183808   -8.5032862    488.92245  0.014645413  0.014366466          955 
 2783000   0.80708296    -8.463102    489.88029  0.014668831  0.014360849          938 
 2784000   0.81321768   -8.5205969    489.59089    0.0146549  0.014355228         1009 
 2785000   0.80518852   -8.4876589    489.56585  0.014648889  0.014349598          975 
 2786000   0.81633358   -8.4785476    489.22446  0.014633419   0.01434396          989 
 2787000   0.80399375   -8.5007851    488.79217  0.014615242   0.01433834         1069 
 2788000   0.80186486   -8.4989417    488.73885  0.014608406    0.0143327         1073 
 2789000   0.81306842   -8.5114325    488.68545  0.014601573   0.01432705         1137 
 2790000   0.80237879   -8.5283883    489.34931  0.014616168  0.014321402         1140 
 2791000   0.81237215   -8.5315381    488.64609  0.014589935  0.014315725         1130 
 2792000   0.81331048   -8.5223195    488.16416  0.014570325  0.014310064         1133 
 2793000   0.80641733   -8.5304274    488.12387  0.014563906  0.014304386         1142 
 2794000   0.80747074   -8.5531911    488.78485  0.014578408  0.014298719         1156 
 2795000   0.80270093    -8.537898    489.11509  0.014583038  0.014293062         1154 
 2796000    0.7993436   -8.5386054    488.63009  0.014563367  0.014287394         1146 
 2797000   0.79148502   -8.5504095    488.53795  0.014555415  0.014281731         1215 
 2798000   0.81034287   -8.5215059    488.95038  0.014562496   0.01427606         1200 
 2799000   0.80267503   -8.5447385    488.22543   0.01453571  0.014270384         1256 
 2800000   0.80301828   -8.5432953    488.28726  0.014532359  0.014264707         1227 
 2801000   0.81030861    -8.569657    488.30519  0.014527704  0.014259023         1260 
 2802000   0.80293448   -8.5633736    487.49467  0.014498414  0.014253336         1275 
 2803000   0.78236323   -8.5679691    488.71834  0.014529621  0.014247652         1253 
 2804000    0.7988674   -8.5560642    488.57183  0.014520085  0.014241961         1257 
 2805000   0.81795048   -8.5639562    488.49914  0.014512749   0.01423626         1319 
 2806000   0.80750549    -8.597415    487.34682  0.014473355  0.014230562         1335 
 2807000   0.80008491   -8.5938179    487.53774  0.014473867  0.014224852         1376 
 2808000   0.80586991   -8.6158032    487.72645  0.014474313  0.014219133         1384 
 2809000   0.80081443   -8.6123092    488.53508   0.01449315  0.014213423         1419 
 2810000   0.81071501   -8.5711457    487.25822  0.014450125  0.014207697         1453 
 2811000   0.79579756     -8.59791    487.17351  0.014442473  0.014201972         1466 
 2812000   0.78946212   -8.6323432    487.36798    0.0144431  0.014196234         1499 
 2813000   0.80139187   -8.6069502    487.11893  0.014430588  0.014190492         1559 
 2814000   0.81384947   -8.6252239    486.99006  0.014421644  0.014184755         1546 
 2815000    0.8067709   -8.6370696    487.99705  0.014446331  0.014179014         1567 
 2816000    0.7893262   -8.6249338    487.34027  0.014421765  0.014173262         1517 
 2817000   0.79533055   -8.6091603     487.3979   0.01441835  0.014167521         1565 
 2818000   0.81970157   -8.6252162    487.83276  0.014426093  0.014161766         1590 
 2819000   0.79507669   -8.6458783    486.35993  0.014377437  0.014156008         1635 
 2820000   0.81399696   -8.6502439    486.30454  0.014370702  0.014150268         1695 
 2821000    0.7955466   -8.6540693    487.17732   0.01439139  0.014144516         1775 
 2822000   0.79263741   -8.6710044     487.8588  0.014406414  0.014138732         1771 
 2823000   0.80641138   -8.6445454    487.04455  0.014377275  0.014132956         1832 
 2824000    0.7887143   -8.6671334    485.66181   0.01433138  0.014127157         1905 
 2825000   0.80671233   -8.6719732    485.82873  0.014331231  0.014121385         1907 
 2826000   0.81149753   -8.6723895    485.99736  0.014331132  0.014115566         1925 
 2827000   0.80248092   -8.6991395    485.46567   0.01431039  0.014109736         2003 
 2828000   0.78396247   -8.7177154    485.97295  0.014320278    0.0141039         2065 
 2829000   0.82040329   -8.7380102    485.38264  0.014297827  0.014098031         2192 
 2830000   0.79851516   -8.7134515    484.61389  0.014270138  0.014092158         2287 
 2831000   0.82292796   -8.7722043    484.03731  0.014248125  0.014086262         2253 
 2832000      0.79696   -8.7449938    484.44423  0.014255068  0.014080362         2327 
 2833000   0.79250671   -8.7711659    485.31451  0.014275636  0.014074457         2299 
 2834000   0.78346483   -8.7782764    484.46318  0.014245565  0.014068531         2282 
 2835000   0.81809298   -8.8019201    483.94291  0.014225247  0.014062606         2358 
 2836000   0.80591807   -8.7749578    483.77083  0.014215175  0.014056673         2361 
 2837000   0.78569053   -8.8035297    484.06662  0.014218853  0.014050719         2459 
 2838000   0.79676782   -8.8197043    483.25337  0.014189963  0.014044758         2484 
 2839000   0.80047193   -8.8191632    483.06685  0.014179489  0.014038789         2453 
 2840000   0.79768043   -8.8161348    483.70688  0.014193277  0.014032826         2517 
 2841000   0.79308225   -8.8277206    482.93709  0.014165701  0.014026839         2609 
 2842000   0.77582675   -8.8159811    483.02009  0.014163151  0.014020857         2533 
 2843000   0.79732415   -8.8228672    482.15548  0.014132826  0.014014852         2576 
 2844000   0.78297537   -8.8680306    482.45608  0.014136664  0.014008841         2623 
 2845000   0.79624129   -8.8391229    481.57908  0.014106007  0.014002826         2638 
 2846000   0.79941641   -8.8358745    482.40767  0.014125313  0.013996821         2586 
 2847000   0.78519686   -8.8676028    481.53236   0.01409473  0.013990819         2665 
 2848000   0.79872836   -8.8444822    482.68307  0.014123451    0.0139848         2684 
 2849000   0.80359337   -8.8699553    481.93482  0.014096607  0.013978779         2696 
 2850000   0.79949255    -8.895696    480.81812  0.014059009  0.013972756         2649 
 2851000   0.79161947   -8.8833559    482.02996    0.0140895  0.013966725         2736 
 2852000   0.80039484   -8.8698072    481.67394  0.014074157  0.013960682         2712 
 2853000   0.79368662   -8.8882816    480.62812  0.014038676  0.013954648         2755 
 2854000   0.81544571   -8.9181282    480.96173  0.014043498   0.01394861         2779 
 2855000   0.80399292   -8.8840683    481.48355  0.014053811  0.013942546         2756 
 2856000   0.81800818   -8.9330016    481.32696  0.014044321  0.013936474         2820 
 2857000   0.79261205    -8.913432    481.00306  0.014029957  0.013930407         2858 
 2858000   0.79845875   -8.9305895    480.26712   0.01400359  0.013924342         2897 
 2859000   0.79111725   -8.9191096    480.95237  0.014018665  0.013918274         2922 
 2860000   0.76829502   -8.8962323    482.65819  0.014063467  0.013912213         2815 
 2861000   0.78178823   -8.9259198    480.77217  0.014003617  0.013906142         2902 
 2862000   0.79005881   -8.9233947    481.31451  0.014014515  0.013900058         2919 
 2863000   0.78956575   -8.9463261    479.66519  0.013961613  0.013893973         2892 
 2864000   0.79602884   -8.9072219    480.81098  0.013990077  0.013887889         2940 
 2865000   0.78562677   -8.9272841    479.51113  0.013947386  0.013881807         2991 
 2866000   0.78608442   -8.9287647    480.19584  0.013962429  0.013875725         2947 
 2867000   0.78952868   -8.9309838    480.36781  0.013962557   0.01386963         2968 
 2868000   0.79185469   -8.9426545    480.88907  0.013972834  0.013863534         2995 
 2869000   0.79432636   -8.9533951    480.28422  0.013950395  0.013857441         2963 
 2870000   0.78374884   -8.9408038     481.4586  0.013979634  0.013851342         2972 
 2871000   0.79865162   -8.9842084    479.35714  0.013913768  0.013845244         3094 
 2872000   0.78653474    -8.978949    478.09155  0.013872201  0.013839131         3067 
 2873000   0.78493112   -8.9580991    480.09895  0.013925599  0.013833024         3128 
 2874000   0.78547452   -8.9581035    480.20326  0.013923778  0.013826917         3033 
 2875000   0.77769053   -8.9746697    479.37103  0.013894813  0.013820807         2998 
 2876000   0.78654269   -8.9566882     478.7347  0.013871543  0.013814705         3090 
 2877000   0.80927468   -8.9515205    480.13023  0.013907144  0.013808607         3119 
 2878000   0.79147664   -8.9687109    479.98221  0.013898025  0.013802504         3061 
 2879000   0.79658491   -8.9669134    478.95621    0.0138635  0.013796385         3081 
 2880000   0.78684575   -8.9854461    478.33731  0.013840779  0.013790252         3169 
 2881000   0.81250225   -8.9946405    479.73599  0.013876432  0.013784123         3144 
 2882000   0.79498932   -8.9897315    479.89415   0.01387619  0.013777994         3177 
 2883000    0.7751608   -9.0029023    478.18656  0.013822019  0.013771865         3159 
 2884000    0.7885479   -8.9966115     478.8343  0.013835942  0.013765745         3107 
 2885000   0.79311863   -8.9839721    479.93282  0.013862877  0.013759634         3110 
 2886000    0.7854349   -8.9959408    477.75687  0.013795244  0.013753508         3173 
 2887000    0.7821755   -8.9945614    478.50848   0.01381216   0.01374739         3135 
 2888000   0.80306903   -8.9798959    479.01636  0.013822033  0.013741272         3120 
 2889000   0.79095577   -8.9878382    479.51064  0.013831506  0.013735165         3175 
 2890000   0.81863507   -8.9957739    479.01388  0.013812395  0.013729066         3137 
 2891000   0.78955167   -9.0004339    478.05477  0.013779971  0.013722965         3202 
 2892000   0.77908208   -9.0037819    478.67482  0.013793073  0.013716856         3224 
 2893000   0.77725362   -8.9862555    477.99845  0.013768823  0.013710761         3183 
 2894000   0.79488441   -8.9760769    478.99263  0.013792693  0.013704657         3226 
 2895000   0.78674935   -9.0212885    477.98989  0.013759064  0.013698554         3197 
 2896000   0.79842898   -9.0242626    478.57185  0.013771059  0.013692441         3195 
 2897000   0.79317636   -8.9924995    478.20479  0.013755747  0.013686342         3186 
 2898000   0.78815266   -9.0111008    478.47525  0.013758778  0.013680226         3251 
 2899000    0.7813681   -9.0068634    478.24259  0.013747344   0.01367412         3254 
 2900000   0.76805909   -9.0323049    478.52008  0.013750577  0.013668016         3304 
 2901000   0.77562162   -9.0242168    476.86516  0.013698298  0.013661901         3296 
 2902000   0.79492369   -9.0124432    479.66635  0.013774017  0.013655801         3237 
 2903000   0.78345418   -9.0266613    477.55035   0.01370853  0.013649701         3306 
 2904000   0.79838852    -9.010811    478.42309  0.013728854  0.013643609         3265 
 2905000   0.79851782   -9.0378707    477.72761  0.013704177  0.013637511         3321 
 2906000   0.78167141   -9.0306135    477.68471  0.013698231  0.013631399         3291 
 2907000   0.77774463   -9.0477793    478.41873  0.013714561  0.013625292         3292 
 2908000    0.7999537   -9.0265903    478.41274  0.013709673  0.013619176         3329 
 2909000   0.77063399   -9.0459069     477.7878  0.013687057  0.013613076         3307 
 2910000   0.79348087   -9.0513282    477.96447  0.013687413  0.013606973         3337 
 2911000   0.76555616   -9.0529487    478.08413  0.013686137  0.013600878         3339 
 2912000   0.77665204   -9.0343022     478.3681  0.013689563   0.01359478         3304 
 2913000   0.79285233   -9.0671357    477.40625  0.013657348  0.013588686         3335 
 2914000   0.79160276   -9.0486352    477.29649  0.013649522  0.013582587         3389 
 2915000   0.79413822   -9.0305457    477.94492  0.013663377  0.013576491         3362 
 2916000   0.78182691   -9.0465202    478.55212  0.013676044  0.013570397         3335 
 2917000   0.76783522   -9.0574296    477.67418  0.013646274  0.013564305         3331 
 2918000   0.79004212    -9.058015    477.90256   0.01364812  0.013558204         3421 
 2919000   0.78210475   -9.0525237     478.1361  0.013650111  0.013552117         3333 
 2920000   0.79119784   -9.0444274    478.23334  0.013648212  0.013546042         3373 
 2921000   0.77562543    -9.043193    477.35898  0.013618595  0.013539953         3425 
 2922000   0.76910628   -9.0676835    477.46727  0.013617022  0.013533856         3444 
 2923000   0.79819456   -9.0646794    478.15029  0.013631836   0.01352777         3408 
 2924000     0.793231   -9.0561054    477.67443  0.013613612  0.013521679         3436 
 2925000   0.78066823   -9.0602401    477.56219   0.01360576  0.013515598         3435 
 2926000   0.80391916   -9.0795301    476.42581  0.013568746   0.01350951         3460 
 2927000   0.79033134   -9.0689156    477.13291  0.013584242  0.013503423         3426 
 2928000   0.76626356   -9.0481359    477.30035  0.013584368  0.013497341         3392 
 2929000   0.80496394   -9.0619691    476.84423  0.013566753  0.013491258         3439 
 2930000   0.78136095   -9.0606523    476.85087  0.013562311   0.01348518         3443 
 2931000   0.78660819   -9.0982554    476.81431  0.013556645  0.013479102         3483 
 2932000   0.78526732   -9.0917181     477.2577  0.013564623  0.013473026         3356 
 2933000   0.77542259   -9.0884489    477.39118  0.013563791  0.013466952         3445 
 2934000   0.78251683   -9.0854601    477.06537  0.013549914  0.013460879         3401 
 2935000   0.77851381   -9.0632057    477.23078  0.013549994   0.01345481         3401 
 2936000   0.79221332   -9.0927733    476.58079   0.01352693  0.013448748         3457 
 2937000   0.78716979   -9.0884138     476.6265  0.013523621  0.013442689         3417 
 2938000   0.79070858   -9.0617404    477.91321  0.013555514  0.013436635         3433 
 2939000   0.78405806   -9.0776926    477.06726  0.013526916  0.013430573         3389 
 2940000   0.78850966   -9.0742646    476.33649  0.013501601  0.013424508         3384 
 2941000   0.77767764   -9.0872343    476.60816  0.013504708  0.013418458         3455 
 2942000   0.77649981   -9.0688464    476.56297  0.013498838  0.013412398         3443 
 2943000   0.80473592   -9.0585829    477.32287  0.013515768  0.013406339         3457 
 2944000   0.79647885   -9.0902644    476.42201  0.013485677  0.013400286         3483 
 2945000    0.7783719   -9.0835718    477.61441  0.013514839  0.013394235         3450 
 2946000   0.78146856   -9.0990023    476.26132  0.013471977  0.013388195         3464 
 2947000   0.78057789   -9.0603517    476.76407  0.013481622  0.013382162         3456 
 2948000   0.77809302   -9.0679583    476.64573  0.013473703  0.013376115         3451 
 2949000   0.78013004   -9.0846279    476.47917  0.013464428  0.013370071         3475 
 2950000   0.78332501   -9.0966272    476.76928  0.013468059  0.013364027         3420 
 2951000   0.79002284   -9.0792301    475.97964  0.013441196  0.013357988         3486 
 2952000   0.77080441   -9.1098246    477.08131  0.013467742  0.013351946         3484 
 2953000   0.78778343   -9.0975986    476.56048  0.013448484  0.013345911         3505 
 2954000    0.7835767   -9.0835244    475.58918  0.013416531  0.013339875         3433 
 2955000   0.78134733   -9.0843514    477.24551    0.0134587  0.013333845         3430 
 2956000   0.78303044   -9.0993184    477.36968  0.013457648  0.013327815         3443 
 2957000   0.77963735    -9.103229    477.22316  0.013448967  0.013321795         3471 
 2958000   0.77261706   -9.0797235    477.10673  0.013441141  0.013315759         3482 
 2959000     0.776973   -9.0826829    476.02292  0.013406075  0.013309738         3503 
 2960000   0.77936483   -9.0652422    476.52148  0.013415582  0.013303716         3459 
 2961000   0.78468626   -9.0829052    477.12912  0.013428153  0.013297697         3488 
 2962000   0.77667437    -9.114543    477.35552  0.013429989  0.013291675         3484 
 2963000   0.80140444   -9.1086539    476.85365  0.013411341  0.013285657         3496 
 2964000   0.78986119   -9.1214966    476.22774  0.013389219  0.013279641         3510 
 2965000   0.77604513   -9.0949078    476.39588  0.013389429  0.013273628         3523 
 2966000   0.79846693   -9.0962762    476.11459  0.013377011  0.013267625         3515 
 2967000   0.78705413   -9.1151287     477.3637  0.013407586  0.013261619         3505 
 2968000   0.77998737   -9.1092021    477.08254  0.013395175  0.013255617         3536 
 2969000    0.7658984   -9.1146269    477.17228  0.013393182  0.013249614         3512 
 2970000   0.77361631   -9.1027994     475.3368  0.013337172  0.013243614         3461 
 2971000   0.78178091   -9.1070536    476.62723  0.013368878  0.013237615         3534 
 2972000   0.78347541   -9.0909149    475.45682  0.013331562  0.013231621         3504 
 2973000   0.78631137   -9.1119425    476.54049  0.013357453  0.013225637         3529 
 2974000   0.78601319   -9.0996714    476.26523  0.013345248  0.013219648         3523 
 2975000   0.78444104   -9.0681387    477.13882  0.013365233  0.013213663         3466 
 2976000   0.76871836   -9.1132175    477.26613  0.013364307  0.013207683         3438 
 2977000   0.79453328   -9.1118772    477.04756  0.013353699  0.013201699         3534 
 2978000   0.77149167    -9.084904    477.10079  0.013350705  0.013195719         3392 
 2979000    0.7824875   -9.0913551    477.22719  0.013349759  0.013189748         3498 
 2980000   0.77909184   -9.1074991     476.2855  0.013318946   0.01318378         3516 
 2981000    0.7665709   -9.0769183    476.44023  0.013318803  0.013177807         3494 
 2982000   0.74870468   -9.1138858       476.33  0.013311256  0.013171829         3500 
 2983000   0.77946292   -9.1054215    476.89439  0.013322561  0.013165868         3518 
 2984000   0.77200748    -9.134442     476.5265  0.013307822  0.013159909         3535 
 2985000    0.7683321    -9.109613    475.94501   0.01328713  0.013153947         3573 
 2986000   0.77005196   -9.0946379    475.13737  0.013260141  0.013147987         3536 
 2987000   0.78052559    -9.133943    476.38598  0.013290536  0.013142028         3536 
 2988000   0.77394152   -9.1412005    475.64101  0.013265312  0.013136069         3540 
 2989000   0.77840955   -9.1020323    476.06801  0.013272778  0.013130117         3535 
 2990000   0.75446444   -9.1191308    476.63174  0.013284051  0.013124159         3534 
 2991000   0.78208787    -9.130343    476.80806  0.013284522  0.013118205         3465 
 2992000   0.77747698   -9.1401964    475.34456   0.01323932  0.013112264         3549 
 2993000   0.76110072   -9.1007498    477.00309  0.013281075  0.013106314         3526 
 2994000   0.76934639   -9.1151031    476.82764  0.013271756  0.013100365         3532 
 2995000   0.77493462   -9.1289579    476.74187  0.013264938  0.013094421         3597 
 2996000   0.76743029   -9.1368168     476.3266   0.01324896  0.013088491         3587 
 2997000   0.76389279    -9.111341    476.64668  0.013253439  0.013082538         3524 
 2998000   0.77560244   -9.1165436    475.58454  0.013219495  0.013076603         3584 
 2999000    0.7668974   -9.1166098    475.44737  0.013211275  0.013070671         3538 
 3000000   0.76286699   -9.1167063    475.93949  0.013220541  0.013064742         3604 
 3001000   0.77465228   -9.1368386    476.01055  0.013218109  0.013058806         3574 
 3002000   0.76206086   -9.0985779    476.69936  0.013232827  0.013052878         3548 
 3003000   0.76243623   -9.1331476    475.66792  0.013199798  0.013046965         3543 
 3004000   0.75622736   -9.1171518     476.1491  0.013208752  0.013041048         3557 
 3005000   0.76124528   -9.1305191    476.01701  0.013200693  0.013035128         3562 
 3006000   0.78328873   -9.0990029    475.35366  0.013177912  0.013029215         3567 
 3007000    0.7778968   -9.1243476    476.52919  0.013206108  0.013023298         3567 
 3008000    0.7525318   -9.1113976    476.36965  0.013197298  0.013017379         3552 
 3009000   0.77166681   -9.1372737    476.44741  0.013195065  0.013011465         3585 
 3010000   0.75382873   -9.1184307    476.58508  0.013194493  0.013005562         3534 
 3011000   0.77890396   -9.1137807    475.61362  0.013163224  0.012999656         3531 
 3012000   0.78767028   -9.1429461    475.62624  0.013159203   0.01299375         3598 
 3013000   0.75726461   -9.1167915    475.29924  0.013145792  0.012987846         3530 
 3014000   0.76813575   -9.1119092    475.71682  0.013152976  0.012981947         3594 
 3015000   0.76411958   -9.1292581    475.91139  0.013153991  0.012976047         3560 
 3016000   0.78301378   -9.1356828    475.88019  0.013148767  0.012970148         3627 
 3017000    0.7645038   -9.1442046    475.63802   0.01313772  0.012964253         3557 
 3018000   0.78026888   -9.1322952    475.78037  0.013137298  0.012958362         3575 
 3019000   0.75235242   -9.1486257    474.85238  0.013107331  0.012952466         3574 
 3020000   0.78278791   -9.1321748    474.81118  0.013101854   0.01294657         3634 
 3021000   0.76649761    -9.146388    475.79312  0.013124603  0.012940685         3653 
 3022000   0.75736189    -9.145842    475.96068  0.013124881  0.012934801         3600 
 3023000   0.75691866    -9.138639    475.62462  0.013111275  0.012928921         3604 
 3024000   0.77664852   -9.1434398    475.67327   0.01310828   0.01292304         3570 
 3025000   0.75795655   -9.1389715    474.99063  0.013085141  0.012917151         3605 
 3026000   0.76905075   -9.1308422    475.72831  0.013101132  0.012911269         3546 
 3027000   0.76415204   -9.1451497    475.00772  0.013076966  0.012905391         3621 
 3028000    0.7599396   -9.1396142    476.17738  0.013104838  0.012899513         3635 
 3029000   0.75755583   -9.1284938     475.8692  0.013092032  0.012893638         3593 
 3030000   0.77648525   -9.1428606    474.95601  0.013062596  0.012887764         3558 
 3031000   0.77416194   -9.1407803    475.32287  0.013068373  0.012881899         3574 
 3032000   0.77021311   -9.1427711     475.2665  0.013062514  0.012876033         3663 
 3033000   0.77197091    -9.160261     475.3927  0.013061674  0.012870172         3609 
 3034000   0.77172292   -9.1475058    475.00522  0.013046727  0.012864314         3648 
 3035000   0.76542805   -9.1405403    474.85576  0.013038324   0.01285846         3654 
 3036000   0.77096167   -9.1391941    475.70031  0.013057211  0.012852602         3594 
 3037000   0.76244558   -9.1532329    474.89334  0.013030769  0.012846755         3605 
 3038000   0.75750842   -9.1408428    475.68236  0.013048123  0.012840907         3652 
 3039000   0.75692795   -9.1300989    475.07554  0.013027189  0.012835051         3609 
 3040000   0.76860218   -9.1538618    475.44837  0.013033124   0.01282921         3600 
 3041000   0.76131496   -9.1332328    476.36064  0.013053838  0.012823364         3568 
 3042000   0.76692865   -9.1276539    475.52225  0.013026579  0.012817523         3573 
 3043000   0.75109242   -9.1372514    476.38574  0.013045945  0.012811682         3657 
 3044000   0.76182889   -9.1580023    475.30442  0.013012057   0.01280585         3617 
 3045000   0.76298132   -9.1768052    474.50937  0.012986025  0.012800022         3597 
 3046000   0.77199708   -9.1380375     475.2469   0.01300194  0.012794194         3614 
 3047000   0.74599452   -9.1708797    474.73461  0.012983662  0.012788363         3654 
 3048000   0.77070266   -9.1435317    475.12354  0.012990036  0.012782532         3642 
 3049000   0.75735879   -9.1584824    476.19695  0.013015113  0.012776711         3615 
 3050000   0.76005552   -9.1472805    475.16965  0.012982777  0.012770895         3590 
 3051000   0.76980995   -9.1402205    474.65423  0.012964444  0.012765086         3625 
 3052000   0.75953883    -9.174591    475.19699  0.012975016  0.012759279         3641 
 3053000   0.75578555   -9.1810138     475.2508  0.012972235  0.012753467         3658 
 3054000   0.76737568   -9.1659665     475.1052  0.012964014  0.012747658         3631 
 3055000    0.7783593   -9.1669935    474.21217  0.012935411  0.012741856         3647 
 3056000   0.76306932   -9.1436171    475.68153  0.012971246  0.012736052         3563 
 3057000   0.74383402   -9.1530685    475.35272   0.01295804  0.012730255         3592 
 3058000   0.74579646    -9.163379    475.17011  0.012948826  0.012724459         3607 
 3059000   0.75945627   -9.1840926    474.74473  0.012933005  0.012718665         3618 
 3060000   0.76596676   -9.1765736    475.13711  0.012939464  0.012712866         3624 
 3061000   0.76350937   -9.1726188    474.16981  0.012908903  0.012707074         3591 
 3062000   0.75696342     -9.17138    474.42652  0.012911673  0.012701283         3614 
 3063000   0.75486548   -9.1853722    474.18522  0.012900893  0.012695495         3569 
 3064000   0.75020432   -9.1490591     475.1262  0.012922275  0.012689706         3644 
 3065000   0.74984036   -9.1720028    474.35392  0.012897061  0.012683925         3646 
 3066000   0.76226028   -9.1523496    474.43239  0.012894988  0.012678141         3663 
 3067000   0.75676867   -9.1410352    475.88261  0.012930187  0.012672366         3612 
 3068000   0.76227098   -9.1697971    474.86643  0.012898371  0.012666591         3632 
 3069000   0.75633764   -9.1654636    474.96974  0.012896974  0.012660812         3622 
 3070000   0.77774601   -9.1683453    475.19008  0.012898753  0.012655044         3622 
 3071000   0.77007259   -9.1894397    474.67298  0.012880521  0.012649275         3679 
 3072000   0.75606826   -9.1810291    473.96518  0.012857128  0.012643507         3623 
 3073000   0.76310211   -9.1702381    474.56089  0.012869099   0.01263774         3653 
 3074000   0.75279941   -9.1554324    474.75789  0.012870253   0.01263198         3630 
 3075000   0.75212277   -9.1956356    474.50409  0.012859189   0.01262621         3678 
 3076000   0.76393104   -9.1787179    474.58051  0.012857079  0.012620451         3628 
 3077000   0.74204166   -9.1740652    475.82403  0.012886579  0.012614697         3663 
 3078000   0.75187632   -9.1768299    475.04535   0.01286131  0.012608945         3658 
 3079000   0.75428256   -9.1832806    475.38487  0.012866322  0.012603196         3695 
 3080000   0.73658273   -9.1866519    474.05679  0.012826212  0.012597452         3679 
 3081000   0.77080713   -9.1969488    474.14362  0.012824397  0.012591712         3654 
 3082000   0.76061321    -9.142935    475.01312  0.012843747  0.012585979         3677 
 3083000   0.74979882   -9.1617827    474.51914  0.012826228  0.012580244         3659 
 3084000   0.75202177   -9.2004533    475.09344  0.012837588  0.012574512         3689 
 3085000   0.78247438   -9.1805169    474.99631  0.012830802  0.012568775         3663 
 3086000   0.76110273    -9.179312    474.93221  0.012824914  0.012563047         3653 
 3087000   0.75065047   -9.1821434    474.99456  0.012822443  0.012557326         3648 
 3088000   0.74730793   -9.1734797    474.60194  0.012807695  0.012551609         3660 
 3089000   0.76475198   -9.1634539    474.30427  0.012795518  0.012545884         3643 
 3090000   0.75195389   -9.1840269    474.94441  0.012808641  0.012540165         3594 
 3091000   0.75274376   -9.1910273    474.62727  0.012795947  0.012534447         3677 
 3092000   0.75801061   -9.1771908    474.32365  0.012783626  0.012528735         3666 
 3093000   0.74971647   -9.1821217     475.6065  0.012814056  0.012523025         3683 
 3094000   0.76238004   -9.2028759    474.64418  0.012783995  0.012517322         3711 
 3095000   0.75173358   -9.1759154    473.93887  0.012760874  0.012511619         3692 
 3096000   0.75387032   -9.1578137    475.20528   0.01279084  0.012505915         3672 
 3097000    0.7349096   -9.1886957    475.86235   0.01280439  0.012500216         3656 
 3098000   0.74808815   -9.1895048    474.13965  0.012753918  0.012494526         3697 
 3099000   0.77770643   -9.1801401    474.49883  0.012759461  0.012488838         3672 
 3100000   0.76043012   -9.1814375    474.83203  0.012764302  0.012483142         3658 
 3101000   0.74912291   -9.2035287    474.36752  0.012747703  0.012477453         3650 
 3102000   0.75071284   -9.1929542    474.16799  0.012738233  0.012471767         3666 
 3103000   0.76739729   -9.1740597    475.35093  0.012765897  0.012466082         3660 
 3104000   0.75228043   -9.1949502    474.37338   0.01273554  0.012460396         3661 
 3105000   0.78936018    -9.192523     473.5532  0.012709426  0.012454713         3661 
 3106000   0.76963613   -9.1991099    474.56338  0.012732437  0.012449027         3681 
 3107000   0.75421055   -9.1973821    474.65038  0.012730672  0.012443349         3657 
 3108000   0.76220529   -9.1808264     473.5751  0.012697745  0.012437662         3696 
 3109000   0.75578556   -9.2283116     473.9419  0.012703493  0.012431985         3718 
 3110000   0.75855273   -9.1991202    474.63248  0.012717912  0.012426308         3741 
 3111000   0.76286073   -9.1845529    475.42622  0.012735086  0.012420634         3655 
 3112000   0.75806181   -9.2018476    475.38414  0.012729867  0.012414959         3639 
 3113000   0.76014902   -9.2011498    474.68965  0.012707186  0.012409278         3666 
 3114000   0.75794541   -9.1907468    474.58332   0.01270026  0.012403607         3645 
 3115000   0.76485759   -9.1668007    474.59593   0.01269652  0.012397949         3665 
 3116000   0.75171683   -9.2294454     474.2519  0.012683245  0.012392287         3724 
 3117000   0.74285915   -9.1871544    474.63251  0.012689352  0.012386625         3694 
 3118000   0.74999033   -9.2191498    473.43461  0.012653266  0.012380969         3706 
 3119000   0.76064843     -9.18603    474.88541  0.012687972   0.01237532         3728 
 3120000   0.75393054   -9.2114091    473.82942    0.0126557  0.012369668         3724 
 3121000   0.75790431   -9.2177318    474.15646  0.012660377  0.012364023         3686 
 3122000   0.76444386   -9.1896866    474.11001  0.012655083  0.012358379         3667 
 3123000   0.75978435   -9.2125669    473.70589  0.012640247  0.012352737         3710 
 3124000   0.75540338   -9.2099259    473.56835  0.012632532  0.012347095         3705 
 3125000    0.7577637   -9.1961586    473.43695  0.012624985  0.012341459         3732 
 3126000   0.74235323   -9.2093893    474.73174  0.012655463  0.012335823         3685 
 3127000   0.76282995   -9.2005759    474.73884  0.012651605   0.01233019         3706 
 3128000   0.74247815   -9.2177693    472.66046  0.012592191  0.012324558         3701 
 3129000   0.75514909   -9.2016354    474.55784  0.012638698  0.012318921         3696 
 3130000   0.74738337    -9.222489    473.70968  0.012612079  0.012313294         3700 
 3131000     0.758268   -9.1933447    475.00536  0.012642536  0.012307671         3690 
 3132000   0.74490309   -9.2067864    473.29581  0.012593013   0.01230205         3700 
 3133000   0.74591084   -9.1675224    475.26565  0.012641389  0.012296433         3668 
 3134000   0.74286441   -9.1972684    474.33812  0.012612692   0.01229082         3655 
 3135000   0.75647545   -9.2412714    472.63674  0.012563443  0.012285203         3686 
 3136000   0.76970958   -9.2312523    473.90125  0.012593039  0.012279592         3695 
 3137000   0.77766802   -9.2080567    473.91248  0.012589323  0.012273986         3710 
 3138000   0.75590398   -9.2027666    473.79704  0.012582246  0.012268387         3688 
 3139000   0.74912691   -9.2408457    474.28307   0.01259114  0.012262792         3681 
 3140000    0.7548137   -9.2048606    474.05593  0.012581102  0.012257192         3689 
 3141000   0.73847184   -9.2115374    473.81548  0.012570717  0.012251597         3678 
 3142000   0.74671257   -9.2427864    473.99229  0.012571406  0.012246001         3731 
 3143000   0.74514265   -9.2116985    474.03124  0.012568439  0.012240408         3695 
 3144000   0.74586298    -9.200902    474.40559  0.012574363  0.012234817         3720 
 3145000   0.75135492   -9.2213966     474.0527  0.012561015  0.012229239         3677 
 3146000   0.75946354   -9.2208263    473.94299  0.012554116  0.012223663         3705 
 3147000   0.75630639   -9.1935362    474.26044  0.012558533  0.012218083         3702 
 3148000   0.76211816   -9.1757035     474.3645  0.012557298  0.012212513         3733 
 3149000   0.74551099   -9.2091465    474.50992  0.012557159  0.012206939         3746 
 3150000   0.74871079   -9.2113756    474.60699   0.01255574  0.012201363         3706 
 3151000   0.74146674   -9.2014188    473.71599  0.012528192  0.012195797         3690 
 3152000   0.75697985   -9.1998672    474.76682  0.012551999  0.012190239         3691 
 3153000    0.7373279   -9.2027589    474.60476  0.012543735  0.012184677         3699 
 3154000   0.75673126   -9.2315331    473.59703  0.012513132   0.01217912         3712 
 3155000   0.75281641   -9.2197136    474.25117  0.012526444   0.01217356         3668 
 3156000   0.76020981   -9.1958389     474.7354  0.012535261  0.012168013         3698 
 3157000   0.75297817   -9.2225906    473.39378  0.012495876  0.012162468         3711 
 3158000   0.74440063   -9.1815072    474.41245    0.0125188  0.012156934         3678 
 3159000   0.73283012   -9.2174582    473.64631  0.012494627  0.012151399         3722 
 3160000   0.74623606   -9.1998273    473.80375  0.012494825   0.01214586         3694 
 3161000   0.75683002   -9.2408819    473.42301  0.012480834  0.012140322         3737 
 3162000   0.75764058   -9.2122495    474.40059  0.012502651  0.012134787         3680 
 3163000   0.74624526   -9.2039545    473.15664  0.012465925  0.012129256         3693 
 3164000   0.73345389   -9.2130908    473.99331  0.012484021  0.012123719         3744 
 3165000   0.73748104   -9.2056284    473.52559  0.012467762  0.012118193         3743 
 3166000   0.73929214   -9.2221545    473.44751  0.012461769  0.012112668         3684 
 3167000   0.74332426   -9.2045159    473.72146  0.012465042  0.012107149         3672 
 3168000   0.74063336   -9.2315083    472.65775  0.012433127  0.012101626         3709 
 3169000   0.74488439   -9.2287647    472.96248  0.012437217   0.01209611         3697 
 3170000   0.73040277   -9.1958314     474.9332    0.0124851  0.012090603         3723 
 3171000   0.74771591   -9.1923398    474.11212  0.012459585  0.012085095         3698 
 3172000   0.73507467   -9.2148246    473.53425  0.012440475  0.012079583         3660 
 3173000   0.73399958   -9.2519985    473.16291  0.012426802  0.012074074         3681 
 3174000   0.73712913   -9.2103915    473.59451  0.012434218  0.012068567         3648 
 3175000   0.75606682   -9.2288553    473.28498  0.012422178  0.012063057         3701 
 3176000   0.74240878   -9.2077012    472.84595  0.012406747  0.012057555         3750 
 3177000   0.75201509   -9.2405163    473.56374   0.01242167  0.012052052         3672 
 3178000   0.74662119   -9.2580473    472.52109  0.012390421   0.01204655         3712 
 3179000   0.74325745   -9.1934164    473.07179  0.012400959  0.012041055         3694 
 3180000   0.74128404   -9.2339124    473.30502  0.012403171  0.012035562         3699 
 3181000   0.73733159   -9.2381191    474.16612  0.012421831   0.01203008         3716 
 3182000   0.74767619   -9.2354153    473.60767  0.012403302  0.012024594         3713 
 3183000   0.74260351   -9.2116991    473.74657  0.012403041  0.012019113         3691 
 3184000    0.7480836   -9.2012051     473.2856  0.012387081  0.012013632         3679 
 3185000   0.74212732   -9.1995696    473.16388  0.012380007  0.012008158         3639 
 3186000   0.74335887   -9.2246649    473.33054  0.012380481  0.012002681         3669 
 3187000   0.74222449   -9.2326536    472.77621  0.012362102  0.011997211         3688 
 3188000   0.74674071   -9.2222455    474.12953  0.012393599  0.011991743         3724 
 3189000   0.75416011   -9.2127407    473.94332  0.012384847  0.011986286         3704 
 3190000    0.7328495   -9.2327317    473.04216  0.012357423   0.01198082         3702 
 3191000   0.73825593   -9.2268981    473.53796  0.012366499  0.011975366         3646 
 3192000    0.7450639   -9.2095896    473.60937  0.012364489  0.011969915         3704 
 3193000   0.73521583   -9.2338201    472.97768   0.01234413  0.011964466         3713 
 3194000   0.75473442   -9.2086624    473.11989  0.012343975  0.011959019         3701 
 3195000   0.74775497   -9.2337373    473.95016  0.012361767  0.011953575         3668 
 3196000   0.73975218   -9.2130647    473.56755  0.012347923  0.011948133         3706 
 3197000   0.74397668   -9.2243048    474.00863  0.012355558  0.011942696         3698 
 3198000   0.74876682   -9.2061118    474.12906  0.012354833  0.011937259         3682 
 3199000    0.7469176    -9.230097    473.24254  0.012327877  0.011931822         3699 
 3200000   0.74505489   -9.2070626    473.54478  0.012331895  0.011926394         3729 
 3201000   0.72546727   -9.2231432    473.70788  0.012332289  0.011920966         3725 
 3202000   0.74018038   -9.2311625    472.77092  0.012304053  0.011915542         3682 
 3203000   0.74181626   -9.2154001    473.22476  0.012312019  0.011910115         3694 
 3204000   0.74166306   -9.2093242    472.67349  0.012293838  0.011904701         3717 
 3205000   0.72574654    -9.238508    473.51008  0.012311755  0.011899282         3698 
 3206000   0.73854171   -9.2328455    473.25973  0.012301407   0.01189386         3733 
 3207000   0.74041986   -9.2539922    472.48192   0.01227736  0.011888446         3736 
 3208000   0.73633234   -9.2194932    473.50834  0.012300196  0.011883035         3711 
 3209000   0.74564175   -9.2126632    472.88318  0.012280128  0.011877632         3655 
 3210000   0.74583163   -9.2393265    473.07812  0.012281363  0.011872226         3694 
 3211000   0.72118265   -9.2318666    473.93621  0.012299808  0.011866827         3686 
 3212000   0.74659946   -9.2190794    473.26845  0.012278654  0.011861431         3715 
 3213000   0.74294798   -9.2272516    474.02753  0.012294521  0.011856034         3757 
 3214000   0.73804547   -9.2488117    472.96294  0.012263092  0.011850638         3712 
 3215000   0.72432177   -9.2243363    473.46927  0.012272402  0.011845245         3738 
 3216000   0.74435099   -9.2384315     474.0517  0.012283678  0.011839855         3750 
 3217000    0.7238134   -9.2424249    474.06427  0.012280185   0.01183447         3684 
 3218000   0.74329045   -9.2301935    473.26966  0.012255792  0.011829083         3735 
 3219000   0.73747729   -9.2527411    473.93747  0.012269273  0.011823707         3748 
 3220000   0.73852404   -9.2406176    473.88092  0.012263999  0.011818328         3653 
 3221000    0.7564281    -9.240544    473.39827  0.012247704  0.011812953         3681 
 3222000   0.72178589   -9.2218805    473.71135  0.012252001  0.011807584         3671 
 3223000   0.73338346   -9.2334819    473.95123  0.012254401  0.011802218         3711 
 3224000   0.75899881   -9.2470994    474.20653  0.012257199  0.011796858         3756 
 3225000   0.74301111   -9.2323141    473.57044  0.012236962  0.011791496         3708 
 3226000   0.75859799   -9.2279145    473.18135  0.012223118  0.011786132         3755 
 3227000   0.73084926   -9.2205429    473.37563  0.012224347  0.011780779         3684 
 3228000   0.72864811   -9.2124943    473.29357  0.012218442  0.011775426         3679 
 3229000   0.73770992    -9.224919    473.39659  0.012217317  0.011770079         3687 
 3230000   0.74759402   -9.2528297    473.39851  0.012213584  0.011764727         3722 
 3231000    0.7375539   -9.2106995    473.27014  0.012206493  0.011759378         3694 
 3232000   0.73619763    -9.251205    474.18892  0.012226406  0.011754035         3739 
 3233000   0.71674533   -9.2540314    473.03228  0.012192811  0.011748693         3725 
 3234000   0.73590179   -9.2314285     473.1793  0.012192829  0.011743353         3670 
 3235000   0.72881436    -9.243865     472.6727   0.01217601   0.01173802         3711 
 3236000   0.71846677   -9.1994228    473.79384  0.012201119  0.011732691         3645 
 3237000    0.7303109   -9.2344691    473.20459   0.01218218  0.011727365         3729 
 3238000   0.72650511   -9.2427171    473.48357  0.012185597  0.011722033         3720 
 3239000   0.74976156   -9.2565854    472.03889  0.012144666  0.011716702         3727 
 3240000   0.74328841   -9.2395083     473.8434   0.01218733   0.01171138         3690 
 3241000   0.73999628   -9.2466595    472.82028  0.012157263  0.011706063         3716 
 3242000   0.74274205   -9.2319619     472.9796  0.012157608  0.011700748         3738 
 3243000   0.72007571   -9.2491499    472.31554  0.012136796   0.01169544         3749 
 3244000    0.7384557   -9.2425184    472.77247  0.012144792   0.01169013         3716 
 3245000    0.7312979   -9.2620593    471.95714  0.012120112  0.011684821         3766 
 3246000   0.72183545   -9.2241935     473.0649  0.012144817  0.011679513         3681 
 3247000   0.73895856   -9.2676896     472.6363  0.012130077  0.011674214         3729 
 3248000   0.72931562   -9.2400093    471.26695  0.012091209  0.011668911         3738 
 3249000    0.7263874   -9.2404011    473.01203  0.012132247  0.011663615         3714 
 3250000   0.73852693   -9.2536271    473.50911  0.012141259  0.011658323         3749 
 3251000   0.75334891   -9.2434581    474.48664  0.012162582   0.01165303         3671 
 3252000   0.70870606   -9.2618214    472.34702  0.012104014  0.011647743         3791 
 3253000   0.72838035   -9.2654729    473.01369  0.012117371  0.011642457         3706 
 3254000   0.74770069   -9.2456045      472.128  0.012090965  0.011637177         3722 
 3255000   0.72704261   -9.2553636    472.31097  0.012091935    0.0116319         3750 
 3256000   0.73148606   -9.2349399    473.06488  0.012107516  0.011626626         3708 
 3257000    0.7317831   -9.2048554    472.76447  0.012096113  0.011621356         3737 
 3258000   0.73730585   -9.2538891    473.69902  0.012116304   0.01161609         3669 
 3259000   0.74011226   -9.2552389     473.1722  0.012099115  0.011610818         3724 
 3260000   0.72235699   -9.2334919    472.95165  0.012089766  0.011605551         3690 
 3261000   0.73176447   -9.2310136    472.99964  0.012087285  0.011600288         3694 
 3262000   0.74952958   -9.2844712    471.95662  0.012056934  0.011595026         3695 
 3263000    0.7220323   -9.2575298    472.77516  0.012074143  0.011589768         3740 
 3264000   0.73906746   -9.2584064    472.55452  0.012064811  0.011584521         3736 
 3265000   0.70762548   -9.2539827    472.34865  0.012055861  0.011579267         3706 
 3266000   0.72014584    -9.254151    473.12201  0.012071903  0.011574022         3766 
 3267000   0.72281242   -9.2528902    472.69322   0.01205727  0.011568776         3734 
 3268000   0.74520026   -9.2593229    473.33771  0.012070015  0.011563537         3692 
 3269000     0.702945   -9.2777809     473.1165  0.012060684  0.011558297         3717 
 3270000   0.73012713   -9.2341994    473.02027  0.012054543  0.011553063         3726 
 3271000   0.74014084   -9.2273186    473.17697   0.01205485  0.011547831         3719 
 3272000   0.72718026   -9.2465524    472.71656   0.01203944  0.011542601         3711 
 3273000   0.71939223   -9.2733115    472.90531  0.012040567  0.011537376         3717 
 3274000   0.73571087    -9.261302     472.6704   0.01203091  0.011532151         3720 
 3275000   0.72460548   -9.2678728    472.86415  0.012032167  0.011526927         3726 
 3276000   0.73557113   -9.2539496    473.38702  0.012041794  0.011521715         3711 
 3277000   0.72595559   -9.2313345    473.77135  0.012047893  0.011516498         3712 
 3278000   0.71549255   -9.2550542    472.22803  0.012004984  0.011511288         3721 
 3279000   0.71222697   -9.2474382     472.9897  0.012020679   0.01150608         3748 
 3280000   0.71569977   -9.2217915    472.94999  0.012016006  0.011500873         3727 
 3281000   0.72604861   -9.2378748    473.18173  0.012018229  0.011495669         3747 
 3282000   0.72537894   -9.2498016    472.60562   0.01199994  0.011490467         3700 
 3283000   0.73972506   -9.2372799    473.25143  0.012012677  0.011485269         3766 
 3284000   0.72206406   -9.2276495    472.30873  0.011985098  0.011480074         3728 
 3285000   0.74996411   -9.2430549    472.35592  0.011982646  0.011474878         3658 
 3286000   0.72484592   -9.2439566    472.27618  0.011976978  0.011469688         3726 
 3287000   0.72797996   -9.2508042    473.11868  0.011994693  0.011464504         3743 
 3288000   0.72668595   -9.2569722    473.15104  0.011991865   0.01145932         3700 
 3289000   0.73312948   -9.2578368    473.15061  0.011988208  0.011454142         3700 
 3290000   0.72574091    -9.276106    472.20141  0.011960522   0.01144896         3749 
 3291000   0.72483104    -9.253358    473.03588  0.011978018  0.011443784         3688 
 3292000   0.72892391    -9.265816    473.13281  0.011976833  0.011438612         3742 
 3293000   0.72617474   -9.2715046    472.77218   0.01196407  0.011433443         3767 
 3294000   0.72128734     -9.23818    472.60457  0.011956197   0.01142828         3704 
 3295000   0.72228987   -9.2498869    473.11978  0.011965599  0.011423117         3731 
 3296000   0.72069558   -9.2583191    472.74312  0.011952445  0.011417953         3735 
 3297000   0.72236768   -9.2254178    473.23385  0.011961224  0.011412794         3706 
 3298000   0.72128867   -9.2614294    472.70752  0.011944298  0.011407644         3749 
 3299000   0.71267226   -9.2501069    473.18972  0.011952857  0.011402493         3729 
 3300000   0.72534854   -9.2621322    473.06828  0.011946169  0.011397344         3705 
 3301000   0.72092315   -9.2582784      472.439  0.011926664  0.011392197         3747 
 3302000   0.72888958   -9.2679516    472.27777  0.011918983  0.011387051         3720 
 3303000   0.71802176   -9.2496677    473.64315  0.011949822  0.011381903         3714 
 3304000   0.71412232   -9.2082864    473.02274  0.011930557  0.011376771         3669 
 3305000   0.72917762   -9.2702335    472.82985  0.011922084  0.011371638         3686 
 3306000   0.72970055   -9.2440995    472.56359  0.011911766  0.011366505         3740 
 3307000   0.71719138   -9.2493417    473.62276  0.011934854  0.011361375         3696 
 3308000   0.71442124   -9.2832307    473.43141  0.011926426  0.011356252         3674 
 3309000   0.70730809   -9.2546605    472.29733  0.011894261  0.011351124         3721 
 3310000   0.72100869   -9.2824434     472.3947  0.011893119  0.011345995         3716 
 3311000   0.71011074   -9.2613045    473.17615  0.011909195  0.011340877         3720 
 3312000   0.72799987   -9.2536424      473.673  0.011918101  0.011335756         3730 
 3313000   0.69676111    -9.297808    472.40006  0.011882485  0.011330634         3700 
 3314000   0.70658125   -9.2851041      472.927  0.011892149  0.011325516         3730 
 3315000   0.72340155    -9.250337    473.06572  0.011892049  0.011320403         3724 
 3316000   0.72678267   -9.2712009    471.96061  0.011860691  0.011315287         3697 
 3317000   0.71746159   -9.2859811    472.05279  0.011859431  0.011310181         3743 
 3318000   0.71629756   -9.2816734    471.73846  0.011847962  0.011305077         3701 
 3319000   0.72145513   -9.2626887    471.71329   0.01184376  0.011299969         3702 
 3320000   0.71997672   -9.2848073    472.50745  0.011860127  0.011294875         3676 
 3321000   0.71283812   -9.2873158    472.85143  0.011865187  0.011289779         3699 
 3322000   0.71350118   -9.2671086     472.6627  0.011856881  0.011284685         3699 
 3323000   0.71298145   -9.2585767    473.41424   0.01187216  0.011279594         3714 
 3324000   0.73949395   -9.2757661    473.20423  0.011863323  0.011274512         3688 
 3325000   0.71129087   -9.2907506     472.4775  0.011841541  0.011269428         3715 
 3326000   0.72204921   -9.2670498    472.16771  0.011830219  0.011264347         3744 
 3327000   0.72906491   -9.2464523    472.53598  0.011835888  0.011259268         3667 
 3328000   0.70282648   -9.2955475    472.08348  0.011821001  0.011254195         3714 
 3329000   0.70878847   -9.2713493    472.94796   0.01183909   0.01124912         3707 
 3330000   0.70227618   -9.2737856    472.14789  0.011815513  0.011244051         3724 
 3331000   0.72371316   -9.2602374    471.75326  0.011802093  0.011238983         3700 
 3332000   0.72233084   -9.2773713    471.81627  0.011800127  0.011233919         3707 
 3333000   0.72202134   -9.2746961    472.08913  0.011803408  0.011228856         3720 
 3334000   0.72230851   -9.2751994    472.73396  0.011815986  0.011223796         3698 
 3335000    0.7156175   -9.2768501    472.22599   0.01179975  0.011218737         3681 
 3336000   0.72606524   -9.2722207    472.07583  0.011792462  0.011213683         3747 
 3337000   0.71943631   -9.2818047    471.99232  0.011786842  0.011208636         3707 
 3338000   0.72471767   -9.2837122     472.7292  0.011801708  0.011203583         3689 
 3339000   0.71114539   -9.2887943    472.27578  0.011786857  0.011198533         3685 
 3340000   0.73386348   -9.2820797    472.36171  0.011785472  0.011193493         3736 
 3341000   0.72393319   -9.2812089     472.3087  0.011780622  0.011188448         3691 
 3342000   0.71475315   -9.2904773    471.92282  0.011767475  0.011183409         3715 
 3343000   0.72482092   -9.2965781    472.34206  0.011774406  0.011178371         3719 
 3344000   0.71175125   -9.2639828    472.40472  0.011772446  0.011173346         3716 
 3345000   0.71744191   -9.2836385    472.40838  0.011769018  0.011168314         3700 
 3346000   0.71978299   -9.2757239    472.30042  0.011762812  0.011163291         3712 
 3347000   0.71071708   -9.2843899    472.44098  0.011762797  0.011158263         3724 
 3348000   0.71514402   -9.2967592    472.63589  0.011764135  0.011153241         3727 
 3349000   0.70951156    -9.293375    472.83366  0.011765544  0.011148224         3665 
 3350000   0.71971459   -9.2795731    472.17806  0.011745723  0.011143206         3713 
 3351000   0.70529891   -9.2954067    471.95595  0.011736694  0.011138193         3729 
 3352000   0.72271857     -9.26388    473.09812  0.011761588  0.011133191         3688 
 3353000   0.71635514   -9.2536617    472.68694  0.011747861  0.011128184         3692 
 3354000   0.71870162   -9.2806084    472.12252  0.011730335   0.01112318         3750 
 3355000   0.71060617   -9.2636797    472.41937  0.011734212  0.011118176         3741 
 3356000   0.71602546   -9.2748139    472.12239  0.011723341  0.011113179         3713 
 3357000   0.70950353   -9.2773851    472.62512  0.011732328   0.01110818         3697 
 3358000   0.72310349   -9.2565595     473.0948   0.01174049  0.011103189         3690 
 3359000   0.70320197   -9.2608716    473.28425  0.011741695  0.011098197         3724 
 3360000   0.72476391   -9.2877807    472.82325  0.011726767  0.011093205         3711 
 3361000    0.7227655   -9.2796997    472.15776  0.011706778  0.011088219         3693 
 3362000   0.70283405   -9.2539208     472.0134  0.011699717   0.01108323         3731 
 3363000   0.72164021   -9.2771689    472.32723  0.011704015  0.011078245         3707 
 3364000    0.7250517   -9.2698477    472.33459  0.011700718  0.011073263         3720 
 3365000    0.7116094    -9.287194    471.91455  0.011686839   0.01106829         3712 
 3366000   0.72593617   -9.2778596    472.69988   0.01170281  0.011063311         3715 
 3367000   0.70771576    -9.265497    473.18919  0.011711444  0.011058339         3720 
 3368000   0.71900371   -9.2733678    471.97662  0.011677965  0.011053372         3671 
 3369000   0.71268113   -9.2876427    471.47585  0.011662112  0.011048407         3745 
 3370000   0.70959032   -9.2819219    472.48208  0.011683533  0.011043445         3720 
 3371000   0.70776891     -9.27944    471.83325  0.011664028  0.011038488         3725 
 3372000   0.71168905   -9.2951472    472.08269  0.011666733  0.011033532         3691 
 3373000   0.69567441   -9.2816829    471.88715  0.011658443  0.011028581         3721 
 3374000   0.71059809   -9.2854536    472.49469  0.011669993   0.01102363         3713 
 3375000   0.70805812   -9.2871649     471.6277  0.011645128  0.011018684         3699 
 3376000   0.72071149   -9.2699605    471.84341  0.011647004   0.01101374         3724 
 3377000   0.69306151   -9.2818724    472.21028  0.011652608  0.011008798         3709 
 3378000     0.705204   -9.2840376    472.29433  0.011651232   0.01100386         3763 
 3379000   0.71242426   -9.2932976    472.44493  0.011651498  0.010998927         3703 
 3380000   0.71053224   -9.2854265    471.60749  0.011627404   0.01099399         3729 
 3381000   0.71951794   -9.2679692    472.52238  0.011646514  0.010989055         3709 
 3382000   0.70497726   -9.2890579    472.42712  0.011640724  0.010984129         3733 
 3383000   0.69831225    -9.277999    472.20421  0.011631792    0.0109792         3705 
 3384000   0.72022185   -9.3002088    472.46691  0.011634823  0.010974279         3710 
 3385000   0.71507419   -9.2823937    472.57872  0.011634139  0.010969359         3733 
 3386000   0.70875398   -9.2796201    472.62155  0.011631757  0.010964445         3710 
 3387000    0.7151153   -9.2931138    472.17247  0.011617274  0.010959527         3717 
 3388000   0.72339472    -9.291829    471.99599  0.011609504  0.010954616         3701 
 3389000     0.715955   -9.2944921    471.70301  0.011598874  0.010949704         3749 
 3390000   0.71139447   -9.3030834    471.98238   0.01160232    0.0109448         3728 
 3391000   0.71380552   -9.2987518    471.52265  0.011587601  0.010939896         3712 
 3392000   0.70156511    -9.288387    471.80599  0.011591146   0.01093499         3759 
 3393000   0.70990984   -9.3217432    472.16861  0.011596636  0.010930086         3770 
 3394000   0.70691529   -9.2821136     472.2193  0.011594463  0.010925183         3672 
 3395000   0.70967068   -9.3091501    471.60494  0.011575968  0.010920285         3715 
 3396000   0.71116495    -9.296094    473.15482  0.011610591  0.010915394         3717 
 3397000   0.70726825   -9.2886817    472.61744  0.011593991  0.010910503         3699 
 3398000   0.70367808   -9.2826523    471.36334  0.011559823  0.010905617         3719 
 3399000   0.70846832   -9.2961222    471.98848  0.011571748   0.01090073         3726 
 3400000   0.71040177   -9.3079435    471.64979  0.011560044  0.010895844         3751 
 3401000   0.70320009   -9.2916509    472.94056  0.011588272  0.010890967         3758 
 3402000   0.70954605   -9.3114991    472.76047  0.011580454   0.01088609         3741 
 3403000   0.70835069   -9.2860757    471.62673  0.011549288   0.01088122         3734 
 3404000   0.70754861   -9.2911983    471.87533  0.011551981  0.010876349         3754 
 3405000   0.70110307   -9.2973947    471.73615  0.011545182  0.010871477         3762 
 3406000   0.71299987   -9.2942996    471.90956  0.011546035  0.010866609         3732 
 3407000   0.69015411   -9.3150607    472.14308  0.011548358  0.010861744         3737 
 3408000    0.7121725   -9.2982042    471.88062  0.011538552  0.010856885         3743 
 3409000   0.71112894    -9.277344    471.88776  0.011535342  0.010852025         3742 
 3410000   0.70825691    -9.296906    472.17661  0.011539018  0.010847172         3782 
 3411000    0.7088667   -9.2806154    472.04389  0.011532392  0.010842321         3772 
 3412000    0.7132189   -9.3021007    472.42264  0.011538263  0.010837473         3726 
 3413000   0.70796041   -9.3063189    472.93815  0.011547469  0.010832629         3701 
 3414000   0.71080515   -9.3018046    471.33651  0.011504992  0.010827782         3752 
 3415000   0.70585424    -9.282939    471.29936  0.011500716  0.010822936         3749 
 3416000   0.69947549   -9.2958903    471.92147  0.011512526  0.010818092         3755 
 3417000   0.70134682   -9.2868381    472.41515  0.011521197  0.010813256         3718 
 3418000   0.72189551    -9.288488    471.78943  0.011502571  0.010808425         3746 
 3419000   0.70134034   -9.2943064    470.74766  0.011473815  0.010803589         3788 
 3420000   0.71038049   -9.3093309    471.51738  0.011489215  0.010798763         3754 
 3421000   0.70340325     -9.27531    472.08999  0.011499805  0.010793939         3703 
 3422000   0.72354961   -9.3097618    470.93651  0.011468355  0.010789114         3754 
 3423000   0.70820947    -9.316363    471.20108  0.011471445    0.0107843         3724 
 3424000   0.70442284   -9.2974808    471.74001  0.011481211  0.010779478         3735 
 3425000   0.70988801   -9.3141598    471.52917  0.011472729  0.010774665         3734 
 3426000    0.7251544   -9.3029015    471.48332  0.011468265  0.010769854         3718 
 3427000   0.70076955   -9.2961202    471.59359    0.0114676  0.010765049         3729 
 3428000   0.71406671   -9.2758839    471.51349  0.011462308  0.010760245         3737 
 3429000   0.70694713   -9.2872591    472.51277   0.01148325  0.010755442         3726 
 3430000   0.71456278   -9.3063698    472.22067  0.011472805  0.010750641         3696 
 3431000   0.71073178   -9.2954499    471.90751  0.011461855  0.010745843         3714 
 3432000   0.69918007   -9.2949931    471.91788  0.011458767  0.010741046         3710 
 3433000    0.6944313   -9.2938492    472.15818  0.011461263  0.010736252         3750 
 3434000   0.71448747   -9.2951415    471.04122   0.01143082  0.010731458         3730 
 3435000   0.68195784   -9.3069577    471.21034  0.011431595  0.010726669         3788 
 3436000   0.70510466   -9.2998954    471.87318  0.011444344  0.010721879         3729 
 3437000   0.71906425   -9.2947291    471.75952  0.011438258  0.010717093         3773 
 3438000   0.70697127    -9.279055    472.66649  0.011456915  0.010712308         3755 
 3439000   0.70765457   -9.3238484    471.62021   0.01142823  0.010707526         3766 
 3440000   0.69612392   -9.3266882    471.69705   0.01142677  0.010702746         3757 
 3441000    0.7002474   -9.3006546    471.85043  0.011427163   0.01069797         3761 
 3442000   0.71792153   -9.2963035    472.40458   0.01143726  0.010693196         3716 
 3443000   0.69377704   -9.3094119    471.59258  0.011414284  0.010688429         3771 
 3444000   0.71090718   -9.3186655    471.75603  0.011414925  0.010683664         3764 
 3445000   0.71498344   -9.3187528     471.3617  0.011402073  0.010678895         3743 
 3446000   0.69851305   -9.3254024    471.30247  0.011397332  0.010674128         3767 
 3447000   0.69536773   -9.2953128    471.75105   0.01140487  0.010669368         3741 
 3448000   0.69341502   -9.3197424    471.79901  0.011402722  0.010664614         3755 
 3449000   0.70519603    -9.316798    471.64822  0.011395772  0.010659866         3763 
 3450000   0.69438433   -9.3274026    471.70326  0.011393798  0.010655117         3736 
 3451000   0.69020534   -9.3025568    472.29577  0.011404805  0.010650367         3764 
 3452000   0.69363635   -9.3298167    471.01086  0.011370482  0.010645617         3748 
 3453000   0.68723348    -9.309254    471.16789  0.011370979  0.010640875         3743 
 3454000   0.70307183   -9.3077684    471.32125  0.011371387  0.010636131         3703 
 3455000    0.7129511   -9.3120449    470.85509  0.011356852  0.010631394         3743 
 3456000   0.68124185   -9.3183868    471.18394  0.011361496  0.010626652         3754 
 3457000   0.69257002   -9.2940342    471.91334  0.011375792  0.010621918         3721 
 3458000    0.6969762   -9.3081362    472.01294  0.011374902  0.010617185         3746 
 3459000   0.68383569   -9.3171444    470.95749  0.011346186   0.01061246         3762 
 3460000   0.69681647   -9.2994889    471.66234  0.011359883   0.01060773         3729 
 3461000     0.707229   -9.3258136    470.90508  0.011338368  0.010603009         3779 
 3462000   0.69757994   -9.3141241    471.43525  0.011347854  0.010598291         3762 
 3463000   0.68157967   -9.3191558    471.36858  0.011342973  0.010593576         3764 
 3464000   0.69571943   -9.3195371     472.2755  0.011361516  0.010588862         3753 
 3465000   0.69474827   -9.3115614    471.76227  0.011345894  0.010584148         3794 
 3466000    0.6969028   -9.3097538    471.07649  0.011326132  0.010579441         3730 
 3467000   0.70824316   -9.3141989    471.21358   0.01132616  0.010574735         3726 
 3468000   0.70357344   -9.3087054    472.00571  0.011341929  0.010570035         3755 
 3469000   0.69726162   -9.3254117    471.39023  0.011323874  0.010565335         3723 
 3470000   0.69218869   -9.2951167    471.19202  0.011315851  0.010560636         3754 
 3471000   0.69980804   -9.3151399    472.35406  0.011340489  0.010555938         3762 
 3472000   0.67042473   -9.2849422    470.93697  0.011303211  0.010551242         3724 
 3473000   0.70166461   -9.3176187    472.31164  0.011332941  0.010546554         3751 
 3474000   0.70341178   -9.2971494    471.66159  0.011314085  0.010541865         3734 
 3475000   0.67303921   -9.3292203     471.5545  0.011308261  0.010537178         3777 
 3476000   0.67640664   -9.3393284    471.01545  0.011292085  0.010532493         3755 
 3477000   0.68734211   -9.3219192    471.77846  0.011307125  0.010527809         3733 
 3478000   0.69223618   -9.3078328    471.33238  0.011293185  0.010523135         3714 
 3479000   0.69412226   -9.3051068    471.69023  0.011298511  0.010518462         3741 
 3480000   0.70730858   -9.3368663    471.62376  0.011293672   0.01051379         3783 
 3481000   0.69003349   -9.2919969    471.31804  0.011283109  0.010509115         3768 
 3482000   0.68866713   -9.3053301    471.69997  0.011289009  0.010504447         3775 
 3483000   0.68352919   -9.2928043    471.55745  0.011282358  0.010499782         3784 
 3484000   0.69267664   -9.3126642    471.81151  0.011285197  0.010495114         3744 
 3485000   0.68519387   -9.3189678    471.42478  0.011272711  0.010490452         3724 
 3486000    0.6919994   -9.3081961    471.73075  0.011276792  0.010485798         3760 
 3487000   0.69952577   -9.3161965    471.66311  0.011271941  0.010481141         3718 
 3488000   0.68712574   -9.2945902    472.33006  0.011284644  0.010476488         3749 
 3489000   0.69712265   -9.3219468    471.37302  0.011258551   0.01047184         3743 
 3490000   0.69762415     -9.33505    470.67536  0.011238667  0.010467194         3729 
 3491000   0.69747534    -9.333654    471.11162  0.011245861  0.010462551         3734 
 3492000   0.70433471   -9.3292558    471.26583  0.011246321  0.010457909         3773 
 3493000   0.69523876   -9.2928908    471.50876  0.011248897  0.010453266         3722 
 3494000   0.68671844   -9.3146616    471.62714  0.011248501  0.010448629         3735 
 3495000    0.7029202   -9.3059657    472.02842   0.01125485  0.010443995         3767 
 3496000   0.69298305   -9.3265007    470.63725   0.01121847  0.010439363         3796 
 3497000   0.69010415   -9.3420745    471.70817  0.011240782  0.010434732         3748 
 3498000   0.69808935   -9.3234514    471.97711  0.011243975  0.010430106         3767 
 3499000   0.68367273   -9.3301699    470.45069  0.011204408   0.01042548         3731 
 3500000   0.68729092    -9.343327    471.29269  0.011221255  0.010420854         3767 
 3501000   0.70452065   -9.3307204    471.54362  0.011224022  0.010416229         3758 
 3502000   0.69414845   -9.3282042    471.59786  0.011222108  0.010411607         3729 
 3503000   0.69730608    -9.329325    471.41978  0.011214668  0.010406983         3790 
 3504000   0.69960931   -9.3114589    471.91013  0.011223129   0.01040237         3794 
 3505000   0.68604952   -9.3466226    470.96025  0.011197343  0.010397754         3757 
 3506000   0.69881787   -9.3207188    471.48318  0.011206579  0.010393151         3754 
 3507000    0.6896588   -9.3522128    470.35053  0.011176469  0.010388538         3762 
 3508000   0.68578763   -9.3229093    470.02756  0.011165611  0.010383931         3748 
 3509000   0.70282026   -9.3347134    471.01159  0.011185798  0.010379329         3713 
 3510000   0.70159007   -9.3373612     471.0952  0.011184596  0.010374732         3755 
 3511000   0.69061451   -9.3229912    471.19383  0.011183752  0.010370133         3746 
 3512000   0.67894697    -9.326003    471.86549  0.011196505  0.010365543         3756 
 3513000    0.6875312   -9.3230536    470.88724  0.011170112  0.010360952         3770 
 3514000   0.68777589   -9.3338499    470.83568   0.01116571  0.010356361         3761 
 3515000    0.6889105   -9.3389733    470.83711  0.011162568  0.010351771         3764 
 3516000   0.67872579   -9.3275996    471.22823  0.011168663  0.010347184         3732 
 3517000   0.68685094   -9.3219623     470.3019  0.011143539  0.010342602         3731 
 3518000   0.68355225    -9.329295    471.38927  0.011166128  0.010338017         3766 
 3519000   0.69620848   -9.3473447    471.33243  0.011161609  0.010333442         3761 
 3520000   0.69120399   -9.3377452    471.73936  0.011168072  0.010328864         3689 
 3521000   0.68574072   -9.3470637    471.03717  0.011148281  0.010324288         3784 
 3522000   0.68480222   -9.3382591    471.04335  0.011145262  0.010319718         3768 
 3523000   0.68558634   -9.3121525     471.6711  0.011156947  0.010315149         3760 
 3524000   0.69740765   -9.3420206     471.7246  0.011155046  0.010310578         3755 
 3525000   0.66928531   -9.2990496    471.13538  0.011137952  0.010306013         3730 
 3526000     0.685722   -9.3227829    472.66791  0.011171013  0.010301454         3709 
 3527000   0.68843885   -9.3156579    471.67423  0.011144368    0.0102969         3775 
 3528000   0.68025258   -9.3510982    471.00096  0.011125306  0.010292343         3742 
 3529000   0.68599145    -9.337217    471.26386  0.011128362  0.010287793         3747 
 3530000   0.68269351   -9.3160188    470.66835  0.011111151  0.010283244         3742 
 3531000    0.6864708   -9.3424456    470.95432  0.011114753  0.010278691         3768 
 3532000   0.67696114   -9.3322322    471.71509  0.011129556  0.010274145         3766 
 3533000     0.700087   -9.3436311    471.19405  0.011114116  0.010269597         3776 
 3534000   0.69666315   -9.3309793    471.64933  0.011121707  0.010265057         3782 
 3535000    0.6966903   -9.3484683    470.62473  0.011094407  0.010260521         3786 
 3536000   0.68357876   -9.3241607    472.38867   0.01113284  0.010255992         3745 
 3537000   0.70728877   -9.3361984    471.19026  0.011101457   0.01025146         3740 
 3538000   0.68523518   -9.3343805    471.49945  0.011105602   0.01024693         3746 
 3539000   0.68117356   -9.3320008    472.30843  0.011121513  0.010242399         3773 
 3540000   0.67871903   -9.3312565    471.03611  0.011088421  0.010237875         3766 
 3541000   0.69140233   -9.3387447    470.41234  0.011070609  0.010233353         3750 
 3542000   0.67189932   -9.3733038    470.74924   0.01107541  0.010228832         3787 
 3543000   0.69940079   -9.3390135    471.02856  0.011078854  0.010224313         3697 
 3544000    0.6974951   -9.3310478    471.55077  0.011088007  0.010219799         3731 
 3545000   0.69504347   -9.3330539    470.10389  0.011050867  0.010215289         3749 
 3546000   0.66220537   -9.3252617    471.74151  0.011086236  0.010210775         3777 
 3547000   0.67801288   -9.3421337    470.62332   0.01105684  0.010206267         3766 
 3548000   0.67578516   -9.3375791    471.19514  0.011067154   0.01020176         3789 
 3549000   0.67909494   -9.3284907    471.22038  0.011064628   0.01019726         3775 
 3550000   0.69048298   -9.3257676    471.51088  0.011068331  0.010192764         3781 
 3551000   0.68480416   -9.3351436    470.93268  0.011051645  0.010188264         3731 
 3552000   0.68689397    -9.334628    471.26536  0.011056338   0.01018377         3771 
 3553000    0.6838953   -9.3487442     470.7117  0.011040241  0.010179277         3754 
 3554000   0.67899011   -9.3309355    470.89095  0.011041337  0.010174783         3739 
 3555000   0.69447858   -9.3530487    471.06631  0.011042342  0.010170293         3793 
 3556000   0.68501145   -9.3353306    470.73859  0.011031557  0.010165806         3780 
 3557000   0.68089747   -9.3376905    469.96176  0.011010256  0.010161319         3718 
 3558000   0.68053188   -9.3416696    471.78462  0.011049855  0.010156839         3743 
 3559000    0.6908741   -9.3363782    471.45159  0.011038953  0.010152361         3749 
 3560000   0.68622069   -9.3142325    470.79275   0.01102043  0.010147883         3755 
 3561000   0.66403629   -9.3170155    470.99371  0.011022038  0.010143409         3759 
 3562000   0.67818591   -9.3330989    471.11688  0.011021825  0.010138942         3738 
 3563000   0.68749105      -9.3449    470.55458   0.01100558  0.010134476         3760 
 3564000   0.67774182   -9.3477916    470.98394  0.011012531  0.010130015         3737 
 3565000   0.66944769   -9.3431488    470.51682  0.010998523  0.010125558         3752 
 3566000    0.6816552    -9.365444    470.77054  0.011001368  0.010121095         3765 
 3567000   0.67494955   -9.3477273    471.54034  0.011016268  0.010116638         3797 
 3568000   0.66156251   -9.3476213    470.97035  0.010999868   0.01011218         3719 
 3569000   0.69049881   -9.3568037    470.48894  0.010985546   0.01010773         3798 
 3570000   0.68301811    -9.347355    469.51057  0.010959631  0.010103279         3731 
 3571000   0.68412878    -9.355378    470.74862  0.010985453  0.010098834         3730 
 3572000   0.68612085   -9.3576405    470.82005  0.010984044  0.010094389         3761 
 3573000   0.66674413   -9.3440979    470.06266  0.010963305  0.010089946         3783 
 3574000   0.66882287   -9.3328883     470.8861  0.010979437  0.010085505         3745 
 3575000   0.67689328     -9.34227    470.85751    0.0109757  0.010081067         3756 
 3576000   0.67948558    -9.340874    470.94572  0.010974686   0.01007663         3790 
 3577000   0.67492537   -9.3193407    470.96319  0.010972025  0.010072197         3764 
 3578000   0.67881247   -9.3521091    470.60708  0.010960664  0.010067768         3811 
 3579000   0.67881977     -9.34991      470.877  0.010963887  0.010063343         3775 
 3580000   0.67643171   -9.3559874    470.84116   0.01095999  0.010058924         3733 
 3581000   0.67944489   -9.3433531    470.43476  0.010947472  0.010054501         3765 
 3582000    0.6715264    -9.369187    470.50691  0.010946094  0.010050084         3771 
 3583000   0.68753463    -9.366373    470.36711  0.010939788  0.010045665         3756 
 3584000   0.68051901    -9.347165     471.1615  0.010955206   0.01004125         3790 
 3585000   0.68462756   -9.3774688    471.29105  0.010955162   0.01003684         3784 
 3586000   0.67467088   -9.3577704    470.70303  0.010938442  0.010032431         3775 
 3587000   0.68649464   -9.3545747    471.21371  0.010947256  0.010028024         3788 
 3588000   0.68042852   -9.3510169     470.0568  0.010917335  0.010023616         3748 
 3589000   0.67733819   -9.3710397    470.31995  0.010920404  0.010019212         3782 
 3590000   0.67065369   -9.3361053    470.12641  0.010912869  0.010014815         3791 
 3591000   0.67619862   -9.3429574    470.33774  0.010914735  0.010010414         3753 
 3592000   0.68010254   -9.3681903    470.52204  0.010915972  0.010006019         3758 
 3593000   0.68235234   -9.3441633    471.01253   0.01092431  0.010001625         3741 
 3594000   0.66702503   -9.3663426     470.5089  0.010909592 0.0099972317         3795 
 3595000   0.67666169   -9.3472173    470.65465  0.010909936 0.0099928445         3776 
 3596000   0.66566293   -9.3634149      470.695  0.010907837 0.0099884567         3764 
 3597000    0.6731929   -9.3352541    470.88926  0.010909305 0.0099840705         3757 
 3598000   0.68865316    -9.330171    470.88831  0.010906251   0.00997969         3788 
 3599000    0.6769715   -9.3433277    470.21514  0.010887634 0.0099753128         3759 
 3600000   0.69237827   -9.3548575    471.16613  0.010906623 0.0099709379         3751 
 3601000   0.67674247   -9.3782241    470.57007  0.010889801 0.0099665675         3768 
 3602000   0.67938648   -9.3428567    470.91417  0.010894738 0.0099621947         3723 
 3603000    0.6724595   -9.3419353    470.98351  0.010893318 0.0099578274         3749 
 3604000    0.6688295   -9.3253209    471.16164  0.010894414 0.0099534612         3772 
 3605000   0.68431143   -9.3743153    470.31459  0.010871812 0.0099491011         3792 
 3606000    0.6835821   -9.3627631    470.54422  0.010874104 0.0099447401         3789 
 3607000   0.68659876   -9.3398372    470.77095  0.010876327  0.009940385         3792 
 3608000   0.66482497   -9.3804253    470.45256  0.010865959 0.0099360261         3800 
 3609000   0.67039924   -9.3547613    470.42483  0.010862308 0.0099316732         3745 
 3610000    0.6844612   -9.3499996    471.56614  0.010885645 0.0099273223         3788 
 3611000   0.69796322   -9.3521584    470.31293  0.010853709 0.0099229738         3787 
 3612000   0.68167011   -9.3565754    470.20008  0.010848101  0.009918627         3789 
 3613000   0.66869594   -9.3638758    470.89559   0.01086114 0.0099142798         3785 
 3614000   0.65951369   -9.3613796    470.22399  0.010842649 0.0099099363         3771 
 3615000   0.65903152   -9.3740109    471.36215  0.010865886 0.0099056004         3765 
 3616000   0.69751045   -9.3500568     469.8999  0.010829183 0.0099012593         3765 
 3617000   0.65277265   -9.3537133    470.07958  0.010830329 0.0098969259         3722 
 3618000   0.65793105   -9.3345947    470.46209  0.010836146 0.0098925945         3776 
 3619000   0.67054776   -9.3839908    471.24521  0.010851184 0.0098882604         3784 
 3620000   0.67837618   -9.3510226    471.15576  0.010846127 0.0098839349         3756 
 3621000   0.65391034   -9.3620692    470.24336  0.010822134 0.0098796056         3791 
 3622000   0.66587618    -9.361634    470.25408  0.010819393 0.0098752815         3796 
 3623000   0.67110944   -9.3739168    469.57833  0.010800863 0.0098709625         3778 
 3624000   0.67344063   -9.3522296    469.84864  0.010804099 0.0098666442         3781 
 3625000   0.67540648   -9.3613936    469.85384  0.010801238   0.00986233         3777 
 3626000   0.68021666   -9.3648303    470.59934  0.010815392 0.0098580181         3782 
 3627000   0.67018547   -9.3825796    470.75666  0.010816025 0.0098537033         3793 
 3628000   0.66969862   -9.3823571    469.99921  0.010795645  0.009849393         3795 
 3629000   0.66713846   -9.3873318    470.92429  0.010813913 0.0098450833         3776 
 3630000   0.68441889   -9.3682919    470.27158   0.01079595 0.0098407768         3801 
 3631000   0.65220019   -9.3778108     469.6514  0.010778743  0.009836467         3769 
 3632000   0.66566157   -9.3532539    469.94314  0.010782469 0.0098321637         3767 
 3633000   0.66958633   -9.3889959    471.27318   0.01081001  0.009827866         3741 
 3634000   0.65076539   -9.3665676    470.99766  0.010800717 0.0098235681         3731 
 3635000   0.65898316   -9.3546164    470.50128  0.010786366 0.0098192754         3787 
 3636000   0.67201445   -9.3735482    469.99278  0.010771745 0.0098149828         3759 
 3637000   0.66580388   -9.3372584    470.66043  0.010784081 0.0098106944         3766 
 3638000   0.67007355   -9.3658623     469.8192  0.010761847 0.0098064056         3766 
 3639000   0.67671641   -9.3606005    470.73975   0.01077997 0.0098021263         3775 
 3640000    0.6724179   -9.3523206    470.15398  0.010763598 0.0097978439         3785 
 3641000   0.66350609   -9.3702996    469.85544  0.010753809 0.0097935668         3744 
 3642000    0.6682254   -9.3677517      470.433  0.010764072 0.0097892888         3768 
 3643000   0.66832845   -9.3881016    469.75478  0.010745603 0.0097850126         3784 
 3644000   0.66767619    -9.370869    470.41261  0.010757698 0.0097807393         3815 
 3645000   0.65917935   -9.3791523    470.32035  0.010752637 0.0097764692         3770 
 3646000   0.66874678   -9.3635433    469.35826  0.010727698 0.0097722007         3791 
 3647000   0.66197418   -9.3667028    470.59028  0.010752908 0.0097679362         3765 
 3648000   0.66216465   -9.3595134    470.09835  0.010738723 0.0097636686         3749 
 3649000   0.65568661    -9.354431    470.95979  0.010755453 0.0097594096         3760 
 3650000   0.65256516   -9.3702875    470.49063  0.010741795 0.0097551489         3742 
 3651000   0.66127113   -9.3797455    470.03813  0.010728525 0.0097508899         3772 
 3652000   0.66269001   -9.3716454    469.95859  0.010723772 0.0097466347         3809 
 3653000   0.66722377   -9.3606054    470.82154  0.010740522 0.0097423857         3780 
 3654000   0.66760441   -9.3677354    470.09753  0.010721071 0.0097381392         3794 
 3655000   0.67539657   -9.3686383     470.5539  0.010728543 0.0097338942         3800 
 3656000   0.67463109   -9.3917729    469.75756  0.010707457 0.0097296471         3780 
 3657000   0.66424849   -9.3583139    470.15194  0.010713516  0.009725403         3758 
 3658000   0.67132553   -9.3721073     470.0776  0.010708894 0.0097211605         3794 
 3659000   0.65556261   -9.3799405    469.81942  0.010700087 0.0097169251         3808 
 3660000   0.67803171   -9.3779472    470.46378  0.010711835 0.0097126885         3760 
 3661000   0.66575459   -9.3617966    470.09623  0.010700543 0.0097084545         3775 
 3662000   0.66407143   -9.3738922    469.86512  0.010692361 0.0097042203         3797 
 3663000   0.65890926   -9.3645958    470.48529  0.010703551  0.009699994         3776 
 3664000   0.66092423   -9.3816387    469.89884  0.010687292 0.0096957625         3806 
 3665000    0.6708552   -9.3658295    469.87893  0.010683923  0.009691536         3792 
 3666000   0.67393885   -9.3812967     470.1907  0.010688095 0.0096873147         3767 
 3667000   0.67046743   -9.3684807    469.03315  0.010658875  0.009683096         3801 
 3668000   0.66507886   -9.3880852      470.209  0.010682683  0.009678881         3776 
 3669000   0.65514541   -9.3943219     470.0385    0.0106759 0.0096746648         3782 
 3670000   0.67158634   -9.3772605    469.96775  0.010671384 0.0096704496         3781 
 3671000   0.67807548   -9.3769102    469.44903  0.010656702 0.0096662423         3765 
 3672000   0.65824411   -9.3454312    470.30624  0.010673253 0.0096620354         3781 
 3673000    0.6569095   -9.3417642    470.19159  0.010667746 0.0096578304         3757 
 3674000   0.65752819   -9.3732743    469.02785  0.010638447 0.0096536237         3763 
 3675000   0.65464725    -9.366914    470.23559  0.010662939 0.0096494235         3772 
 3676000   0.65279851   -9.3766614     470.5194  0.010666472 0.0096452216         3800 
 3677000   0.65922741    -9.387024    469.96076   0.01065091 0.0096410258         3785 
 3678000   0.65543318   -9.3942683    470.25048  0.010654579 0.0096368324         3782 
 3679000   0.66113025   -9.3741576    470.21505   0.01065088 0.0096326419         3739 
 3680000   0.66284675   -9.3773073    469.88718  0.010640561 0.0096284517         3790 
 3681000   0.67340039    -9.371938    469.49724  0.010628843 0.0096242645         3771 
 3682000   0.66477788   -9.3795451    469.84551  0.010633838  0.009620076         3771 
 3683000   0.66312738   -9.3918918    469.63276  0.010626137 0.0096158941         3751 
 3684000   0.67020585   -9.3827084    469.75593  0.010626039 0.0096117155         3769 
 3685000   0.67005693   -9.4071972    469.86506  0.010625623 0.0096075355         3817 
 3686000   0.66457183   -9.3911791    469.06256  0.010604598 0.0096033591         3826 
 3687000    0.6605084   -9.3746522    469.56931  0.010613175 0.0095991859         3785 
 3688000    0.6659697   -9.3787352    469.18624  0.010601641 0.0095950082         3799 
 3689000   0.67498177    -9.395438    469.16961  0.010598392 0.0095908378         3829 
 3690000     0.660789   -9.3763186    470.68788  0.010629808 0.0095866685         3789 
 3691000   0.66927142   -9.3773396    470.27387   0.01061758 0.0095824995         3789 
 3692000   0.65633872   -9.3915845    469.90425  0.010606362 0.0095783347         3792 
 3693000    0.6587681   -9.3936184    470.54291  0.010617901 0.0095741751         3779 
 3694000   0.66138715    -9.401819    469.69619  0.010595926 0.0095700161         3769 
 3695000   0.65669485    -9.369678    469.06508  0.010578824 0.0095658625         3799 
 3696000   0.66720614    -9.414201    469.85285  0.010593724 0.0095617086         3803 
 3697000   0.65529158   -9.3884684    470.41382  0.010603503 0.0095575552         3785 
 3698000   0.68240526    -9.381265    469.82762  0.010587426 0.0095534033         3809 
 3699000   0.66430994   -9.3807463    470.43244   0.01059819 0.0095492602         3774 
 3700000   0.66446832   -9.3740339    469.88132  0.010582913 0.0095451178         3780 
 3701000   0.64994923   -9.3679916    469.55035  0.010572601 0.0095409758         3777 
 3702000   0.67729542   -9.3712394    470.10346  0.010582196 0.0095368333         3779 
 3703000   0.67211066   -9.3870146    469.95063  0.010575899 0.0095326968         3798 
 3704000    0.6458225   -9.3938223    469.65709  0.010566439 0.0095285615         3791 
 3705000   0.66159819   -9.3989516    469.04216  0.010549756 0.0095244264         3815 
 3706000    0.6641049   -9.4085201    468.93196  0.010544431 0.0095202945         3784 
 3707000   0.66235476   -9.4138228    470.30477  0.010572448 0.0095161619         3819 
 3708000   0.66211389   -9.3835177    469.97717  0.010562234 0.0095120349         3811 
 3709000   0.65739305   -9.3850704    470.00109  0.010559924 0.0095079063         3793 
 3710000   0.65756894   -9.3947688    469.66818    0.0105496 0.0095037868         3802 
 3711000   0.65788325   -9.3717936    470.61076  0.010567923 0.0094996672         3790 
 3712000   0.65405108   -9.3961199    469.81354  0.010547179 0.0094955533         3763 
 3713000   0.64033882   -9.3851354    470.46281   0.01055891 0.0094914404         3844 
 3714000   0.66441232   -9.3880751    470.12377   0.01054846 0.0094873265         3783 
 3715000   0.63791653   -9.3841177    470.14972  0.010546203 0.0094832162         3773 
 3716000   0.66136763   -9.4055902    469.31769  0.010524706 0.0094791108         3814 
 3717000   0.64778206   -9.3944431    470.09769  0.010539362 0.0094750061         3794 
 3718000   0.65281662    -9.402091    470.15684  0.010537853 0.0094709038         3792 
 3719000   0.64862915   -9.3746524    470.12925  0.010534401 0.0094668003         3769 
 3720000   0.66151893   -9.3942375    469.96938  0.010527988 0.0094627024         3799 
 3721000   0.67081558   -9.3981384    470.10192  0.010528127 0.0094586057         3778 
 3722000   0.65741015   -9.4006623    468.93091   0.01049908 0.0094545087         3810 
 3723000   0.65356146   -9.3837876    469.55996   0.01051034 0.0094504146         3750 
 3724000   0.65587098   -9.4190978    469.05298  0.010496173 0.0094463225         3832 
 3725000   0.64995435   -9.4001868    469.24703  0.010497696 0.0094422331         3767 
 3726000   0.64907679   -9.4110221    469.44953  0.010499408 0.0094381489         3760 
 3727000    0.6440241   -9.4040527      468.852   0.01048323 0.0094340657         3763 
 3728000   0.66411547   -9.4196643    468.99292  0.010483569 0.0094299851         3783 
 3729000   0.65426147   -9.4006075    469.46521  0.010491312 0.0094259062         3756 
 3730000   0.65023736   -9.3636416    470.24875  0.010506004 0.0094218266         3757 
 3731000   0.64450177   -9.3906139    469.81868  0.010493583 0.0094177534         3773 
 3732000   0.66053275   -9.3999228    470.57067  0.010507562 0.0094136848         3809 
 3733000    0.6443347   -9.3636218    469.79244  0.010487375 0.0094096107         3798 
 3734000   0.66088894   -9.4132363    469.88221   0.01048657 0.0094055404         3791 
 3735000   0.65371066   -9.4088006    469.91604  0.010484517  0.009401477         3804 
 3736000   0.65148977   -9.3972535    469.88514  0.010481021  0.009397413         3765 
 3737000   0.63675175   -9.3949329    469.83581  0.010477116 0.0093933545         3803 
 3738000   0.65027852    -9.405716    469.49275  0.010466666 0.0093892959         3802 
 3739000   0.63631056   -9.3847662    470.55805  0.010487609 0.0093852369         3785 
 3740000    0.6516183   -9.4282872     469.5132  0.010461524 0.0093811815         3770 
 3741000   0.65527108   -9.3897037    469.22553   0.01045232 0.0093771281         3761 
 3742000   0.64665475   -9.4197162    469.89712  0.010464482 0.0093730801         3822 
 3743000   0.65683221   -9.3891878    469.63319  0.010455811 0.0093690314         3788 
 3744000   0.64663021   -9.3975552    470.34754  0.010468918 0.0093649882         3779 
 3745000   0.64827881    -9.381869    469.69302  0.010451558 0.0093609447         3781 
 3746000   0.64651048   -9.3949853    469.14878  0.010436661 0.0093569028         3825 
 3747000   0.65415463   -9.3969975     469.9926  0.010452642 0.0093528648         3771 
 3748000   0.66244059   -9.3913524    469.00984  0.010428003 0.0093488253         3788 
 3749000   0.67039645   -9.4059065    470.57434  0.010459997 0.0093447928         3800 
 3750000   0.65032048   -9.4011681    469.09701  0.010424378 0.0093407618         3812 
 3751000   0.64406884   -9.4149666    469.55372  0.010431745  0.009336731         3802 
 3752000   0.65161547   -9.4017422    470.68275  0.010454041 0.0093327038         3791 
 3753000   0.65703487    -9.398287    470.21679  0.010440909 0.0093286803         3787 
 3754000   0.64798716   -9.4006107    470.25895  0.010439064 0.0093246554         3824 
 3755000    0.6571825    -9.390908    469.39851  0.010417188 0.0093206335         3786 
 3756000   0.65739384   -9.3991202    469.11089  0.010408034 0.0093166139         3804 
 3757000   0.64237737   -9.4134905    469.60853  0.010416301 0.0093125999         3812 
 3758000   0.64976352   -9.4103602    468.99013  0.010399817  0.009308588         3803 
 3759000    0.6581471   -9.4008651    469.29676  0.010403848 0.0093045742         3779 
 3760000   0.64834242   -9.4122223    469.30035   0.01040116 0.0093005692         3782 
 3761000   0.64012722   -9.4234316    470.14061  0.010417013 0.0092965618         3805 
 3762000    0.6488209   -9.4069091    469.83963  0.010407576 0.0092925559         3783 
 3763000   0.65814192   -9.3951291    469.14647   0.01038946 0.0092885565         3795 
 3764000   0.65730961   -9.3982994    469.48651  0.010394228  0.009284558         3777 
 3765000   0.65417948    -9.389588    469.81679  0.010398778  0.009280557         3784 
 3766000   0.66411665   -9.4156816    468.85905  0.010374824 0.0092765605         3808 
 3767000   0.64641929   -9.4109342     469.0725  0.010376792 0.0092725707         3809 
 3768000   0.64968636   -9.4023619    469.43481  0.010382051 0.0092685804         3762 
 3769000   0.63874508   -9.4242647    469.86954  0.010388908 0.0092645926         3783 
 3770000   0.64174316   -9.4197862    468.67582  0.010359766 0.0092606035         3827 
 3771000   0.64708357   -9.4195844    469.60192  0.010377484  0.009256615         3769 
 3772000   0.64346355   -9.3984909    469.93145  0.010382013 0.0092526356         3774 
 3773000   0.65529184   -9.4007068    469.91582  0.010378916 0.0092486558         3801 
 3774000    0.6450612   -9.4231786     469.3924  0.010364609 0.0092446769         3795 
 3775000   0.64927224    -9.400001     469.2333  0.010358351 0.0092407001         3834 
 3776000   0.64979704   -9.4033066    470.07601  0.010374206 0.0092367254         3788 
 3777000   0.66134786   -9.3904184    469.88931   0.01036734 0.0092327541         3773 
 3778000   0.63137839   -9.4148507    469.40403  0.010353892 0.0092287878         3805 
 3779000   0.65261581   -9.4030565    469.60317  0.010355543 0.0092248201         3789 
 3780000   0.65484381   -9.4085876    469.12806  0.010342329 0.0092208549         3798 
 3781000   0.63564132   -9.3966127    468.90987  0.010334785 0.0092168955         3798 
 3782000   0.65124461   -9.3989482    469.66104  0.010348604 0.0092129343         3791 
 3783000   0.65153203   -9.4091604    469.41133  0.010340368  0.009208973         3806 
 3784000   0.64080094   -9.3934386    469.43099  0.010338068  0.009205014         3778 
 3785000    0.6520174   -9.3987469    469.70501   0.01034137 0.0092010619         3792 
 3786000   0.65369737   -9.3972358    469.21609  0.010327877 0.0091971107         3801 
 3787000   0.63139655   -9.4115418     469.7224  0.010336291 0.0091931599         3786 
 3788000   0.64343105   -9.4192311    469.53984  0.010329546 0.0091892101         3786 
 3789000   0.64827404   -9.3941186    469.31578  0.010321892 0.0091852646         3788 
 3790000   0.63376136   -9.3860307    470.51688  0.010345578 0.0091813239         3811 
 3791000   0.62974607   -9.4092107     469.4183    0.0103187  0.009177384         3776 
 3792000    0.6542696   -9.4246574    469.71607  0.010322523 0.0091734462         3760 
 3793000   0.63377672    -9.389996    468.60618  0.010295417 0.0091695088         3764 
 3794000   0.63910592   -9.4151324    469.37766  0.010309648 0.0091655765         3838 
 3795000   0.64485237   -9.4086902    469.51255  0.010309893 0.0091616457         3779 
 3796000    0.6413752   -9.4012959    470.13199  0.010320776 0.0091577162         3791 
 3797000   0.65126724    -9.402384    469.18878  0.010297357  0.009153789         3814 
 3798000   0.65517077   -9.3991498    469.31312  0.010297374 0.0091498618         3802 
 3799000   0.65319454   -9.4193109    470.13738  0.010312744  0.009145937         3813 
 3800000    0.6395551   -9.4044176    469.12789  0.010287892 0.0091420131         3817 
 3801000   0.64685119   -9.4127649    469.84037  0.010300806 0.0091380928         3790 
 3802000   0.64117287   -9.4088965    469.83107  0.010297893  0.009134178         3814 
 3803000   0.63511652   -9.4184841    469.33221  0.010284254 0.0091302643         3794 
 3804000   0.64477561   -9.4328074    469.28463  0.010280508 0.0091263523         3785 
 3805000   0.63729937   -9.3926112    469.93051  0.010291951 0.0091224407         3785 
 3806000   0.64319022   -9.4093712    470.14349  0.010293911 0.0091185343         3789 
 3807000   0.64071999   -9.4219517    469.44073  0.010275824 0.0091146238         3791 
 3808000   0.63345964   -9.4059545    469.07187  0.010265053 0.0091107231         3761 
 3809000    0.6498641   -9.4127319    469.17945  0.010264712  0.009106824         3780 
 3810000   0.64913574   -9.3955742    468.94744  0.010256943 0.0091029234         3800 
 3811000   0.63865783   -9.4204605    469.61485  0.010268846 0.0090990264         3775 
 3812000   0.63712643   -9.4102993    469.11415  0.010255206 0.0090951336         3804 
 3813000   0.64189491   -9.4165842    469.57444  0.010262576 0.0090912418         3813 
 3814000   0.62627151   -9.4290882    469.35488  0.010255088 0.0090873511         3815 
 3815000   0.64954483   -9.4258944    469.43367  0.010254121 0.0090834632         3782 
 3816000   0.62761152   -9.4290748    469.56783  0.010254364 0.0090795754         3806 
 3817000   0.64338311   -9.4227492    468.45183  0.010227313  0.009075691         3808 
 3818000   0.63812581    -9.438598    469.15109  0.010239896 0.0090718075         3804 
 3819000   0.63676041   -9.4242528    469.15408   0.01023728 0.0090679243         3815 
 3820000   0.63186193   -9.4276108    469.34922  0.010238857 0.0090640449         3796 
 3821000   0.63106749    -9.420618    469.06771  0.010230038 0.0090601658         3792 
 3822000   0.63536459   -9.4140076    470.02534  0.010248241 0.0090562912         3775 
 3823000   0.64452148   -9.4316546    468.73715  0.010217481 0.0090524179         3782 
 3824000   0.64871379   -9.4289992    469.18119  0.010224486 0.0090485452         3754 
 3825000   0.64430891   -9.4279738    469.13234  0.010220748 0.0090446779         3817 
 3826000   0.64250888   -9.4303035    469.76006  0.010231749 0.0090408118         3809 
 3827000   0.63624614   -9.4238331    468.64597  0.010204816 0.0090369467         3827 
 3828000   0.64648556   -9.4218631    469.17392  0.010213643 0.0090330833         3828 
 3829000   0.65575405   -9.4183403     469.4147  0.010216216 0.0090292232         3820 
 3830000   0.64804045   -9.4115417     469.0882  0.010206445 0.0090253664         3774 
 3831000   0.62952913   -9.4227073    469.04697  0.010202884 0.0090215132         3784 
 3832000   0.63582463   -9.4137794     469.1519  0.010202503 0.0090176614         3778 
 3833000   0.64393883   -9.4187994    468.67109  0.010189388 0.0090138113         3783 
 3834000   0.65902823   -9.4231551    468.78618  0.010189232  0.009009961         3789 
 3835000   0.63401642   -9.4225019    469.33752  0.010198555 0.0090061114         3802 
 3836000   0.63231272   -9.4341282    468.69588  0.010181958 0.0090022651         3805 
 3837000   0.63294702   -9.4447485    469.32555   0.01019298 0.0089984231         3796 
 3838000   0.64141407   -9.4254943    469.06054   0.01018457  0.008994582         3777 
 3839000    0.6247337   -9.4155806    468.80545   0.01017638 0.0089907456         3769 
 3840000   0.64477731    -9.415542    469.26363  0.010183673  0.008986908         3776 
 3841000   0.63636695    -9.423503    468.81175  0.010171217 0.0089830769         3788 
 3842000   0.65650856   -9.4233628    468.86956  0.010169824 0.0089792471         3795 
 3843000   0.63954781    -9.439166    468.98516  0.010169684   0.00897542         3789 
 3844000   0.62685623   -9.4214244     468.5675  0.010157984 0.0089715913         3785 
 3845000   0.64524877    -9.403199    469.52875  0.010176176 0.0089677659         3806 
 3846000   0.62948411   -9.4105266     468.4334  0.010149796 0.0089639408         3829 
 3847000   0.64418856   -9.4045472    469.68224   0.01017421 0.0089601207         3791 
 3848000   0.63541899   -9.4161656      469.751  0.010173055 0.0089563007         3797 
 3849000   0.62803194   -9.4248039    469.34247  0.010161567 0.0089524844         3781 
 3850000   0.63085196   -9.4051289     468.6568  0.010144087 0.0089486693         3796 
 3851000   0.63964679   -9.4119621    469.51159   0.01015995 0.0089448589         3801 
 3852000   0.63437715   -9.4092359    469.68104  0.010160978  0.008941051         3806 
 3853000   0.63589626   -9.4350607    468.74789  0.010138158 0.0089372452         3815 
 3854000   0.63431939   -9.4180178    468.95413  0.010139987 0.0089334424         3809 
 3855000   0.64492836   -9.4327554    468.50358  0.010127617 0.0089296357         3807 
 3856000   0.62936103   -9.4200753    468.55424  0.010126086 0.0089258352         3774 
 3857000   0.63128598   -9.4021747    469.50014  0.010143897 0.0089220385         3803 
 3858000   0.62861563   -9.4145334    469.75872  0.010146853 0.0089182401         3800 
 3859000   0.63674521   -9.4242496    469.16292  0.010131358 0.0089144454         3802 
 3860000   0.63583751   -9.4225346    467.77388  0.010098745 0.0089106456         3799 
 3861000   0.63149398   -9.4408845     469.1419  0.010125656 0.0089068542         3817 
 3862000   0.63408776   -9.4317546    469.51797  0.010131149 0.0089030697         3794 
 3863000   0.62920889   -9.4255579     468.2398  0.010100954 0.0088992797         3835 
 3864000   0.63289202   -9.4473111     469.0964  0.010116813  0.008895493         3836 
 3865000   0.63260519   -9.4362839    468.85276  0.010108943 0.0088917109         3813 
 3866000   0.63720965   -9.4283525    469.25941  0.010115093 0.0088879298         3819 
 3867000   0.63861599   -9.4412307    468.49482  0.010096001 0.0088841519         3773 
 3868000   0.63457734   -9.4163032    467.62475  0.010074646 0.0088803787         3796 
 3869000   0.62340094   -9.4134287    469.44472  0.010111241 0.0088766028         3824 
 3870000    0.6183198   -9.4334688    469.69197  0.010113953 0.0088728295         3822 
 3871000   0.63467133   -9.4262476    469.33182  0.010103587 0.0088690604         3778 
 3872000   0.62143683   -9.4272357    468.44972  0.010081993 0.0088652918         3790 
 3873000   0.63175831    -9.431309    468.97104  0.010090607 0.0088615223         3780 
 3874000   0.63618789   -9.4073697    469.09706  0.010090713 0.0088577566         3782 
 3875000   0.63623783   -9.4507849    468.15187  0.010067782 0.0088539941         3800 
 3876000   0.62729305    -9.430369    468.20315  0.010066287 0.0088502311         3808 
 3877000   0.62681372   -9.4264051    469.76149  0.010097186 0.0088464745         3777 
 3878000   0.62353791   -9.4580524    468.58382  0.010069276  0.008842717         3778 
 3879000   0.62854594    -9.438088    468.55277  0.010066013 0.0088389623         3794 
 3880000   0.63180276   -9.4331411     468.1074  0.010053853 0.0088352128         3800 
 3881000   0.63750704   -9.4416084    468.32939  0.010056029 0.0088314685         3814 
 3882000   0.64475659   -9.4221262    468.41515   0.01005528 0.0088277226         3803 
 3883000   0.63741544   -9.4268613    469.21145   0.01006978 0.0088239766         3768 
 3884000   0.63230662   -9.4376257    469.53614  0.010074153 0.0088202359         3805 
 3885000   0.64146067   -9.4218735    468.38904  0.010046955 0.0088164951         3785 
 3886000   0.62364603    -9.454378    467.53152   0.01002598 0.0088127559         3796 
 3887000   0.63942742   -9.4383194    468.03986  0.010034299 0.0088090204         3789 
 3888000   0.63629991   -9.4284084    468.81993  0.010048438 0.0088052835         3813 
 3889000   0.63448537   -9.4255111     468.4322  0.010037546 0.0088015537         3808 
 3890000    0.6245025   -9.4348504    468.60046   0.01003857 0.0087978247         3803 
 3891000    0.6314489   -9.4334967    467.89758  0.010020937 0.0087940938         3786 
 3892000   0.62166051   -9.4168891    468.50879  0.010031449 0.0087903675         3802 
 3893000   0.62253386   -9.4254806    469.67558  0.010053848 0.0087866449         3779 
 3894000   0.62634136   -9.4521076    469.06779  0.010038259 0.0087829225         3770 
 3895000   0.63322114   -9.4097257    469.72655  0.010049776  0.008779205         3785 
 3896000   0.63246386    -9.410702    469.53305  0.010043058 0.0087754901         3822 
 3897000   0.62814173   -9.4480767    468.61422  0.010020833 0.0087717763         3816 
 3898000    0.6228317   -9.4210664    468.34982  0.010012609 0.0087680657         3751 
 3899000   0.62323241   -9.4552488    468.95581  0.010022993 0.0087643562         3797 
 3900000   0.63688832   -9.4427284     468.9063  0.010019365 0.0087606438         3806 
 3901000   0.62085666   -9.4364334    468.21229  0.010001971  0.008756936         3810 
 3902000   0.62463684   -9.4383259    469.04731  0.010017241 0.0087532277         3786 
 3903000   0.62872984   -9.4373079    468.99222  0.010013499 0.0087495211         3843 
 3904000   0.63016063   -9.4265981    468.63106  0.010003224 0.0087458213         3769 
 3905000   0.61914235   -9.4345341    468.61087  0.010000232 0.0087421236         3822 
 3906000   0.62657062    -9.468102    468.54814 0.0099963333 0.0087384282         3793 
 3907000   0.62039409   -9.4302314    469.31233  0.010010074 0.0087347322         3813 
 3908000   0.65128641   -9.4407161     468.7293 0.0099950806 0.0087310381         3795 
 3909000   0.61958686   -9.4412324    468.34783 0.0099843914 0.0087273486         3801 
 3910000   0.62922494   -9.4423931    468.21656   0.00997904 0.0087236579         3796 
 3911000   0.62145058    -9.442358    468.52909 0.0099831477 0.0087199727         3790 
 3912000   0.61619668   -9.4340501    468.84398 0.0099873036 0.0087162878         3792 
 3913000   0.63235911   -9.4207546    469.01793 0.0099884557 0.0087126068         3770 
 3914000   0.63381944   -9.4497124    468.57151 0.0099763989 0.0087089265         3808 
 3915000     0.629663   -9.4202468    468.93428 0.0099815725 0.0087052468         3773 
 3916000   0.61930464   -9.4280098    468.62489 0.0099724398 0.0087015727         3818 
 3917000     0.613379   -9.4449838    467.99151 0.0099564189 0.0086979002         3827 
 3918000   0.61297054   -9.4339687    468.91498 0.0099735192 0.0086942235         3796 
 3919000   0.63180437    -9.443215    469.64849 0.0099865717 0.0086905555         3740 
 3920000   0.61573468   -9.4440664     467.5583 0.0099395897 0.0086868851         3836 
 3921000   0.61172798   -9.4232983      469.383 0.0099758353 0.0086832164         3808 
 3922000   0.63037473   -9.4514534    468.62567 0.0099572003 0.0086795499         3797 
 3923000   0.62827629    -9.458971    468.72244 0.0099567177 0.0086758878         3823 
 3924000   0.61076647   -9.4282179    468.58585 0.0099512795 0.0086722281         3783 
 3925000   0.63940864   -9.4258939    468.60254 0.0099490985  0.008668573         3771 
 3926000   0.62925501   -9.4313026     468.6679 0.0099479517 0.0086649181         3794 
 3927000   0.62365566   -9.4406137    468.30245 0.0099376634 0.0086612634         3783 
 3928000   0.62929073   -9.4314467    467.98952 0.0099284945 0.0086576093         3796 
 3929000   0.61364725   -9.4474306    468.00819 0.0099263635 0.0086539595         3807 
 3930000     0.615194   -9.4471233    468.65325 0.0099375158 0.0086503104         3827 
 3931000   0.61887522   -9.4403394    468.74889 0.0099370155 0.0086466641         3802 
 3932000   0.61413061   -9.4694433     468.6703 0.0099328225 0.0086430203         3815 
 3933000   0.62256498   -9.4365394    469.06656  0.009938693 0.0086393797         3792 
 3934000   0.62958993    -9.440859    468.80427 0.0099306108 0.0086357406         3788 
 3935000   0.62951057   -9.4530642    469.09762 0.0099342995 0.0086321037         3852 
 3936000   0.62279935   -9.4494946    468.25034 0.0099138368  0.008628467         3788 
 3937000   0.61431255   -9.4473807    468.55275 0.0099177198 0.0086248371         3808 
 3938000   0.60958059   -9.4506842    468.79694 0.0099203686 0.0086212062         3794 
 3939000   0.62739462   -9.4299216    468.77644 0.0099174163 0.0086175765         3803 
 3940000     0.634865    -9.449013    468.31861 0.0099052159 0.0086139486         3807 
 3941000   0.63082172   -9.4624783    468.05534 0.0098971356 0.0086103234         3794 
 3942000   0.62891815   -9.4477702    468.18885 0.0098974473 0.0086067005         3803 
 3943000   0.63460992   -9.4368304    468.56166 0.0099028163 0.0086030781         3796 
 3944000   0.62179759    -9.465302     468.8693 0.0099068058 0.0085994586         3811 
 3945000   0.61201215   -9.4503366    468.17061 0.0098895354 0.0085958415         3823 
 3946000   0.62643549   -9.4251474    468.37369  0.009891318 0.0085922237         3794 
 3947000   0.62693409   -9.4367516    469.24777 0.0099072664 0.0085886125         3826 
 3948000   0.62653541   -9.4461867    468.70767 0.0098933568 0.0085850025         3817 
 3949000    0.6215259   -9.4485117    468.51586 0.0098868039 0.0085813964         3784 
 3950000   0.61497753   -9.4445583    468.21367 0.0098779256 0.0085777876         3785 
 3951000   0.62468457   -9.4520519    469.27487 0.0098978079  0.008574179         3792 
 3952000   0.61810618   -9.4297888    469.02606 0.0098900568 0.0085705779         3799 
 3953000   0.61675638   -9.4435883    467.97947 0.0098654919 0.0085669757         3826 
 3954000   0.63337463   -9.4544695    468.01624 0.0098637717 0.0085633755         3808 
 3955000   0.61287617   -9.4542546    468.07322 0.0098624782 0.0085597773         3832 
 3956000    0.6206948    -9.459551     469.1906 0.0098835229 0.0085561779         3814 
 3957000   0.61948675   -9.4567012    468.71383 0.0098709846 0.0085525825         3783 
 3958000   0.62875836   -9.4529809      468.745 0.0098691469 0.0085489903         3833 
 3959000   0.62538326   -9.4343896    468.44538 0.0098603473 0.0085454029         3805 
 3960000   0.61861733   -9.4362829    468.53614 0.0098597673  0.008541814         3816 
 3961000   0.62761254   -9.4708648    467.89402 0.0098437688 0.0085382312         3806 
 3962000   0.62135412   -9.4357185    468.50168 0.0098540654 0.0085346504         3804 
 3963000    0.6220636   -9.4443156    467.86757 0.0098382448 0.0085310708         3792 
 3964000   0.61160743   -9.4644257    467.96045 0.0098377155 0.0085274913         3780 
 3965000   0.61207305   -9.4601125    467.73291  0.009830452 0.0085239116         3813 
 3966000    0.6211579   -9.4518082    467.94276 0.0098323828 0.0085203372         3810 
 3967000   0.59538568    -9.461824    468.57281 0.0098431394 0.0085167609         3805 
 3968000   0.61979246   -9.4523675    468.62107 0.0098416722  0.008513189         3804 
 3969000   0.61420085   -9.4733548    468.21423 0.0098306506 0.0085096194         3819 
 3970000   0.61831745   -9.4518029    468.52376 0.0098346717 0.0085060508         3827 
 3971000   0.62492435   -9.4474136    467.84161 0.0098178799 0.0085024821         3837 
 3972000   0.61950585   -9.4623046    468.12241 0.0098212994  0.008498917         3786 
 3973000    0.6207655   -9.4549103    468.36085 0.0098238286 0.0084953564         3795 
 3974000   0.61122564   -9.4524751     468.2984  0.009820047 0.0084917972         3734 
 3975000   0.61869079   -9.4539934    468.02055 0.0098117516 0.0084882408         3803 
 3976000   0.60893905   -9.4422169    468.73021 0.0098241578 0.0084846857         3801 
 3977000   0.61489372   -9.4573476    468.43352 0.0098154706 0.0084811291         3809 
 3978000   0.61900641   -9.4580154    468.37923  0.009811866 0.0084775754         3785 
 3979000   0.62407391   -9.4513999    468.56273 0.0098132431 0.0084740248         3801 
 3980000   0.61360241   -9.4312208     468.1896 0.0098029647 0.0084704762         3798 
 3981000   0.61200151   -9.4628726    467.23955 0.0097806152 0.0084669318         3823 
 3982000   0.61862735     -9.45507    468.02718 0.0097946421 0.0084633882         3816 
 3983000   0.60304079    -9.451075    467.37616 0.0097785621 0.0084598438         3829 
 3984000   0.61147485   -9.4553844    467.36011 0.0097757721 0.0084563032         3821 
 3985000    0.6264438   -9.4602904    468.79563 0.0098033382 0.0084527657         3806 
 3986000    0.6199811   -9.4679438    469.22741 0.0098099057 0.0084492289         3824 
 3987000   0.62083325   -9.4364177    468.74101 0.0097972788 0.0084456975         3817 
 3988000   0.62144861   -9.4559617    468.21995 0.0097839341 0.0084421662         3808 
 3989000   0.59533757   -9.4317618    469.34004  0.009804881 0.0084386363         3806 
 3990000    0.6128986   -9.4493199    468.50298 0.0097849411 0.0084351055         3812 
 3991000   0.60492183   -9.4714935    468.36143 0.0097795338 0.0084315796         3794 
 3992000   0.61485894   -9.4610826    467.95406 0.0097685801 0.0084280536         3803 
 3993000   0.62353647   -9.4721694    467.80173 0.0097629545 0.0084245295         3779 
 3994000   0.62773138   -9.4676561    467.76251 0.0097596918 0.0084210129         3819 
 3995000   0.61832243   -9.4485599    468.01032 0.0097624181 0.0084174927         3791 
 3996000   0.62351104    -9.465864    468.22654 0.0097644841  0.008413977         3798 
 3997000   0.60891364    -9.431237    468.83812 0.0097747919 0.0084104607         3799 
 3998000   0.60641522   -9.4631436    467.52709 0.0097450203 0.0084069438         3811 
 3999000   0.61903263   -9.4762612     468.2056 0.0097567225 0.0084034323         3812 
 4000000    0.6090068   -9.4604074    468.00167 0.0097500348 0.0083999261         3798 
 4001000   0.61528774   -9.4594159     467.6977 0.0097412669 0.0083964195         3798 
 4002000   0.61524567   -9.4586589    468.62748 0.0097581935 0.0083929153         3793 
 4003000   0.60497872   -9.4786382    467.70017 0.0097364513 0.0083894128         3816 
 4004000   0.60518625   -9.4512932    468.53445 0.0097513829 0.0083859108         3812 
 4005000   0.60496119   -9.4395868    468.54894 0.0097492498 0.0083824123         3793 
 4006000   0.61023159   -9.4592431    467.97527 0.0097348825 0.0083789184         3800 
 4007000    0.6132253   -9.4328528    468.32841 0.0097397973 0.0083754252         3821 
 4008000   0.61202501   -9.4620903    467.66634 0.0097236015 0.0083719329         3835 
 4009000   0.61329871   -9.4450827    468.59116 0.0097403999 0.0083684454         3813 
 4010000   0.62146295   -9.4567767    468.43944  0.009734818 0.0083649582         3814 
 4011000   0.59186175   -9.4788275    467.87337 0.0097206302 0.0083614697         3822 
 4012000    0.6125629   -9.4584481    467.75946 0.0097158411 0.0083579849         3801 
 4013000   0.61905021    -9.462569    467.82044 0.0097146865 0.0083545007         3787 
 4014000    0.6150926   -9.4678112    467.83591 0.0097125873 0.0083510168         3796 
 4015000   0.59265917   -9.4597687    467.94014 0.0097123316 0.0083475381         3808 
 4016000   0.61560078   -9.4498654    469.05564 0.0097330603 0.0083440611         3836 
 4017000   0.62391118   -9.4636635    468.12082 0.0097112443 0.0083405841         3805 
 4018000   0.60306174   -9.4703489    467.92815 0.0097048314  0.008337109         3803 
 4019000   0.63083842   -9.4365222     468.1483 0.0097069814 0.0083336394         3794 
 4020000   0.61639371   -9.4866574    467.46775 0.0096904592 0.0083301694         3821 
 4021000    0.6115976   -9.4643444    468.70114 0.0097136105 0.0083267042         3839 
 4022000    0.5962402   -9.4694708    467.75196 0.0096915292 0.0083232379         3821 
 4023000   0.61649595   -9.4827124    467.69724 0.0096879866 0.0083197756         3796 
 4024000   0.60310694   -9.4781093    467.98767 0.0096915936  0.008316315         3780 
 4025000   0.60226121   -9.4766595    467.41852 0.0096774021 0.0083128549         3803 
 4026000   0.61589141   -9.4590571    467.55484 0.0096778201 0.0083093952         3760 
 4027000   0.59849925   -9.4543957    468.65553  0.009698194 0.0083059375         3792 
 4028000   0.60542619   -9.4695434    468.06716 0.0096836139 0.0083024814         3835 
 4029000   0.59896058   -9.4632946    468.12796  0.009682468 0.0082990293         3828 
 4030000   0.61286801   -9.4700878    469.00533 0.0096982077  0.008295577         3764 
 4031000   0.60061437   -9.4780491    467.97021 0.0096744027 0.0082921267         3814 
 4032000   0.61878769   -9.4579347    467.35812 0.0096593526 0.0082886787         3801 
 4033000   0.59533178   -9.4708418    468.22774 0.0096749264 0.0082852301         3797 
 4034000   0.61042361   -9.4811985     467.9053 0.0096658671 0.0082817842         3824 
 4035000   0.60105619   -9.4647279    467.47396 0.0096545635 0.0082783406         3806 
 4036000   0.60513394   -9.4598625    467.55474 0.0096538392 0.0082749001         3800 
 4037000   0.60420377   -9.4603961    467.41307 0.0096485234  0.008271457         3780 
 4038000   0.59691917   -9.4603134    467.82001 0.0096545321 0.0082680192         3802 
 4039000   0.60850592   -9.4860517    467.70967 0.0096498653 0.0082645846         3807 
 4040000   0.59812943   -9.4690527    467.81126 0.0096495721  0.008261149         3795 
 4041000   0.58902423    -9.473474    467.81656 0.0096472936  0.008257717         3811 
 4042000   0.60316524   -9.4713227    468.05202 0.0096497613 0.0082542895         3782 
 4043000   0.61569649   -9.4870727    466.97159  0.009625105 0.0082508616         3807 
 4044000   0.59469043   -9.4811577    467.59117 0.0096354924 0.0082474388         3807 
 4045000   0.60006101   -9.4670684    467.00565 0.0096210476 0.0082440115         3755 
 4046000   0.61871557   -9.4818196    467.82899 0.0096356276 0.0082405874         3762 
 4047000   0.61237084   -9.4645335    467.87619 0.0096342185  0.008237166         3812 
 4048000   0.60154518   -9.4808107    467.39998 0.0096220352  0.008233749         3838 
 4049000   0.59915182   -9.4845015      467.095 0.0096133819 0.0082303303         3801 
 4050000   0.60155626   -9.4691847    468.57421 0.0096414447 0.0082269144         3766 
 4051000   0.60700068    -9.473981    467.88586 0.0096249046 0.0082235025         3818 
 4052000   0.60188261    -9.480567    467.03834 0.0096050992  0.008220089         3820 
 4053000    0.6038275    -9.482014    467.59384 0.0096141508 0.0082166807         3793 
 4054000   0.61108199   -9.4860082     467.9743 0.0096196001 0.0082132758         3834 
 4055000   0.59861195   -9.4713792    467.77723 0.0096131778 0.0082098725         3763 
 4056000    0.5907693   -9.4731016    467.20444 0.0095990393 0.0082064661         3789 
 4057000   0.59916687   -9.4794921     468.0398  0.009613832 0.0082030639         3803 
 4058000   0.60074689   -9.4812875    468.10809 0.0096128653 0.0081996633         3807 
 4059000   0.59683507   -9.4768477    468.09634 0.0096102558 0.0081962672         3803 
 4060000   0.60129954    -9.481971    467.28414  0.009591218  0.008192868         3811 
 4061000   0.59255853   -9.4687589    467.75393 0.0095984965 0.0081894709         3818 
 4062000   0.59286442   -9.4866181    468.02058 0.0096016038 0.0081860783         3789 
 4063000   0.61414145   -9.4776399    467.17365 0.0095818699 0.0081826871         3820 
 4064000   0.60591023   -9.4666957    467.94978 0.0095954269 0.0081792982         3814 
 4065000   0.61274964   -9.4730327    467.76092 0.0095891948 0.0081759112         3822 
 4066000   0.58897472   -9.4656756    467.07825  0.009572845 0.0081725256         3829 
 4067000   0.60598865    -9.468809    467.84976 0.0095862994 0.0081691421         3774 
 4068000   0.58965527   -9.4844882     468.0745 0.0095885468 0.0081657623         3829 
 4069000    0.5912132   -9.4810946    467.39047 0.0095721814 0.0081623841         3820 
 4070000   0.61312351   -9.4687943    467.10102  0.009563903  0.008159007         3803 
 4071000   0.59833306   -9.4777626    467.14126 0.0095623774 0.0081556303         3793 
 4072000   0.60105191   -9.4587309    467.63597 0.0095701533 0.0081522567         3807 
 4073000    0.6028912    -9.464838    467.85514 0.0095722879 0.0081488853         3808 
 4074000   0.60281805   -9.4718397    468.08993 0.0095747407 0.0081455142         3780 
 4075000   0.61432162    -9.480859    467.46188 0.0095595477 0.0081421468         3842 
 4076000   0.59706994   -9.4736266    467.36007 0.0095551208 0.0081387794         3809 
 4077000   0.60452909   -9.4794122    468.09122 0.0095677218 0.0081354139         3765 
 4078000   0.60256967   -9.4690222    467.85611 0.0095605712 0.0081320512         3821 
 4079000   0.60770683   -9.4861732     468.4482 0.0095703237 0.0081286892         3802 
 4080000   0.60666544   -9.4749108    468.16865 0.0095622682 0.0081253295         3822 
 4081000   0.60481831   -9.4834502     467.1448 0.0095390182 0.0081219723         3793 
 4082000   0.57885103   -9.4596488    467.15645 0.0095369193 0.0081186177         3814 
 4083000   0.59072684   -9.4799582    467.39036 0.0095393575  0.008115264         3827 
 4084000   0.59815336   -9.4576276    467.70659 0.0095434744 0.0081119114         3799 
 4085000   0.60292919   -9.4925801     467.6731 0.0095404548 0.0081085601         3798 
 4086000   0.57873498   -9.4907837    467.42508 0.0095330616 0.0081052089         3813 
 4087000    0.5971956   -9.4980954    467.25284 0.0095272172 0.0081018601         3789 
 4088000   0.59434464   -9.4764486    467.57094  0.009531371 0.0080985154         3807 
 4089000   0.60121715   -9.4867895    467.23994 0.0095222943 0.0080951739         3839 
 4090000   0.57659969   -9.4768414    467.95764 0.0095345891 0.0080918349         3815 
 4091000   0.59762664   -9.4731025    468.19084 0.0095370089 0.0080884944         3825 
 4092000   0.60098046   -9.4830595    467.60286 0.0095227041 0.0080851567         3802 
 4093000   0.59583167   -9.4703521    467.09836 0.0095101058 0.0080818218         3812 
 4094000   0.59215223   -9.4959493    467.56899 0.0095173627 0.0080784896         3800 
 4095000   0.58611543   -9.4840975    467.04361 0.0095043469 0.0080751559         3829 
 4096000   0.59846109   -9.4755107    467.78301 0.0095170697 0.0080718255         3808 
 4097000   0.59997265   -9.4773996    468.34005  0.009526077 0.0080684979         3799 
 4098000   0.59603039   -9.4723146    467.34021 0.0095034205 0.0080651713         3795 
 4099000   0.59937298   -9.4958243    466.47262 0.0094834638 0.0080618447         3810 
 4100000   0.59104931   -9.4885149    467.58608 0.0095037821 0.0080585213         3791 
 4101000   0.60087828   -9.4871661    467.98333 0.0095095369 0.0080551985         3788 
 4102000   0.59876034    -9.486969    467.81846 0.0095038692 0.0080518793         3811 
 4103000    0.5849151   -9.4979386    468.14668 0.0095082192 0.0080485633         3787 
 4104000   0.59738412   -9.4679903    467.69053 0.0094966401 0.0080452479         3835 
 4105000   0.58674325   -9.4846442     467.9238 0.0094990621  0.008041933         3786 
 4106000   0.58851774   -9.4832597    467.10403  0.009480111 0.0080386217         3787 
 4107000    0.6018657   -9.5084549    466.28119 0.0094611068 0.0080353104         3804 
 4108000   0.59929985   -9.4663022    467.67076  0.009486992 0.0080320065         3767 
 4109000   0.58827989   -9.4800118    467.64499 0.0094841605  0.008028701         3794 
 4110000    0.6045465   -9.4805818     467.8233 0.0094854683 0.0080253969         3823 
 4111000   0.57835771   -9.4636253    467.42446 0.0094750763 0.0080220945         3810 
 4112000   0.60036238   -9.4948317     466.7825 0.0094597622 0.0080187954         3799 
 4113000   0.60952223   -9.4813182    468.03142 0.0094827665 0.0080154973         3783 
 4114000   0.58153671   -9.4938589    467.43169 0.0094683133 0.0080122013         3843 
 4115000   0.59289808   -9.4929514    466.73674 0.0094519389 0.0080089056         3814 
 4116000   0.59428033   -9.5021099    467.50219 0.0094651398  0.008005611         3832 
 4117000   0.60196401   -9.4799999    467.83272 0.0094695312 0.0080023204         3822 
 4118000   0.59869088   -9.4906484    467.34997 0.0094574625 0.0079990283         3828 
 4119000   0.58843366   -9.4939113    467.97823 0.0094678772 0.0079957397         3788 
 4120000   0.59625238   -9.4899494    467.61882 0.0094583095 0.0079924536         3791 
 4121000   0.59580188    -9.488278    467.17413  0.009447022 0.0079891669         3802 
 4122000   0.59756302   -9.5010533    467.28415 0.0094469544 0.0079858843         3818 
 4123000   0.59532093   -9.4967314    467.41844 0.0094473773 0.0079826032         3811 
 4124000   0.58497483   -9.4924351    467.21933 0.0094410631 0.0079793237         3780 
 4125000   0.58933496   -9.4710699    467.01316 0.0094346092 0.0079760468         3825 
 4126000   0.59158856    -9.501078    466.65791 0.0094251476 0.0079727675         3809 
 4127000   0.58936253   -9.5128031    467.38056 0.0094374557 0.0079694921         3812 
 4128000   0.58492426   -9.4879625    467.64778  0.009440564 0.0079662211         3802 
 4129000    0.5857811   -9.4862206    468.10387 0.0094474826 0.0079629526         3797 
 4130000   0.58697401   -9.4874814    467.59821  0.009434992 0.0079596814         3812 
 4131000   0.60294059   -9.4716027    466.85853 0.0094177869 0.0079564165         3825 
 4132000   0.60025993   -9.4907854    468.02169  0.009438966 0.0079531529         3791 
 4133000   0.58343779   -9.4763833    467.77166 0.0094316409 0.0079498891         3818 
 4134000    0.5974194   -9.5075491    467.40351 0.0094219382 0.0079466278         3786 
 4135000   0.59642409   -9.5096307    467.19849 0.0094155279 0.0079433688         3787 
 4136000   0.58039798   -9.4937381    467.47933 0.0094189098  0.007940113         3826 
 4137000   0.59536066   -9.5106758    467.03367 0.0094076558 0.0079368572         3799 
 4138000   0.59664314   -9.5163853    467.76864 0.0094201837 0.0079336021         3808 
 4139000   0.60252728   -9.4752963    466.39043 0.0093901593 0.0079303489         3833 
 4140000   0.58746728   -9.4828881    467.68167 0.0094138822 0.0079270997         3829 
 4141000   0.58792979   -9.4706141     468.0888 0.0094198019 0.0079238512         3815 
 4142000   0.58055756   -9.4819485    466.74691 0.0093905302 0.0079206035         3833 
 4143000   0.58341571    -9.503998    467.51235 0.0094036597 0.0079173565         3834 
 4144000   0.59275855   -9.5066051    468.15689 0.0094143518 0.0079141107         3812 
 4145000   0.59395653   -9.4866087    467.98311 0.0094085868 0.0079108687         3828 
 4146000   0.58783121   -9.4800841    467.65058 0.0093996338  0.007907628         3780 
 4147000   0.59248538   -9.4914767    467.71901 0.0093987423 0.0079043887         3764 
 4148000   0.57799251   -9.5017951    467.26292 0.0093873135 0.0079011508         3809 
 4149000   0.60126281   -9.4841671    467.17784 0.0093833421 0.0078979146         3807 
 4150000   0.58566893   -9.4894829    467.20533 0.0093816331 0.0078946812         3777 
 4151000   0.59679458   -9.4996076    468.02593 0.0093958469 0.0078914504         3813 
 4152000   0.58653295   -9.5057541    467.07261 0.0093744503 0.0078882216         3828 
 4153000   0.57191087   -9.4976094    467.70673 0.0093849172  0.007884993         3804 
 4154000   0.58457095    -9.491889    467.01792 0.0093688397 0.0078817666         3833 
 4155000   0.58817492   -9.5063186    467.13583 0.0093689496 0.0078785399         3792 
 4156000   0.59597871   -9.5005314    468.09052 0.0093858382 0.0078753172         3766 
 4157000   0.57650151   -9.5042996    467.09588 0.0093636413 0.0078720949         3800 
 4158000   0.59905944   -9.5294558    466.85766 0.0093566149 0.0078688753         3825 
 4159000   0.58440878   -9.5207825    467.42122 0.0093656572 0.0078656582         3826 
 4160000   0.57755084   -9.5008627    466.46627 0.0093442762 0.0078624396         3821 
 4161000   0.57784639   -9.5032087    467.84345 0.0093696116 0.0078592234         3826 
 4162000   0.58242667   -9.5096332    467.01386 0.0093507501 0.0078560111         3822 
 4163000   0.57439519   -9.5001017    466.86442 0.0093455125 0.0078527987         3802 
 4164000   0.59108798   -9.4757639    467.82394 0.0093624707 0.0078495918         3788 
 4165000   0.58400274   -9.5123538    467.10311 0.0093458005 0.0078463842         3784 
 4166000    0.5785694   -9.5124737    467.00828 0.0093416603 0.0078431785         3801 
 4167000   0.57640903   -9.5114775    467.05507 0.0093403542 0.0078399742         3831 
 4168000   0.57932527    -9.502273    467.10127 0.0093390369 0.0078367721         3795 
 4169000   0.58071179   -9.4838426    467.92101 0.0093531824 0.0078335713         3816 
 4170000   0.58189209   -9.5025352    467.81093 0.0093487396 0.0078303713         3790 
 4171000   0.56892464   -9.4755845    468.41113 0.0093584897  0.007827174         3796 
 4172000   0.58806983   -9.4994302    467.22356 0.0093325257 0.0078239801         3811 
 4173000   0.58971007    -9.497182    467.09769 0.0093277756 0.0078207852         3817 
 4174000   0.58503497   -9.5054133    467.74884 0.0093385409 0.0078175951         3809 
 4175000   0.58631396   -9.5062544    467.51052 0.0093315472 0.0078144047         3796 
 4176000   0.59085586   -9.4970281    467.29938 0.0093250995  0.007811215         3802 
 4177000   0.58548779   -9.4850606    466.99582 0.0093168108 0.0078080277         3812 
 4178000    0.5922084   -9.4950835    467.04661 0.0093155937 0.0078048424         3828 
 4179000   0.57765051   -9.4849001    467.25876 0.0093175951 0.0078016569         3822 
 4180000   0.57776489   -9.4983164    466.83158 0.0093068497 0.0077984753         3823 
 4181000   0.58718133   -9.5160105     467.8097 0.0093241191 0.0077952926         3813 
 4182000   0.58517497   -9.5008166    466.35045 0.0092928114  0.007792117         3856 
 4183000    0.5712694   -9.5191081    466.69876 0.0092975289 0.0077889386         3820 
 4184000   0.56858713   -9.5074038    467.55715 0.0093124033 0.0077857668         3770 
 4185000   0.56754312   -9.5088137    466.22922  0.009283736 0.0077825951         3781 
 4186000   0.59349181   -9.5252288    467.24879 0.0093018153 0.0077794235         3807 
 4187000   0.58608337   -9.5096496    467.60392 0.0093066619 0.0077762535         3825 
 4188000    0.5829153   -9.4922927    466.87351 0.0092899059  0.007773084         3810 
 4189000   0.57903274   -9.5024909    467.27968 0.0092957683 0.0077699195         3830 
 4190000   0.58012551   -9.5201687    467.07594 0.0092894976 0.0077667543         3822 
 4191000   0.57254872   -9.5033691    467.42639 0.0092942495 0.0077635915         3843 
 4192000   0.58265499   -9.5314016    467.00704 0.0092836958 0.0077604286         3780 
 4193000    0.5938814   -9.5110147     467.3252  0.009287805 0.0077572708         3809 
 4194000   0.58309034     -9.49469    466.58573 0.0092708976 0.0077541134         3801 
 4195000   0.59211875   -9.5242918    467.46713 0.0092861965 0.0077509598         3807 
 4196000   0.56473225   -9.5107262    467.57639 0.0092861533 0.0077478085         3835 
 4197000   0.57641124   -9.5115481    467.16411 0.0092757548 0.0077446559         3820 
 4198000   0.58907397   -9.5190974    467.38909 0.0092780111 0.0077415085         3818 
 4199000   0.56997846   -9.5115691    466.73099 0.0092627409 0.0077383623         3823 
 4200000   0.57481534   -9.5075238    467.59961 0.0092777701 0.0077352153         3808 
 4201000   0.58275411   -9.5228305    467.10031 0.0092656573 0.0077320711         3800 
 4202000   0.57685007   -9.5009277    467.35862 0.0092685748 0.0077289299         3827 
 4203000   0.57412601   -9.5139686    467.04944 0.0092602395 0.0077257853         3805 
 4204000   0.57825547   -9.5214567     467.7273 0.0092714737 0.0077226431         3794 
 4205000   0.57912463    -9.500927    466.92662  0.009253401 0.0077195029         3825 
 4206000   0.57600417   -9.5020162    466.88692 0.0092504145 0.0077163662         3795 
 4207000   0.58158915   -9.5100849    466.81241 0.0092467398 0.0077132299         3800 
 4208000   0.58594452   -9.5289658    466.84803 0.0092452478 0.0077100985         3802 
 4209000   0.58203016   -9.5033004    466.65621 0.0092392534 0.0077069681         3808 
 4210000   0.56976623   -9.5255608    466.71273 0.0092381775 0.0077038396         3810 
 4211000   0.57886604   -9.5416724    466.21563 0.0092261464 0.0077007114         3805 
 4212000   0.57843311   -9.5164928    466.87473  0.009236996 0.0076975849         3797 
 4213000    0.5850413   -9.5189964    467.50303 0.0092472313 0.0076944627         3830 
 4214000   0.57987623   -9.5146669    466.81547 0.0092314402 0.0076913391         3809 
 4215000   0.58343709   -9.4951654    467.16935 0.0092362465  0.007688219         3801 
 4216000   0.58128822   -9.4948734    467.51175 0.0092408237 0.0076850991         3809 
 4217000    0.5763896   -9.5063987    467.46733 0.0092377545 0.0076819838         3795 
 4218000   0.58443719   -9.5094192    467.11988    0.0092287 0.0076788661         3778 
 4219000   0.58148444   -9.4976212    467.06816 0.0092254911 0.0076757534         3807 
 4220000   0.57592074   -9.5157157    466.16079 0.0092053868 0.0076726409         3828 
 4221000   0.57289996   -9.5127948    466.56107 0.0092111086 0.0076695342         3785 
 4222000   0.56412941    -9.526852    466.52568 0.0092082284 0.0076664248         3806 
 4223000   0.55731823   -9.5201372    467.06388 0.0092166682 0.0076633181         3814 
 4224000   0.58928878    -9.529072    466.92819 0.0092118093 0.0076602155         3798 
 4225000    0.5877237   -9.5137672    467.92518 0.0092292935 0.0076571136         3786 
 4226000   0.57663816   -9.5059068    466.64348 0.0092018355 0.0076540111         3810 
 4227000   0.56846984   -9.5058806    466.82285 0.0092031947 0.0076509086         3818 
 4228000   0.57380238   -9.5195936    466.75953   0.00919977 0.0076478115         3806 
 4229000   0.57608127   -9.5182436    466.17978 0.0091861705 0.0076447159         3799 
 4230000   0.58563471   -9.5204884    467.58301 0.0092116431 0.0076416208         3808 
 4231000    0.5776393   -9.5226028    467.02534 0.0091984822 0.0076385254         3796 
 4232000   0.57070728   -9.5232291    466.26291 0.0091812955 0.0076354351         3828 
 4233000     0.558833   -9.5044835    466.89722 0.0091916138 0.0076323442         3781 
 4234000   0.59106438   -9.5215983    467.02088 0.0091918768 0.0076292564         3799 
 4235000   0.58642602   -9.5020369    466.73574 0.0091840957 0.0076261704         3820 
 4236000   0.58278329   -9.5235038    467.43943  0.009195771 0.0076230847         3815 
 4237000   0.58177541    -9.501763    466.30101 0.0091712102 0.0076200022         3791 
 4238000   0.58894545   -9.5387031    466.51766 0.0091733062 0.0076169173         3820 
 4239000   0.56294022   -9.5185357    466.27598 0.0091663911 0.0076138352         3817 
 4240000   0.58180192   -9.5255131    467.46054 0.0091875106 0.0076107566         3804 
 4241000   0.58135542   -9.5101119    467.76185 0.0091912647 0.0076076796         3819 
 4242000   0.57900955   -9.5031765    467.04118 0.0091749406 0.0076046062         3785 
 4243000   0.58235906   -9.5238858    467.01269 0.0091722188 0.0076015341         3817 
 4244000   0.58267638   -9.5153157    466.72342 0.0091643775 0.0075984624         3827 
 4245000   0.58833047   -9.5308654    467.19827 0.0091715404  0.007595392         3821 
 4246000   0.57319721   -9.5273884    466.33411 0.0091524202 0.0075923248         3815 
 4247000   0.57926217   -9.5112142    465.88207 0.0091413952 0.0075892547         3819 
 4248000   0.57373661   -9.5306163     466.7251 0.0091557811 0.0075861873         3820 
 4249000   0.56614898    -9.510858    466.63481 0.0091518556 0.0075831259         3818 
 4250000   0.57744096    -9.505496    466.05858 0.0091384034  0.007580064         3766 
 4251000   0.55218362   -9.5149905    467.37715  0.009162102  0.007577003         3763 
 4252000   0.57387304   -9.5238462    466.61258 0.0091449628 0.0075739428         3804 
 4253000   0.55715498   -9.5035296    467.16067 0.0091535518 0.0075708872         3796 
 4254000   0.56068478   -9.5187862     467.0162   0.00914857   0.00756783         3816 
 4255000   0.57563612   -9.5304208    466.50523 0.0091364127 0.0075647754         3820 
 4256000   0.56187649   -9.5275428    466.26926 0.0091296456 0.0075617224         3845 
 4257000   0.57222776   -9.5311873    466.76808 0.0091372658 0.0075586703         3842 
 4258000   0.57607439   -9.5143626    466.67176 0.0091332347 0.0075556187         3810 
 4259000   0.56336084   -9.5232676    466.58367 0.0091293666  0.007552571         3811 
 4260000   0.57839679    -9.503608    466.50645 0.0091257131 0.0075495251         3811 
 4261000   0.57436561   -9.5070101    466.88701 0.0091310141 0.0075464822         3797 
 4262000   0.57628119   -9.5290768    465.63583 0.0091044077 0.0075434403         3809 
 4263000   0.56573458   -9.5192819    466.14104 0.0091121479 0.0075403992         3794 
 4264000   0.55281939   -9.5366599    467.30422 0.0091327436 0.0075373615         3799 
 4265000   0.56204927   -9.5112758    466.87353 0.0091221869 0.0075343218         3828 
 4266000   0.56001518   -9.5269093    466.28208  0.009108495 0.0075312869         3813 
 4267000    0.5720192   -9.5203387    466.51286 0.0091108675 0.0075282512         3829 
 4268000   0.56279378   -9.5323049    466.48607 0.0091082096 0.0075252162         3816 
 4269000   0.55625047   -9.5410988    465.77419 0.0090921798 0.0075221836         3827 
 4270000   0.58229869   -9.5351618    465.89708 0.0090924488 0.0075191538         3795 
 4271000   0.56438371   -9.5251555    466.77902  0.009107528 0.0075161242         3777 
 4272000   0.57639677   -9.5251877    466.14826 0.0090930918 0.0075130976         3788 
 4273000   0.57127205   -9.5194891    467.31253 0.0091136697 0.0075100734         3775 
 4274000   0.57127381   -9.4985052    466.53927 0.0090964605 0.0075070509         3789 
 4275000   0.58288855   -9.5358148    466.95708 0.0091024771 0.0075040296         3828 
 4276000   0.56819623   -9.5328278    466.40249 0.0090895403 0.0075010086         3806 
 4277000   0.56833456   -9.5513087    466.01687 0.0090799017 0.0074979909         3831 
 4278000   0.55978253   -9.5107907    466.96533 0.0090962547  0.007494974         3813 
 4279000   0.57391222   -9.5197941    466.43247 0.0090837515 0.0074919595         3802 
 4280000   0.57290758   -9.5238046    466.97172 0.0090921285 0.0074889462         3821 
 4281000   0.57082099   -9.5196548    466.42405 0.0090793438 0.0074859357         3796 
 4282000   0.56193981   -9.5390938    466.25159 0.0090738671 0.0074829274         3833 
 4283000   0.56753899   -9.5246113    466.46636 0.0090759273 0.0074799193         3766 
 4284000   0.55527345   -9.5240637    467.24921 0.0090890369 0.0074769121         3808 
 4285000   0.57275022   -9.5216738    466.01595 0.0090629317 0.0074739055         3793 
 4286000    0.5651636   -9.5274813     467.2374 0.0090845661 0.0074709041         3809 
 4287000   0.56184246   -9.5237055    466.62716 0.0090705847  0.007467902         3766 
 4288000   0.56807345   -9.5211444     466.5429 0.0090668318 0.0074649007         3813 
 4289000   0.57927642   -9.5277809     466.5156 0.0090641874 0.0074618995         3783 
 4290000   0.56507702   -9.5239862    466.95558 0.0090706212 0.0074589013         3810 
 4291000   0.56541944   -9.5373715    466.37812 0.0090572928  0.007455906         3814 
 4292000   0.57137843   -9.5469977     466.4023 0.0090556519 0.0074529142         3798 
 4293000   0.56803969   -9.5391314    466.39496 0.0090534001 0.0074499227         3804 
 4294000   0.56292515   -9.5286916    466.84063 0.0090599408 0.0074469295         3825 
 4295000   0.55783798   -9.5324889    466.38378 0.0090489673 0.0074439446         3753 
 4296000    0.5658641   -9.5365144    466.58125 0.0090506914 0.0074409588         3838 
 4297000   0.55628149   -9.5259971    466.30966 0.0090433182 0.0074379709         3809 
 4298000   0.57411868    -9.520031    466.38416 0.0090426586 0.0074349873         3811 
 4299000   0.56190305   -9.5416717     466.5004 0.0090428085 0.0074320052         3787 
 4300000   0.55959545    -9.536247    467.10768 0.0090524743 0.0074290245         3807 
 4301000   0.56525962   -9.5143635    467.12662 0.0090507366 0.0074260473         3800 
 4302000   0.56841857   -9.5696826    466.35831 0.0090337501 0.0074230685         3827 
 4303000   0.55547191   -9.5368429     466.6614 0.0090375204 0.0074200911         3798 
 4304000   0.56988537   -9.5313532    466.63045 0.0090348213 0.0074171173         3792 
 4305000   0.56038329   -9.5447778    465.06687 0.0090024558 0.0074141449         3837 
 4306000   0.55030763   -9.5342803    465.95666 0.0090175851 0.0074111746         3817 
 4307000   0.56112479     -9.52088      466.962  0.009034943 0.0074082042         3804 
 4308000   0.54348895   -9.5399498    466.68282 0.0090274454 0.0074052361         3801 
 4309000   0.55577024   -9.5376518    466.05198 0.0090131504 0.0074022703         3818 
 4310000   0.57047871   -9.5316338    466.12494 0.0090124698 0.0073993039         3797 
 4311000   0.55489569   -9.5386958    466.71255 0.0090217381  0.007396341         3801 
 4312000   0.56319271   -9.5351988    466.83683 0.0090220475 0.0073933792         3831 
 4313000   0.56944261   -9.5388106    466.64015 0.0090161556 0.0073904177         3810 
 4314000   0.56884864   -9.5312225    466.29603 0.0090074182 0.0073874592         3815 
 4315000   0.56034931   -9.5254577    466.76553 0.0090143981 0.0073844998         3812 
 4316000   0.55488352   -9.5275352      465.607 0.0089899406 0.0073815426         3799 
 4317000   0.56504671   -9.5284801    467.07143 0.0090161268 0.0073785885         3790 
 4318000   0.57117094   -9.5331576    466.59069 0.0090047609 0.0073756363         3828 
 4319000   0.56919341   -9.5522295    466.44101  0.008999788 0.0073726866         3825 
 4320000   0.56715673   -9.5414325    466.14368 0.0089919691 0.0073697377         3812 
 4321000   0.55515494   -9.5426883    466.60281 0.0089987429  0.007366788         3791 
 4322000   0.55340574   -9.5348238    466.90969 0.0090025777  0.007363845         3824 
 4323000   0.56201087   -9.5537948    466.16965 0.0089862297 0.0073608984         3797 
 4324000   0.57225209   -9.5510269     466.6833 0.0089940507  0.007357956         3822 
 4325000   0.56343886   -9.5311291    464.97593 0.0089590738 0.0073550162         3822 
 4326000   0.56610047   -9.5467831    466.25083 0.0089815617 0.0073520761         3817 
 4327000   0.55754778   -9.5227468    465.98827 0.0089744294 0.0073491381         3799 
 4328000   0.56749629   -9.5367077    466.29315 0.0089782262 0.0073462007         3815 
 4329000   0.55413774   -9.5503915    465.29838 0.0089570027  0.007343265         3827 
 4330000   0.56446549   -9.5490095    466.10173 0.0089703952 0.0073403317         3796 
 4331000    0.5471611   -9.5590775    467.29499 0.0089912836 0.0073373989         3806 
 4332000    0.5586438   -9.5501348    466.24773 0.0089690621 0.0073344669         3809 
 4333000   0.56879628   -9.5302836    466.20616 0.0089661929 0.0073315358         3793 
 4334000   0.55607793   -9.5354062    466.63833 0.0089724337  0.007328609         3825 
 4335000   0.54899199   -9.5494919    467.11582 0.0089795428 0.0073256839         3795 
 4336000   0.56974587   -9.5441378    466.60121 0.0089675817 0.0073227607         3815 
 4337000   0.54655926   -9.5359904    466.76511 0.0089686633 0.0073198378         3804 
 4338000    0.5521894   -9.5487062     466.5138 0.0089617681 0.0073169171         3792 
 4339000   0.54819836   -9.5450987    466.14937 0.0089527035 0.0073139981         3837 
 4340000   0.57121398   -9.5475703    466.57222   0.00895876 0.0073110818         3807 
 4341000   0.56345725    -9.543209    466.38686 0.0089531378 0.0073081669         3808 
 4342000   0.55881188   -9.5409301    465.75102 0.0089388726 0.0073052499         3841 
 4343000   0.54592424   -9.5460773    465.36558 0.0089294186  0.007302337         3833 
 4344000   0.55981308   -9.5184072    466.97174 0.0089581748 0.0072994251         3813 
 4345000   0.56121501   -9.5423154    465.99033 0.0089372905 0.0072965139         3830 
 4346000   0.55813617   -9.5595406    466.05739 0.0089365201 0.0072936048         3805 
 4347000   0.54404657   -9.5375604    466.14276 0.0089361008 0.0072906988         3820 
 4348000   0.55067664   -9.5442985    466.64318 0.0089436364  0.007287794         3814 
 4349000   0.55872411   -9.5512838    466.04366 0.0089300923 0.0072848914         3798 
 4350000   0.55535135   -9.5614436    465.70826 0.0089216142 0.0072819908         3826 
 4351000   0.54877812   -9.5494296    466.47952 0.0089343354   0.00727909         3816 
 4352000   0.55040006   -9.5399943    466.63843 0.0089353254 0.0072761895         3820 
 4353000   0.57084849   -9.5464794    465.97697 0.0089206097 0.0072732916         3808 
 4354000   0.55631742    -9.559228    466.28239 0.0089244064 0.0072703947         3820 
 4355000   0.55119124    -9.538939    466.31437 0.0089229691 0.0072675016         3824 
 4356000   0.55712775   -9.5362358    466.48425 0.0089241706 0.0072646103         3797 
 4357000   0.55752211   -9.5604386    465.65868 0.0089063324 0.0072617183         3829 
 4358000   0.56189882   -9.5374096    465.37499 0.0088988639 0.0072588295         3821 
 4359000   0.55760929   -9.5389087    465.71685 0.0089033581 0.0072559416         3823 
 4360000   0.56151628   -9.5567818    465.45065 0.0088962281 0.0072530567         3786 
 4361000   0.55778139   -9.5532602    465.98244   0.00890435 0.0072501724         3800 
 4362000   0.55460808   -9.5441392    465.74935 0.0088978555 0.0072472896         3795 
 4363000    0.5547358    -9.543796    465.98982  0.008900409 0.0072444083         3811 
 4364000   0.55499791   -9.5455473    466.09445 0.0089003675 0.0072415251         3815 
 4365000   0.56654646    -9.556373    466.50286 0.0089061256 0.0072386494         3804 
 4366000   0.55307773   -9.5385734    466.10135 0.0088964221 0.0072357714         3817 
 4367000   0.55134448   -9.5361577    465.87311 0.0088900296 0.0072328959         3818 
 4368000     0.542282   -9.5565208    466.76248 0.0089049618 0.0072300231         3806 
 4369000   0.56095042   -9.5623576     466.8061 0.0089037556 0.0072271515         3811 
 4370000   0.55496704   -9.5627992    466.39967 0.0088939678 0.0072242834         3809 
 4371000   0.55426433   -9.5457929     467.1477 0.0089061943 0.0072214143         3829 
 4372000   0.55493063    -9.546758    465.93377 0.0088810188 0.0072185473         3796 
 4373000   0.55145991   -9.5514446    467.50186 0.0089088699 0.0072156813         3807 
 4374000   0.54842756   -9.5364231    466.39066 0.0088856627 0.0072128166         3800 
 4375000   0.56062532   -9.5626539    466.12843 0.0088786369  0.007209953         3800 
 4376000   0.54987956   -9.5664285    465.47529 0.0088641699 0.0072070917         3772 
 4377000   0.54208887   -9.5613842    466.33337 0.0088784817 0.0072042305         3800 
 4378000   0.54379996   -9.5514393    466.07588 0.0088715525 0.0072013725         3813 
 4379000   0.55310168   -9.5569651    466.25376 0.0088729115 0.0071985169         3783 
 4380000   0.54075067   -9.5633488    466.59374 0.0088773542 0.0071956595         3822 
 4381000   0.55188371   -9.5535864     465.6645 0.0088576524 0.0071928041         3813 
 4382000   0.55299775   -9.5418133    465.94112 0.0088608915 0.0071899504         3857 
 4383000   0.55503091   -9.5666456    466.24698 0.0088646852 0.0071870987         3808 
 4384000   0.54927387   -9.5514373    465.99469 0.0088578674 0.0071842503         3828 
 4385000   0.55368781   -9.5629503    466.29591 0.0088615719 0.0071814011         3812 
 4386000   0.54960515   -9.5597429    466.04673  0.008854817 0.0071785538         3841 
 4387000   0.55465699   -9.5533241    466.29579 0.0088575297 0.0071757073         3813 
 4388000   0.54764323   -9.5949313    465.54777 0.0088413053 0.0071728623         3846 
 4389000   0.55462129     -9.55959     466.4488 0.0088563985 0.0071700205         3821 
 4390000   0.54546855   -9.5582303    466.60468 0.0088573401 0.0071671815         3820 
 4391000    0.5387851   -9.5392928    466.65221 0.0088562251 0.0071643463         3763 
 4392000   0.57060625   -9.5333596    466.19794 0.0088455894 0.0071615107         3791 
 4393000    0.5578055   -9.5503841     466.4239 0.0088478622 0.0071586758         3778 
 4394000   0.56286974   -9.5495934    466.16693 0.0088409749 0.0071558417         3801 
 4395000    0.5391666   -9.5517239    466.69673 0.0088490088 0.0071530092         3797 
 4396000   0.55124555   -9.5408646    465.73703 0.0088288033 0.0071501785         3803 
 4397000   0.55960348   -9.5572692    465.98375 0.0088314712 0.0071473492         3798 
 4398000   0.54793282   -9.5568121     466.7467 0.0088439196 0.0071445193         3826 
 4399000   0.54686705   -9.5534026    467.00568 0.0088468152 0.0071416922         3812 
 4400000   0.55296058   -9.5564087    466.17895 0.0088291469 0.0071388653         3842 
 4401000   0.54428593   -9.5657616    466.08359  0.008825335 0.0071360401         3821 
 4402000   0.54951723   -9.5646555    465.40819 0.0088105442 0.0071332193         3824 
 4403000   0.54322938   -9.5629449    466.39658 0.0088272499 0.0071304007         3788 
 4404000   0.53919918   -9.5774915    466.10452 0.0088197192  0.007127582         3779 
 4405000   0.55093569   -9.5742578    465.16097 0.0087998669  0.007124763         3826 
 4406000   0.53605168    -9.545854    466.52967 0.0088237568 0.0071219468         3800 
 4407000   0.55035146   -9.5402074    465.80013 0.0088079595  0.007119132         3814 
 4408000   0.54968373    -9.551788    465.99944 0.0088097293 0.0071163187         3852 
 4409000   0.55749554   -9.5706773    465.69357   0.00880195  0.007113508         3831 
 4410000   0.54381101   -9.5388893    466.17452 0.0088090423 0.0071106958         3798 
 4411000   0.54379544   -9.5660417    465.95371 0.0088028737 0.0071078863         3799 
 4412000   0.53741954   -9.5664462    465.14029 0.0087855147 0.0071050768         3818 
 4413000   0.54567349   -9.5528759     466.1785  0.008803129 0.0071022698         3839 
 4414000     0.549108   -9.5525999    466.44507 0.0088061674 0.0070994635         3818 
 4415000   0.54408998   -9.5700208    465.33368 0.0087831951 0.0070966595         3834 
 4416000   0.54448666   -9.5526281    465.73652 0.0087888081 0.0070938548         3793 
 4417000   0.54238043   -9.5654094    465.67404 0.0087856396 0.0070910532         3816 
 4418000   0.54177758   -9.5589711    465.85155 0.0087869993 0.0070882549         3822 
 4419000   0.54542537   -9.5767705    465.82044 0.0087844241 0.0070854585         3811 
 4420000     0.538446   -9.5744013    464.94031  0.008765843 0.0070826633         3823 
 4421000    0.5513599   -9.5561846    466.79811 0.0087988787  0.007079869         3847 
 4422000   0.53893198   -9.5660926    465.96983 0.0087812798 0.0070770754         3831 
 4423000   0.53738856   -9.5733455    465.73297 0.0087748318 0.0070742844         3786 
 4424000   0.54502454   -9.5705594    466.57606 0.0087887292 0.0070714942         3778 
 4425000   0.53438787   -9.5735694    465.60388 0.0087684346 0.0070687058         3801 
 4426000   0.53243738   -9.5639564    465.68613 0.0087680021 0.0070659183         3817 
 4427000   0.54379655   -9.5782455    465.50789 0.0087626664 0.0070631325         3819 
 4428000   0.54626949    -9.558336    466.08971 0.0087716372 0.0070603478         3801 
 4429000   0.54728004   -9.5551809    465.70205 0.0087623627 0.0070575655         3806 
 4430000   0.55825679   -9.5741687    465.44677 0.0087555825 0.0070547838         3840 
 4431000   0.53447836   -9.5617657    465.86656 0.0087615016 0.0070520027         3802 
 4432000   0.54751377   -9.5693933    466.16317 0.0087651018 0.0070492252         3805 
 4433000   0.54708582    -9.568327    466.79312 0.0087749664 0.0070464515         3797 
 4434000   0.54692875   -9.5546974    465.68822 0.0087522218 0.0070436774         3821 
 4435000   0.53862985    -9.579779    465.27768 0.0087425344 0.0070409042         3824 
 4436000     0.547059   -9.5637407    464.96465 0.0087346831 0.0070381338         3823 
 4437000   0.54930599   -9.5673545    466.44843 0.0087605821 0.0070353628         3835 
 4438000   0.54293088   -9.5867771    465.53919  0.008741535 0.0070325943         3833 
 4439000   0.54380884   -9.5610351    465.60145 0.0087407346 0.0070298251         3827 
 4440000   0.53921829      -9.5654    465.35396 0.0087341209 0.0070270589         3833 
 4441000   0.54363847   -9.5542603    465.30578 0.0087312502 0.0070242925         3819 
 4442000   0.53860242   -9.5742911    465.87864 0.0087400315 0.0070215281         3826 
 4443000   0.53641945   -9.5618647     465.9343 0.0087391084 0.0070187678         3826 
 4444000   0.53961734   -9.5648059    465.64811 0.0087317752 0.0070160059         3830 
 4445000   0.55446325   -9.5463017    465.97225 0.0087358877  0.007013247         3817 
 4446000   0.53761603   -9.5590235    465.66964 0.0087282509 0.0070104885         3815 
 4447000   0.53482148   -9.5580333    465.74023 0.0087276109 0.0070077324         3831 
 4448000   0.54537721   -9.5527316    465.64211 0.0087238105 0.0070049774         3819 
 4449000   0.53636697   -9.5741128    466.07025 0.0087298692 0.0070022222         3834 
 4450000    0.5359566   -9.5741982    465.84574  0.008723703 0.0069994699         3813 
 4451000   0.53083089   -9.5973968    465.19602 0.0087095787 0.0069967176         3822 
 4452000   0.54061351   -9.5454948    465.78023 0.0087185578 0.0069939696         3832 
 4453000   0.53003719   -9.5599191    465.74961 0.0087160269 0.0069912209         3819 
 4454000   0.54140066   -9.5923956    465.83307 0.0087156315 0.0069884722         3785 
 4455000   0.54423328   -9.5785645    466.41735 0.0087246044 0.0069857262         3812 
 4456000   0.53424755   -9.5663696    466.08173 0.0087163699 0.0069829836         3801 
 4457000   0.54223007   -9.5598795    466.68311 0.0087256584 0.0069802429         3814 
 4458000    0.5461046   -9.5871026    465.91271 0.0087092999 0.0069775036         3826 
 4459000   0.53425722   -9.5710081    465.94091 0.0087078737 0.0069747649         3810 
 4460000   0.53757376   -9.5775551    465.22853 0.0086926108 0.0069720262         3799 
 4461000   0.52662149   -9.5856522    466.05239 0.0087060523 0.0069692909         3803 
 4462000    0.5375208   -9.5705944    465.27718 0.0086896231 0.0069665563         3816 
 4463000   0.53499813   -9.5815326    464.84068 0.0086795257 0.0069638223         3806 
 4464000   0.53763152   -9.5728194    466.35421 0.0087058357 0.0069610921         3824 
 4465000   0.53704852   -9.5636616     465.1431 0.0086812822 0.0069583612         3837 
 4466000   0.53146558   -9.5566792    465.39027 0.0086839504 0.0069556325         3807 
 4467000   0.52951479   -9.5747574     465.6087 0.0086860813 0.0069529066         3810 
 4468000   0.54595844   -9.5787457    465.46703 0.0086814948 0.0069501795         3836 
 4469000   0.54675225    -9.552176    465.68109 0.0086835438 0.0069474567         3830 
 4470000    0.5293317   -9.5741855    465.68409 0.0086816571 0.0069447345         3825 
 4471000   0.53674418   -9.5413499    466.34269 0.0086919909 0.0069420121         3799 
 4472000   0.53600112   -9.5682728    465.58963 0.0086760143 0.0069392924         3807 
 4473000   0.54283541   -9.5502193     466.0814 0.0086832365 0.0069365728         3832 
 4474000   0.53051426   -9.5552719    466.30806 0.0086855175  0.006933857         3798 
 4475000   0.54277162   -9.5776859    465.63148 0.0086709773 0.0069311416         3796 
 4476000   0.52913979   -9.5690797    465.59069 0.0086682807 0.0069284267         3836 
 4477000   0.54003613   -9.5752594     465.5243 0.0086651088 0.0069257147         3841 
 4478000   0.53191263   -9.5737582    464.95934 0.0086526601 0.0069230043         3850 
 4479000   0.52785394    -9.582036    465.86851 0.0086676437  0.006920296         3788 
 4480000   0.53417132   -9.5659453    466.00994 0.0086683397 0.0069175881         3797 
 4481000   0.52338248   -9.5874649    465.11656  0.008649791 0.0069148794         3809 
 4482000   0.54982021   -9.5620793    465.61064 0.0086570475 0.0069121725         3832 
 4483000   0.52598826   -9.5955544    464.86634 0.0086412808 0.0069094679         3793 
 4484000   0.54297389   -9.5860423    465.41081 0.0086494724 0.0069067629         3808 
 4485000   0.53375318   -9.5724208     464.9348 0.0086386994 0.0069040614         3789 
 4486000   0.54610044   -9.5729236    465.50297 0.0086473281  0.006901361         3810 
 4487000   0.54169411   -9.5543814    465.73779 0.0086497622 0.0068986649         3788 
 4488000   0.53417934   -9.5806133    465.15976 0.0086371018 0.0068959663         3823 
 4489000    0.5270204   -9.6048894    466.28966 0.0086561531 0.0068932688         3797 
 4490000   0.53773976   -9.5608119    465.62987 0.0086419798 0.0068905743         3815 
 4491000   0.54357834   -9.5769758    465.50478 0.0086377343 0.0068878823         3829 
 4492000   0.53776683   -9.5841887    465.49482 0.0086356267   0.00688519         3810 
 4493000   0.53504928   -9.5698786    465.12666 0.0086268762 0.0068824997         3821 
 4494000   0.54113269   -9.5603479    465.23751  0.008627012 0.0068798117         3812 
 4495000   0.52364058   -9.5547088    465.69784  0.008633627 0.0068771238         3823 
 4496000   0.53798898   -9.5654143    464.56584 0.0086107251 0.0068744367         3822 
 4497000   0.52825317   -9.5809156    466.34682 0.0086418134 0.0068717522         3825 
 4498000   0.53498743    -9.561178    465.63942 0.0086267863 0.0068690713         3822 
 4499000   0.52705479   -9.6049768    465.44484 0.0086212647 0.0068663886         3823 
 4500000   0.53064468   -9.5679385    465.93295 0.0086283879 0.0068637082         3814 
 4501000    0.5388213   -9.5882702     465.0907 0.0086108773 0.0068610275         3785 
 4502000   0.53848362   -9.5873233    465.53073 0.0086171096 0.0068583506         3820 
 4503000   0.53444168   -9.5789624    465.76021 0.0086194428 0.0068556747         3821 
 4504000   0.53222335   -9.5717247    465.36727 0.0086102589 0.0068529997         3829 
 4505000   0.53231215   -9.5715084    465.02907 0.0086020915  0.006850326         3814 
 4506000   0.52714723   -9.5946631    465.99339 0.0086180165 0.0068476542         3813 
 4507000   0.51639745   -9.5861425    465.54362 0.0086077883 0.0068449834         3812 
 4508000   0.53355221   -9.5762374     464.6911 0.0085901195 0.0068423129         3820 
 4509000   0.53221547   -9.5819195    465.72269 0.0086072796  0.006839646         3807 
 4510000   0.53251043   -9.5717327    464.80875  0.008588484 0.0068369821         3781 
 4511000   0.53433472   -9.5700654    464.80839 0.0085865734 0.0068343169         3804 
 4512000   0.54148572   -9.5845121    465.51937 0.0085978016 0.0068316538         3822 
 4513000   0.53121773   -9.5834325    465.81107 0.0086012827 0.0068289904         3802 
 4514000    0.5443313   -9.6082396    465.30682 0.0085900682 0.0068263285         3835 
 4515000   0.53514108    -9.585232    465.55665 0.0085927769 0.0068236659         3802 
 4516000   0.53009991   -9.5939112     464.6223 0.0085736326 0.0068210085         3851 
 4517000   0.52130753   -9.5892828    465.55185 0.0085888837 0.0068183529         3815 
 4518000   0.52669302    -9.575733    464.89719 0.0085749076 0.0068156996         3835 
 4519000   0.51779236    -9.567103    465.57856 0.0085855751 0.0068130459         3819 
 4520000   0.53265152   -9.5887457    465.71023 0.0085861031 0.0068103929         3828 
 4521000   0.53016232    -9.591032    464.56139 0.0085630279 0.0068077413         3820 
 4522000   0.52257889    -9.584598    465.72921 0.0085826554 0.0068050918         3832 
 4523000   0.53510735    -9.573719    465.44099 0.0085754475 0.0068024435         3817 
 4524000   0.53330036   -9.5986702    465.46671 0.0085740257 0.0067997973         3820 
 4525000   0.52844676   -9.5815494     465.3639 0.0085702376  0.006797154         3843 
 4526000   0.52624384    -9.590624     465.7377 0.0085752265 0.0067945074         3795 
 4527000   0.52349331   -9.5777811    465.48029 0.0085685939 0.0067918637         3812 
 4528000   0.52060934   -9.5869299    464.70189 0.0085523758 0.0067892207         3835 
 4529000   0.51805781    -9.592694    465.08227 0.0085574863 0.0067865798         3805 
 4530000   0.53403547   -9.5830399    465.25609  0.008558795 0.0067839405         3823 
 4531000   0.52166277   -9.5977007    464.74912 0.0085475818 0.0067813029         3830 
 4532000   0.53130023   -9.5989246    465.09666 0.0085520863 0.0067786659         3826 
 4533000   0.51579012   -9.5820298    465.07197 0.0085497458 0.0067760303         3831 
 4534000   0.51780655    -9.581805    464.20908 0.0085320004  0.006773397         3849 
 4535000   0.53246207   -9.5914853    465.37655 0.0085515721 0.0067707647         3830 
 4536000   0.52758981   -9.5722442    465.81562 0.0085577532 0.0067681353         3806 
 4537000   0.52276246   -9.5782874    465.13704 0.0085434031 0.0067655065         3823 
 4538000   0.52178148   -9.6047637    465.52291 0.0085486064 0.0067628795         3838 
 4539000   0.52485002   -9.5903405    465.28942 0.0085424364 0.0067602533         3852 
 4540000   0.53366498   -9.5987785    465.22648 0.0085393994 0.0067576272         3818 
 4541000   0.52816854   -9.5836541    464.50447 0.0085242691 0.0067550027         3825 
 4542000   0.51098432   -9.5907297    465.03363  0.008532101  0.006752379         3829 
 4543000   0.52897266   -9.6088568     465.2337 0.0085338929 0.0067497564         3794 
 4544000   0.52540376   -9.5726288    466.01117  0.008546273 0.0067471357         3813 
 4545000   0.51937985   -9.5883926    465.82213 0.0085409264 0.0067445182         3795 
 4546000   0.53501562   -9.5959448    465.52639 0.0085336264    0.0067419         3837 
 4547000   0.51802379   -9.5866894     464.9202 0.0085206401 0.0067392846         3801 
 4548000   0.53311143   -9.5836306    465.55083 0.0085303216 0.0067366723         3809 
 4549000   0.51809028   -9.5833217    465.42471  0.008526136 0.0067340603         3845 
 4550000   0.53167327   -9.5902407    465.49309 0.0085255144 0.0067314488         3817 
 4551000   0.51736951   -9.5883953    465.48565 0.0085235049 0.0067288414         3804 
 4552000    0.5256666   -9.5987837     464.6297 0.0085059626 0.0067262338         3830 
 4553000   0.52788281   -9.5937457    464.77392 0.0085067341 0.0067236277         3815 
 4554000   0.52486182   -9.5964684    464.95044 0.0085080962 0.0067210235         3839 
 4555000   0.53860749   -9.5926488    465.69896 0.0085199223 0.0067184198         3805 
 4556000   0.52176524   -9.5962416    464.98794 0.0085050472  0.006715818         3820 
 4557000   0.52006504   -9.6036051    464.88697 0.0085013344 0.0067132166         3824 
 4558000    0.5254658   -9.5993918    465.31506  0.008507296 0.0067106163         3823 
 4559000    0.5274563   -9.6210792    464.39429 0.0084885993 0.0067080163         3826 
 4560000   0.52928796   -9.6020635    465.23153 0.0085020383 0.0067054185         3805 
 4561000   0.53440012   -9.5968223    465.06849 0.0084971952 0.0067028227         3829 
 4562000    0.5049257   -9.6092165    464.93306 0.0084928587 0.0067002282         3790 
 4563000   0.52748111   -9.5907095    465.13537 0.0084946923 0.0066976341         3798 
 4564000   0.52053358   -9.5869538    465.26271  0.008495156 0.0066950426         3790 
 4565000   0.51782752   -9.5987881    465.10937  0.008490496 0.0066924506         3841 
 4566000   0.51669316   -9.5927188    465.36402  0.008493284 0.0066898606         3785 
 4567000   0.51508239   -9.5869015    464.67944 0.0084789329 0.0066872728         3803 
 4568000   0.52796412   -9.5979967    465.00772 0.0084830655 0.0066846854         3795 
 4569000   0.51754891    -9.603337    465.20207 0.0084847536 0.0066820981         3810 
 4570000   0.51985247   -9.5929596    465.31591 0.0084849729 0.0066795154         3838 
 4571000   0.51293857   -9.5765775    465.06457 0.0084785344 0.0066769317         3815 
 4572000   0.52506403   -9.5922711    465.01852 0.0084758406 0.0066743506         3835 
 4573000    0.5197623   -9.6062554    465.79044 0.0084880537 0.0066717723         3825 
 4574000   0.51270485   -9.5890684    465.02535  0.008472259  0.006669191         3825 
 4575000   0.53872874   -9.5792556    465.18966    0.0084734  0.006666615         3809 
 4576000   0.51877272   -9.6076819    464.56263 0.0084601296 0.0066640394         3824 
 4577000   0.51749187   -9.5895284    464.64792 0.0084598339 0.0066614656         3799 
 4578000   0.52150994    -9.595455    465.00523 0.0084644902 0.0066588903         3791 
 4579000   0.51369935   -9.5970688    465.38341 0.0084695241  0.006656319         3834 
 4580000   0.52474579   -9.5933531    464.54753  0.008452466  0.006653748         3837 
 4581000   0.52760305   -9.5892122    464.83083 0.0084557745 0.0066511784         3821 
 4582000   0.51698771   -9.6009157     464.5445 0.0084487215 0.0066486105         3829 
 4583000   0.52169822   -9.6074623    464.22012 0.0084409798 0.0066460429         3845 
 4584000   0.51750845   -9.5866663     465.0939 0.0084550228  0.006643478         3794 
 4585000   0.52413977   -9.6040408    464.63974 0.0084449243 0.0066409141         3807 
 4586000   0.52322965    -9.604629    464.19206  0.008434948 0.0066383515         3840 
 4587000   0.51994874   -9.5917378    464.89945 0.0084459605 0.0066357908         3822 
 4588000   0.50651334   -9.6092322     465.0733 0.0084472773 0.0066332312         3810 
 4589000   0.51464546   -9.6193231    464.65493 0.0084378392 0.0066306701         3821 
 4590000   0.50936382   -9.6043638    465.16205 0.0084452079 0.0066281138         3848 
 4591000   0.51198563   -9.6047859    465.25905 0.0084451291  0.006625557         3827 
 4592000   0.52315223   -9.6039245    464.65882 0.0084323973 0.0066230047         3821 
 4593000   0.51233378   -9.5844915    465.10669 0.0084386872 0.0066204526         3851 
 4594000   0.51569728    -9.591182    464.93088 0.0084336613 0.0066179005         3809 
 4595000   0.51061705   -9.6115321    465.22175 0.0084371009 0.0066153502         3812 
 4596000   0.53088538   -9.5895861    464.72929 0.0084263361 0.0066128029         3831 
 4597000   0.51700745   -9.6033654    465.10526 0.0084313187 0.0066102554         3823 
 4598000    0.5171589   -9.6131954    464.38211 0.0084163787  0.006607709         3835 
 4599000   0.52327804   -9.6065814    465.02558 0.0084262082 0.0066051626         3831 
 4600000   0.50890736   -9.5947498    465.27729 0.0084289365 0.0066026167         3821 
 4601000   0.51496552   -9.5863082    464.97239  0.008421582 0.0066000735         3839 
 4602000   0.52048103   -9.6039063    464.90724 0.0084185724 0.0065975322         3814 
 4603000   0.52588756   -9.6094754    465.22149 0.0084224327 0.0065949895         3855 
 4604000    0.5147432   -9.6014302    464.38096 0.0084053896 0.0065924501         3825 
 4605000   0.50607458   -9.5982461    464.91878 0.0084132967 0.0065899115         3813 
 4606000   0.51470159   -9.5904096    465.51052 0.0084221761 0.0065873743         3814 
 4607000   0.51647188   -9.5919897    464.28725  0.008398221 0.0065848399         3831 
 4608000   0.51778624   -9.6093823    464.32322  0.008397049 0.0065823045         3843 
 4609000   0.52853762   -9.6127242    464.27396 0.0083943365 0.0065797719         3832 
 4610000   0.51974215   -9.5901394    465.01696 0.0084059465 0.0065772406         3816 
 4611000   0.52253063   -9.5961921    464.25909 0.0083904267 0.0065747119         3827 
 4612000    0.5242867   -9.5774461     464.5434 0.0083937446  0.006572185         3827 
 4613000   0.51398115     -9.61035    465.36077 0.0084066907 0.0065696587         3845 
 4614000   0.50678257   -9.6079605    464.63534 0.0083917667 0.0065671326         3812 
 4615000   0.51160567   -9.6129136    464.90347   0.00839479 0.0065646091         3821 
 4616000   0.51263462    -9.603953    464.81684 0.0083914075 0.0065620885         3815 
 4617000   0.51254787   -9.6169148    464.95303 0.0083920481 0.0065595655         3830 
 4618000    0.5114732   -9.6008184     465.3384 0.0083971849 0.0065570449         3837 
 4619000   0.50956715   -9.6206647    464.63964 0.0083827603 0.0065545249         3834 
 4620000   0.50339563   -9.6005768    464.83717 0.0083845088 0.0065520069         3789 
 4621000   0.51883729   -9.6187969    464.27963 0.0083726399 0.0065494882         3845 
 4622000   0.50885837   -9.5955272    465.60213 0.0083946727 0.0065469718         3823 
 4623000   0.50922612   -9.6106057    464.84099 0.0083791368 0.0065444571         3823 
 4624000   0.51632343   -9.6114944     465.1379 0.0083826756 0.0065419448         3788 
 4625000   0.51203356   -9.6170895    464.25268 0.0083649132 0.0065394331         3834 
 4626000    0.5057898   -9.6031053    464.04964 0.0083594474 0.0065369221         3835 
 4627000    0.5196761   -9.6075849    465.15699 0.0083775842 0.0065344121         3844 
 4628000   0.51426618   -9.6050175     464.7852 0.0083690795 0.0065319047         3821 
 4629000   0.51102861   -9.6126615    465.00651 0.0083712557 0.0065293957         3849 
 4630000   0.50969347    -9.616063     464.1653 0.0083543071 0.0065268904         3836 
 4631000   0.52263793   -9.6176398    464.67943 0.0083617547 0.0065243845         3840 
 4632000   0.51931901   -9.6214916    464.80295 0.0083621716 0.0065218811         3837 
 4633000   0.50597825   -9.6141809    465.05387   0.00836488  0.006519379         3824 
 4634000   0.51065729   -9.6192212    464.99778 0.0083620663 0.0065168766         3836 
 4635000   0.51246001   -9.6078511     464.7862 0.0083564581 0.0065143784         3824 
 4636000   0.49555615   -9.5970426    464.97648 0.0083580759 0.0065118822         3844 
 4637000   0.50020932   -9.6255892    464.57281  0.008349019 0.0065093836         3820 
 4638000    0.5004406   -9.5905683    465.06681 0.0083560947 0.0065068895         3852 
 4639000   0.51403027   -9.6045247    464.28196 0.0083401947 0.0065043936         3827 
 4640000   0.51185908   -9.6166645    464.27304 0.0083382371 0.0065019025         3832 
 4641000   0.50985788   -9.6132081    464.19649 0.0083350658 0.0064994086         3805 
 4642000     0.521447   -9.6106126    464.08281 0.0083312295 0.0064969186         3826 
 4643000   0.50361778   -9.6020438    464.89453 0.0083440041 0.0064944303         3841 
 4644000   0.50327051   -9.6149421    465.23006 0.0083482282  0.006491944         3834 
 4645000   0.51453674   -9.6015899    465.33886 0.0083483829  0.006489459         3796 
 4646000   0.50987623   -9.6075126    464.81869  0.008337256 0.0064869737         3803 
 4647000   0.51027463   -9.6173344    465.29976 0.0083440886 0.0064844891         3820 
 4648000   0.49924936   -9.6070323    464.41257 0.0083263871 0.0064820044         3820 
 4649000   0.49691348   -9.6102453    464.48297  0.008325858 0.0064795244         3842 
 4650000   0.51367595    -9.607187    464.51541 0.0083246489  0.006477045         3866 
 4651000   0.50770922   -9.6081597    464.56298 0.0083237114 0.0064745666         3824 
 4652000   0.51263066   -9.6357293    464.56457 0.0083219506 0.0064720893         3860 
 4653000   0.50234214   -9.6284717     464.1611 0.0083129362 0.0064696122         3841 
 4654000   0.51137684   -9.6322024    465.32852 0.0083320534 0.0064671364         3815 
 4655000   0.51204149   -9.6158986    464.48082 0.0083150881 0.0064646633         3834 
 4656000   0.50713584   -9.6047008    464.93125  0.008321364 0.0064621924         3827 
 4657000   0.50025297   -9.6175503    464.86667 0.0083184215 0.0064597216         3816 
 4658000   0.50868278   -9.6100653    464.37865 0.0083079048 0.0064572535         3817 
 4659000   0.50487464   -9.6204002    465.17808 0.0083204207 0.0064547835         3809 
 4660000   0.51156904   -9.6228421     464.2314  0.008301706 0.0064523155         3842 
 4661000   0.49448019   -9.6191153    464.48616 0.0083044798 0.0064498493         3817 
 4662000   0.51319499   -9.6221395    464.20621 0.0082976943 0.0064473862         3839 
 4663000   0.50216032   -9.6218521     464.9495 0.0083091982 0.0064449223         3830 
 4664000   0.49702594   -9.6256585    465.10868 0.0083102609 0.0064424596         3829 
 4665000    0.4943395    -9.610325    464.16423 0.0082916083 0.0064399998         3817 
 4666000   0.49642078   -9.6175453    464.84606 0.0083020084 0.0064375416         3833 
 4667000   0.50731966   -9.6160201    464.39825 0.0082922336 0.0064350818         3822 
 4668000   0.49384108   -9.6230788    464.73374 0.0082964463 0.0064326266         3855 
 4669000   0.50517408   -9.6162185    464.67472  0.008293616  0.006430173         3839 
 4670000   0.50809962   -9.6233592    464.59742 0.0082904607 0.0064277185         3823 
 4671000   0.50808728   -9.6266155    464.19836 0.0082815663 0.0064252673         3849 
 4672000   0.49997624    -9.625008     464.8707 0.0082917861 0.0064228167         3822 
 4673000   0.51051046    -9.621262    464.40882 0.0082817752 0.0064203659         3822 
 4674000   0.50712624   -9.6273926    463.79473 0.0082690545 0.0064179161         3822 
 4675000   0.50209765   -9.6229936     465.2387  0.008293025 0.0064154689         3847 
 4676000   0.50541023   -9.6110751     464.5729 0.0082793858 0.0064130212         3841 
 4677000   0.49992447   -9.6181684    464.55774 0.0082773456 0.0064105767         3845 
 4678000    0.5034104   -9.6121584    464.52671 0.0082750233 0.0064081313         3819 
 4679000   0.49379489   -9.6284561    464.26017 0.0082685077 0.0064056887         3836 
 4680000   0.51337332    -9.618131    463.73625 0.0082574119 0.0064032469         3813 
 4681000   0.50171779   -9.6253684    464.57335 0.0082705503 0.0064008059         3808 
 4682000   0.50121916    -9.630706    464.50272 0.0082675267 0.0063983675         3827 
 4683000   0.49932516   -9.6225015    464.09489  0.008258504 0.0063959314         3794 
 4684000   0.49302594   -9.6468173    463.70644 0.0082498298 0.0063934947         3844 
 4685000   0.50329573   -9.6200343    464.95164 0.0082702177 0.0063910592         3820 
 4686000   0.50795176   -9.6294595    464.34734 0.0082577063 0.0063886242         3823 
 4687000    0.4842252   -9.6189462    464.27692 0.0082546923 0.0063861908         3816 
 4688000   0.50809989    -9.625384    464.58836 0.0082584677 0.0063837606         3827 
 4689000   0.48962009   -9.6129366     464.8499 0.0082613545 0.0063813298         3825 
 4690000   0.49397529   -9.6170332    464.25597 0.0082490399 0.0063788992         3816 
 4691000   0.48483298   -9.6179311    464.30732 0.0082481937 0.0063764726         3829 
 4692000   0.50570416   -9.6163379    464.47049 0.0082493338 0.0063740477         3818 
 4693000   0.50836986   -9.6114185    463.96677 0.0082386314 0.0063716229         3845 
 4694000    0.4951167   -9.6346231    463.72049 0.0082325042 0.0063691987         3861 
 4695000   0.49772096   -9.6262961    463.97502 0.0082352683 0.0063667749         3830 
 4696000   0.49843464   -9.6314676    464.41472 0.0082413175 0.0063643535         3816 
 4697000   0.50180077   -9.6124674    465.08163  0.008251395 0.0063619339         3816 
 4698000   0.50492599   -9.6209115    464.23718 0.0082346598 0.0063595145         3803 
 4699000   0.50165866   -9.6252557    465.03268  0.008247015 0.0063570955         3816 
 4700000   0.48951411   -9.6126993    464.93746 0.0082435719 0.0063546789         3831 
 4701000   0.49607706   -9.6420374    464.07414 0.0082265146 0.0063522633         3838 
 4702000   0.49636329   -9.6215412     464.5678 0.0082335141 0.0063498481         3834 
 4703000   0.48495239   -9.6210261    464.16898 0.0082246967 0.0063474344         3832 
 4704000   0.49541666   -9.6339624    464.33829 0.0082259476  0.006345024         3845 
 4705000   0.49843885   -9.6153902    464.68129 0.0082302743 0.0063426135         3819 
 4706000   0.49447178   -9.6299173    464.45779 0.0082245677  0.006340202         3837 
 4707000   0.49645629   -9.6176454    464.30427 0.0082201024 0.0063377955         3843 
 4708000   0.49845967   -9.6188325    464.46699 0.0082212367 0.0063353897         3836 
 4709000   0.48431224   -9.6245466    464.65687 0.0082228512 0.0063329845         3825 
 4710000   0.48849663   -9.6327597    464.02804 0.0082099794 0.0063305791         3849 
 4711000   0.48847354   -9.6232391    463.93467 0.0082065851 0.0063281748         3821 
 4712000   0.49860436   -9.6270598    464.53494 0.0082154594 0.0063257725         3790 
 4713000   0.50171441   -9.6392902    465.33181 0.0082278063 0.0063233727         3813 
 4714000     0.492417   -9.6235883    464.19017 0.0082058791  0.006320973         3807 
 4715000   0.49531806   -9.6406992    463.76434 0.0081966125 0.0063185739         3842 
 4716000   0.49889566   -9.6187041    463.90785 0.0081974105 0.0063161765         3834 
 4717000   0.51145403   -9.6470153    464.52512 0.0082065776 0.0063137814         3836 
 4718000   0.48959214    -9.640277    464.24832 0.0081999492 0.0063113869         3833 
 4719000   0.49849808   -9.6353141    464.17465 0.0081969106  0.006308994         3817 
 4720000   0.49154108    -9.613777    465.12566 0.0082119644 0.0063066029         3821 
 4721000      0.49768   -9.6500513    463.60308 0.0081833488 0.0063042128         3813 
 4722000   0.49086377   -9.6368787    463.98062 0.0081882786 0.0063018225         3840 
 4723000   0.49189631    -9.635885    464.10872 0.0081888051 0.0062994343         3858 
 4724000   0.49795296   -9.6347567    464.62029 0.0081960959 0.0062970476         3831 
 4725000   0.49166593   -9.6168644     464.9255 0.0081997443 0.0062946605         3831 
 4726000   0.48968105   -9.6446772    464.46122 0.0081898227  0.006292276         3805 
 4727000   0.49450962   -9.6488902    463.93788  0.008178864 0.0062898926         3820 
 4728000   0.50062621   -9.6399401    464.06396 0.0081793562 0.0062875104         3837 
 4729000   0.51044647   -9.6389505    463.61898 0.0081697853 0.0062851285         3810 
 4730000   0.49478365   -9.6373102    464.47472 0.0081831346 0.0062827479         3811 
 4731000   0.49281193   -9.6489417    465.30351 0.0081960035 0.0062803687         3834 
 4732000   0.49949114    -9.622668    463.96558 0.0081707097 0.0062779913         3811 
 4733000   0.50759128   -9.6242552    463.76942 0.0081655296 0.0062756152         3841 
 4734000   0.50122762    -9.622237    463.86645 0.0081655127 0.0062732407         3818 
 4735000   0.48618063   -9.6438036    463.67866 0.0081604833 0.0062708669         3827 
 4736000    0.4966862   -9.6366799    464.24929 0.0081688009  0.006268493         3842 
 4737000   0.49371277   -9.6203239    464.50122 0.0081715083 0.0062661209         3818 
 4738000   0.48949996   -9.6365966    463.56746 0.0081533604 0.0062637511         3822 
 4739000   0.49115312   -9.6282209    464.49649 0.0081679765 0.0062613827         3821 
 4740000   0.49608407   -9.6405098    464.37555 0.0081641271 0.0062590148         3834 
 4741000   0.48590251   -9.6301904    463.44378 0.0081460273 0.0062566509         3827 
 4742000   0.50412169   -9.6320394    464.00057 0.0081540941  0.006254285         3834 
 4743000   0.48084261   -9.6265697    464.54984 0.0081620254 0.0062519199         3818 
 4744000   0.49263326   -9.6162732    464.14073 0.0081531186 0.0062495565         3819 
 4745000   0.49722358   -9.6389934    464.32253 0.0081545932 0.0062471938         3844 
 4746000   0.48857149   -9.6365448    464.50103 0.0081560091 0.0062448343         3836 
 4747000   0.48739554   -9.6407343    463.98692 0.0081452657  0.006242476         3855 
 4748000    0.4731066   -9.6476662    463.87133 0.0081415216 0.0062401187         3842 
 4749000   0.48645795   -9.6375235    463.63553 0.0081356695 0.0062377612         3828 
 4750000   0.49584961   -9.6302082    464.12477 0.0081425399 0.0062354054         3826 
 4751000   0.49673349   -9.6354988    464.70727 0.0081510431 0.0062330528         3830 
 4752000   0.48410472   -9.6512041    464.18974 0.0081402522 0.0062307009         3830 
 4753000   0.47751333   -9.6504674    464.08264 0.0081366617 0.0062283475         3831 
 4754000   0.48344365   -9.6473284     464.2443 0.0081377841 0.0062259958         3824 
 4755000   0.48297437   -9.6349446    463.42466  0.008121708  0.006223646         3806 
 4756000    0.4997207   -9.6136665     464.6084 0.0081407415 0.0062212983         3823 
 4757000   0.49966441   -9.6448491    463.65495 0.0081223275 0.0062189514         3805 
 4758000   0.49231889   -9.6354741      463.911 0.0081251052 0.0062166034         3860 
 4759000   0.48668538   -9.6406539    464.31098 0.0081304017 0.0062142559         3820 
 4760000   0.47993117   -9.6498187    463.10078 0.0081075067 0.0062119107         3819 
 4761000   0.48945556   -9.6479361    464.68283 0.0081334949 0.0062095664         3831 
 4762000   0.49087244   -9.6299685    463.67525 0.0081141546 0.0062072236         3826 
 4763000   0.48772387   -9.6387973    463.46702 0.0081088078 0.0062048813         3840 
 4764000   0.49163402   -9.6497508    463.85745 0.0081139353 0.0062025432         3834 
 4765000    0.4861755   -9.6403812    463.29672 0.0081024259 0.0062002041         3838 
 4766000   0.49408528   -9.6591513    464.38632 0.0081197776 0.0061978642         3841 
 4767000   0.49544914   -9.6413522    463.71243 0.0081062938 0.0061955277         3826 
 4768000   0.50614818   -9.6512374    463.80667 0.0081062407 0.0061931924         3828 
 4769000   0.48707185   -9.6530188    464.08389  0.008109385 0.0061908576         3835 
 4770000   0.49260659   -9.6344511    463.35702 0.0080949864  0.006188524         3833 
 4771000   0.48759938   -9.6519776    463.63953 0.0080982242 0.0061861919         3822 
 4772000   0.48772889    -9.637594     463.8281 0.0080998201 0.0061838617         3858 
 4773000   0.48360174   -9.6460863    464.09213 0.0081027329 0.0061815314         3838 
 4774000   0.48168133   -9.6389255    464.21545 0.0081031883 0.0061792019         3833 
 4775000   0.49212734    -9.638263    464.14894 0.0081003306 0.0061768748         3826 
 4776000   0.48476612   -9.6433198     463.9399  0.008094987 0.0061745508         3872 
 4777000   0.48500801   -9.6523566    463.81091 0.0080910424  0.006172226         3849 
 4778000   0.48514972   -9.6656218    463.95907 0.0080919329  0.006169904         3845 
 4779000   0.48795691   -9.6482463    463.52748 0.0080827139   0.00616758         3825 
 4780000   0.48534906   -9.6497827    463.94885  0.008088369  0.006165259         3846 
 4781000   0.49219628   -9.6586573    463.56717 0.0080800246 0.0061629389         3852 
 4782000   0.48342726   -9.6497975    463.29887 0.0080736595 0.0061606219         3817 
 4783000    0.4815538   -9.6531999    463.66375 0.0080783286 0.0061583035         3849 
 4784000   0.48255965   -9.6560203    463.85522 0.0080799752 0.0061559859         3846 
 4785000     0.491845   -9.6390253    464.34908 0.0080868874 0.0061536709         3811 
 4786000   0.48632291   -9.6479255     463.6892 0.0080737081 0.0061513569         3857 
 4787000   0.49213597   -9.6580448    463.03083 0.0080605604 0.0061490461         3844 
 4788000    0.4997413    -9.653416    463.29598 0.0080634916 0.0061467347         3849 
 4789000   0.49148893   -9.6549592      463.855 0.0080715355 0.0061444221         3849 
 4790000   0.48101649   -9.6331863    462.91809 0.0080535507 0.0061421112         3847 
 4791000    0.4771433   -9.6438683    463.53312 0.0080625673 0.0061398044         3823 
 4792000   0.47681271    -9.658979    464.47087 0.0080771924 0.0061374983         3849 
 4793000   0.47960194   -9.6584269    463.53436 0.0080592246 0.0061351924         3852 
 4794000   0.48360655   -9.6608416     463.8483 0.0080630006 0.0061328873         3855 
 4795000   0.48261042   -9.6589542    464.15133 0.0080665855 0.0061305855         3851 
 4796000    0.4778909   -9.6364868    464.31883 0.0080678139 0.0061282841         3835 
 4797000   0.48346641    -9.650118     463.8155 0.0080573883 0.0061259831         3826 
 4798000   0.49127281   -9.6524283    464.07976 0.0080602987 0.0061236825         3852 
 4799000   0.48384957   -9.6480514    463.44847  0.008047657 0.0061213823         3817 
 4800000   0.48194951   -9.6767887    463.67222 0.0080498649 0.0061190851         3856 
 4801000    0.4920546   -9.6587501    463.30218 0.0080417653 0.0061167872         3844 
 4802000    0.4821615   -9.6679718    463.28651 0.0080398186 0.0061144909         3849 
 4803000   0.48057838   -9.6499798    463.24878 0.0080374901 0.0061121954         3828 
 4804000   0.49081881   -9.6426981    463.91455 0.0080473659 0.0061099026         3802 
 4805000   0.48437491   -9.6551449    463.66872 0.0080414277 0.0061076115         3833 
 4806000   0.48384981   -9.6595471    463.29438 0.0080332636 0.0061053212         3824 
 4807000   0.47805598   -9.6527135    463.44417 0.0080341893  0.006103032         3843 
 4808000   0.48801243   -9.6409669    463.53545 0.0080341003 0.0061007449         3842 
 4809000   0.49345601   -9.6527819     464.0443 0.0080412474 0.0060984571         3823 
 4810000   0.48356391   -9.6528297    463.34599 0.0080274774 0.0060961707         3862 
 4811000   0.48125748    -9.649196    463.81165 0.0080338746 0.0060938848         3820 
 4812000   0.48364753   -9.6529843    463.80889 0.0080321572    0.0060916         3837 
 4813000   0.48541786   -9.6610841    463.73758 0.0080292537 0.0060893166         3857 
 4814000    0.4851475   -9.6754991    464.04487 0.0080329053 0.0060870343         3827 
 4815000    0.4759122   -9.6476976    463.21189 0.0080168205 0.0060847544         3856 
 4816000    0.4772703   -9.6638369     464.2878 0.0080337729  0.006082475         3853 
 4817000   0.48230367   -9.6589306    463.69296 0.0080218144 0.0060801968         3838 
 4818000   0.48565374   -9.6520418     463.7255 0.0080207122 0.0060779189         3824 
 4819000   0.48071963   -9.6647551     463.9038 0.0080221312 0.0060756423         3851 
 4820000   0.46693955     -9.63674    463.26576 0.0080094358  0.006073367         3857 
 4821000   0.48389277   -9.6601324    463.94421 0.0080195016 0.0060710938         3841 
 4822000     0.476276   -9.6557608    463.68333   0.00801333 0.0060688206         3831 
 4823000   0.47245893   -9.6574219    463.98423 0.0080168676 0.0060665492         3841 
 4824000   0.48045722   -9.6653139    463.29233 0.0080032534 0.0060642794         3854 
 4825000   0.47415518    -9.656524     463.3556 0.0080026874 0.0060620114         3837 
 4826000   0.48868372   -9.6547881    463.62085 0.0080056094 0.0060597441         3814 
 4827000   0.47041233   -9.6595928    463.71459 0.0080055693 0.0060574773         3858 
 4828000   0.49026623   -9.6610983    463.55723 0.0080011949 0.0060552117         3855 
 4829000   0.47122948   -9.6611956    462.64776 0.0079838434 0.0060529469         3836 
 4830000   0.48282084    -9.642318    464.00112 0.0080055404  0.006050683         3823 
 4831000   0.48165029   -9.6712212    463.56787 0.0079964098 0.0060484212         3851 
 4832000   0.47401464   -9.6551872    463.86091 0.0079998087 0.0060461606         3841 
 4833000   0.48463121   -9.6639589     463.7004 0.0079953859  0.006043902         3858 
 4834000   0.48116821   -9.6440347    462.99964 0.0079816515 0.0060416422         3842 
 4835000   0.47824537    -9.650657    464.05525 0.0079981946 0.0060393839         3839 
 4836000   0.48515016    -9.659529    463.70069  0.007990431 0.0060371266         3846 
 4837000   0.48663361   -9.6654067    464.22591 0.0079978277 0.0060348722         3873 
 4838000   0.47409002   -9.6560973    463.68769 0.0079869038 0.0060326175         3858 
 4839000   0.47513472   -9.6628741    463.96802 0.0079900809 0.0060303647         3832 
 4840000   0.48118142   -9.6508839     463.6447 0.0079828634 0.0060281129         3811 
 4841000   0.47597062   -9.6650523     463.6089  0.007980598  0.006025861         3881 
 4842000   0.46815805   -9.6806372    463.55924 0.0079780951 0.0060236107         3842 
 4843000    0.4813489    -9.662794     462.8765 0.0079646998 0.0060213612         3817 
 4844000   0.48248635   -9.6568582    463.60082 0.0079755165  0.006019114         3845 
 4845000   0.47806828   -9.6641816    463.83758 0.0079779426  0.006016868         3855 
 4846000   0.47013406    -9.671667    463.48141 0.0079701715 0.0060146222         3850 
 4847000   0.48433745   -9.6725444      464.347  0.007983409 0.0060123788         3824 
 4848000   0.46817047   -9.6560726    463.68664 0.0079704112 0.0060101361         3837 
 4849000   0.48297738   -9.6542931    464.10715 0.0079759943 0.0060078946         3834 
 4850000    0.4791708   -9.6731292    463.89989 0.0079707886 0.0060056536         3852 
 4851000   0.47808661   -9.6670758      463.141 0.0079561088 0.0060034145         3837 
 4852000   0.47439769   -9.6525528     462.7563 0.0079478617  0.006001177         3837 
 4853000   0.47257839   -9.6687651    463.67187 0.0079619457 0.0059989398         3840 
 4854000   0.46930605   -9.6677993    463.41355 0.0079558707 0.0059967036         3831 
 4855000   0.47800645   -9.6623262    462.88225 0.0079451123 0.0059944702         3849 
 4856000   0.47442611   -9.6813584    463.86288 0.0079603047 0.0059922354         3828 
 4857000   0.48366745   -9.6813846    463.35013 0.0079498684 0.0059900019         3865 
 4858000    0.4719562   -9.6682588     463.6679 0.0079536828 0.0059877703         3830 
 4859000   0.47239252   -9.6642117     463.8501 0.0079551707 0.0059855391         3815 
 4860000   0.47417246   -9.6784975    462.86615 0.0079366624 0.0059833093         3860 
 4861000   0.47104415   -9.6506435    463.64241 0.0079483373 0.0059810806         3833 
 4862000   0.47653618   -9.6711469    463.51226 0.0079444718 0.0059788541         3835 
 4863000   0.46318235   -9.6618005    463.63299  0.007944907 0.0059766268         3819 
 4864000   0.47923152    -9.677812     462.8595 0.0079300217 0.0059744017         3824 
 4865000   0.47437532   -9.6879157    462.90276 0.0079291326 0.0059721774         3850 
 4866000     0.488352   -9.6747174     463.1612  0.007931929 0.0059699552         3835 
 4867000   0.46937986   -9.6748374    463.96749 0.0079441047 0.0059677337         3843 
 4868000   0.47740258   -9.6718906    463.93042 0.0079418382 0.0059655139         3866 
 4869000   0.48334801   -9.6514412     463.6879 0.0079360564 0.0059632949         3852 
 4870000   0.48000483   -9.6740834    463.69307 0.0079345153 0.0059610777         3841 
 4871000   0.47814625   -9.6563195    463.34164 0.0079268739 0.0059588605         3829 
 4872000   0.47204076    -9.678936    463.92913 0.0079352958 0.0059566456         3832 
 4873000   0.47283979   -9.6811743    463.65562   0.00792899 0.0059544304         3835 
 4874000    0.4773117   -9.6614092    463.23643 0.0079201961 0.0059522182         3850 
 4875000   0.47519764   -9.6694536    463.74815 0.0079273188 0.0059500062         3839 
 4876000   0.46571093   -9.6667105    464.30995 0.0079352945 0.0059477941         3824 
 4877000   0.47785959    -9.672189    463.85778 0.0079259411 0.0059455846         3847 
 4878000    0.4672019   -9.6716335    463.65938 0.0079209269 0.0059433757         3850 
 4879000    0.4642037   -9.6722222    463.71457 0.0079202461 0.0059411693         3833 
 4880000   0.47237188    -9.675696    463.19213 0.0079097017 0.0059389612         3826 
 4881000   0.46819228    -9.689987    463.07049 0.0079060045 0.0059367543         3839 
 4882000   0.47018185   -9.6856499    463.46327 0.0079110895   0.00593455         3854 
 4883000   0.45513029   -9.6819569    462.96682  0.007900997 0.0059323461         3864 
 4884000   0.46885999   -9.6788881    463.30439  0.007905139 0.0059301437         3844 
 4885000   0.48100059   -9.6736144    463.89135 0.0079135338 0.0059279431         3860 
 4886000   0.47117215   -9.6594568    463.10395 0.0078984847 0.0059257425         3861 
 4887000   0.46837081   -9.6932709    463.73101 0.0079075611 0.0059235432         3842 
 4888000   0.45788852    -9.667483    463.37785 0.0078999225 0.0059213448         3831 
 4889000   0.45691746   -9.6724838    463.38784 0.0078984768 0.0059191481         3829 
 4890000    0.4702837   -9.6882583    463.29104  0.007895212 0.0059169525         3845 
 4891000   0.46259933   -9.6855332    463.84999 0.0079031212 0.0059147586         3824 
 4892000   0.46382911   -9.6746711    463.08577 0.0078884876 0.0059125641         3845 
 4893000   0.47761356    -9.655264    463.29563 0.0078904495 0.0059103709         3828 
 4894000   0.47080674   -9.6854959    463.87119 0.0078986376 0.0059081799         3847 
 4895000    0.4593773   -9.6847478    463.23098 0.0078861249 0.0059059917         3853 
 4896000   0.47572025   -9.6729377    462.60789 0.0078739088 0.0059038031         3835 
 4897000    0.4672934   -9.6717061    463.73365 0.0078914581 0.0059016145         3866 
 4898000   0.47664674   -9.6666413    463.15765 0.0078800471 0.0058994262         3858 
 4899000   0.46744844   -9.6691456    463.71864 0.0078879811 0.0058972403         3854 
 4900000    0.4626477   -9.6725721    462.57918 0.0078669929 0.0058950554         3830 
 4901000   0.45867404   -9.6745996    463.05618 0.0078734982 0.0058928728         3824 
 4902000   0.46283801    -9.696163    463.13671 0.0078732611 0.0058906893         3849 
 4903000   0.46066918   -9.6848541    462.95419 0.0078685531 0.0058885069         3849 
 4904000   0.46915675   -9.6900948     462.7994 0.0078643183 0.0058863254         3862 
 4905000   0.46233664   -9.6647657    462.78165 0.0078624134 0.0058841456         3839 
 4906000   0.46284787   -9.6812687     462.3281 0.0078531067 0.0058819665         3848 
 4907000   0.45980722   -9.6783679     463.5621 0.0078724629 0.0058797902         3828 
 4908000   0.46797637   -9.6797894    463.17055 0.0078642107 0.0058776138         3828 
 4909000   0.46158762   -9.6862867    462.68822 0.0078544208  0.005875439         3857 
 4910000   0.47023673   -9.6834733    462.78886 0.0078545292 0.0058732648         3879 
 4911000   0.45808609   -9.6823838    463.29876 0.0078615822  0.005871092         3837 
 4912000   0.46169324   -9.6684254    463.20071 0.0078583183 0.0058689196         3851 
 4913000   0.47024546   -9.6873878    462.83884 0.0078505807 0.0058667482         3873 
 4914000    0.4741313   -9.6695288     463.5732 0.0078614368 0.0058645789         3851 
 4915000   0.47115854   -9.6868397    463.26417 0.0078545976 0.0058624114         3846 
 4916000   0.46193064   -9.6634002    463.37026 0.0078547982 0.0058602428         3825 
 4917000   0.46995156   -9.6855962    463.75015 0.0078596392 0.0058580764         3837 
 4918000   0.46037411   -9.6803324    463.33124 0.0078509428 0.0058559109         3857 
 4919000   0.46079803   -9.6731684    462.46262 0.0078346314 0.0058537449         3856 
 4920000   0.46319174   -9.6773343    463.33295 0.0078477802 0.0058515811         3828 
 4921000   0.46075755   -9.6797279    462.93375 0.0078394255 0.0058494188         3847 
 4922000   0.45380585   -9.6745993    463.06138 0.0078399936 0.0058472589         3831 
 4923000   0.46295891   -9.6664058    463.31949 0.0078427701 0.0058450989         3824 
 4924000   0.45595909   -9.6687321    463.67398 0.0078471768 0.0058429403         3844 
 4925000   0.47080711   -9.6813034    462.82949 0.0078312942 0.0058407822         3855 
 4926000   0.45763096   -9.6773678    463.25251 0.0078368606 0.0058386256         3848 
 4927000   0.45318732   -9.6863893    463.19027 0.0078342174 0.0058364694         3867 
 4928000    0.4676655   -9.6900747    463.47583 0.0078374566 0.0058343147         3839 
 4929000   0.46790825     -9.68969    462.62777 0.0078215286 0.0058321621         3839 
 4930000   0.46245537   -9.6920606    463.43719  0.007833624 0.0058300106         3852 
 4931000   0.46019534   -9.6885223    463.03614 0.0078252575 0.0058278594         3846 
 4932000   0.46560133   -9.6699085    462.75061 0.0078188464 0.0058257107         3845 
 4933000    0.4669882   -9.6756996    462.96499 0.0078208831 0.0058235612         3851 
 4934000   0.47361352   -9.6897312    462.68468 0.0078145636 0.0058214123         3848 
 4935000   0.46199406   -9.6920045     462.5663  0.007810981 0.0058192645         3845 
 4936000   0.46094654   -9.7004146    463.20986 0.0078202637   0.00581712         3844 
 4937000   0.46292178   -9.6882648    462.79629 0.0078116989 0.0058149746         3823 
 4938000   0.46009299   -9.6713427    463.02742 0.0078140174 0.0058128312         3851 
 4939000   0.45720062   -9.6757513    463.33954 0.0078177017 0.0058106867         3824 
 4940000   0.45501849   -9.6923091    463.53974 0.0078194963 0.0058085442         3831 
 4941000   0.46260795    -9.687959    463.34759  0.007814673 0.0058064022         3844 
 4942000   0.45934855   -9.6827972    463.02678 0.0078076821 0.0058042625         3818 
 4943000   0.45812723   -9.6782049    463.05659 0.0078066051 0.0058021246         3830 
 4944000   0.45715381   -9.6794749    463.56288 0.0078135598 0.0057999868         3853 
 4945000   0.46032194   -9.6887364    462.24719 0.0077898078 0.0057978507         3840 
 4946000   0.47031809   -9.6687172    463.54037 0.0078100211 0.0057957153         3816 
 4947000   0.45636112   -9.6925326    463.52671 0.0078082122 0.0057935829         3855 
 4948000   0.45607328   -9.6996679    462.95787 0.0077970539 0.0057914513         3828 
 4949000   0.45137645   -9.6989491    462.44851 0.0077869016 0.0057893198         3843 
 4950000   0.45145993   -9.6754524    462.95473 0.0077938506 0.0057871877         3835 
 4951000   0.46257071   -9.6786542    463.60193 0.0078031698 0.0057850587         3864 
 4952000   0.45894943   -9.6790261    463.37401 0.0077977586 0.0057829302         3849 
 4953000   0.45446974   -9.6782952    462.82612 0.0077869662  0.005780803         3830 
 4954000   0.45650558   -9.6837202    463.23894 0.0077923384 0.0057786762         3835 
 4955000    0.4571015   -9.6855441    462.74006 0.0077823756 0.0057765505         3841 
 4956000   0.46135988   -9.6822315    462.87539  0.007783081 0.0057744254         3846 
 4957000    0.4483454   -9.6896516    463.46932 0.0077914954 0.0057723021         3843 
 4958000    0.4704247   -9.6808705    463.62156 0.0077924828   0.00577018         3830 
 4959000   0.46663634   -9.6889398    463.10009 0.0077821484 0.0057680593         3848 
 4960000   0.46002758   -9.6928939    463.45839 0.0077865993 0.0057659396         3857 
 4961000   0.46860175   -9.6899522    463.11452 0.0077792534 0.0057638205         3838 
 4962000   0.45767843   -9.6860875    462.29914 0.0077639921 0.0057617008         3847 
 4963000    0.4536819   -9.6875142     462.6884 0.0077689637 0.0057595851         3860 
 4964000   0.46694119   -9.6819637    463.60972 0.0077828653 0.0057574688         3810 
 4965000   0.46463331    -9.683229    462.49576 0.0077626008 0.0057553554         3844 
 4966000   0.44919425   -9.6892213    463.10316 0.0077712304 0.0057532408         3837 
 4967000   0.46672394    -9.687637    463.12429 0.0077700203 0.0057511276         3851 
 4968000   0.46030876   -9.6846112    463.20963 0.0077698878 0.0057490156         3853 
 4969000   0.46008576   -9.6900887    462.84208 0.0077621601  0.005746904         3832 
 4970000   0.45706037   -9.6958116    463.42223 0.0077703257 0.0057447935         3848 
 4971000   0.44875579   -9.6985812     462.7603 0.0077576661 0.0057426844         3825 
 4972000   0.45002291    -9.695195    463.15746 0.0077627624 0.0057405762         3838 
 4973000   0.45759921   -9.7063921    462.92363 0.0077572831 0.0057384692         3870 
 4974000    0.4542278   -9.6910389    463.00052 0.0077570118 0.0057363627         3863 
 4975000   0.45777463   -9.6918212    463.03472 0.0077560254 0.0057342576         3843 
 4976000   0.46268691   -9.6958005    462.49653 0.0077454537 0.0057321542         3841 
 4977000   0.45339567   -9.6980578    463.27196  0.007756881 0.0057300518         3839 
 4978000   0.45407809   -9.6791893    462.80891 0.0077475711 0.0057279509         3849 
 4979000   0.44390716    -9.704561     462.1309 0.0077346672 0.0057258511         3840 
 4980000   0.46503713   -9.6872425    463.50265 0.0077560685 0.0057237515         3849 
 4981000   0.45761197   -9.6916488    462.68671 0.0077408605 0.0057216526         3854 
 4982000   0.45706656   -9.6861098     463.2081 0.0077480279 0.0057195554         3852 
 4983000   0.46714105   -9.6935499    462.87323 0.0077408728 0.0057174595         3849 
 4984000   0.44317637   -9.6935942    463.68193 0.0077528413 0.0057153648         3860 
 4985000   0.45820018   -9.6862613     462.7788 0.0077361886 0.0057132701         3867 
 4986000   0.44948721   -9.6915418    463.06119 0.0077393568 0.0057111759         3839 
 4987000   0.46583722   -9.7085079    463.05729 0.0077377396 0.0057090837         3850 
 4988000   0.45334096   -9.6939631    463.19649  0.007738514 0.0057069921         3843 
 4989000   0.46154112   -9.6936806    462.77604 0.0077299399 0.0057049026         3845 
 4990000   0.45899693   -9.6853082    463.50536 0.0077405704  0.005702815         3840 
 4991000   0.45358927   -9.6974909    462.71426 0.0077258108 0.0057007256         3830 
 4992000   0.44540684   -9.6983077    462.49966 0.0077206807 0.0056986397         3856 
 4993000   0.45833516   -9.7049907    462.73112 0.0077229975 0.0056965543         3843 
 4994000   0.45525077   -9.6929696    462.44344 0.0077166506 0.0056944697         3838 
 4995000   0.46509755   -9.7033832    462.77214 0.0077205896 0.0056923842         3840 
 4996000   0.44622205   -9.7002909     462.7991 0.0077194939 0.0056903017         3838 
 4997000   0.45106019   -9.7077807    462.68538 0.0077160527 0.0056882213         3853 
 4998000   0.46345186    -9.714428    462.64367 0.0077138133 0.0056861396         3854 
 4999000   0.44768036   -9.6974881    462.74644 0.0077139835 0.0056840603         3828 
 5000000   0.45052928   -9.6926641    462.22703 0.0077037838 0.0056819812         3854 
 5001000   0.44753068   -9.6931965    463.29296 0.0077200053 0.0056799035         3851 
 5002000   0.45347031   -9.6978065    462.44216 0.0077042876 0.0056778272         3838 
 5003000   0.45670472   -9.6958328    463.28647  0.007716811 0.0056757516         3853 
 5004000   0.45395834   -9.7121313    462.30119 0.0076988608 0.0056736765         3857 
 5005000   0.45293129   -9.6960963    462.20592 0.0076957363 0.0056716025         3854 
 5006000   0.45714357   -9.6988499    462.87088 0.0077052683 0.0056695297         3848 
 5007000   0.44815136   -9.6864808    462.53664 0.0076981665 0.0056674587         3843 
 5008000   0.45876269   -9.7040471    462.93222 0.0077032119 0.0056653874         3859 
 5009000   0.44205322   -9.6803509    462.57786 0.0076957786 0.0056633185         3845 
 5010000   0.45386191   -9.7094362    463.24114 0.0077052752 0.0056612495         3822 
 5011000   0.44571002   -9.6953901    462.73563 0.0076953307 0.0056591828         3859 
 5012000   0.44713569   -9.6982961    462.31097 0.0076867346 0.0056571161         3838 
Loop time of 12985.6 on 48 procs for 5000000 steps with 4000 atoms

Performance: 66535.449 tau/day, 385.043 timesteps/s
99.4% CPU use with 48 MPI tasks x no OpenMP threads

MPI task timing breakdown:
Section |  min time  |  avg time  |  max time  |%varavg| %total
---------------------------------------------------------------
Pair    | 947.63     | 1041.2     | 1170.2     | 158.8 |  8.02
Neigh   | 89.523     | 93.25      | 98.594     |  24.2 |  0.72
Comm    | 804.28     | 938.84     | 1033.1     | 175.2 |  7.23
Output  | 18.263     | 18.269     | 18.352     |   0.3 |  0.14
Modify  | 10718      | 10771      | 10824      |  21.7 | 82.95
Other   |            | 123        |            |       |  0.95

Nlocal:        83.3333 ave          90 max          77 min
Histogram: 7 1 1 10 5 5 12 2 2 3
Nghost:        2403.29 ave        2426 max        2384 min
Histogram: 4 3 7 4 14 2 3 5 2 4
Neighs:        16467.0 ave       19428 max       14305 min
Histogram: 5 4 8 5 7 10 4 0 3 2
FullNghs:      32934.3 ave       35982 max       29669 min
Histogram: 2 5 1 7 8 5 9 7 2 2

Total # of neighbors = 1580848
Ave neighs/atom = 395.21200
Neighbor list builds = 266144
Dangerous builds = 0

#clear
#
#next RN
#
#jump SELF
Total wall time: 3:36:29
