
units lj                  # Use reduced LJ style units
atom_style atomic         # Uncharged point particles
atom_modify map hash      # Needed for indexing of clusters etc
                          # Used to be able to find where atoms are in relation to each other.

lattice fcc 1.0 spacing 1 1 1
Lattice spacing in x,y,z = 1.5874011 1.5874011 1.5874011
region box block 0 10 0 10 0 10 units lattice
create_box 2 box
Created orthogonal box = (0.0000000 0.0000000 0.0000000) to (15.874011 15.874011 15.874011)
  3 by 4 by 4 MPI processor grid
create_atoms 1 box
Created 4000 atoms
  using lattice units in orthogonal box = (0.0000000 0.0000000 0.0000000) to (15.874011 15.874011 15.874011)
  create_atoms CPU = 0.003 seconds
set type 1 type/fraction 2 0.58 78393
Setting atom values ...
  2338 settings made for type/fraction
mass 1 1.0
mass 2 1.0
pair_style lj/cut  3.5
pair_modify tail  yes
pair_coeff 1  1  1.0  1.0   # Intearaction between 1 and 1 set with epsilon = 1 and sigma = 1
pair_coeff 1  2  1.5  0.8
pair_coeff 2  2  0.5  0.88

write_data data.0
System init for write_data ...
Neighbor list info ...
  update every 1 steps, delay 10 steps, check yes
  max neighbors/atom: 2000, page size: 100000
  master list distance cutoff = 3.8
  ghost atom cutoff = 3.8
  binsize = 1.9, bins = 9 9 9
  1 neighbor lists, perpetual/occasional/extra = 1 0 0
  (1) pair lj/cut, perpetual
      attributes: half, newton on
      pair build: half/bin/atomonly/newton
      stencil: half/bin/3d
      bin: standard
WARNING: Not all mixed pair coeffs generated from mixing. Use write_data with 'pair ij' option to store all pair coeffs. (../write_data.cpp:312)


#############################
#   M E L T   S Y S T E M   #
#############################

velocity all create 2.4 9580093 mom yes dist gaussian # Assign velocities
                                                    # Temperature 2.4, random number seed, zero linear momentum
                                                                                # Gaussian distribution

timestep 0.002   # simulation timestep
thermo 1000       # output thermodynamic data every 1000 steps bf 100

# Define a fix  in this case with index 1 applied to all
# particles in the simulation. This fix is for simulations
# in the anisotropic NPT ensemble. Note that we use the MTK
# correction.
fix 1 all npt temp 2.4 2.4 0.1 iso 5.68 5.68 0.5 mtk yes tchain 5 pchain 5 # Use NPT ensemble
                                                                         # Set temperature and pressure and damping
                                                                         # Numbers of thermostats in chain and in barostat
run 10000          # run for 10000 steps
Per MPI rank memory allocation (min/avg/max) = 3.642 | 3.644 | 3.648 Mbytes
Step Temp E_pair E_mol TotEng Press Volume 
       0          2.4   -4.8268882            0   -1.2277882   -4.1002737         4000 
    1000    2.4321181   -4.5085489            0   -0.8612837    5.8072426    3644.3442 
    2000     2.354201   -4.5635102            0   -1.0330916    5.4510734    3644.0247 
    3000      2.35349   -4.6154682            0   -1.0861157    5.5979429    3597.3539 
    4000    2.4112841    -4.610911            0  -0.99488912    5.8378506    3588.8352 
    5000    2.3948135   -4.5603587            0  -0.96903653     5.949803    3598.3754 
    6000    2.3941206   -4.5366211            0  -0.94633795    5.5531292    3649.7061 
    7000    2.4055797   -4.6039707            0  -0.99650316    5.2963756     3627.126 
    8000    2.3750319   -4.5871138            0   -1.0254565    5.6631897    3609.8211 
    9000    2.3972343   -4.5542184            0  -0.95926592    5.8655575    3618.3456 
   10000    2.4381879   -4.5306694            0  -0.87430189    5.7711159    3629.3905 
Loop time of 2.67858 on 48 procs for 10000 steps with 4000 atoms

Performance: 645118.021 tau/day, 3733.322 timesteps/s
99.6% CPU use with 48 MPI tasks x no OpenMP threads

MPI task timing breakdown:
Section |  min time  |  avg time  |  max time  |%varavg| %total
---------------------------------------------------------------
Pair    | 1.1737     | 1.2716     | 1.3797     |   3.3 | 47.47
Neigh   | 0.21776    | 0.2252     | 0.25225    |   1.1 |  8.41
Comm    | 0.77207    | 0.91115    | 1.0058     |   4.8 | 34.02
Output  | 0.00024467 | 0.00024991 | 0.00032392 |   0.0 |  0.01
Modify  | 0.22918    | 0.25475    | 0.29327    |   3.6 |  9.51
Other   |            | 0.01559    |            |       |  0.58

Nlocal:        83.3333 ave          92 max          71 min
Histogram: 2 1 1 3 8 9 9 8 2 5
Nghost:        1751.88 ave        1776 max        1730 min
Histogram: 4 0 8 8 9 5 7 3 1 3
Neighs:        10516.3 ave       11807 max        8566 min
Histogram: 1 2 0 3 6 11 13 4 4 4

Total # of neighbors = 504783
Ave neighs/atom = 126.19575
Neighbor list builds = 907
Dangerous builds = 193

# Equilibrate just above the melting temperature to avoid step fn in T

fix 1 all npt temp 1.25 1.25 0.1 iso 5.68 5.68 0.5 mtk yes tchain 5 pchain 5
run 2000
Per MPI rank memory allocation (min/avg/max) = 3.644 | 3.646 | 3.650 Mbytes
Step Temp E_pair E_mol TotEng Press Volume 
   10000    2.4381879   -4.5306694            0  -0.87430189    5.7711159    3629.3905 
   11000    1.2565702   -6.6516556            0   -4.7672715    5.6673199    2787.9048 
   12000    1.2691199   -6.7407529            0   -4.8375491    5.7026959    2760.7094 
Loop time of 0.653192 on 48 procs for 2000 steps with 4000 atoms

Performance: 529093.944 tau/day, 3061.886 timesteps/s
99.7% CPU use with 48 MPI tasks x no OpenMP threads

MPI task timing breakdown:
Section |  min time  |  avg time  |  max time  |%varavg| %total
---------------------------------------------------------------
Pair    | 0.30232    | 0.32328    | 0.34473    |   1.9 | 49.49
Neigh   | 0.041418   | 0.043759   | 0.047475   |   0.5 |  6.70
Comm    | 0.21416    | 0.23663    | 0.26027    |   2.6 | 36.23
Output  | 5.2326e-05 | 5.6495e-05 | 6.9888e-05 |   0.0 |  0.01
Modify  | 0.040652   | 0.044601   | 0.048851   |   1.1 |  6.83
Other   |            | 0.004872   |            |       |  0.75

Nlocal:        83.3333 ave          91 max          77 min
Histogram: 3 3 8 6 6 7 6 7 1 1
Nghost:        2110.62 ave        2129 max        2089 min
Histogram: 1 4 2 5 9 7 5 5 7 3
Neighs:        13814.7 ave       15539 max       12220 min
Histogram: 3 7 2 5 7 6 7 9 1 1

Total # of neighbors = 663104
Ave neighs/atom = 165.77600
Neighbor list builds = 143
Dangerous builds = 13

#############################
# L I N E A R  Q U E N C H  #
#############################

# Define solid atoms. This closely follows ten Wolde  Ruiz-Montero and Frenkel  Faraday Discuss  1996  104  93-110
# Compute components of the per-atom q6 vector
compute q6 all orientorder/atom degrees 1 6 components 6 nnn NULL cutoff 1.3 # compute the Q6 parameter.
                                                                             # Use all neighbours within 1.3 unit cell.

# get number of connections
compute coord_number all coord/atom orientorder q6 0.5

# An atom is solid if it has 8 or more connections (of a possible 14)
variable is_solid atom c_coord_number>=8
group solid dynamic all var is_solid    # Must be dynamic to update
dynamic group solid defined

# do clustering
compute cluster solid cluster/atom 1.3 # Create a cluster where all atoms within are solid and max 1.3 units from another member

# define chunks one chunk per cluster
compute clus_chunks solid chunk/atom c_cluster nchunk every compress yes  # Says which atoms are in which chunk

# count the size of each chunk
compute size_chunks solid property/chunk clus_chunks count


# Find the maximum entry in the vector of chunk sizes
variable max_n equal max(c_size_chunks)


# Thermo style which includes this variable
# thermo_style custom step temp pe vol v_max_n

thermo ${N}  # Print the thermo information every 100 steps
thermo 1000  

# Reset the npt fix at a lower temperature (below freezing)
fix 1  all npt temp  ${temp} ${temp}  0.1  iso  5.68  5.68  0.5  mtk yes tchain  5  pchain  5
fix 1  all npt temp  0.45 ${temp}  0.1  iso  5.68  5.68  0.5  mtk yes tchain  5  pchain  5
fix 1  all npt temp  0.45 0.45  0.1  iso  5.68  5.68  0.5  mtk yes tchain  5  pchain  5

dump dmp2 all dcd ${N} traj.dcd
dump dmp2 all dcd 1000 traj.dcd


compute msd all msd com yes
variable twopoint equal c_msd[4]/6/(step*dt+1.0e-6)
fix 9 all vector 10 c_msd[4]
variable fit equal slope(f_9)/6/(10*dt)
thermo_style custom step temp pe c_msd[4] v_twopoint v_fit v_max_n

fix 1 all npt temp 1.25 ${temp} 0.1 iso 5.68 5.68 0.5 mtk yes tchain 5 pchain 5
fix 1 all npt temp 1.25 0.45 0.1 iso 5.68 5.68 0.5 mtk yes tchain 5 pchain 5
run 2000000 # 5000000  # Run for this many steps
Neighbor list info ...
  update every 1 steps, delay 10 steps, check yes
  max neighbors/atom: 2000, page size: 100000
  master list distance cutoff = 3.8
  ghost atom cutoff = 3.8
  binsize = 1.9, bins = 8 8 8
  4 neighbor lists, perpetual/occasional/extra = 1 3 0
  (1) pair lj/cut, perpetual
      attributes: half, newton on
      pair build: half/bin/atomonly/newton
      stencil: half/bin/3d
      bin: standard
  (2) compute orientorder/atom, occasional
      attributes: full, newton on
      pair build: full/bin/atomonly
      stencil: full/bin/3d
      bin: standard
  (3) compute coord/atom, occasional
      attributes: full, newton on
      pair build: full/bin/atomonly
      stencil: full/bin/3d
      bin: standard
  (4) compute cluster/atom, occasional
      attributes: full, newton on
      pair build: full/bin/atomonly
      stencil: full/bin/3d
      bin: standard
Per MPI rank memory allocation (min/avg/max) = 9.846 | 9.851 | 9.857 Mbytes
Step Temp PotEng c_msd[4] v_twopoint v_fit v_max_n 
   12000    1.2691199   -6.7407529 8.3343155e-31 5.7877188e-33 8.3333333e+20            3 
   13000    1.2478024   -6.7645469    0.4431153 0.0028404826  0.036272255            2 
   14000    1.2686455   -6.7771861   0.84295743 0.0050176036  0.033656712            2 
   15000    1.2298528   -6.7756472    1.3113101 0.0072850556  0.034850148            2 
   16000    1.2464926   -6.7507054    1.7510502 0.0091200531  0.036107703            2 
   17000    1.2525106    -6.775749    2.2000316  0.010784468  0.036206253            3 
   18000     1.251674   -6.8020691    2.7233476   0.01260809  0.037019964            4 
   19000    1.2479361   -6.7546213    3.1116306  0.013647502  0.037518667            2 
   20000    1.2482294   -6.7977001    3.5906549  0.014961062   0.03743034            9 
   21000    1.2439081    -6.785562    4.0215597   0.01595857  0.037491707            6 
   22000     1.267558   -6.7529818    4.4717547  0.016938464  0.037446383            7 
   23000    1.2454638   -6.7351966    4.9177446  0.017817915  0.037444302            3 
   24000    1.2522057   -6.7694453    5.4311769  0.018858253  0.037450667            7 
   25000    1.2595357   -6.7784124    5.8604347  0.019534782  0.037620085            1 
   26000    1.2803744   -6.7668283    6.3538093  0.020364773  0.037710347            1 
   27000    1.2553872   -6.7685163    6.6623979  0.020562956   0.03766997            2 
   28000    1.2498562   -6.8019069    7.0961161  0.021119393  0.037544384            2 
   29000    1.2185959   -6.7416799    7.4605364  0.021438323  0.037318587            2 
   30000    1.2449661   -6.8084967    7.7916846  0.021643568  0.037024036            5 
   31000    1.2588464   -6.7896089    8.2382259  0.022145768  0.036759479            2 
   32000    1.2621529   -6.7501251    8.5901419  0.022370161  0.036488619            6 
   33000    1.2240398   -6.7706005    9.0048186  0.022739441  0.036254269            5 
   34000     1.261375   -6.8166691    9.3685854  0.022962219    0.0360082            3 
   35000    1.2421742   -6.7717711     9.903036  0.023578657  0.035891506            1 
   36000    1.2249742   -6.7855917    10.222679  0.023663608  0.035769689            1 
   37000    1.2471431   -6.8115672    10.614819  0.023907249  0.035617126            5 
   38000     1.218818   -6.7596189    11.064124   0.02426343  0.035464413            2 
   39000    1.2389752   -6.7969957    11.463302  0.024494235  0.035343644            2 
   40000    1.2507131   -6.8005107    11.845782  0.024678713  0.035236413            4 
   41000    1.2307762   -6.7647397    12.257619   0.02491386  0.035154852            3 
   42000    1.2427009   -6.7815586    12.693771  0.025186054  0.035090741            4 
   43000    1.2394504   -6.7813404    13.141519   0.02546806  0.035019776            1 
   44000    1.2517353   -6.7971395    13.564912  0.025691121  0.034972841            3 
   45000    1.2046366   -6.8090563    13.814374  0.025582173  0.034907758            3 
   46000    1.2443077   -6.7937115    14.237264  0.025792144  0.034822757            2 
   47000    1.2424758   -6.7545446    14.702023  0.026067416  0.034763497            1 
   48000    1.2217632   -6.7832718    15.196185  0.026382265  0.034730959            2 
   49000    1.2424121   -6.7888565    15.554546  0.026453308  0.034716289            2 
   50000    1.2641358   -6.7442378    16.126703  0.026877837  0.034710116            3 
   51000    1.2416049   -6.7505228    16.362931  0.026736815  0.034690819            2 
   52000    1.2230952   -6.8158095    16.711021  0.026780482   0.03464714            1 
   53000    1.2374915   -6.7923789    17.115324  0.026910887  0.034595108            1 
   54000    1.2075068   -6.7738167    17.597813  0.027157118  0.034569315            3 
   55000    1.2215167   -6.8185705    17.978103  0.027239549   0.03454737            4 
   56000    1.2151216   -6.8739995    18.215964  0.027107089   0.03450811            1 
   57000    1.2385969   -6.7747825    18.807561  0.027496434  0.034465647            2 
   58000    1.2277099    -6.782234    19.225593  0.027622979  0.034455122            3 
   59000    1.2292529   -6.7949029    19.536225  0.027593538    0.0344252            8 
   60000    1.2366695   -6.7890787    19.895536  0.027632689  0.034395763            1 
   61000    1.2148069   -6.8323354    20.231013  0.027637995  0.034344049            4 
   62000    1.2248319   -6.8423392    20.609394  0.027700799  0.034283052            3 
   63000    1.2424842   -6.8206967    20.930199  0.027685448  0.034234836            2 
   64000    1.2368178   -6.8176974    21.341507   0.02778842  0.034167721            4 
   65000    1.2222173   -6.7835209    21.908704  0.028088081  0.034132366            2 
   66000    1.2270085   -6.7846793    22.363325  0.028236521  0.034105619            2 
   67000    1.2652494   -6.8285456     22.48806  0.027970224   0.03408137            2 
   68000    1.2261531   -6.8262328    23.007414   0.02819536  0.034034469            2 
   69000    1.2282133   -6.7661188    23.301572  0.028141995  0.033984394            5 
   70000    1.2454961   -6.8040263    23.585745  0.028078267  0.033930651            2 
   71000    1.2277268   -6.8058016    23.992913  0.028160695  0.033869975            2 
   72000    1.2538989   -6.8054206    24.512237  0.028370645  0.033820241            5 
   73000    1.2153968   -6.7853308     24.98589  0.028522706   0.03377518            2 
   74000    1.2132824   -6.8399257    25.144757  0.028316168  0.033734646            3 
   75000    1.2176775   -6.8490729     25.63819  0.028486878   0.03370084            2 
   76000    1.1899883   -6.8611731    25.921029  0.028422181  0.033660547            3 
   77000    1.2090637   -6.8167746    26.284495  0.028446422  0.033616115            1 
   78000    1.1881504   -6.8254045    26.713479  0.028540041   0.03357396            1 
   79000    1.2109749   -6.8268985    27.124587  0.028612434  0.033540653            5 
   80000    1.2193691   -6.8348281    27.689589  0.028843321  0.033511016            4 
   81000    1.2331512   -6.8026498    28.114838   0.02892473  0.033493593            3 
   82000    1.2207416   -6.8265529    28.397093  0.028858834  0.033471958            2 
   83000    1.2437753   -6.8408747    28.649463   0.02876452  0.033443801            2 
   84000    1.2134629   -6.8325757    29.064316  0.028833647  0.033416275            3 
   85000    1.2548852   -6.8767383    29.598444  0.029018082  0.033384988            3 
   86000    1.2256511   -6.8452995    29.891007  0.028964154  0.033364919            2 
   87000    1.1974412   -6.8478444    30.295595  0.029018769  0.033353972            2 
   88000    1.2182454   -6.8274394    30.809805  0.029175951   0.03334012            2 
   89000    1.1952008   -6.8196331    31.273738  0.029282526   0.03332231            2 
   90000    1.2244435      -6.8007    31.503824  0.029170208   0.03329546            3 
   91000    1.2156782    -6.847195    31.807952  0.029128161  0.033269744            3 
   92000    1.2214822   -6.8471103    32.094253  0.029070881  0.033239102            2 
   93000    1.1939985   -6.8822868    32.511874  0.029132503  0.033207267            5 
   94000    1.2262207   -6.8633715     32.82928  0.029103971  0.033179407            3 
   95000    1.2207136   -6.8126027    33.234606  0.029153163  0.033143362            2 
   96000    1.2235151   -6.8355085    33.610149  0.029175476  0.033105252            2 
   97000    1.2271775    -6.814806    33.951333  0.029167812  0.033071563            2 
   98000    1.2175252   -6.8621359    34.275989  0.029146249  0.033041929            2 
   99000     1.215628   -6.8067477    34.641061  0.029159142  0.033008305            1 
  100000    1.2193396   -6.8173692    35.110899  0.029259083  0.032977255            3 
  101000    1.2073895   -6.8394894    35.326983  0.029147676  0.032950773            1 
  102000    1.1836171   -6.8545187    35.774042  0.029227159    0.0329199            2 
  103000    1.2121635    -6.849399    36.234206    0.0293157  0.032894647            4 
  104000    1.1979188   -6.8682828    36.677694  0.029389177   0.03287435            4 
  105000    1.1949875   -6.8463827     37.07387  0.029423706  0.032853763            2 
  106000    1.2323344   -6.8613022     37.41698  0.029415865  0.032836668            1 
  107000    1.2395292   -6.8352221    37.840402  0.029470718  0.032820463            2 
  108000    1.2215245   -6.8518864    38.138073  0.029427525  0.032797696            3 
  109000     1.220749   -6.8216025    38.560504  0.029480508  0.032779224            3 
  110000    1.2194333   -6.8467002     39.08874  0.029612682  0.032764072            2 
  111000    1.1962083   -6.8491625    39.301021  0.029505271  0.032747758            2 
  112000    1.2257551   -6.9192764    39.472861  0.029369688  0.032727172            2 
  113000    1.1936431   -6.8668012     40.02631  0.029517928  0.032702017            4 
  114000    1.2000088   -6.8797138    40.198053  0.029384542  0.032679238            3 
  115000    1.2317535   -6.8692281     40.61804  0.029433362   0.03265554            3 
  116000    1.1831566   -6.9039532    41.013751  0.029463901  0.032634702            3 
  117000    1.2250561   -6.8863128    41.675764  0.029683593  0.032613965            2 
  118000    1.2310193   -6.8454227    41.992371  0.029655629  0.032602725            2 
  119000    1.2074297   -6.8588987    42.250009  0.029586841  0.032585746            3 
  120000    1.1823206   -6.8391422    42.633567  0.029606644   0.03256549            2 
  121000    1.2131437   -6.9121674    42.824481  0.029493444  0.032546915            2 
  122000    1.2242826   -6.8439493    43.403194   0.02964699  0.032527549            3 
  123000    1.2071709    -6.849327     43.82394  0.029691016  0.032511187            3 
  124000    1.2137121   -6.9554793    43.865464  0.029479478  0.032492613            8 
  125000     1.227361   -6.8335639    44.742731  0.029828487  0.032482544            2 
  126000      1.19981   -6.8865288    45.223062  0.029909432  0.032477303            3 
  127000    1.2154194   -6.8550642    45.707821  0.029992009  0.032472618            2 
  128000    1.2059692    -6.886183      45.8642  0.029859505  0.032470141            4 
  129000    1.2500959   -6.8869391    46.554311  0.030073844  0.032467671            1 
  130000     1.213279   -6.8368007    46.955879  0.030099922  0.032468895            2 
  131000    1.1878086   -6.8730596    47.099745   0.02996167  0.032469213            3 
  132000    1.1917013   -6.8840493    47.324296  0.029876449  0.032463397            2 
  133000     1.195849    -6.907355    47.406879  0.029703558  0.032450227            6 
  134000    1.2129011   -6.8996014    47.759508  0.029701186  0.032430494            3 
  135000    1.1780497   -6.9048475    48.013578  0.029638011    0.0324112            2 
  136000    1.1971563   -6.9063223     48.59762  0.029777953  0.032393437            2 
  137000    1.2080413   -6.8791076    48.708914  0.029628293  0.032372924            2 
  138000    1.2056911   -6.8474212    49.090895   0.02964426  0.032349527            2 
  139000    1.2205482   -6.8654075    49.624921  0.029751152  0.032331704            2 
  140000    1.2265897   -6.8447582    50.016946  0.029771992  0.032315385            4 
  141000    1.1780317   -6.9123096    50.136255  0.029631356  0.032295676            4 
  142000    1.1918791   -6.8748012    50.677747  0.029740462  0.032276412            3 
  143000    1.2067443   -6.8951184    51.130583  0.029796377  0.032258785            2 
  144000    1.1773717   -6.9042392    51.489107  0.029796937  0.032243504            1 
  145000     1.186298   -6.9366685    51.823275  0.029783491  0.032222519            2 
  146000    1.2066051   -6.9279129    51.883423  0.029613826  0.032198901            1 
  147000    1.2074638   -6.9388247    52.454617  0.029736177  0.032176912            4 
  148000    1.1839046   -6.9018506    52.716181  0.029682534  0.032158013            2 
  149000    1.2134109   -6.9342662    52.952073  0.029615253  0.032135532            1 
  150000    1.1628228   -6.8729757    53.467109  0.029703949  0.032111752            1 
  151000    1.2043224   -6.9436689    53.468027  0.029507741  0.032086962            2 
  152000    1.1787109   -6.9296937    53.820809  0.029507022  0.032058461            2 
  153000    1.1846094   -6.8961834    54.439816  0.029651316  0.032031932            4 
  154000    1.1798474   -6.8719179     55.02835  0.029777245  0.032010492            4 
  155000    1.2200313    -6.902576    55.076733  0.029611147  0.031991058            1 
  156000    1.2108699   -6.8919706    55.564446  0.029681862  0.031969385            4 
  157000     1.178278   -6.9151236    55.990924  0.029719174  0.031948831            1 
  158000    1.1675218    -6.913226    56.354869  0.029723032  0.031930384            6 
  159000    1.1882087   -6.8910554    56.936133  0.029840741  0.031914821            2 
  160000    1.1898789   -6.9076791    57.219167  0.029801649   0.03190001            1 
  161000    1.1811583   -6.8575762    57.339021  0.029678582  0.031881823            2 
  162000    1.1590663    -6.945561    57.711755  0.029687116  0.031860042            6 
  163000    1.1972922   -6.9099922    57.967988  0.029635985  0.031841983            4 
  164000    1.1870756   -6.9269253     58.12237  0.029533724   0.03182048            3 
  165000    1.2109729   -6.9120531    58.653984  0.029623224   0.03179535            3 
  166000    1.1931151   -6.9279773    58.666634  0.029451121  0.031770336            2 
  167000    1.1865252    -6.918185    59.191331  0.029536592  0.031742432            2 
  168000    1.1890294   -6.9031887    59.546131  0.029536771  0.031715931            4 
  169000    1.1951401   -6.9546813    59.760035  0.029467473  0.031691162            2 
  170000    1.1963797   -6.9069347    60.208315   0.02951388  0.031666896            2 
  171000    1.1732715   -6.9601158    60.427661  0.029448178  0.031644839            2 
  172000     1.192743   -6.9461083    60.570377  0.029346113  0.031619592            4 
  173000    1.1704465   -6.9344659    60.895991  0.029333329  0.031591404            3 
  174000    1.1850989   -6.9250907    61.561911  0.029483674  0.031564655            2 
  175000    1.1919359   -6.9517618    61.536232  0.029302967  0.031536176            6 
  176000    1.1821526   -6.9651164    61.935002  0.029325285  0.031509726            1 
  177000     1.170573   -6.9431059    62.775496  0.029555318  0.031485094            2 
  178000    1.1927244    -6.953574    62.799101  0.029400328  0.031461405            6 
  179000    1.2074569   -6.9595083    63.125143  0.029387869  0.031438828            1 
  180000    1.1920596   -6.8958438    63.678134  0.029480617  0.031420428            4 
  181000    1.1934919   -6.9710223    63.695849  0.029325897  0.031397506            4 
  182000    1.1901336   -6.9515797     64.22644   0.02940771  0.031376366            1 
  183000    1.2055653   -6.9642318    64.793388  0.029505186  0.031357083            2 
  184000    1.1771091   -6.9564342    65.150618   0.02950662  0.031338774            4 
  185000    1.1735373   -6.9765924    65.450703  0.029482298  0.031319222            4 
  186000    1.1887962   -6.9118798    65.891848  0.029521437  0.031303644            4 
  187000    1.1766582   -6.9299326    66.156364  0.029481445  0.031287742            1 
  188000    1.1575705   -6.9269837    66.704439   0.02956757  0.031271807            8 
  189000    1.1576617   -6.9498674     66.83821   0.02947011  0.031254569            2 
  190000    1.1770663    -6.939604    67.085513  0.029423471  0.031237083            3 
  191000    1.2020673   -6.9420506    67.540022  0.029467723  0.031216447            4 
  192000    1.1911503    -6.905523    67.854817  0.029450875  0.031197025            2 
  193000    1.1890473    -6.934295    68.228834  0.029459773  0.031179519            2 
  194000    1.1645424   -6.9940473    68.364813  0.029366328  0.031162639            4 
  195000    1.1897798   -6.9231601    68.967691  0.029473372   0.03114351            2 
  196000    1.1738567   -6.9368629    69.128297  0.029391283  0.031123736            2 
  197000    1.1519164    -6.981611    69.489971  0.029395081  0.031105275            3 
  198000    1.1738859    -6.976793    69.898603  0.029418604  0.031089663            5 
  199000    1.1741344   -6.9840289    70.266952  0.029425022  0.031074224            3 
  200000    1.1840924   -6.9487281    70.581282  0.029408867  0.031060189            2 
  201000    1.1666642   -6.9157748    71.245761  0.029538044  0.031048541            3 
  202000    1.1682829   -6.9666551    71.544245  0.029514952  0.031036218            2 
  203000    1.1718382   -6.9759347     71.85723  0.029498042  0.031020866            1 
  204000    1.1638301   -6.9531892     72.22817  0.029504971  0.031005065            3 
  205000    1.1856514   -6.9275367    72.468552  0.029458761  0.030989746            2 
  206000    1.1654198   -6.9754128    72.661062  0.029393633  0.030974529            3 
  207000    1.1630555   -6.9929358    72.919645  0.029355735  0.030958557            3 
  208000     1.139614   -6.9557599    73.630048  0.029499218   0.03094494            1 
  209000    1.1815587   -6.9485166    74.174044  0.029574978  0.030932567            3 
  210000    1.1873295    -6.957543    74.603893   0.02960472  0.030923172            3 
  211000    1.1502604   -6.8958714    75.024407  0.029630492  0.030913324            2 
  212000    1.1701898   -6.9266326    75.403994  0.029639935  0.030903998            2 
  213000    1.1785432   -6.9228545    75.752621  0.029637176  0.030895839            2 
  214000    1.1848986   -6.8957423     75.93093  0.029568119  0.030887015            3 
  215000     1.155875   -7.0208276    75.795717  0.029378185  0.030874331            3 
  216000     1.171325   -6.9555964     76.68597  0.029585637  0.030862646            2 
  217000    1.1422216    -6.922565    76.700174  0.029454752  0.030850468            3 
  218000    1.1673293   -6.9542029    76.796928  0.029356624  0.030836847            2 
  219000    1.1545922   -6.9231795    77.208201  0.029379072  0.030822872            2 
  220000    1.1503773   -6.9902975    77.634322   0.02940694  0.030809963            4 
  221000    1.1585536   -6.9877501    78.073639  0.029439532  0.030795925            2 
  222000    1.1558924   -6.9637536    78.194946  0.029352457  0.030782004            3 
  223000    1.1781226   -7.0011258    78.469431  0.029323405  0.030769707            5 
  224000    1.1911287   -6.9471133    79.249146  0.029482569  0.030756459            6 
  225000    1.1789286   -6.9711056    79.271109   0.02935967  0.030743999            5 
  226000    1.1400933   -7.0105793     79.54456   0.02933059  0.030729283            2 
  227000    1.1187203   -6.9716242    80.235908  0.029455179  0.030715607            1 
  228000    1.1720238   -6.9665121    80.677326  0.029487327  0.030702902            3 
  229000    1.1311678   -6.9529826    80.647335  0.029347647  0.030689067            3 
  230000    1.1798045   -6.9784274    80.966628  0.029335735  0.030675256            2 
  231000    1.1557025   -6.9462283    81.616689   0.02944325  0.030661377            8 
  232000    1.1642865   -6.9571537     81.60722  0.029312938  0.030650275            2 
  233000    1.1516491   -6.9658006    81.986597  0.029322817  0.030636326            4 
  234000    1.1675238   -6.9747595    81.901854  0.029167327  0.030619379            7 
  235000     1.181328   -6.9915252     82.30962  0.029187808  0.030602421            2 
  236000    1.1518453   -7.0007274    82.350771  0.029078662  0.030585866            4 
  237000    1.1620544   -7.0039577    83.185146  0.029249348  0.030570945            7 
  238000    1.1691886   -6.9830655    83.783157  0.029335839  0.030556987            6 
  239000    1.1410893   -7.0104511    83.654636  0.029168283  0.030543352            4 
  240000    1.1574745   -7.0036638    84.157242  0.029221265   0.03052903            1 
  241000    1.1687159   -6.9748144     84.86619  0.029345156  0.030516554            5 
  242000    1.1289929   -7.0102441    84.676565  0.029158597  0.030502355            2 
  243000    1.1601046   -7.0092602       85.049  0.029166324  0.030487806            5 
  244000    1.1606319   -7.0115794    85.471868  0.029191212  0.030471737            6 
  245000    1.1687974   -7.0158817    85.585441  0.029110694  0.030456645            2 
  246000    1.1455183   -6.9675842    86.512399  0.029306368  0.030441259            2 
  247000     1.179414   -7.0610594    86.227249  0.029091515  0.030427167            2 
  248000       1.1606   -7.0119469    86.467175   0.02905483  0.030411261            2 
  249000    1.1601212   -7.0327318    86.652558  0.029000187  0.030394687            2 
  250000    1.1516244   -7.0092423    86.798219   0.02893274  0.030377761            2 
  251000    1.1427272   -7.0322041    87.244142  0.028965518  0.030359239            3 
  252000    1.1354039    -6.964701     87.68061  0.028994911  0.030339563            2 
  253000    1.1426598   -7.0000506    87.844018   0.02893413  0.030319905            3 
  254000    1.1693452   -6.9741832    88.350155  0.028986271  0.030301971            4 
  255000    1.1503665   -7.0115516    88.299967  0.028856198  0.030283937            2 
  256000     1.163171   -7.0337755    88.896753  0.028937745  0.030265509            5 
  257000    1.1255532   -7.0094852    89.430483  0.028998211  0.030247495            2 
  258000    1.1532117   -7.0426025     89.45115   0.02889249  0.030228776            3 
  259000    1.1378572   -6.9849088    90.358377  0.029072837  0.030212209            2 
  260000    1.1459178   -7.0414773    90.340428  0.028955265  0.030195406            1 
  261000    1.1513164   -7.0179847    90.179653  0.028792993  0.030177548            2 
  262000    1.1564625   -7.0561224    90.875635  0.028904464  0.030160018            2 
  263000    1.1598294   -7.0391486    90.869282  0.028792548  0.030142988            7 
  264000    1.1451865   -7.0169763    91.275934  0.028811848  0.030124017            4 
  265000    1.1523553   -7.0315782    91.718035  0.028842149  0.030107537            2 
  266000    1.1578684   -7.0931255    91.834299  0.028770144  0.030089741            1 
  267000    1.1608183   -7.0322787    92.210986  0.028779958  0.030070797            3 
  268000    1.1541795   -7.0975669    92.094262  0.028636276  0.030050552            6 
  269000    1.1659056   -7.0304816     92.70193   0.02871807  0.030031035            3 
  270000    1.1416577   -7.0299129    93.030578  0.028713141  0.030011424            3 
  271000    1.1498802   -6.9854985    93.586282   0.02877807  0.029992124            6 
  272000    1.1755281    -7.023109    93.336313  0.028595684  0.029973016            3 
  273000    1.1515576   -7.0182629    93.783048  0.028627304  0.029952093            2 
  274000    1.1451905   -7.0542845    93.641579  0.028479799  0.029930838            4 
  275000     1.135636   -7.0056351    94.400796  0.028606302  0.029909018            3 
  276000    1.1305459   -7.0033971    94.298922  0.028471897   0.02988716            2 
  277000     1.140299   -7.0562731      94.5992  0.028459446  0.029865453            6 
  278000    1.1353361   -6.9887238    95.401733  0.028597642  0.029843874            2 
  279000    1.1534655   -7.0862806    95.393582  0.028492707  0.029823109            2 
  280000    1.1354869   -7.0707315    95.873327  0.028533728  0.029802953            1 
  281000    1.1463759   -7.0917482    95.937801  0.028451305  0.029783659            3 
  282000    1.1374866   -7.0242749    96.408722  0.028489575  0.029763918            4 
  283000    1.1267315   -7.0412964    96.868126  0.028524183  0.029745077            4 
  284000    1.1110958   -7.0579618    97.090725  0.028489062  0.029725035            3 
  285000    1.1597069   -7.0873645    97.200889  0.028421313  0.029705234            2 
  286000    1.1299959   -7.0190851    97.891212   0.02852308   0.02968668            4 
  287000    1.1517689   -7.0196942    98.077118  0.028477677  0.029668253            3 
  288000    1.1544059   -7.0239934    98.528625   0.02850944  0.029648747            3 
  289000    1.1448444    -7.069916    98.561353  0.028420228  0.029629504            1 
  290000    1.1156444   -7.0607632    98.559251  0.028321624  0.029609743            2 
  291000    1.1539871   -7.0602534     99.20432  0.028409026  0.029589881            8 
  292000    1.1261531   -7.0086561    99.326671  0.028346653  0.029569844            2 
  293000    1.1512698   -7.0541165    99.505271  0.028300703  0.029548908            2 
  294000    1.1291849   -7.0742976     99.48034  0.028197375  0.029526731            4 
  295000      1.13535   -7.0570137    100.02677  0.028256149  0.029505787            5 
  296000    1.1426322   -7.0868518    100.10689  0.028183246  0.029483858            2 
  297000    1.1276095   -7.0813478    100.28183  0.028137437  0.029461005            6 
  298000    1.1293362   -7.0411707    100.82417   0.02819468  0.029439573            6 
  299000    1.1475815   -7.0071046    101.39789  0.028260282  0.029418629            2 
  300000    1.1107011   -7.0543408    101.65548  0.028237632  0.029397916            3 
  301000    1.1163828   -7.0714087    101.77376  0.028176566  0.029376361            4 
  302000    1.1360513   -7.0146711     102.4794   0.02827798   0.02935439            4 
  303000    1.1226912   -7.0658344    102.47284  0.028182848   0.02933457            5 
  304000    1.1263541   -7.1178452    102.56611  0.028115709  0.029314141            2 
  305000    1.1287488   -7.0901783    103.12729  0.028176856  0.029294522            8 
  306000    1.1020752   -7.1126321    103.17358  0.028097379  0.029274504            1 
  307000    1.1303627   -7.0765127    103.72522  0.028155596  0.029254971            7 
  308000    1.1509737   -7.0515484    104.11319  0.028169153   0.02923654            2 
  309000    1.1252481   -7.1277311    104.25798  0.028117038  0.029216827            1 
  310000    1.1494874   -7.0815122    104.41906  0.028069639  0.029196618            3 
  311000    1.1493288   -7.0828743    104.78745  0.028078095  0.029176495            5 
  312000    1.1573566   -7.0448662    105.25413  0.028112749  0.029156442            3 
  313000    1.1430413   -7.0271529     106.0277  0.028228888  0.029137182            5 
  314000    1.1509164   -7.0845765    105.45353  0.027986607  0.029118413            3 
  315000    1.1244357   -7.0841313    105.69938  0.027962799  0.029098474            3 
  316000    1.1153591   -7.0906897     106.2186  0.028011234   0.02907903            2 
  317000    1.1406169   -7.0576035    106.56007  0.028012637  0.029058446            3 
  318000    1.1441463   -7.0809553    106.52007  0.027914063  0.029038227            1 
  319000    1.1270852   -7.1060367    106.77722  0.027893734  0.029016624            4 
  320000    1.1384909   -7.0760203    107.08958  0.027887912  0.028996549            3 
  321000     1.178641   -7.1319486    107.54539  0.027919364  0.028976678            5 
  322000    1.1170153   -7.0829151    108.04079  0.027960867  0.028957556            3 
  323000    1.1294125   -7.0304564    108.58853  0.028015617  0.028939358            4 
  324000    1.1114314    -7.074374    108.64561  0.027943829  0.028920691            4 
  325000     1.134159   -7.0857748    109.23666    0.0280094  0.028903551            4 
  326000    1.0989328   -7.0945464    109.21275  0.027917369  0.028885333            2 
  327000    1.1441227    -7.079076    109.33313  0.027862673  0.028867319            2 
  328000    1.1262898   -7.0664647    109.83265  0.027904637  0.028849817            1 
  329000    1.1462909   -7.0939248    110.16657  0.027904399  0.028832067            3 
  330000    1.1059601   -7.0841745    110.29629  0.027852599  0.028813475            3 
  331000    1.1508411   -7.0991666    110.65688  0.027859234  0.028795662            4 
  332000    1.1227363   -7.0585818    111.28277  0.027932423  0.028777995            4 
  333000    1.1281591   -7.0718705    111.35829  0.027867439   0.02876055            2 
  334000    1.1226216   -7.0903737    111.70486  0.027870474  0.028743455            3 
  335000     1.141497   -7.0879504    111.95607   0.02784977  0.028726265            3 
  336000    1.1040914   -7.0787566    112.05933  0.027792492  0.028708352            3 
  337000    1.1045086   -7.0570522    112.64524  0.027854906   0.02869033            6 
  338000     1.112841   -7.0524447    112.57227  0.027754505   0.02867187            2 
  339000    1.0939633   -7.1542016    112.16757  0.027573149  0.028652847            1 
  340000    1.1376559   -7.0942782    112.75619  0.027636321  0.028632833            7 
  341000    1.1295712   -7.0987011     113.0726    0.0276326  0.028612594            8 
  342000    1.1123713   -7.1289852      112.735  0.027469541  0.028592263            8 
  343000    1.1460872   -7.1374001    113.11878  0.027482696  0.028571159            2 
  344000    1.1018856   -7.1284764    113.48155  0.027490686  0.028549052            2 
  345000    1.1149165   -7.0756612    114.16506  0.027576103  0.028527727            2 
  346000    1.0956449   -7.1291672    114.37865  0.027547845  0.028507333            3 
  347000    1.1357426   -7.0989566    114.60369  0.027522499  0.028486715            3 
  348000    1.1182381    -7.113198    114.70774  0.027468329  0.028466294            3 
  349000    1.1042359    -7.114515    114.98113  0.027454903  0.028446751            2 
  350000    1.1466558   -7.1366074    114.76712  0.027325504  0.028425813            2 
  351000    1.1039159    -7.136343    115.32483  0.027380063  0.028405196            3 
  352000    1.0957662   -7.0668569    116.00806   0.02746403  0.028384201            6 
  353000    1.1180966   -7.1370525    115.91837  0.027365055    0.0283639            2 
  354000    1.1375013   -7.0979437    116.15992  0.027344613  0.028342947            1 
  355000    1.0824353   -7.1368597    115.94634  0.027217451  0.028322557            1 
  356000    1.1060994   -7.0915042    116.47553  0.027264872  0.028302311            1 
  357000    1.1091596   -7.1292437     117.0674  0.027326658  0.028282574            5 
  358000    1.1052364   -7.1410508    117.23227  0.027288704  0.028262879            3 
  359000    1.1052591   -7.1271878    117.54977  0.027286391  0.028242928            3 
  360000    1.0986224   -7.0965365    118.37374  0.027401329  0.028223528            5 
  361000    1.1346872   -7.0948386    118.52877  0.027361211   0.02820547            4 
  362000    1.1321234   -7.0892811    118.71829  0.027329257   0.02818728            4 
  363000    1.0816533    -7.114715    118.87735  0.027290484  0.028169357            3 
  364000    1.1209135   -7.1024321    119.53748   0.02736664  0.028151089            2 
  365000    1.0900769   -7.1215153    119.82387  0.027357047  0.028132526            4 
  366000    1.1331656    -7.094136    119.87546  0.027294048  0.028114339            9 
  367000    1.0949212    -7.149196    119.92222  0.027230295  0.028095495            5 
  368000    1.1069653   -7.1117867    120.54139  0.027296511  0.028077031            5 
  369000    1.1231556   -7.1567335    120.69657   0.02725758  0.028058796            5 
  370000    1.0825521   -7.1680344    121.14219  0.027284277  0.028041154            2 
  371000     1.094537   -7.1218235    121.62034  0.027318135  0.028024436            2 
  372000    1.1092033   -7.1397043    121.68394  0.027258948  0.028007999            3 
  373000    1.0996555   -7.1378875    121.87342  0.027228199  0.027991231           10 
  374000    1.1055793   -7.1515276    122.26198  0.027241973  0.027974392            4 
  375000    1.0870093   -7.1329987    122.40435  0.027200966  0.027957376            2 
  376000    1.1075292   -7.1233052     123.2648  0.027319325  0.027940233           11 
  377000    1.0886505   -7.1117689    123.33865  0.027263184  0.027923641            5 
  378000    1.1043658   -7.1873603    122.98016  0.027112029  0.027906066            8 
  379000    1.1011795   -7.1660157    123.14075  0.027075803  0.027888045            3 
  380000    1.1193367   -7.1466057    123.52133   0.02708801  0.027870001            3 
  381000    1.1010448   -7.1587694    123.92701  0.027105644  0.027851856            2 
  382000    1.1040249   -7.1183733    124.37898  0.027133286  0.027833753            6 
  383000     1.110695   -7.1325227    124.72558  0.027137855  0.027817144            4 
  384000    1.0972894    -7.171599    124.45235  0.027007888  0.027800001            1 
  385000    1.1040079   -7.1488363    125.15818  0.027090515  0.027783032            3 
  386000    1.0806456   -7.1440207    125.33469  0.027058439  0.027765477            2 
  387000      1.09936    -7.131927    125.47604  0.027018958  0.027747572            2 
  388000    1.1333584   -7.1360106    125.62343  0.026980977    0.0277295            3 
  389000    1.1186016   -7.1267608    125.91253  0.026973549  0.027711747            2 
  390000    1.0965515   -7.2054424    126.12714  0.026950244  0.027693862            4 
  391000    1.0754994   -7.1412441    126.45606   0.02695142  0.027676011            2 
  392000    1.1063053   -7.1686481    126.47642  0.026886995  0.027658375            3 
  393000    1.0868637   -7.1407796    127.03179  0.026936343  0.027640626            4 
  394000    1.1073285    -7.120369    127.34027  0.026933222  0.027623092            5 
  395000    1.1052883   -7.1618497    127.38462  0.026874392  0.027604817            3 
  396000     1.097526   -7.1400253    128.13107   0.02696361  0.027586807            3 
  397000    1.1150704   -7.1345586    127.90747  0.026848755  0.027568591            2 
  398000     1.093107     -7.17268    128.16048  0.026834271   0.02755091            5 
  399000    1.0926734   -7.2137222    127.57359  0.026644443  0.027532522            2 
  400000    1.0961953    -7.179082     128.2043  0.026709229   0.02751318            3 
  401000    1.0763455   -7.1850167     128.0418  0.026608854  0.027493438            3 
  402000    1.0797223   -7.1670419     129.0505  0.026751763   0.02747458            2 
  403000    1.0884785   -7.1839307    129.13693  0.026703252  0.027456011            3 
  404000    1.0661534   -7.1704263    129.40621  0.026692701   0.02743694            3 
  405000    1.1060554   -7.1825086    129.17275  0.026578755  0.027418167            4 
  406000    1.0778929   -7.1722395    130.19042  0.026722173  0.027400542            2 
  407000     1.095589   -7.1485297    130.66563  0.026753815  0.027382537            2 
  408000     1.094506   -7.2093305    130.20371  0.026593894  0.027364757            4 
  409000    1.1282136   -7.1972087    130.49843  0.026588922  0.027346042            2 
  410000    1.1120777    -7.200211    130.49709  0.026523799  0.027327084            6 
  411000    1.0921694   -7.1681424    131.20995  0.026603802  0.027309309            3 
  412000    1.0877093   -7.1561551    131.74866  0.026648192  0.027291707            4 
  413000    1.1179478    -7.134708    132.08656  0.026651848  0.027273566            7 
  414000    1.1000949   -7.1798952    132.01323   0.02657271  0.027255825            3 
  415000    1.0686964   -7.1728765    132.07122  0.026520325  0.027238315            4 
  416000    1.0724187   -7.1760797    132.63291  0.026569093  0.027220967            4 
  417000    1.0987375   -7.1876517    132.80219  0.026539207  0.027203115            3 
  418000    1.0908302    -7.186209    133.21459  0.026557932  0.027185061            2 
  419000    1.0759061   -7.2033982    133.14781  0.026481268  0.027166747            4 
  420000    1.0894521   -7.2011155     133.6134  0.026510596   0.02714891            6 
  421000     1.090802   -7.1696986    133.66181  0.026457206   0.02713065            2 
  422000    1.0739065   -7.2164236    133.73772  0.026409502  0.027113008            3 
  423000    1.0884544    -7.207618    134.05313  0.026409207  0.027094759            2 
  424000    1.0833188   -7.1996993    134.59698   0.02645381  0.027076256            3 
  425000    1.0769618    -7.194293    134.37724  0.026348478  0.027058002            2 
  426000    1.1049602   -7.2072467    134.61272  0.026332692  0.027039074            3 
  427000    1.0824429   -7.1913209    134.44309  0.026237917  0.027020081            4 
  428000    1.0613638   -7.2216129    134.73261  0.026232985  0.027000772            7 
  429000    1.1043039   -7.1978275    135.12179  0.026247433  0.026981898            7 
  430000    1.0980443   -7.2283242     135.4973  0.026259166  0.026962799            7 
  431000    1.1066673   -7.1931793    135.63378  0.026224628  0.026944059            8 
  432000    1.0720266   -7.2208289    135.87192  0.026209861  0.026925449            3 
  433000    1.0821703   -7.2588347    135.17189  0.026014605   0.02690679            6 
  434000    1.0951753   -7.2001383    136.34162  0.026179266  0.026888382            1 
  435000    1.1002403   -7.2483181    136.25238  0.026101988  0.026869538            2 
  436000    1.0525968   -7.2259978    136.49422  0.026088345  0.026849794            2 
  437000    1.0912853   -7.2343342    136.52853   0.02603519  0.026830373            2 
  438000     1.073769   -7.2113787    137.00646  0.026066677  0.026810935            7 
  439000    1.0893895   -7.2031161    137.59253  0.026118551  0.026791907            3 
  440000     1.081835   -7.2587336     137.6687  0.026073617  0.026772656            6 
  441000    1.0821472   -7.2444518    137.51784  0.025985985  0.026753302            3 
  442000    1.0881971   -7.2152009    137.90512  0.026000211  0.026734104            2 
  443000    1.0747179   -7.1898624    138.33033  0.026021506  0.026715149            8 
  444000    1.0868133   -7.2384158    138.15962  0.025930859  0.026695393            2 
  445000    1.0813863   -7.2316084    138.29714  0.025898342   0.02667532           10 
  446000    1.0706535   -7.2150274    138.95888  0.025963916  0.026655402            3 
  447000    1.0778762   -7.2272508    138.50455  0.025821132  0.026635749            4 
  448000    1.0770932   -7.2315794    138.98875  0.025853563  0.026615544            4 
  449000    1.0720104    -7.217818    139.31528  0.025856586  0.026595961            7 
  450000    1.0702949    -7.211643    139.72871  0.025875687  0.026576283            3 
  451000    1.0572388   -7.2324393     139.3182  0.025742461  0.026555649            7 
  452000    1.0647557   -7.2002177    139.56287  0.025730618  0.026534932            5 
  453000     1.055867   -7.2067276    140.35013   0.02581864   0.02651431            3 
  454000    1.0736692   -7.2083638    140.34868  0.025761505  0.026493852            3 
  455000    1.0626549   -7.2441712     140.4046  0.025715128  0.026473462            3 
  456000    1.0679669   -7.2512328    140.33198  0.025645464  0.026453436            2 
  457000    1.0739676   -7.2381712    141.00077  0.025711301  0.026433294            2 
  458000    1.0610739   -7.1599391    141.50969  0.025747759  0.026413425            3 
  459000    1.0891644    -7.203382    141.66904  0.025720596  0.026393914            2 
  460000    1.0659813   -7.2834892    141.00576  0.025544521  0.026374234            3 
  461000    1.0456475   -7.1784812    142.10975  0.025688675  0.026354716            2 
  462000    1.0719861   -7.2154776    142.57301  0.025716633  0.026335685            2 
  463000    1.0698896    -7.249344    142.16798  0.025588189  0.026316103            7 
  464000     1.061566   -7.2516725    142.08408  0.025517975  0.026296443            5 
  465000    1.0688841   -7.1825383    142.54682  0.025546025  0.026276692            4 
  466000    1.0640459   -7.2340735    142.63109  0.025506275  0.026256772            3 
  467000    1.0637477   -7.2360451     142.9878  0.025515311  0.026236135            3 
  468000    1.0640471   -7.2373389    143.40118  0.025534398  0.026216142           10 
  469000    1.0671605   -7.2601035    143.56306  0.025508717  0.026196349            5 
  470000    1.0775628   -7.2667249    143.74132   0.02548605  0.026176269            3 
  471000    1.0679254   -7.2252764    144.06275   0.02548881  0.026156578            4 
  472000    1.0840419   -7.2579251    144.28927    0.0254748  0.026136922            5 
  473000    1.0710679   -7.2279842    144.34541  0.025430833  0.026117389            3 
  474000    1.0456746   -7.2303864    144.76528  0.025450999    0.0260979            3 
  475000    1.0487996   -7.2435279    144.90408  0.025421768  0.026078508            4 
  476000    1.0710758   -7.2632402    144.67363  0.025328017  0.026059476            4 
  477000    1.0611923   -7.2848488    144.80304  0.025297526  0.026039558            2 
  478000    1.0763927   -7.2600465     145.3122  0.025333369  0.026019594            4 
  479000    1.0586216   -7.2527443    145.48135  0.025309908  0.025999267            4 
  480000    1.0742511   -7.2576601    145.75815  0.025305234  0.025979024            3 
  481000    1.0811892   -7.2535186    146.28932  0.025344651  0.025959162            6 
  482000    1.0414076   -7.2619716    146.42393  0.025315341   0.02593963            5 
  483000    1.0421967   -7.2210303    146.75635  0.025320281  0.025920321            3 
  484000    1.0642088    -7.282151    146.90894  0.025294239   0.02590132            2 
  485000     1.069174   -7.2555553    147.01591  0.025260465  0.025882533            6 
  486000    1.0709483   -7.2738346    147.60121   0.02530885  0.025863752            3 
  487000    1.0605956   -7.3028256    147.68433  0.025271104  0.025845135            4 
  488000    1.0726828   -7.2794818    147.54431  0.025195408  0.025826125            3 
  489000    1.0469947   -7.2879326    147.62147  0.025157033  0.025806886            6 
  490000    1.0621677   -7.2806737    148.17925  0.025200553  0.025788005            3 
  491000    1.0417211   -7.2615838    148.17341  0.025148236  0.025769602            3 
  492000    1.0425374   -7.2816139    148.53381  0.025158166  0.025750351            2 
  493000    1.0964413     -7.23913    149.11415  0.025205231  0.025731923            2 
  494000    1.0672607   -7.2508906     149.2787  0.025181966    0.0257136            7 
  495000    1.0733351    -7.264794    148.98079  0.025080941  0.025695034            4 
  496000    1.0550824   -7.3286941    149.01744  0.025036532  0.025676131            5 
  497000    1.0321222   -7.2416153    149.82545  0.025121637  0.025657663            4 
  498000    1.0638642   -7.2433433    150.56844  0.025195522  0.025639562            5 
  499000    1.0589872   -7.2787478    149.97121  0.025045292  0.025621693            4 
  500000     1.069556   -7.2581488    150.55708  0.025092846  0.025603655            8 
  501000    1.0461485   -7.2823497    150.66735  0.025061102   0.02558533            6 
  502000    1.0433747   -7.2615081    151.55844  0.025159104  0.025567071            2 
  503000    1.0388634   -7.3138873    151.05665  0.025025953  0.025548873            6 
  504000    1.0552895   -7.3064246     150.7067  0.024918435  0.025530491            3 
  505000    1.0387465   -7.2756409    152.09552   0.02509827  0.025512539            8 
  506000    1.0579242   -7.3000549    152.33837  0.025088664  0.025494926            7 
  507000     1.059757    -7.252093    152.74617  0.025106209  0.025477058            2 
  508000    1.0688351   -7.2618118    152.52552  0.025020591  0.025459176            6 
  509000    1.0622406    -7.299944      152.457  0.024960216  0.025441448            4 
  510000    1.0755741   -7.2479217    153.02507  0.025004096  0.025423869            3 
  511000    1.0338797   -7.2874044    152.98447  0.024948543  0.025406383            4 
  512000    1.0279753   -7.3097995    152.21992  0.024775378  0.025388317            3 
  513000    1.0381941   -7.3344023    152.51523  0.024775053  0.025369964            2 
  514000    1.0564229   -7.3427014    153.30941  0.024855611  0.025351986            3 
  515000     1.077829   -7.2732329    153.91302  0.024905019   0.02533427            3 
  516000    1.0484345   -7.2908525    153.98296   0.02486805  0.025316857           13 
  517000    1.0339787   -7.2925275     154.7371  0.024941505  0.025299448            5 
  518000    1.0405774   -7.2862168    153.99582  0.024774103  0.025281648            3 
  519000     1.040981   -7.2917102    154.79977  0.024855455  0.025264016            2 
  520000    1.0289048   -7.3266902    154.38013  0.024740405  0.025246384            7 
  521000    1.0576502   -7.3631223    154.69333  0.024743016  0.025228776            4 
  522000    1.0622252   -7.3467821    154.59415  0.024679782    0.0252107            6 
  523000    1.0551738   -7.3219408    154.99681  0.024696751   0.02519239            1 
  524000    1.0408438   -7.2851441     155.2283  0.024686435  0.025173862            2 
  525000    1.0493001   -7.2389491    155.78164  0.024727244  0.025155476            3 
  526000    1.0303539   -7.2660239    155.06139  0.024566127  0.025137017            4 
  527000    1.0348286   -7.2665988    156.05597  0.024676781  0.025118792            4 
  528000    1.0494396   -7.2830645    155.54362  0.024549183  0.025100377            4 
  529000    1.0592383   -7.3216968    155.95428  0.024567467   0.02508179            3 
  530000    1.0279835   -7.3249514    156.12927  0.024548627  0.025062899            4 
  531000    1.0412853   -7.2882633    156.91335  0.024625448  0.025044734            3 
  532000    1.0424007   -7.3366605    156.71379  0.024547899  0.025026739            2 
  533000    1.0557108   -7.3177655    157.00825  0.024547881  0.025008854            4 
  534000    1.0353616   -7.3229021    157.10923  0.024517669  0.024990583            2 
  535000    1.0415061   -7.3478442    157.31947   0.02450459  0.024971964            5 
  536000    1.0358493   -7.3492951    157.53485  0.024492358  0.024953398            7 
  537000    1.0326511   -7.2654118    157.80192  0.024488193  0.024935226            2 
  538000    1.0686859    -7.317727    157.93246  0.024462897  0.024917249            4 
  539000     1.055895   -7.3165202    158.11221  0.024445301   0.02489945            2 
  540000    1.0171301   -7.3635737    158.07126  0.024393713  0.024881285            3 
  541000    1.0351269   -7.3602166    158.25661  0.024377173  0.024863386            6 
  542000    1.0587741   -7.3350702    158.79371  0.024414778  0.024845505            6 
  543000    1.0337507   -7.3048279    158.93167  0.024390987  0.024827967            5 
  544000    1.0402976   -7.3009531    159.58813  0.024446711  0.024810345            7 
  545000    1.0455839   -7.3073463    159.89606  0.024448939  0.024792941            4 
  546000    1.0396109   -7.3172551    159.64616  0.024366019  0.024775319            4 
  547000    1.0221657   -7.3169861    159.71905   0.02433258  0.024757813            3 
  548000    1.0125839   -7.3440324    159.69202  0.024284067  0.024740263            5 
  549000    1.0157296   -7.3963672    159.66532  0.024235781  0.024722601            6 
  550000    1.0421453   -7.3216418    160.69353  0.024347505  0.024704816            7 
  551000    1.0260002   -7.2823169    160.69205  0.024303093  0.024687043           10 
  552000     1.011974   -7.3739077    160.57236  0.024240997  0.024669468            8 
  553000    1.0383234    -7.319098    160.97305  0.024257543  0.024651607            4 
  554000    1.0542061   -7.3000528    161.14742  0.024239985  0.024634165            6 
  555000    1.0132919   -7.3074418    161.37741  0.024230842  0.024616956            7 
  556000    1.0254075   -7.3626003    161.13278  0.024150597  0.024599098            7 
  557000    1.0302854   -7.3362823    161.37124  0.024142914  0.024581429            6 
  558000    1.0230758   -7.3600673    161.23072  0.024078662  0.024563106            2 
  559000     1.029194   -7.3580704    161.68099  0.024102711  0.024545016            5 
  560000    1.0343672   -7.3809843    161.90863  0.024093547  0.024527236            4 
  561000    1.0318028   -7.3704248    162.06121  0.024073263    0.0245093            3 
  562000    1.0304892   -7.3509963    162.45855  0.024089347  0.024491606            4 
  563000    1.0490339   -7.3721228    161.90242  0.023964242  0.024474065            3 
  564000    1.0286107    -7.358326    162.47349  0.024006131  0.024456456            4 
  565000    1.0501147   -7.3433118    163.13173  0.024060727  0.024438843            6 
  566000    1.0476292   -7.3580509     163.3137  0.024045008  0.024421184            4 
  567000    1.0108659   -7.3905584    163.31663  0.024003032  0.024403446            5 
  568000    1.0292282   -7.3706064    163.45954   0.02398174  0.024385661            3 
  569000    1.0207667   -7.3708904    163.61565  0.023962455  0.024367936            5 
  570000    1.0277737   -7.3575309    163.49053  0.023902125  0.024350201            3 
  571000    1.0100448   -7.3728324    164.29161  0.023977175  0.024332305            9 
  572000    1.0180576   -7.4155372    163.80014  0.023863657  0.024314881            7 
  573000      1.04316   -7.3637066    164.53704   0.02392918  0.024297057            3 
  574000    1.0290513   -7.3596315    164.45208  0.023875157  0.024279048            3 
  575000    1.0351336   -7.3549553    164.80135  0.023884253  0.024260973            2 
  576000    1.0273244   -7.3314423    164.92054  0.023860032  0.024242991            2 
  577000    1.0178469   -7.3448289    165.26239  0.023868051  0.024225477            2 
  578000    1.0096868   -7.3104804    165.89165  0.023917481  0.024208569            8 
  579000     1.008102   -7.3686585    165.97528   0.02388821  0.024191941            3 
  580000    1.0189224    -7.365635    166.09671   0.02386447  0.024174877            3 
  581000    1.0030869   -7.3374075    166.65729    0.0239038    0.0241583            3 
  582000    1.0376379   -7.3566692    166.07847   0.02377985  0.024141314            3 
  583000    1.0240519   -7.3876454    166.58063  0.023810839  0.024124148            3 
  584000    1.0243874   -7.3740087    166.96897  0.023825481  0.024107242           14 
  585000    1.0138711   -7.3565635    167.02872  0.023793265   0.02409036            2 
  586000    1.0377815   -7.3738969    167.60381  0.023834444  0.024073539            6 
  587000    1.0383551   -7.3953254    167.11852  0.023724946  0.024056693            6 
  588000    1.0181554   -7.3677813    167.52839  0.023742685  0.024039583            5 
  589000    1.0184057   -7.4007484     167.9122  0.023756679  0.024022203            4 
  590000     1.041994   -7.3542543    168.38478   0.02378316  0.024005854            5 
  591000    1.0223388    -7.324002    168.92964  0.023819745  0.023989581            3 
  592000    1.0186588    -7.334475    169.17285  0.023813746  0.023973541            4 
  593000     1.028853   -7.4046538    168.48442  0.023676844  0.023957305            3 
  594000    1.0265217   -7.3858996     168.1806   0.02359436  0.023940765            7 
  595000    1.0214139   -7.4044105    168.72123  0.023630424  0.023924108            6 
  596000    1.0149242     -7.37545    169.07289  0.023639945  0.023907498            3 
  597000     1.022224   -7.4434133    168.36246  0.023501181  0.023890422            6 
  598000      1.02098   -7.3961404    168.81737  0.023525275  0.023873002            2 
  599000    1.0302763   -7.3776126    168.94284  0.023503455  0.023855461            4 
  600000    1.0194153   -7.4138187    168.39215  0.023387799    0.0238377            5 
  601000    1.0283093   -7.4151232    169.33832  0.023480078  0.023819971            4 
  602000    1.0090684   -7.3942425    169.16136  0.023416578  0.023802627            2 
  603000   0.99868266   -7.3777327    169.66507  0.023447356  0.023785242            5 
  604000     1.017339   -7.3784264    169.99068   0.02345346  0.023767496            3 
  605000    1.0136561   -7.4038618    170.36771  0.023466626  0.023750183            3 
  606000    1.0153405   -7.4258581    169.91943  0.023366258  0.023732818            5 
  607000     1.019054   -7.4259683     170.4446  0.023399863  0.023715267            7 
  608000   0.99522138    -7.433411    170.18771  0.023326166  0.023697748            3 
  609000   0.99170816   -7.3794482     170.9806   0.02339636  0.023680263            5 
  610000    1.0055882   -7.4132184    170.55989  0.023300532  0.023662786            5 
  611000    1.0071719   -7.4518209    170.74664  0.023287867  0.023645042            3 
  612000    1.0119375   -7.3979593     171.6564  0.023373693  0.023627687            5 
  613000    1.0157801   -7.4334027    170.78921  0.023217674  0.023610273            6 
  614000    1.0061517   -7.4292839    171.56032  0.023284516  0.023592832            7 
  615000    1.0375627   -7.4147859    171.65337  0.023259264   0.02357554            4 
  616000    1.0193885   -7.4092649    172.03069   0.02327255  0.023558153            6 
  617000    1.0122473   -7.4946968     171.2324  0.023127013  0.023540452            9 
  618000    1.0004065   -7.4564139    171.47512   0.02312232  0.023522564            4 
  619000   0.99187677   -7.4392568    171.94962  0.023148844  0.023505191            7 
  620000   0.96687635   -7.4267112    172.57926  0.023196137  0.023487996            3 
  621000    1.0048352   -7.4320075    172.86468  0.023197085  0.023470482            2 
  622000   0.98940048   -7.4229795    173.24759  0.023211091  0.023453173           10 
  623000   0.99893143    -7.473446    172.95589  0.023134816  0.023435958            4 
  624000     1.014686   -7.4659593    172.87972  0.023087569  0.023418549            8 
  625000    1.0004326   -7.4294401    173.23271  0.023097695  0.023401586            7 
  626000    1.0066672   -7.4458294    173.52405  0.023099581  0.023384258           11 
  627000   0.97177739   -7.4570123    173.55229  0.023066492   0.02336689            3 
  628000   0.98069781   -7.4199513    173.55843  0.023030577  0.023349484           11 
  629000    1.0109125   -7.4143661    173.99524  0.023051834  0.023332089            2 
  630000   0.99476036   -7.4179116    174.17253  0.023038694  0.023314589            5 
  631000    1.0156517    -7.448456    173.34368   0.02289272   0.02329671            7 
  632000    1.0060168   -7.4408334    174.21478  0.022971358  0.023278808            6 
  633000    1.0015234   -7.4720452    173.42546  0.022831155  0.023260999            5 
  634000    1.0149179   -7.4486158     173.6594  0.022825894  0.023242946            3 
  635000   0.98600629    -7.513093    173.16209  0.022724683  0.023224839            4 
  636000   0.99380532   -7.4873302    173.99508  0.022798097  0.023206403            6 
  637000   0.98935957   -7.4370304    174.84664   0.02287371  0.023188074            5 
  638000   0.99294649   -7.4935873    174.44071  0.022784837   0.02316972            2 
  639000     1.005205   -7.4759717    174.16043  0.022712627  0.023151399            7 
  640000   0.98015287   -7.4471791    174.75739  0.022754869  0.023133107           11 
  641000    1.0019485   -7.4792654    174.51074  0.022687304  0.023114636            4 
  642000    1.0004824   -7.4506483    174.40031  0.022637631  0.023095896            4 
  643000     1.010179   -7.4351723    174.57741  0.022625377  0.023077216            4 
  644000    1.0134345   -7.4447199    175.45994  0.022704443  0.023059035            4 
  645000    1.0268228   -7.5065518    175.14881  0.022629046  0.023040438            5 
  646000    1.0031547   -7.4538526    175.36069  0.022621347   0.02302175            3 
  647000    1.0019607   -7.4731311    174.92799  0.022530653  0.023003194            3 
  648000    1.0173598   -7.4360648    175.36071  0.022551532  0.022984623            6 
  649000    1.0111721   -7.4277949    176.15916  0.022619307  0.022966312            6 
  650000   0.97348434   -7.4640691    175.31719  0.022476563  0.022947857            3 
  651000    1.0210979   -7.4763781    175.46422  0.022460857  0.022929133            3 
  652000   0.99052442   -7.4521612    176.03444  0.022499289  0.022910315            4 
  653000   0.97493246   -7.4561453    176.23371  0.022490264  0.022891676            5 
  654000    0.9729711    -7.467862    176.24848  0.022457758  0.022872838            6 
  655000   0.99726013    -7.466802    176.27933  0.022427396   0.02285417            4 
  656000    1.0020283    -7.505934    176.11472  0.022372296  0.022835353            5 
  657000    1.0069536   -7.4641454    176.29491  0.022361099  0.022816559            9 
  658000   0.98767498   -7.4706891    176.99192  0.022415391  0.022798314            8 
  659000    1.0175228   -7.4787162    176.70112  0.022344604  0.022779843            3 
  660000   0.98748122   -7.4574016    177.47293  0.022408198  0.022761419            4 
  661000   0.99781717   -7.4518639    176.86364  0.022297484  0.022742786            7 
  662000   0.99044584    -7.437965    177.85923  0.022389128  0.022724359            6 
  663000   0.98153537   -7.5089837    177.39216  0.022296651  0.022705909            5 
  664000    0.9869436   -7.4814356    177.44393   0.02226957  0.022687089            8 
  665000   0.97498816   -7.4779674    177.43333  0.022234753  0.022668312            4 
  666000   0.97748173   -7.4453531    178.00403  0.022272777  0.022649727            5 
  667000   0.98223182   -7.4515463    178.20825  0.022264898  0.022630869            3 
  668000   0.98143222   -7.4755005    178.33572   0.02224747  0.022612104            5 
  669000   0.97773188   -7.4889259    177.60177  0.022122791   0.02259343            6 
  670000    1.0057078   -7.4900547    178.13046   0.02215553  0.022574729            5 
  671000   0.98123919   -7.4629395    177.81035  0.022082756   0.02255633           10 
  672000   0.98082034   -7.4705982    178.22724  0.022101592  0.022537868            7 
  673000   0.97192731   -7.4690461    179.26309  0.022197014  0.022519544            4 
  674000    1.0014932   -7.4481838    179.10528   0.02214457  0.022501198            5 
  675000   0.98411289   -7.5042837    179.19955  0.022123401  0.022482913            9 
  676000   0.99268486   -7.4852672      179.208  0.022091716  0.022464779           11 
  677000   0.96737645   -7.4800072    179.46219  0.022090373  0.022446299            2 
  678000   0.99302399   -7.4940355    179.36773  0.022046181  0.022428151            6 
  679000   0.97989632   -7.4710376     179.9412  0.022084094  0.022410003            4 
  680000   0.97986072   -7.4681191    180.55321  0.022126619  0.022391939            2 
  681000   0.98602122   -7.5175632    179.39803   0.02195277  0.022373743            7 
  682000   0.96957385   -7.5179845    180.16692  0.022014531  0.022355359            4 
  683000   0.98954378   -7.5155651    180.03944  0.021966745  0.022336673           16 
  684000   0.99954806   -7.5496229    179.75649  0.021900158  0.022318085            3 
  685000   0.96487375   -7.4907757    180.35128  0.021940545  0.022299607           13 
  686000   0.98640608    -7.511519    180.47411  0.021923483  0.022281323            5 
  687000   0.97401502   -7.4708085    181.24734  0.021985364  0.022263213            8 
  688000   0.98327751   -7.4986666    181.16415  0.021943332   0.02224562            4 
  689000   0.99843967   -7.4702436    181.52155  0.021954711  0.022228085            4 
  690000   0.97316898   -7.5037915    181.47427  0.021917182  0.022210465            4 
  691000   0.97072574   -7.5114322    181.62838   0.02190405  0.022192638            6 
  692000   0.98496884    -7.480294     182.0428  0.021922303  0.022174845            4 
  693000   0.97650636    -7.524186    182.12402  0.021900435  0.022157086            4 
  694000   0.97759171    -7.488862    181.88383  0.021840038  0.022139454            7 
  695000   0.97688808    -7.510044    181.97955   0.02182009  0.022121459            7 
  696000   0.96196876    -7.494983    182.17214  0.021811798  0.022103681            3 
  697000   0.97749074   -7.5055344    181.99004  0.021758732  0.022085906            5 
  698000   0.98173705   -7.4950051    182.19123   0.02175158   0.02206776            4 
  699000   0.96741086   -7.5205454    182.68232  0.021779008   0.02204998            3 
  700000   0.99340563   -7.5329143    182.46935  0.021722542  0.022031958            8 
  701000   0.94083248   -7.5405767    181.77801  0.021609368  0.022013725            5 
  702000   0.96454925   -7.5227241    182.60671   0.02167696  0.021995235           10 
  703000   0.95731902   -7.4935787    183.06481  0.021700428  0.021976819            5 
  704000   0.97160207   -7.4973335    183.34633  0.021702927  0.021959017            5 
  705000   0.95113217   -7.5203544    182.91944  0.021621683  0.021941149            3 
  706000   0.98831849   -7.5091519    183.98328  0.021716628  0.021923604            3 
  707000    0.9548594   -7.5182519    183.52367  0.021631738  0.021905785            7 
  708000   0.99869665   -7.5389882    182.92311  0.021530497  0.021888031            4 
  709000   0.98429022   -7.5561298     183.3969  0.021555818  0.021870193            4 
  710000   0.95134191     -7.52074    183.88503   0.02158275  0.021852595            8 
  711000   0.96455289    -7.542107    183.81201  0.021543836  0.021834882            7 
  712000   0.96678229   -7.5794265    183.48225  0.021474983  0.021816785            4 
  713000   0.97291772     -7.54648     184.3016  0.021540626  0.021798554            8 
  714000   0.97943867   -7.5694054    183.69915  0.021440143  0.021780325            3 
  715000   0.96537411   -7.5660411    184.18765  0.021467092  0.021762194            7 
  716000   0.96614678   -7.5686956    184.35533  0.021456626  0.021744308            6 
  717000   0.97598445   -7.5619994    184.15979  0.021403973  0.021726271            5 
  718000   0.96104954   -7.5360893    184.69108  0.021435826  0.021708148            6 
  719000   0.99621552   -7.5387156    183.97663  0.021323207  0.021690144            3 
  720000   0.96994912   -7.5583437    184.48166  0.021352044  0.021671891            2 
  721000   0.95756212   -7.5065927    184.88223  0.021368727  0.021654224            7 
  722000   0.97271021   -7.5534526    185.07601  0.021361497  0.021636382            5 
  723000   0.98189715   -7.5550466    185.25019  0.021352027  0.021618408            3 
  724000   0.96453023    -7.552113    185.27895  0.021325846  0.021600363            4 
  725000   0.96557388   -7.5810052     185.2508  0.021293196  0.021582613            3 
  726000   0.96917855   -7.5252757    185.89621  0.021337949  0.021564771            3 
  727000    0.9701919   -7.5587351    185.72883  0.021289411  0.021546855            8 
  728000   0.97590501   -7.5417315    185.75968  0.021263699  0.021528926            7 
  729000   0.94576343   -7.5641831    185.51484  0.021206543  0.021510778            5 
  730000   0.94902118   -7.5819824    185.69982   0.02119861  0.021492976            7 
  731000   0.97339935   -7.5866033    185.87551  0.021189638   0.02147504            7 
  732000   0.97652316   -7.5675666    185.75642  0.021147134  0.021457202            3 
  733000    0.9526348   -7.5717223    186.60142  0.021214349  0.021439611            5 
  734000   0.96263023   -7.4966911    186.56271  0.021181052  0.021421875            6 
  735000   0.96021862   -7.5668289    186.64323  0.021161364  0.021404009            1 
  736000   0.96291212   -7.5759883    186.25671  0.021088848  0.021386264           10 
  737000   0.95028324   -7.5212486    187.35704   0.02118465  0.021368607            8 
  738000    0.9489468   -7.5008749    187.20242  0.021138484  0.021351138            3 
  739000    0.9479915   -7.5348464    187.05872  0.021093676  0.021333475            6 
  740000   0.96795976    -7.565638    186.87601  0.021044596  0.021315742           10 
  741000   0.97276869   -7.5503339    186.56966  0.020981743  0.021297749           10 
  742000   0.95998213   -7.5439149    187.12182  0.021015478  0.021279764            2 
  743000   0.94721478   -7.5900244    187.32866  0.021010392  0.021261985            8 
  744000   0.96440168   -7.5869543    187.03994  0.020949814  0.021244166            4 
  745000   0.97331522   -7.5942718    187.36099  0.020957605  0.021226247            4 
  746000   0.96910894   -7.5968728    188.00554  0.021001512  0.021208316            5 
  747000   0.93487692   -7.6051591     187.1081  0.020873282  0.021190508            4 
  748000   0.92587161   -7.5652432    188.17991  0.020964785  0.021172717            5 
  749000   0.95351371   -7.5440751    187.86768  0.020902056  0.021155256            3 
  750000   0.95036801   -7.5764021    187.77281  0.020863646  0.021137591            4 
  751000   0.98158764   -7.5905484    188.14158  0.020876784   0.02111978           13 
  752000    0.9642009   -7.5717673    188.43169  0.020881171  0.021102181           11 
  753000   0.94361603   -7.5809444    189.08328  0.020925552  0.021084684            4 
  754000    0.9458302   -7.5852901    188.66235  0.020851276  0.021067076            4 
  755000   0.93561084   -7.5613511    188.90203  0.020850114  0.021049471            5 
  756000   0.96001731   -7.5877959    188.96529  0.020829507  0.021031864            5 
  757000   0.93031082     -7.59814    188.58173  0.020759768  0.021013963            8 
  758000   0.95187813   -7.5924814     188.8311  0.020759796  0.020996254            4 
  759000    0.9519308   -7.5722925    189.20388  0.020773373  0.020978609            4 
  760000   0.96299793   -7.6214301    188.87507  0.020709986  0.020960836            5 
  761000   0.95337974   -7.6481631    188.87962   0.02068327  0.020943127            6 
  762000   0.95608628    -7.616996     189.5958  0.020734448  0.020925633            3 
  763000   0.95927049   -7.5992594    189.41501  0.020687529  0.020908059           13 
  764000   0.91767996   -7.6406141    189.48911  0.020668533  0.020890555            7 
  765000   0.94843957   -7.6181132    189.40688  0.020632558  0.020873097            3 
  766000   0.95101086    -7.563814    190.14623  0.020686057  0.020855757            4 
  767000   0.96933643   -7.6049366    190.62232  0.020710812  0.020838436            8 
  768000    0.9364696    -7.650758    189.77926  0.020592368  0.020821026            7 
  769000   0.92922322   -7.6235712    189.77512  0.020565141  0.020803437            9 
  770000   0.92827109   -7.5962422    189.82426  0.020543752  0.020785657            4 
  771000   0.95199282   -7.6101986    189.84096  0.020518911  0.020767827            9 
  772000   0.94328889   -7.6129959     190.3774  0.020550238  0.020749868            3 
  773000   0.94715634   -7.5999145    190.39659  0.020525721  0.020732188            7 
  774000   0.95064959   -7.6100685    190.26933    0.0204855  0.020714389            6 
  775000   0.93180384   -7.5640137    190.62045  0.020496823  0.020696626            5 
  776000    0.9284941   -7.5811993    190.60963  0.020469248  0.020679142            9 
  777000   0.95509882   -7.5890477    190.96806  0.020481345  0.020661476            4 
  778000   0.96485759   -7.6245332    190.43022   0.02039741  0.020643802            3 
  779000   0.94857425   -7.6394308     190.8796  0.020419298  0.020626081            6 
  780000   0.94026714   -7.6196997    191.07809  0.020414325  0.020608354            7 
  781000   0.95237411   -7.6133922    191.33089  0.020415161    0.0205908            5 
  782000   0.92335592   -7.6252787    191.15731  0.020370557  0.020573204            2 
  783000   0.94729789   -7.6000482    191.00202  0.020328014  0.020555528            4 
  784000   0.93119523   -7.6191847      190.697  0.020269664  0.020537554            7 
  785000   0.94201882   -7.6374259    190.78981  0.020253695  0.020519499            8 
  786000    0.9341534   -7.6573611    191.29149  0.020281117  0.020501704            5 
  787000   0.94916208   -7.6025226    191.41161  0.020268066  0.020483984            4 
  788000   0.91810322   -7.6314445    191.94192  0.020298426  0.020466272            5 
  789000   0.95604963   -7.6049458     191.6233  0.020239048  0.020448657            7 
  790000   0.95623249   -7.6396721    191.46476  0.020196705  0.020430789            4 
  791000   0.93991588   -7.6509933    191.98472   0.02022595  0.020412888            3 
  792000   0.94877837   -7.6537492    191.27481  0.020125717  0.020394998            8 
  793000    0.9418393   -7.6537254    191.24704  0.020097419  0.020376871            5 
  794000   0.92916815   -7.6471974    191.92534  0.020143297  0.020358666            7 
  795000   0.95079965   -7.6188145    191.78892   0.02010366  0.020340707            8 
  796000   0.95070359   -7.6496509    191.97063  0.020097428   0.02032261            5 
  797000   0.91935813   -7.6260357    192.19033  0.020095183  0.020304466           12 
  798000   0.91957888   -7.6604669    191.69181  0.020017941  0.020286238            4 
  799000   0.92737696   -7.6465294    192.14341  0.020039989  0.020268059            5 
  800000    0.9409431   -7.5729089    192.50785  0.020052901  0.020250164            6 
  801000   0.94944025   -7.6297335    192.19134  0.019994937  0.020232296            6 
  802000   0.93256028   -7.6070854    192.97351  0.020051279  0.020214526            8 
  803000   0.94561398   -7.6425146    192.63977  0.019991674  0.020196666            4 
  804000   0.92855231   -7.6276987    192.87265  0.019990946  0.020178768            4 
  805000   0.92305254   -7.6220994    192.26995  0.019903722  0.020160882            2 
  806000   0.92023267   -7.5999417    192.90232  0.019944409  0.020143067            8 
  807000   0.95446337   -7.6094401    192.36475  0.019864183  0.020125061            6 
  808000   0.93258614   -7.6460603    192.45738  0.019849152  0.020107192           14 
  809000   0.94883138   -7.6343084    192.72556  0.019852241  0.020089146            8 
  810000   0.94083712   -7.6753997    192.49304   0.01980381  0.020071112            7 
  811000   0.93602219   -7.6300582    192.47287  0.019777319  0.020053049            4 
  812000   0.91612886   -7.6862442    192.93902  0.019800802   0.02003507            4 
  813000    0.9314636   -7.6035603    193.22255   0.01980551   0.02001708            6 
  814000   0.91893836   -7.6211983     192.8819  0.019746304  0.019999069            4 
  815000   0.91724818   -7.6959192    192.79329  0.019713016  0.019980956           16 
  816000   0.92961608    -7.610752    193.49189  0.019760201  0.019962998            3 
  817000   0.92235264   -7.6257289    193.26218  0.019712585  0.019944933            8 
  818000   0.95050347   -7.6594824    192.82496  0.019643944  0.019926897            6 
  819000   0.92442427   -7.6555918    193.03719  0.019641554   0.01990878            5 
  820000   0.92577488   -7.6586897    193.37926  0.019652364   0.01989075            9 
  821000   0.91718484   -7.6545567    193.68805   0.01965977  0.019872964            3 
  822000   0.94389419   -7.6770222    193.19475  0.019585842  0.019854897           12 
  823000   0.92633749   -7.6773902    193.99602  0.019643178  0.019837036           26 
  824000   0.92882766   -7.6838393    193.17734  0.019536543  0.019818925           14 
  825000   0.94227085   -7.6618826    193.58638  0.019554179  0.019801018           15 
  826000   0.90892383   -7.7347003    193.37583  0.019509264  0.019782886            8 
  827000   0.92595098   -7.6767094    193.94783  0.019543312  0.019764563            5 
  828000   0.91547634   -7.6725962    193.61104  0.019485813  0.019746517            9 
  829000   0.92918413   -7.6886923    193.73542  0.019474811  0.019728465            7 
  830000   0.92654092   -7.6723336    193.98795  0.019476702  0.019710589            4 
  831000   0.89762637   -7.6702887    193.97767  0.019452233  0.019692677            9 
  832000   0.94205304   -7.6785818    194.64823  0.019496016  0.019674768            6 
  833000   0.93583602   -7.6705382    194.51941  0.019459725  0.019656934            6 
  834000   0.89768426   -7.6512235    194.30544  0.019415012  0.019639008            6 
  835000   0.92270377   -7.6666988    194.79953  0.019441071  0.019621093            8 
  836000   0.92952757   -7.7023505    193.95413  0.019333546  0.019603152            4 
  837000   0.93007727   -7.7124665    194.34391  0.019349254  0.019585186            6 
  838000   0.91085131   -7.6360285    194.68145  0.019359731  0.019567364            4 
  839000   0.91395704   -7.6975799    194.85009  0.019353406  0.019549529           13 
  840000   0.92419861   -7.6736119     194.9268  0.019337976  0.019531756            6 
  841000   0.92455058   -7.6781882     194.5329  0.019275951  0.019513902            7 
  842000   0.92902348   -7.6989093    195.02857  0.019302115  0.019495991            5 
  843000   0.90811027   -7.6750075    195.58351  0.019334076  0.019478103            6 
  844000   0.91630322   -7.7026681    194.32085  0.019186498   0.01946017           11 
  845000   0.93712952   -7.7115839    195.32485  0.019262806  0.019442361            3 
  846000   0.91035789   -7.7067219    195.06091  0.019214038  0.019424544            3 
  847000   0.91917706   -7.7281583    194.79945  0.019165629  0.019406651            4 
  848000   0.92497333   -7.7163198    194.96259  0.019159059  0.019388734            5 
  849000   0.92307649   -7.7159341    195.04251  0.019144338  0.019370789           11 
  850000   0.91732626   -7.7358509    195.39779  0.019156647  0.019352829            6 
  851000   0.91875312   -7.7005803    195.79523  0.019173055  0.019334858            6 
  852000   0.91004216   -7.7293053    195.67923  0.019139204   0.01931682            5 
  853000   0.90021045   -7.7432334    195.95975  0.019144172  0.019298838           16 
  854000   0.91841596   -7.6883781    195.31866  0.019059197    0.0192811            5 
  855000   0.90864888   -7.6832645    196.25474  0.019128142  0.019263525            6 
  856000   0.90862609   -7.7156703    196.28856  0.019109089  0.019245909           10 
  857000   0.90811391   -7.7280992     195.9998  0.019058713  0.019228221           12 
  858000   0.88332144   -7.7256873    196.20173  0.019056112   0.01921049           28 
  859000   0.91097297   -7.7220965    196.53323  0.019066087  0.019192955            8 
  860000   0.90517222   -7.7142154    196.79936  0.019069705  0.019175621           41 
  861000   0.93273103   -7.6889812    196.45481  0.019014209  0.019158396            6 
  862000   0.90847082   -7.7064603      196.773  0.019022912  0.019141191            8 
  863000    0.9057465   -7.6673171    197.60304   0.01908102  0.019123914           11 
  864000   0.91293608   -7.7548918    196.32423  0.018935593  0.019106614           18 
  865000   0.88948315   -7.7000889    197.01278  0.018980036  0.019089202            7 
  866000   0.91408426   -7.7343617    197.01435  0.018958271  0.019071702           14 
  867000   0.89832267   -7.7420277    196.87339  0.018922856  0.019054203            5 
  868000   0.91440443   -7.7084368    196.87864   0.01890156  0.019036737            9 
  869000   0.90919068   -7.7000222    196.97359  0.018888913  0.019019243           12 
  870000   0.91354621   -7.7629777    196.75917  0.018846663  0.019001676           10 
  871000    0.9004093   -7.7558711     196.2508  0.018776387  0.018984116            8 
  872000   0.93071962   -7.7196371    197.21718  0.018847207  0.018966505            3 
  873000    0.9058677   -7.7477379    196.61054  0.018767711  0.018948922           12 
  874000   0.88560648   -7.7281621    197.46678  0.018827877  0.018931311            5 
  875000   0.90795288   -7.7419513    197.14657  0.018775864  0.018913859           26 
  876000   0.91882399   -7.7250633    196.96718  0.018737364  0.018896402           11 
  877000   0.89531776   -7.7487713    197.70596    0.0187862  0.018878902            6 
  878000   0.92348493   -7.7345158    196.86845  0.018685312   0.01886135            7 
  879000   0.91836284   -7.7496953    197.14357  0.018690138  0.018843938            4 
  880000    0.9274109   -7.7345151    197.24199  0.018678219  0.018826611            5 
  881000   0.89360373   -7.7451236     197.4329  0.018675075  0.018809189            4 
  882000   0.88971699   -7.7004931    197.29925  0.018641274   0.01879176            3 
  883000   0.91000392   -7.7732536    197.49032  0.018638195  0.018774269            5 
  884000   0.88838269   -7.7737327    197.36524   0.01860532  0.018756663            4 
  885000   0.90633251   -7.7632722     197.7809  0.018623436  0.018739189           10 
  886000    0.8980545   -7.7927382    196.94725  0.018524008  0.018721615            7 
  887000   0.88631224   -7.7852836    197.70652  0.018574457  0.018703956           16 
  888000   0.91280577   -7.7722186    197.02638  0.018489713  0.018686429            5 
  889000    0.8828167   -7.8011461    197.77477  0.018539067  0.018668837           16 
  890000   0.89676163   -7.7627684    197.94981  0.018534626  0.018651408           22 
  891000   0.89571659   -7.7541189    198.15657  0.018533162  0.018633918           16 
  892000   0.91678404   -7.7639456    198.45494   0.01854026  0.018616504           14 
  893000   0.92815959   -7.7710317    198.08883  0.018485334   0.01859903            8 
  894000    0.8944745   -7.7440104    198.53417  0.018506168  0.018581736            8 
  895000   0.90366217   -7.7683948    198.15288  0.018449989  0.018564322           14 
  896000   0.88826917   -7.7480562    198.60545  0.018471489  0.018547049            5 
  897000   0.89115559   -7.7486447    198.60176  0.018450554  0.018529742            8 
  898000   0.86674872    -7.778923    197.99869  0.018374043  0.018512431            6 
  899000   0.90175965   -7.7769711    197.85481  0.018340268  0.018495102            8 
  900000    0.8886562   -7.7728596    198.64238  0.018392813  0.018477735            7 
  901000   0.89140174   -7.7739296    198.51841  0.018360933  0.018460542           15 
  902000   0.90455134    -7.781045     198.3902  0.018328733  0.018443161           11 
  903000   0.90142969   -7.7590945    198.21238  0.018292025  0.018425964            4 
  904000   0.89071587      -7.7401    198.93556  0.018338455  0.018408763            5 
  905000   0.89475409   -7.7526868      198.781   0.01830396  0.018391513            4 
  906000   0.89066433   -7.7561556    198.87046  0.018291985  0.018374253            3 
  907000   0.89403115   -7.7624861    199.35793  0.018316605  0.018357229           18 
  908000   0.88154631   -7.7495576    198.95346  0.018259311  0.018340022           11 
  909000   0.89690223    -7.736105    198.76039  0.018221525   0.01832288            5 
  910000   0.89315179   -7.7304404    199.60179  0.018278552  0.018305832            3 
  911000   0.88309009   -7.7383385    198.84163  0.018188953  0.018288708            5 
  912000   0.89133394   -7.7548811    199.47292  0.018226692  0.018271799            4 
  913000   0.87636857   -7.7437252    199.48626  0.018207947  0.018254815           23 
  914000    0.8730477   -7.7578976    199.89249  0.018225063  0.018237902            6 
  915000   0.89937442   -7.7882692    199.18164  0.018140404  0.018220974            5 
  916000   0.88058512   -7.7480668    199.68135  0.018166062  0.018204068           11 
  917000   0.89387387   -7.8177492    199.47568  0.018127561  0.018187204            5 
  918000   0.90471639    -7.805184    199.62466  0.018121338  0.018170214            4 
  919000   0.88290347   -7.7642309    199.35071  0.018076778  0.018153164            5 
  920000   0.89250333   -7.7788098    199.89196  0.018106156  0.018136134            6 
  921000   0.87629384   -7.8053712    199.67618  0.018066973  0.018119117            6 
  922000   0.89865416   -7.8019777     199.8194  0.018060322  0.018102225            5 
  923000   0.86636039   -7.7346515     200.3116  0.018085193  0.018085486            7 
  924000   0.87524484   -7.7780476    199.33053   0.01797714  0.018068678            3 
  925000   0.87233454   -7.7945848    199.28662   0.01795375  0.018051757           13 
  926000   0.89810849    -7.748356    199.92263  0.017991598  0.018034806            8 
  927000   0.88464361   -7.7969237    199.66539  0.017949064  0.018017778            6 
  928000   0.86711567    -7.771796    200.42088  0.017997565  0.018000708            8 
  929000   0.89756734   -7.8166787    199.60485  0.017904992  0.017983573            9 
  930000    0.9066234   -7.8168365    200.24291  0.017942913  0.017966409            5 
  931000   0.89226179   -7.8007719    199.53179  0.017859988  0.017949272            9 
  932000   0.87163668   -7.8427201    199.88624  0.017872518  0.017932121            6 
  933000   0.90065196    -7.813102    199.75305  0.017841466  0.017915015            9 
  934000   0.87257116    -7.807313    200.23741  0.017865579  0.017898039            9 
  935000   0.88333188     -7.79913    200.20763  0.017843817   0.01788101            8 
  936000   0.87535059   -7.8048356    199.71258  0.017780678  0.017863974            4 
  937000   0.88803495   -7.7889661    200.05381   0.01779205  0.017847084            7 
  938000   0.86923701   -7.8291397    199.74347  0.017745511  0.017830108            7 
  939000   0.88677671    -7.813407    200.57913  0.017800775  0.017813199            5 
  940000   0.89936954   -7.7820159    200.14351  0.017743219   0.01779619            7 
  941000   0.88638665    -7.834958    200.18855  0.017728352  0.017779209            8 
  942000    0.8719617    -7.833367    199.84186  0.017678862  0.017762237           17 
  943000   0.89639381   -7.8280114    200.62702    0.0177295   0.01774532            8 
  944000   0.88221184   -7.8301046    200.61622  0.017709765  0.017728312           11 
  945000   0.87563727   -7.8171774    200.67028  0.017695792    0.0177114           34 
  946000   0.87208712   -7.8017193    200.99614  0.017705791  0.017694661           13 
  947000   0.87779284    -7.815679    200.87127  0.017676106  0.017678036            4 
  948000   0.89261089   -7.8321412      199.943  0.017575862  0.017661386            7 
  949000   0.88657864    -7.826459    200.61314  0.017616188   0.01764456            8 
  950000   0.86593578   -7.8372239    200.82157  0.017615927  0.017627699            5 
  951000   0.86475558   -7.8522594    200.37076  0.017557901  0.017610781            8 
  952000      0.85678   -7.8532487    200.73507  0.017571347  0.017593862           15 
  953000   0.85825995   -7.8467512    200.70138  0.017549964  0.017577154           13 
  954000   0.88945421   -7.8399884    200.89592   0.01754856   0.01756039            5 
  955000   0.85518759   -7.8300232    201.00684  0.017539864  0.017543754            6 
  956000   0.85571738   -7.8238828    200.99461   0.01752045  0.017527249            6 
  957000   0.86055715   -7.8313317    201.74123  0.017567157  0.017510787            3 
  958000   0.86577944   -7.8117677    201.99143  0.017570584  0.017494459           10 
  959000   0.85860487   -7.8144384    202.11612  0.017563097  0.017478197            7 
  960000   0.88311074    -7.797133    202.19741  0.017551859  0.017461934            8 
  961000   0.84918076   -7.7935904    202.11374  0.017526339  0.017445691           12 
  962000   0.87263394   -7.8157514    202.22866  0.017518075  0.017429413            9 
  963000   0.87221619   -7.8272752    201.85118  0.017467219  0.017413195            5 
  964000   0.85516433   -7.8377258    201.68774   0.01743497  0.017396677            5 
  965000   0.86018314   -7.8339591    202.08392  0.017451116  0.017380252           18 
  966000   0.86519451   -7.8696469    201.59335  0.017390731  0.017363824           12 
  967000   0.85236607   -7.8588073    201.70761  0.017382593  0.017347386           32 
  968000   0.85167329   -7.8588307    201.80628   0.01737313  0.017331011           22 
  969000   0.85517123   -7.8347176    202.29689  0.017397393  0.017314622           17 
  970000   0.86309134    -7.848082    202.32621  0.017381977   0.01729837            9 
  971000   0.83612918   -7.8452746    201.90458   0.01732789  0.017282066            8 
  972000   0.86974904   -7.8506015    202.46099  0.017357767  0.017265815           12 
  973000   0.85844439    -7.874192    201.89999   0.01729188  0.017249534            7 
  974000   0.87557033   -7.8494634    202.28914  0.017307422  0.017233245           11 
  975000   0.85602525   -7.8380573    202.83751   0.01733654  0.017217119           16 
  976000    0.8588949   -7.8716494    202.66157  0.017303754  0.017200856           10 
  977000   0.87572181   -7.8552444     202.7093  0.017290114  0.017184696           12 
  978000   0.86330962     -7.87285    202.41077  0.017246998  0.017168556           17 
  979000   0.86327199   -7.8813505     202.6553  0.017250196  0.017152397           12 
  980000   0.86950424   -7.8561953    202.64113  0.017231389  0.017136187           13 
  981000   0.86050625    -7.829347    203.21622  0.017262676  0.017120133            9 
  982000   0.84325122   -7.8402882    202.87061  0.017215768   0.01710416           11 
  983000   0.85177277   -7.8790088    202.84671  0.017196229  0.017088119            7 
  984000   0.87350798   -7.8776788    203.07106  0.017197752  0.017072161           19 
  985000   0.87251842   -7.8662092    203.37156  0.017205716  0.017056167            8 
  986000   0.86761754   -7.8704579    203.13328  0.017168127   0.01704025           15 
  987000   0.86832848    -7.856611    203.10916  0.017148696  0.017024329            7 
  988000   0.87968164   -7.8754958     203.4011  0.017155963  0.017008432           11 
  989000   0.84096184   -7.8843885    203.25947  0.017126683  0.016992516           11 
  990000   0.86248599   -7.8827536     202.8058  0.017071195   0.01697657           12 
  991000   0.84037694   -7.9188974    203.32794  0.017097876  0.016960667            5 
  992000    0.8541926   -7.8948026     203.5972  0.017103259  0.016944754            7 
  993000   0.85654616   -7.9194026    202.97144  0.017033521  0.016928871           12 
  994000   0.85040192   -7.9271671    203.62001  0.017070759  0.016913068            5 
  995000   0.85401753   -7.8817001    203.29194  0.017026126  0.016897184            3 
  996000   0.84912866   -7.8894919    203.31976  0.017011359  0.016881416            9 
  997000   0.84751866   -7.9190423    203.54825  0.017013395  0.016865603           11 
  998000   0.86185532   -7.8822751    203.95792  0.017030555  0.016849774            9 
  999000   0.84254499   -7.9345636    203.45946  0.016971927  0.016833923            9 
 1000000   0.85653083   -7.8813095    203.56351  0.016963626  0.016818123           14 
 1001000   0.86028598   -7.9218042    203.68698  0.016956958  0.016802326           12 
 1002000   0.83277977    -7.897316    203.55054  0.016928688  0.016786592           10 
 1003000    0.8503104   -7.9066041     203.8655  0.016937977  0.016770924            6 
 1004000   0.85289845   -7.8855258    204.09782   0.01694039  0.016755205            7 
 1005000   0.86873123   -7.8980799    204.33936  0.016943562  0.016739491            6 
 1006000   0.85567795   -7.8897989    204.01775  0.016900079  0.016723899           14 
 1007000   0.85315077    -7.902254    204.07605  0.016888121  0.016708363           10 
 1008000   0.85658989   -7.9118936    204.17968  0.016879934  0.016692709            8 
 1009000   0.86235785   -7.9008742     203.8066  0.016832392  0.016676953            4 
 1010000   0.86529245   -7.9103539    204.04719  0.016835576   0.01666125            6 
 1011000   0.84473104   -7.9256339    203.90782  0.016807436  0.016645605           11 
 1012000   0.84383725    -7.924635    203.76095  0.016778735   0.01662985            9 
 1013000   0.85879838   -7.9364168    203.72498  0.016759212   0.01661408           12 
 1014000   0.87022205   -7.9412526      203.948  0.016761013  0.016598349            9 
 1015000   0.84661835    -7.913641    204.45434  0.016786071  0.016582641           10 
 1016000   0.85407505   -7.8937919    204.72129  0.016791444  0.016566996            6 
 1017000   0.84234232    -7.917309    204.55519  0.016761323  0.016551432           14 
 1018000   0.85856401   -7.9028387    204.00588  0.016699892  0.016535794           15 
 1019000   0.84317201   -7.9369765    204.04661  0.016686834  0.016520151            7 
 1020000   0.85428494   -7.9114624    204.13161  0.016677419  0.016504528            8 
 1021000   0.84925529   -7.9276145    203.93197   0.01664479  0.016488921            6 
 1022000   0.86317544   -7.9565445    204.04239  0.016637507  0.016473396            9 
 1023000   0.85693866    -7.941423    203.79354  0.016600972    0.0164577           18 
 1024000   0.87247524   -7.9425603     203.7777  0.016583471  0.016441985           18 
 1025000   0.84812359   -7.9426525    203.95189  0.016581454  0.016426276            8 
 1026000   0.86288795   -7.9726416    203.96014  0.016565963  0.016410579            8 
 1027000   0.85070103   -7.9440796    204.13041  0.016563649  0.016394934           49 
 1028000    0.8332132   -7.9348136    203.84685   0.01652455  0.016379264           26 
 1029000   0.83863011   -7.9020113    204.87626  0.016591858  0.016363744           20 
 1030000   0.82513798   -7.9432903    203.99954  0.016504817  0.016348221            8 
 1031000   0.85223715   -7.9420683    204.33975  0.016516307   0.01633269            9 
 1032000   0.86718491   -7.9657086    204.12139   0.01648267  0.016317136            6 
 1033000   0.84576016   -7.9486536    204.20393  0.016473373  0.016301574           14 
 1034000   0.85175561   -7.9328131    204.34814  0.016469064  0.016286023           18 
 1035000   0.83501661   -7.9339036    204.88361  0.016496265  0.016270474           15 
 1036000   0.85149414   -7.9527212    203.90417  0.016401558  0.016254946            8 
 1037000   0.84501053   -7.9651739    204.25663  0.016414066  0.016239367            5 
 1038000   0.85960413   -7.9683248    204.13501  0.016388488  0.016223787            6 
 1039000    0.8352212   -7.9718037    204.55247  0.016406198  0.016208269            4 
 1040000    0.8421548   -7.9437016    204.40529  0.016378629  0.016192708            8 
 1041000   0.86394387   -7.9576384    204.45262  0.016366684  0.016177218           17 
 1042000   0.84554993   -7.9764999    203.94173  0.016310119  0.016161764            9 
 1043000   0.83864489   -7.9263881     205.0783  0.016385291  0.016146271            4 
 1044000   0.84036785   -7.9478741    204.72991  0.016341787  0.016130885            8 
 1045000   0.82703595   -7.9373198    205.12175  0.016357396  0.016115443           10 
 1046000   0.83984935   -7.9425834    204.88824  0.016323155  0.016100114            5 
 1047000    0.8407605   -7.9544043    204.97825  0.016314729  0.016084745            9 
 1048000   0.84293318   -7.9689076    204.64023  0.016272283  0.016069412           10 
 1049000   0.81637104   -7.9911396    204.96394  0.016282486  0.016054099           16 
 1050000   0.85126025   -7.9508268    204.78811  0.016253025  0.016038809           17 
 1051000   0.83186685    -7.938119     205.3926   0.01628549  0.016023625            9 
 1052000   0.85193287   -7.9546948    205.25296  0.016258948  0.016008424            7 
 1053000   0.83453406   -7.9649651     205.0537  0.016227738  0.015993268           10 
 1054000   0.85273456   -7.9028803    205.52463  0.016249575  0.015978261           11 
 1055000   0.83566595   -7.9676924    205.59976  0.016240107  0.015963233           11 
 1056000   0.82223931   -7.9513843    205.53593  0.016219692  0.015948183           16 
 1057000   0.82601503    -7.973513    205.40394   0.01619394  0.015933238           10 
 1058000   0.83356946   -7.9596759    205.40782   0.01617894   0.01591817           13 
 1059000    0.8290732   -7.9504962    206.12884  0.016220399  0.015903116            6 
 1060000   0.84295862   -7.9459722    205.87516  0.016185154  0.015888099            8 
 1061000   0.83229077   -7.9709375    205.41949   0.01613411  0.015873191            7 
 1062000   0.83034673   -7.9361917    206.21848  0.016181613  0.015858289            3 
 1063000   0.84764178   -7.9650772    205.38839  0.016101316  0.015843415           16 
 1064000   0.81738684   -7.9913431    206.04885  0.016137911   0.01582842           12 
 1065000   0.82021002    -7.955102    206.00964   0.01611969  0.015813501            5 
 1066000   0.81657277   -7.9849442    205.67619  0.016078501  0.015798644           11 
 1067000    0.8080974   -8.0122963    205.67559  0.016063386  0.015783745           13 
 1068000   0.82892302   -7.9697453     205.9989  0.016073572  0.015768901            6 
 1069000   0.81904471   -7.9586232    206.57592  0.016103518   0.01575412           11 
 1070000   0.84608039   -8.0141701    205.97824  0.016041919  0.015739257           17 
 1071000   0.81651861   -7.9988895    206.05668  0.016033044  0.015724387            7 
 1072000   0.81433143   -7.9814765    206.49694  0.016052312  0.015709519            7 
 1073000   0.80519227   -8.0122769    206.29922  0.016021996   0.01569469           13 
 1074000   0.83940524    -7.994083    206.19946  0.015999337  0.015679853            3 
 1075000   0.81808585   -7.9600262    206.72331  0.016025063  0.015665142            6 
 1076000   0.83444653   -7.9862508    206.20899  0.015970337  0.015650447            9 
 1077000   0.82903674   -7.9626917    206.50494  0.015978408  0.015635699           14 
 1078000   0.83258111   -7.9884091    206.39461  0.015955057  0.015620941            6 
 1079000   0.81609844   -8.0306257    205.96163   0.01590683  0.015606132           12 
 1080000   0.81915296   -7.9799365    206.55888  0.015938185  0.015591381           13 
 1081000   0.81910986   -7.9954181    206.57507  0.015924689   0.01557673           13 
 1082000   0.81074233   -8.0095128    206.37473  0.015894542  0.015562034            7 
 1083000   0.84070851   -7.9584372    206.29222  0.015873516  0.015547308           12 
 1084000     0.820431   -8.0181185    205.78318  0.015819741  0.015532571           17 
 1085000   0.82420788   -8.0257692    206.40984  0.015853291  0.015517734            6 
 1086000   0.82223042   -8.0117294    206.18064  0.015821105  0.015502894           14 
 1087000    0.8198384   -8.0406122     206.1641  0.015805282  0.015488025            6 
 1088000    0.8292417   -8.0137086    206.27998  0.015799631  0.015473197           14 
 1089000   0.80134954   -8.0586153    205.82065  0.015749973  0.015458429            9 
 1090000   0.81897633    -8.055428    205.98932  0.015748419  0.015443659            8 
 1091000   0.81243328   -8.0151168    205.94289  0.015730438  0.015428888            9 
 1092000   0.81178148   -8.0243391    206.31692  0.015744576  0.015414138           10 
 1093000    0.7977379   -8.0168334    206.44273  0.015739763  0.015399418           15 
 1094000   0.81627537   -8.0393075    206.20196  0.015707035  0.015384678           14 
 1095000   0.82291614   -8.0643702     205.9349  0.015672367  0.015369928           20 
 1096000   0.80923062    -8.036767    206.85259  0.015727843  0.015355212           13 
 1097000   0.81401308   -8.0419296    206.16134  0.015660995   0.01534049           11 
 1098000   0.82234589   -8.0305612    206.60137  0.015680128  0.015325811            7 
 1099000   0.80449381   -8.0391364    206.56384  0.015663015  0.015311128           15 
 1100000   0.78300428   -8.0447832    206.41711   0.01563766  0.015296414           16 
 1101000   0.78762059   -8.0239749    206.29905  0.015614521  0.015281733            7 
 1102000   0.81408773   -8.0517782    206.34541  0.015603857  0.015267108           16 
 1103000   0.81406019   -8.0216888    206.71971   0.01561799  0.015252536           12 
 1104000   0.82894649   -8.0258399    206.95979  0.015621965  0.015237997            7 
 1105000   0.82769065    -8.003494    207.12152  0.015620024  0.015223488           12 
 1106000   0.82690297   -8.0295342    207.02261  0.015598449  0.015208955            6 
 1107000   0.80820028   -8.0213502    206.44638   0.01554098  0.015194498            9 
 1108000   0.79801769    -8.005211    207.09662  0.015575859  0.015180033           17 
 1109000    0.8064074   -8.0218718    206.93293  0.015549514  0.015165591           17 
 1110000   0.80589909   -8.0528734    206.21194  0.015481377  0.015151112           15 
 1111000    0.8087084   -8.0318801    206.68893   0.01550322   0.01513669           15 
 1112000    0.8098717   -8.0215803    207.06639  0.015517565  0.015122227           16 
 1113000   0.82337613   -8.0485074     206.2921   0.01544565  0.015107741           23 
 1114000   0.79784027   -8.0368947    206.35034  0.015436142  0.015093337           25 
 1115000   0.80866726   -8.0121696    206.81422  0.015456967  0.015078971           23 
 1116000   0.80957731   -8.0237331     207.1946   0.01547152  0.015064615           36 
 1117000   0.82153958   -8.0341572    207.21609  0.015459272  0.015050234           16 
 1118000   0.81988675   -8.0448521     207.0622  0.015433974  0.015035858           37 
 1119000   0.79707289   -8.0592143    206.78329  0.015399411  0.015021423           41 
 1120000   0.79342792   -8.0410599    206.82297  0.015388614   0.01500697           30 
 1121000   0.81589369   -8.0375539    206.65147  0.015362137   0.01499251           33 
 1122000   0.80908122   -8.0709289     206.3207  0.015323878   0.01497806           20 
 1123000   0.81925044   -8.0474888    206.62404  0.015332743  0.014963632           14 
 1124000   0.80611127   -8.0510717    206.65883  0.015321681  0.014949197           15 
 1125000   0.79920501   -8.0894908    206.43909  0.015291784  0.014934722           23 
 1126000   0.80810465   -8.0750498    205.99404  0.015245267  0.014920266           25 
 1127000   0.80825732    -8.095048    206.41733  0.015263039  0.014905718           18 
 1128000   0.80392649   -8.0924351    207.01771  0.015293862  0.014891217           47 
 1129000   0.80026645   -8.0890948    205.95374  0.015201782  0.014876767           19 
 1130000   0.81160056   -8.0948141    206.45367  0.015225197  0.014862321           33 
 1131000   0.81794205    -8.093869    206.99609  0.015251701  0.014847965           22 
 1132000   0.81499953   -8.1013744    206.42559   0.01519623  0.014833602           16 
 1133000    0.8029216   -8.1023539    206.27746  0.015171923  0.014819202           25 
 1134000   0.80433702   -8.1057594     206.9754  0.015209833   0.01480478           27 
 1135000   0.80003615   -8.1012621    206.58555  0.015167809  0.014790389           26 
 1136000   0.80503386   -8.0972796    206.28972  0.015132755  0.014775931           20 
 1137000   0.80424638   -8.1016399    206.39786  0.015127372  0.014761554           30 
 1138000   0.81390155   -8.0861261    206.66249  0.015133457  0.014747216           38 
 1139000   0.79234929   -8.0709099    206.46471    0.0151057  0.014732856           26 
 1140000   0.79297513   -8.0899366    206.80018  0.015116973   0.01471856           23 
 1141000   0.80254715   -8.0980175    206.71834  0.015097746  0.014704229           19 
 1142000    0.7870938   -8.0997652    206.65294  0.015079753  0.014689912           18 
 1143000   0.80932183   -8.1096978    206.12916  0.015028372  0.014675621           25 
 1144000    0.7872688    -8.094755    206.62323  0.015051226  0.014661289           39 
 1145000   0.82330947   -8.1377759    206.08905  0.014999203   0.01464691           40 
 1146000   0.81080788    -8.113207    206.79511  0.015037457  0.014632581           24 
 1147000   0.80069679   -8.1071454    206.56341  0.015007513  0.014618345           26 
 1148000   0.78815173   -8.0755463    206.85805  0.015015828   0.01460409           30 
 1149000   0.78435009   -8.0780007    206.82116  0.015000084  0.014589926           12 
 1150000   0.79898018   -8.1008238    206.84313  0.014988632  0.014575718           27 
 1151000   0.80382534   -8.0837021     207.1999  0.015001441  0.014561543           24 
 1152000   0.78970071   -8.1207008    206.80672  0.014959977  0.014547339           30 
 1153000   0.78133537   -8.0641775    207.33263  0.014985013  0.014533217           40 
 1154000   0.78789091   -8.1148986    206.77015  0.014931409  0.014519088           33 
 1155000   0.79502784   -8.1518051     206.6676  0.014911082  0.014504973           27 
 1156000    0.8014227   -8.1173737    206.84272  0.014910807  0.014490819           45 
 1157000   0.78027416   -8.1037024    206.67233  0.014885648  0.014476687           33 
 1158000   0.81676267   -8.1007991    206.94522  0.014892431  0.014462588           25 
 1159000   0.79896109   -8.1377908     206.9806  0.014882126  0.014448522           32 
 1160000   0.79521103   -8.1391235    206.78646  0.014855349  0.014434411           46 
 1161000   0.77930694   -8.1170459    206.94344  0.014853821  0.014420331           47 
 1162000   0.79748755   -8.1417733    206.92431  0.014839666  0.014406205           67 
 1163000   0.79990353   -8.1309163    206.56001  0.014800803  0.014392106           66 
 1164000    0.7784358   -8.1366552    207.13483   0.01482924  0.014377971           59 
 1165000   0.78826259   -8.1568441    206.34896  0.014760298  0.014363886           81 
 1166000   0.79445938   -8.1034803    207.18594  0.014807457  0.014349817           61 
 1167000   0.78464851   -8.1366461    206.81737   0.01476845  0.014335792           74 
 1168000   0.79589019   -8.1160031    206.69436  0.014747029  0.014321726           60 
 1169000   0.78432643   -8.1249234    206.52159  0.014722098  0.014307674           52 
 1170000   0.79810889    -8.166529    206.88379  0.014735312  0.014293633           38 
 1171000   0.78260508   -8.1602222    206.43578  0.014690847  0.014279574           99 
 1172000   0.77589402   -8.1449209    207.01557  0.014719537  0.014265479           49 
 1173000   0.78612908   -8.1707878    206.34927  0.014659653  0.014251419           65 
 1174000   0.79021583   -8.1602174    206.78796  0.014678305   0.01423731           54 
 1175000   0.78361665   -8.1404265    206.64735  0.014655841  0.014223305           48 
 1176000   0.77721009   -8.1132687    206.89138   0.01466067  0.014209322           59 
 1177000   0.78026006   -8.1263516    207.19444  0.014669671  0.014195444           52 
 1178000   0.79277553    -8.109455     207.2879   0.01466383  0.014181554           54 
 1179000   0.79310836   -8.1308889    207.25791  0.014649273  0.014167653           54 
 1180000   0.78147326   -8.1502916    206.71407  0.014598451  0.014153695           47 
 1181000   0.77702233   -8.1475104    206.51998  0.014572395  0.014139758           54 
 1182000   0.77724758   -8.1558194    206.90033  0.014586881   0.01412581           80 
 1183000    0.7764711   -8.1730303    206.65588  0.014557331   0.01411185           82 
 1184000    0.7854868   -8.1506628    206.44438   0.01453015  0.014097833           95 
 1185000   0.77563998    -8.168702    206.92912  0.014551977  0.014083883           84 
 1186000   0.78380295   -8.1624652    206.81246   0.01453151  0.014069914          118 
 1187000   0.78669057   -8.1572058    206.72402   0.01451306  0.014055973          103 
 1188000   0.75807988   -8.1933638    206.62939  0.014494206  0.014042043          101 
 1189000   0.78105905    -8.165351    206.79195  0.014493408  0.014028113           93 
 1190000   0.79096286   -8.1844381    206.52836  0.014462771  0.014014175          113 
 1191000   0.77704499   -8.1999457    206.75912  0.014466773  0.014000213          161 
 1192000   0.76298555   -8.1742766    206.35965   0.01442671  0.013986255          100 
 1193000   0.77715918   -8.1728435    207.04475  0.014462472  0.013972352          128 
 1194000   0.77407538   -8.1814451    206.22192  0.014392931  0.013958451          114 
 1195000   0.78279666   -8.1576101    207.39651  0.014462797  0.013944566          102 
 1196000     0.784888   -8.1920005    206.41046     0.014382  0.013930742           99 
 1197000   0.77752735   -8.2128274    206.66684  0.014387833  0.013916949           79 
 1198000   0.76632773    -8.179978    206.73566  0.014380611   0.01390317           97 
 1199000   0.77868838   -8.1744614    206.87826  0.014378528  0.013889403           87 
 1200000   0.77518547   -8.1947235    206.28677   0.01432547  0.013875576           95 
 1201000   0.78578883   -8.1838712    206.68035  0.014340852  0.013861745          120 
 1202000   0.77388934   -8.2049933    207.00416   0.01435137  0.013847874           76 
 1203000   0.78134466   -8.2074097    206.49583  0.014304228   0.01383407          135 
 1204000   0.80154676   -8.1917012    206.86319  0.014317773  0.013820262          137 
 1205000   0.78828943     -8.19923    206.52505  0.014282507   0.01380648           94 
 1206000    0.7520161   -8.2290396    206.40214  0.014262171  0.013792649           77 
 1207000   0.75952296   -8.2145706    206.34967  0.014246732  0.013778834           87 
 1208000   0.77146496   -8.2099234     206.1522  0.014221316  0.013765037          130 
 1209000   0.78069856   -8.2111727    206.33277  0.014221999  0.013751275          138 
 1210000   0.75156051   -8.2269797    206.23787   0.01420371  0.013737507          166 
 1211000   0.78048549   -8.2032847    206.78239  0.014229451  0.013723779           82 
 1212000   0.77692878    -8.188423     206.4944   0.01419791  0.013710069          150 
 1213000   0.75316018    -8.228468    206.54024  0.014189354  0.013696365          182 
 1214000   0.76694643   -8.1976193    206.64669  0.014184973  0.013682642          148 
 1215000   0.79165544   -8.2268586    206.80039   0.01418384  0.013668948          187 
 1216000   0.77196625   -8.2201159     206.1589  0.014128214  0.013655213          168 
 1217000   0.77841909    -8.203913    206.62662  0.014148632  0.013641512          146 
 1218000   0.75281425   -8.2383698    206.78819   0.01414807  0.013627816          175 
 1219000   0.77105312   -8.2454325    206.81365  0.014138204  0.013614105          158 
 1220000   0.77454248   -8.2208215    206.38128  0.014097082  0.013600444          166 
 1221000   0.76919763   -8.2333245    206.41692  0.014087969  0.013586762          167 
 1222000   0.77544626   -8.2124841    206.14029  0.014057575  0.013573066          211 
 1223000   0.77226999   -8.2396422    206.46442  0.014068167  0.013559409          166 
 1224000   0.78624226     -8.20551    206.37547  0.014050618  0.013545752          160 
 1225000   0.76181967   -8.2441796    206.46328  0.014045121  0.013532131          207 
 1226000   0.77398327   -8.2383396    206.65351  0.014046595   0.01351849          207 
 1227000   0.75823345   -8.2169745    206.19091  0.014003729  0.013504889          201 
 1228000   0.78797468   -8.2376785    206.62708  0.014021925  0.013491254          208 
 1229000   0.75466516   -8.2302122    206.74453  0.014018479  0.013477664          208 
 1230000   0.75968854   -8.2647841    206.02974  0.013958655   0.01346406          196 
 1231000   0.76875792    -8.225644    206.90692  0.014006696  0.013450433          231 
 1232000   0.78165495   -8.2439763    206.64005  0.013977276  0.013436892          235 
 1233000   0.76351825   -8.2589695    206.34631  0.013946088  0.013423333          234 
 1234000   0.75958549   -8.2679308    206.38458   0.01393737  0.013409792          231 
 1235000   0.77492195   -8.2502858    205.98922  0.013899407  0.013396261          212 
 1236000   0.74208879   -8.2378946    206.60155  0.013929446  0.013382787          217 
 1237000   0.76354057   -8.2342533    206.22173  0.013892598  0.013369318          178 
 1238000   0.76706331   -8.2258154    206.66868  0.013911462  0.013355904          214 
 1239000    0.7572693   -8.2285053    205.88591  0.013847586  0.013342491          263 
 1240000   0.75925617   -8.2269712    206.55149  0.013881149  0.013329068          201 
 1241000   0.75522014   -8.2535295    206.31629  0.013854169  0.013315641          299 
 1242000   0.75930535   -8.2615243    205.95886  0.013819033   0.01330219          231 
 1243000   0.74700408   -8.2670606    206.11751  0.013818551  0.013288744          224 
 1244000    0.7581197   -8.2486073    205.97841  0.013798125  0.013275355          209 
 1245000   0.75660894   -8.2255165    206.64121  0.013831406  0.013262003          321 
 1246000   0.74229171   -8.2107798     207.0586  0.013848221  0.013248647          165 
 1247000   0.75705549   -8.2710213    206.01959  0.013767682  0.013235316          187 
 1248000   0.75250651   -8.2630769    206.36492  0.013779709  0.013221993          345 
 1249000     0.754541   -8.2263644    206.76547  0.013795401  0.013208658          284 
 1250000   0.76874426   -8.2623488    206.84964  0.013789976  0.013195355          195 
 1251000   0.76450504   -8.2806916    206.06148  0.013726451  0.013182061          200 
 1252000   0.74650337    -8.280749    206.57336  0.013749558  0.013168769          171 
 1253000   0.74547128   -8.2659221    206.35389  0.013723989  0.013155445          252 
 1254000   0.73425327   -8.2669802    205.80763  0.013676743   0.01314214          226 
 1255000   0.73016525   -8.2883482    206.39747  0.013705012  0.013128865          219 
 1256000   0.75111439    -8.281208    206.69662  0.013713948  0.013115618          271 
 1257000   0.77801059   -8.2746155    205.70648  0.013637396    0.0131024          270 
 1258000   0.75028243   -8.2626236    206.50631  0.013679538  0.013089198          193 
 1259000   0.76148499   -8.2703274    206.14466  0.013644735  0.013075981          378 
 1260000   0.74931343   -8.2745871    206.10302  0.013631152  0.013062766          266 
 1261000   0.74934756   -8.2857053    206.48618  0.013645664  0.013049558          236 
 1262000   0.74102377   -8.2767511    206.38806  0.013628372   0.01303639          251 
 1263000   0.75674588   -8.2737676     206.4507  0.013621714  0.013023225          229 
 1264000   0.75825603   -8.2791254    206.58807  0.013619994  0.013010119          264 
 1265000    0.7342651   -8.2847535     206.4212  0.013598234  0.012997011          218 
 1266000   0.75088135   -8.2967205    205.74947  0.013543277  0.012983863          207 
 1267000   0.73571492   -8.3100982    205.91141  0.013543239  0.012970695          367 
 1268000   0.76276716    -8.316438    205.92048  0.013533154  0.012957583          274 
 1269000   0.75358388   -8.2751473    206.47992  0.013559228  0.012944466          237 
 1270000   0.75848928   -8.3243929    205.97091  0.013515151  0.012931351          234 
 1271000   0.74363391   -8.3095243    206.44092  0.013535334  0.012918249          325 
 1272000    0.7434519   -8.3098788     206.2571  0.013512651  0.012905088          235 
 1273000    0.7412195   -8.3157877    205.80899  0.013472702  0.012891934          257 
 1274000   0.75007834   -8.3167932    206.20791   0.01348822  0.012878845          232 
 1275000   0.74415791   -8.3315966    205.92195  0.013458951  0.012865776          262 
 1276000   0.74580271   -8.3117776    205.58453  0.013426367  0.012852684          265 
 1277000   0.74584263   -8.3108975     206.2276  0.013457818  0.012839619          407 
 1278000   0.71824287   -8.3208875    206.05483  0.013436022  0.012826577          270 
 1279000   0.73900573   -8.3189178    206.37091  0.013446111  0.012813557          266 
 1280000   0.75377216   -8.3234859    206.01665  0.013412542  0.012800548          242 
 1281000   0.74208081   -8.3260683     206.0751  0.013405875  0.012787563          220 
 1282000   0.74339979   -8.3044792    205.95702  0.013387742  0.012774591          290 
 1283000   0.73839449    -8.300197    206.33965   0.01340216   0.01276159          222 
 1284000   0.73014108   -8.3070881    206.36043  0.013393071  0.012748595          446 
 1285000   0.73040993   -8.3332512    205.80648  0.013346724  0.012735626          498 
 1286000   0.73943694   -8.3345944    206.16468  0.013359557  0.012722651          265 
 1287000   0.76117197   -8.3155143    205.74232  0.013321828  0.012709663          495 
 1288000   0.73432341   -8.3196725    205.72344  0.013310264  0.012696743          462 
 1289000   0.73446347   -8.3140156    205.97437  0.013316161  0.012683818          216 
 1290000   0.73819406   -8.3170579    206.07483  0.013312328  0.012670901          306 
 1291000   0.74442945    -8.349986    205.86763  0.013288641  0.012657974          294 
 1292000   0.73553433   -8.3384166    205.71596  0.013268573  0.012645085          560 
 1293000   0.72998562   -8.3593258    206.10245   0.01328322  0.012632211          371 
 1294000   0.74520091   -8.3405726    205.66343  0.013244683  0.012619358          315 
 1295000   0.74219561   -8.3357352    205.63609  0.013232695  0.012606476          581 
 1296000   0.73911363   -8.3511281    205.55589  0.013217329  0.012593605          294 
 1297000   0.74308727   -8.3612316    205.38204  0.013195968  0.012580724          577 
 1298000   0.73411001   -8.3260294    205.70413   0.01320648  0.012567886          264 
 1299000    0.7506204   -8.3422157       205.39  0.013176161  0.012555046          323 
 1300000   0.72012867   -8.3214023    205.78442  0.013191309  0.012542248          621 
 1301000   0.73335841    -8.350689    205.79042  0.013181554  0.012529456          615 
 1302000   0.71660971   -8.3415668    205.38217    0.0131453  0.012516643          658 
 1303000   0.73088607   -8.3679633      205.202  0.013123689  0.012503844          623 
 1304000    0.7341274   -8.3436123    205.52445  0.013134231  0.012491045          552 
 1305000   0.74384913   -8.3402445    205.69393  0.013134989  0.012478288          356 
 1306000   0.74559209   -8.3818658    205.36289  0.013103809  0.012465531          625 
 1307000   0.72484122    -8.368674    205.31926  0.013091001  0.012452754          668 
 1308000   0.73665517   -8.3726762    205.29284  0.013079309  0.012439999          766 
 1309000   0.72018598   -8.3383534    206.01485  0.013115282  0.012427279          339 
 1310000   0.72045239    -8.349912    206.02869  0.013106151  0.012414584          432 
 1311000   0.73944005   -8.3870016    205.77294  0.013079897   0.01240188          698 
 1312000   0.72548529   -8.3774235    205.60779  0.013059438  0.012389175          747 
 1313000   0.71193126   -8.3862425    205.26802  0.013027927  0.012376476          800 
 1314000   0.74807631   -8.3873609    205.83245  0.013053808  0.012363826          679 
 1315000    0.7270932   -8.3673405    205.49409  0.013022439  0.012351214          676 
 1316000    0.7304404   -8.3803362    205.65783  0.013022913  0.012338605          812 
 1317000   0.72830618   -8.3780741    205.97098  0.013032839  0.012325991          818 
 1318000   0.72592498   -8.4057599    204.79777  0.012948772  0.012313323          479 
 1319000   0.71588513    -8.405548    205.06376  0.012955759  0.012300656          808 
 1320000   0.73423516   -8.3971246    205.05069  0.012945119  0.012288005          814 
 1321000   0.73033983    -8.405572    205.41548  0.012958332  0.012275388          768 
 1322000   0.73148585   -8.3736351     205.5665   0.01295805  0.012262763          490 
 1323000   0.73272206   -8.3760026    205.49724  0.012943893  0.012250189          503 
 1324000   0.72383399   -8.3673207    205.27472  0.012920111   0.01223767          859 
 1325000   0.72502894   -8.3973835    205.66597  0.012934967  0.012225118          881 
 1326000    0.7181805   -8.3751375    205.68253  0.012926252  0.012212567          439 
 1327000    0.7347433   -8.3870633     205.3858  0.012897878  0.012200053          544 
 1328000   0.72198903   -8.4311858    205.43504  0.012891255  0.012187529          514 
 1329000   0.73173202    -8.376098    205.25134  0.012870037  0.012175063          472 
 1330000   0.71854408   -8.4036345    205.46988  0.012874053  0.012162587          870 
 1331000   0.73138409   -8.4090192    205.66106   0.01287635  0.012150144          921 
 1332000   0.70583928   -8.3999274    205.28296  0.012843028   0.01213767          883 
 1333000   0.73157176   -8.3940919    205.18267  0.012827123  0.012125196          422 
 1334000     0.720461   -8.3973708    205.61106  0.012844269  0.012112761          926 
 1335000   0.74431176   -8.4327127    205.38775  0.012820708  0.012100329          987 
 1336000   0.72405674   -8.4057009    205.40163  0.012811978  0.012087914          524 
 1337000   0.72442086   -8.4008937    205.27074  0.012794237  0.012075538          899 
 1338000   0.72266518   -8.4034779    205.56999  0.012803313  0.012063175         1010 
 1339000   0.72907337   -8.3998308    205.84581  0.012810917  0.012050819          933 
 1340000   0.71195928   -8.4075466    205.70208  0.012792418  0.012038495         1030 
 1341000   0.71749874   -8.4286239    205.06084   0.01274303  0.012026138         1008 
 1342000   0.73280301   -8.4045058    205.77421  0.012777832  0.012013808          955 
 1343000   0.70726653   -8.4029728    205.64725   0.01276044  0.012001492          503 
 1344000   0.71950107   -8.4127335    205.27135  0.012727638  0.011989234         1073 
 1345000   0.70706103   -8.4041311    205.41077  0.012726813  0.011976988          945 
 1346000   0.71109725   -8.4164072    205.13215  0.012700108  0.011964751         1091 
 1347000   0.71600445   -8.3989132    205.43946  0.012709692  0.011952527         1067 
 1348000   0.72182852   -8.4121662    205.75658  0.012719868  0.011940289         1044 
 1349000   0.70906215   -8.4061969    205.19375   0.01267567  0.011928078         1117 
 1350000   0.71015874   -8.4299337    205.31216   0.01267359  0.011915859         1095 
 1351000   0.72850778   -8.4505807    204.86139  0.012636404  0.011903648         1095 
 1352000   0.72978508   -8.4464384    205.00442  0.012635874  0.011891443         1075 
 1353000   0.71232805    -8.439234    205.52177  0.012658399  0.011879259         1085 
 1354000   0.71614108   -8.4652252    204.84424  0.012607351  0.011867062         1135 
 1355000   0.71413954   -8.4511578    205.33062  0.012627959   0.01185491         1116 
 1356000   0.71411484   -8.4442302    205.51443  0.012629943  0.011842772         1112 
 1357000   0.71968593   -8.4485173    205.05497   0.01259242  0.011830639         1120 
 1358000   0.71437907    -8.436293    205.49287  0.012610019  0.011818493         1111 
 1359000   0.71837663   -8.4380007      204.861  0.012561994  0.011806329         1064 
 1360000   0.72560869   -8.4414872    205.14319  0.012570049  0.011794205         1026 
 1361000   0.71545424   -8.4492114    204.84692  0.012542672  0.011782061         1165 
 1362000    0.7128876    -8.465075    204.69615  0.012524238  0.011769929         1077 
 1363000   0.70124812   -8.4700106     205.0007   0.01253367  0.011757833         1150 
 1364000    0.7100161   -8.4656693    205.43099  0.012550769  0.011745738         1162 
 1365000   0.70295881   -8.4500666    205.29128  0.012533045  0.011733656         1111 
 1366000   0.71048842   -8.4563361    205.17512  0.012516784  0.011721598         1091 
 1367000   0.70670481   -8.4474532    205.19772  0.012509005  0.011709557         1113 
 1368000   0.69074212   -8.4609057    205.33907  0.012508472  0.011697519         1072 
 1369000   0.69329753   -8.4761011    204.65785  0.012457867  0.011685473         1145 
 1370000   0.71524494   -8.4868757    205.02413  0.012471054  0.011673417         1124 
 1371000   0.70259706   -8.4755041    204.49457   0.01242977  0.011661392         1159 
 1372000   0.70944521   -8.4542135    205.22254  0.012464926  0.011649416         1193 
 1373000   0.70523794   -8.4885784    204.61556  0.012419007  0.011637435         1203 
 1374000   0.69125071   -8.4541416    205.07034  0.012437551  0.011625451         1102 
 1375000   0.71186208   -8.4729634    205.16315  0.012434131  0.011613503         1178 
 1376000    0.6928631   -8.4662059    204.90686  0.012409572  0.011601559         1153 
 1377000   0.70361673   -8.4571222    204.83372  0.012396134  0.011589591         1251 
 1378000   0.71086679   -8.4851181    204.32546  0.012356402  0.011577631         1192 
 1379000   0.68804425   -8.4769825    204.53594  0.012360161  0.011565705         1187 
 1380000   0.71178477   -8.4571711    204.69342  0.012360714  0.011553782         1089 
 1381000   0.71296141   -8.4796526    204.85692  0.012361629  0.011541879         1216 
 1382000   0.70473219   -8.4818904    204.19363  0.012312689  0.011529978         1266 
 1383000   0.68111899   -8.4818976    204.68059  0.012333128  0.011518097         1221 
 1384000    0.7086112   -8.4757607    204.45176  0.012310439  0.011506249         1226 
 1385000   0.71263302   -8.4708926    204.93901  0.012330867  0.011494403         1252 
 1386000    0.6917102    -8.471861    204.84214  0.012316146  0.011482578         1250 
 1387000   0.69815122   -8.4906462    204.69874  0.012298651  0.011470754         1264 
 1388000   0.71036542   -8.5000192    204.64733  0.012286703  0.011458918         1208 
 1389000   0.70379798   -8.4370308    205.36523  0.012320928  0.011447156         1162 
 1390000   0.69709713   -8.5007409    204.63693  0.012268401  0.011435392         1219 
 1391000   0.69275829   -8.5125903    205.06385  0.012285158  0.011423619         1178 
 1392000   0.70974048   -8.5078988     204.9486  0.012269433  0.011411882         1205 
 1393000   0.71178295    -8.508847    204.60378  0.012239997  0.011400139         1118 
 1394000   0.70144735   -8.4843159    204.86741  0.012246976  0.011388418         1208 
 1395000   0.69736701   -8.5015289    204.25217  0.012201444  0.011376706         1173 
 1396000   0.70375146   -8.4634789    204.64722  0.012216286  0.011365014         1129 
 1397000   0.69112888   -8.4773851    204.98937  0.012227951  0.011353321         1097 
 1398000   0.69349006   -8.4974786    204.03819  0.012162505  0.011341639         1176 
 1399000   0.69465246   -8.4856074     204.5887  0.012186603  0.011329946         1134 
 1400000   0.69784822   -8.5137987    204.57126   0.01217686  0.011318274         1226 
 1401000    0.6988599   -8.4993657     204.8208  0.012183012  0.011306603         1213 
 1402000   0.69345142    -8.509836    204.57699  0.012159831  0.011294956         1283 
 1403000   0.69196637   -8.4981492     204.7233  0.012159854   0.01128334         1223 
 1404000   0.69539301   -8.4992473    204.61233  0.012144606  0.011271724         1255 
 1405000   0.68992841   -8.5072806    204.51126  0.012129968  0.011260124         1161 
 1406000    0.7004606   -8.5115203    204.30079  0.012108866   0.01124853         1234 
 1407000   0.68546329   -8.4993249    204.39475  0.012105825  0.011236942         1268 
 1408000   0.68296885   -8.5106253    204.17977  0.012084503  0.011225375         1230 
 1409000   0.67905935   -8.5088587    204.38027  0.012087785  0.011213809         1201 
 1410000   0.69259295   -8.4924971    204.62592  0.012093731  0.011202275         1242 
 1411000   0.68053197   -8.4946299    204.44407   0.01207442  0.011190749         1249 
 1412000   0.71080546   -8.5038101    204.66437   0.01207887  0.011179245         1234 
 1413000   0.68765329   -8.5217679    204.19858  0.012042851  0.011167757         1241 
 1414000   0.70124547   -8.5192575     204.6292  0.012059712  0.011156296         1182 
 1415000   0.69527418   -8.5355028    204.30936  0.012032353  0.011144839         1183 
 1416000   0.70144574   -8.5101141     204.3357  0.012025406  0.011133409         1194 
 1417000   0.68302542   -8.5193323    204.07703  0.012001707   0.01112197         1238 
 1418000   0.68201305   -8.5316058    204.41035  0.012012832  0.011110544         1206 
 1419000   0.68699706   -8.5281002    204.41648  0.012004727  0.011099122         1363 
 1420000   0.69275904   -8.5183021    204.88055  0.012023506  0.011087698         1338 
 1421000    0.6850608   -8.5161101    204.50526  0.011993036  0.011076292         1305 
 1422000   0.68105707   -8.5284924    203.95677   0.01195246  0.011064883         1346 
 1423000   0.69412698   -8.5353818     203.9853  0.011945731  0.011053513         1284 
 1424000   0.68365953   -8.5223901    204.28197  0.011954703  0.011042157         1288 
 1425000   0.68553935   -8.5319752    204.14936  0.011938559  0.011030803         1293 
 1426000   0.68491205    -8.529793     204.3838  0.011943887   0.01101944         1316 
 1427000     0.675218   -8.5128857    204.72359   0.01195536  0.011008108         1305 
 1428000   0.67075214   -8.5305743    204.22281  0.011917764  0.010996793         1358 
 1429000    0.6822504   -8.5406579    204.09916  0.011902214  0.010985492          733 
 1430000   0.69362023   -8.5051294    204.37223  0.011909804  0.010974208         1252 
 1431000    0.6863661   -8.5232759    204.20343  0.011891651  0.010962943         1334 
 1432000   0.69431535   -8.5153429    204.03714   0.01187367  0.010951695         1266 
 1433000   0.68888564   -8.5179287    204.27521  0.011879228  0.010940467         1338 
 1434000   0.69006339   -8.5207568    204.21422    0.0118674  0.010929227         1218 
 1435000   0.66807274   -8.5403337    204.16063  0.011856018  0.010918001         1421 
 1436000    0.6699105   -8.5433977    203.99289  0.011838027  0.010906795         1405 
 1437000   0.67813194   -8.5454275    204.15028  0.011838917    0.0108956         1397 
 1438000   0.68906954   -8.5456053    204.60235  0.011856881  0.010884417         1403 
 1439000   0.66871069   -8.5394192    204.59108  0.011847989  0.010873265         1386 
 1440000   0.68818489   -8.5648152    204.37919  0.011827499  0.010862115         1397 
 1441000   0.68977484   -8.5615681    204.38902   0.01181986  0.010850972         1392 
 1442000    0.6840756    -8.554622    204.38421  0.011811385  0.010839856         1357 
 1443000   0.68608496   -8.5496197    204.40076  0.011804155  0.010828776         1349 
 1444000   0.67810655   -8.5576685    204.25015  0.011787289  0.010817668         1392 
 1445000   0.67646532   -8.5500748    204.63407  0.011801273  0.010806583         1315 
 1446000   0.66941845   -8.5863979    204.04022  0.011758888  0.010795519         1427 
 1447000   0.67771583   -8.5436226     204.3425   0.01176817  0.010784473         1449 
 1448000   0.65822546   -8.5656062    203.96056  0.011738061  0.010773422         1403 
 1449000    0.6797538   -8.5543411    204.20946  0.011744276  0.010762377         1416 
 1450000   0.66512474   -8.5516831    204.07881  0.011728667  0.010751361         1427 
 1451000    0.6703767   -8.5357003    204.12216  0.011723074  0.010740345         1539 
 1452000   0.67710253   -8.5468025    204.09632  0.011713517  0.010729347         1499 
 1453000   0.68372649   -8.5618554    203.90845  0.011694681  0.010718337         1522 
 1454000   0.66923682   -8.5822346    204.15812  0.011700947  0.010707351         1522 
 1455000   0.67272288   -8.5656067    204.42469  0.011708173  0.010696393         1577 
 1456000   0.68449342   -8.5686733    204.14488  0.011684116  0.010685455         1550 
 1457000   0.68329799   -8.5668341    203.78996  0.011655797  0.010674514         1583 
 1458000   0.66904071   -8.5534594    204.02639  0.011661317  0.010663584         1624 
 1459000   0.67490109   -8.5817432     203.5393  0.011625502  0.010652689         1598 
 1460000   0.67040371   -8.5799155    203.69743  0.011626565  0.010641768         1591 
 1461000   0.66176641   -8.5603534    203.93821  0.011632342  0.010630867         1634 
 1462000   0.65287825   -8.5636004    204.07963  0.011632446  0.010619974         1606 
 1463000   0.68190861   -8.5777422     204.0045  0.011620215  0.010609103         1661 
 1464000    0.6632384    -8.587591    203.52385  0.011584919  0.010598232         1677 
 1465000   0.67031847   -8.5871302    204.17661  0.011614142  0.010587365         1626 
 1466000    0.6625381   -8.6050029    203.86558  0.011588539  0.010576508         1672 
 1467000   0.65005839   -8.5831268     204.1055  0.011594268  0.010565672         1631 
 1468000   0.65305534   -8.5843086    204.08294   0.01158509   0.01055484         1603 
 1469000   0.66538514   -8.5865243    203.75143  0.011558398  0.010543998         1640 
 1470000   0.66695112   -8.5919019    203.47223  0.011534707  0.010533174         1750 
 1471000   0.67562758   -8.5987964    203.33357  0.011519011   0.01052237         1718 
 1472000   0.66509738   -8.5921457    203.68898  0.011531305  0.010511582         1637 
 1473000    0.6583376     -8.59306    204.22355   0.01155372  0.010500799         1682 
 1474000   0.67804946   -8.6044008    203.80644    0.0115223  0.010490051         1688 
 1475000   0.66266081   -8.6299106    203.37068  0.011489869    0.0104793         1707 
 1476000   0.67237912   -8.6163567    203.62679  0.011496544  0.010468569         1691 
 1477000   0.65147704   -8.6166885    203.62697  0.011488771  0.010457851         1664 
 1478000   0.67508002   -8.5934084    203.56388   0.01147744  0.010447138         1701 
 1479000   0.66058127   -8.6047958    203.93046  0.011490335  0.010436449         1705 
 1480000   0.65502127   -8.6139302    204.42427  0.011510376  0.010425763         1689 
 1481000   0.66764767   -8.6036195    203.46919  0.011448863  0.010415105         1698 
 1482000   0.66028695   -8.6206873    203.32212  0.011432868  0.010404455         1634 
 1483000   0.64857266   -8.6123954    203.67972  0.011445253  0.010393806         1701 
 1484000   0.66182179    -8.618751    203.36187  0.011419692  0.010383177         1725 
 1485000   0.66845592   -8.6294319    203.58468  0.011424505  0.010372555         1673 
 1486000   0.66576425   -8.6269186    203.50323  0.011412249  0.010361941         1724 
 1487000   0.65502353   -8.6236972    203.69557  0.011415354  0.010351363         1672 
 1488000   0.66220054   -8.6178796    203.65541  0.011405433  0.010340779         1734 
 1489000   0.64825448   -8.6311815     203.8034  0.011406055  0.010330222         1755 
 1490000   0.64538819   -8.5962387    203.38082  0.011374766  0.010319671         1761 
 1491000   0.66339097   -8.6200453     203.3099  0.011363174  0.010309142         1782 
 1492000   0.67118539   -8.6265104    203.47943  0.011365026  0.010298613         1765 
 1493000   0.65512646   -8.6257081    203.84768  0.011377968  0.010288096         1711 
 1494000   0.63664349   -8.6288183    203.40148  0.011345464   0.01027758         1718 
 1495000     0.672872   -8.6197642    203.90573  0.011365982  0.010267097         1739 
 1496000   0.65194679   -8.6188642    203.87286  0.011356554  0.010256596         1752 
 1497000   0.65784954   -8.6467038    203.21492  0.011312342  0.010246122         1661 
 1498000   0.66227957   -8.6280136    203.40684  0.011315467  0.010235658         1693 
 1499000   0.64697977   -8.6413969     203.4101    0.0113081  0.010225207         1742 
 1500000   0.66235044   -8.6348115    203.33654  0.011296474  0.010214769         1647 
 1501000   0.64793043   -8.6422555    203.51532  0.011298874  0.010204339         1733 
 1502000   0.64989855   -8.6198923    203.50406  0.011290727  0.010193937         1779 
 1503000   0.66059331    -8.635098    203.52322  0.011284277  0.010183531         1741 
 1504000   0.65577258   -8.6501793    203.68171  0.011285556   0.01017313         1764 
 1505000   0.64510057   -8.6475424    203.08502  0.011245018  0.010162761         1841 
 1506000   0.65268972   -8.6507356    203.61028  0.011266616  0.010152396         1815 
 1507000   0.64989814   -8.6289833    203.45307  0.011250446  0.010142036         1769 
 1508000   0.64795408   -8.6602122    203.81872  0.011263192  0.010131692         1793 
 1509000   0.64491931   -8.6483117    203.86327  0.011258188  0.010121356         1790 
 1510000   0.64698498   -8.6368427    203.63917  0.011238365  0.010111035         1784 
 1511000   0.64028415   -8.6532302    203.54025  0.011225471  0.010100727         1868 
 1512000   0.64763837   -8.6617116    203.23866  0.011201425   0.01009044         1766 
 1513000   0.65595555   -8.6631057    203.00954  0.011181402   0.01008016         1831 
 1514000    0.6410295   -8.6497354    203.41165   0.01119615  0.010069906         1736 
 1515000   0.64411059   -8.6455379    203.60372  0.011199325  0.010059645         1680 
 1516000   0.64242756   -8.6369807     203.3293  0.011176853  0.010049411         1773 
 1517000   0.65727854   -8.6309615    203.35402  0.011170843  0.010039192         1658 
 1518000   0.66610107   -8.6616427    203.26304  0.011158489  0.010028971         1757 
 1519000   0.65194809   -8.6580809    203.28583  0.011152394  0.010018774         1761 
 1520000   0.65388524   -8.6592559    203.50335  0.011156982  0.010008594         1769 
 1521000   0.63600686   -8.6251374    203.59333  0.011154577 0.0099984096         1739 
 1522000   0.64908668   -8.6586421    203.81027  0.011159125 0.0099882461         1862 
 1523000   0.64037974   -8.6712469    203.68928  0.011145179 0.0099781013         1785 
 1524000   0.63537181   -8.6424699    203.37108  0.011120466 0.0099679634         1813 
 1525000   0.65137875   -8.6489363    203.18027  0.011102747 0.0099578413         1782 
 1526000   0.65467188   -8.6451698    203.80789  0.011129745 0.0099477273         1759 
 1527000   0.63305762    -8.666487    203.10468   0.01108408 0.0099376517         1788 
 1528000   0.65250616   -8.6573347    203.40458  0.011093182 0.0099275684         1763 
 1529000   0.65534474   -8.6613272    203.27321  0.011078767  0.009917496         1819 
 1530000   0.63466733   -8.6571649    203.42064  0.011079555 0.0099074248         1769 
 1531000   0.63896225   -8.6637805     203.2074  0.011060712 0.0098973831         1773 
 1532000   0.63675726   -8.6646224    203.17162  0.011051546 0.0098873477         1852 
 1533000    0.6414112   -8.6621528    202.92989  0.011031197 0.0098773298         1796 
 1534000   0.63568862   -8.6487803    203.47616  0.011053681 0.0098673345         1842 
 1535000   0.65142624   -8.6445306    203.41291  0.011043046 0.0098573455         1783 
 1536000   0.63004317   -8.6571081    203.15175  0.011021688 0.0098473693         1788 
 1537000   0.63498099   -8.6705214    203.22851  0.011018679 0.0098374087         1815 
 1538000   0.65330543   -8.6461843    203.52721  0.011027699 0.0098274479         1884 
 1539000   0.63702976   -8.6687323    203.19698  0.011002652 0.0098175129         1955 
 1540000   0.62823507   -8.6855491     202.9294  0.010981028 0.0098075795         1820 
 1541000   0.63712075   -8.6883412    203.35391  0.010996858 0.0097976588         1822 
 1542000   0.65117149    -8.692617    203.41263    0.0109929 0.0097877365         1872 
 1543000   0.64721654    -8.694974     203.2848  0.010978872 0.0097778355         1828 
 1544000   0.63226261   -8.6837382    203.21893  0.010968207 0.0097679417         1885 
 1545000   0.62846891   -8.6656406    203.21676   0.01096099 0.0097580612         1903 
 1546000   0.63249014   -8.6906647    203.15236  0.010950429  0.009748185         1955 
 1547000   0.63738366   -8.7011077    203.20548  0.010946212 0.0097383164         1872 
 1548000   0.63688307   -8.6579949    203.20546   0.01093914  0.009728462         1862 
 1549000    0.6430919   -8.7009246    203.02748  0.010922503 0.0097186316         1933 
 1550000   0.61957974   -8.6951428    202.91243   0.01090927 0.0097087993         1949 
 1551000   0.64607673   -8.6865066    203.16005  0.010915541 0.0096989919         1852 
 1552000   0.63374825   -8.6861948    203.02616  0.010901319 0.0096891972         1940 
 1553000   0.63548604   -8.6999919    202.95675  0.010890575 0.0096793918         1939 
 1554000   0.63037069   -8.6784494    203.15868  0.010894395 0.0096696092         1935 
 1555000   0.63231248   -8.7008148    202.82671  0.010869599 0.0096598287         1950 
 1556000   0.63543332   -8.6859054    203.08818  0.010876616 0.0096500635         1930 
 1557000   0.62413868   -8.7101002    203.15261  0.010873079  0.009640327         1973 
 1558000   0.64177735    -8.688915    202.89596  0.010852372 0.0096305846         1914 
 1559000   0.63486022   -8.6712387    203.22627  0.010863068 0.0096208749         1906 
 1560000   0.62802443   -8.6832153    202.82382  0.010834606 0.0096111759         1869 
 1561000   0.62003826   -8.6745136    202.95385  0.010834607 0.0096014931         1850 
 1562000   0.63983028   -8.7022146      203.289   0.01084555 0.0095918046         1900 
 1563000   0.63987979   -8.6879471    203.07999  0.010827468 0.0095821465         1855 
 1564000   0.62539734   -8.6911885    202.99067  0.010815786 0.0095724925         1785 
 1565000   0.63187168   -8.7128859    202.69255     0.010793 0.0095628473         1919 
 1566000   0.63419077   -8.7032476    202.89559  0.010796913 0.0095532237         1888 
 1567000   0.62772583   -8.6963608    202.90184  0.010790355 0.0095435973         1868 
 1568000   0.63360478    -8.696726    203.24043  0.010801468 0.0095339901         1945 
 1569000   0.61986574   -8.7103601     202.6269  0.010761998 0.0095244103         1933 
 1570000   0.61984633   -8.7266563    203.03369  0.010776735 0.0095148171         1823 
 1571000   0.61785813    -8.704353    203.06728  0.010771657 0.0095052571         1907 
 1572000   0.63511054   -8.7156323    202.87686  0.010754711 0.0094956961         1930 
 1573000   0.61334354   -8.7086339    202.88712  0.010748417 0.0094861431         1923 
 1574000   0.63379333    -8.714091    203.02376  0.010748823 0.0094766159         1923 
 1575000   0.61641483   -8.7049808    202.90863  0.010735906 0.0094670839         1927 
 1576000   0.61887911   -8.7187438    202.80973  0.010723865 0.0094575584         1913 
 1577000   0.62460745    -8.717193    203.09462  0.010732119  0.009448043         1978 
 1578000     0.625915   -8.6988529    203.07712  0.010724394  0.009438557         1906 
 1579000    0.6275662    -8.709151    202.85473  0.010705865 0.0094290671         1988 
 1580000   0.63531966   -8.7260917    202.69297  0.010690557 0.0094195769         1975 
 1581000   0.61365206   -8.7234538     202.8781  0.010693554 0.0094101126         1972 
 1582000    0.6164657   -8.6952704    202.94665  0.010690405 0.0094006593         1918 
 1583000   0.63540666   -8.7219326    202.80868  0.010676389 0.0093912217         1896 
 1584000   0.63158937   -8.7182323    202.88232  0.010673522  0.009381793         1951 
 1585000    0.6327042   -8.7264037    202.84582   0.01066487 0.0093723681         1930 
 1586000   0.63229005   -8.7045935    202.81167  0.010656351 0.0093629668         2023 
 1587000   0.61762467   -8.7161239     202.8733  0.010652872 0.0093535823         1952 
 1588000   0.61696616   -8.7081982    202.91026  0.010648104 0.0093442016         1936 
 1589000   0.62076985   -8.7223881    202.52851  0.010621382 0.0093348274         1926 
 1590000   0.61948999   -8.7196576    202.68378   0.01062284 0.0093254553         2016 
 1591000   0.64064948   -8.7286841    202.79924   0.01062221 0.0093161089         2001 
 1592000   0.60302652   -8.7196277    202.75977  0.010613472 0.0093067679         1928 
 1593000   0.61076866   -8.7329257    202.60074   0.01059849 0.0092974376         2022 
 1594000   0.61436508   -8.7335584    202.35832  0.010579168   0.00928811         2040 
 1595000   0.61933116   -8.7263402    202.73217  0.010592067  0.009278804         2019 
 1596000   0.62777365   -8.7471399    202.75528  0.010586637 0.0092694987         2052 
 1597000   0.61486921   -8.7358507    202.74784   0.01057962 0.0092602073         2068 
 1598000   0.61630915   -8.7187316    202.41701  0.010555747 0.0092509312         2077 
 1599000   0.61473851   -8.7644748    203.01908  0.010580523 0.0092416701         2067 
 1600000   0.62675983   -8.7455665    202.62639  0.010553458 0.0092324044         2031 
 1601000   0.61744861   -8.7264877    202.64209  0.010547683 0.0092231519         1984 
 1602000   0.62044409   -8.7530861    202.82588  0.010550659 0.0092139267         2042 
 1603000   0.62045976   -8.7612976    202.47981  0.010526087 0.0092046892         2022 
 1604000   0.60942529   -8.7720261    202.30729  0.010510562 0.0091954702         2082 
 1605000   0.60970312   -8.7450706    202.45815  0.010511846 0.0091862487         2123 
 1606000   0.62815477    -8.745695    202.63395  0.010514422  0.009177042         2064 
 1607000   0.59467686    -8.760248    202.45174  0.010498431 0.0091678482         2054 
 1608000   0.60490741    -8.752448    202.16065  0.010476816 0.0091586654         2112 
 1609000   0.59531824   -8.7757431    202.88628  0.010507887 0.0091494852         2073 
 1610000   0.61154709   -8.7495857    202.45423  0.010478997  0.009140321         2076 
 1611000   0.62862924   -8.7569768    202.48267  0.010473964 0.0091311745         2107 
 1612000    0.6180472   -8.7819827    202.51993  0.010469393  0.009122031         2084 
 1613000   0.61115422   -8.7630407    202.44535  0.010459049 0.0091128962         2173 
 1614000   0.59838259   -8.7547719    202.22065  0.010440967 0.0091037771         2131 
 1615000   0.59718483   -8.7601347    202.45314  0.010446498 0.0090946729         2069 
 1616000   0.61778094   -8.7582866    202.46432  0.010440611 0.0090855731         2135 
 1617000   0.59083985   -8.7457378    202.51447  0.010436738 0.0090764916         2069 
 1618000   0.60207237   -8.7539222    202.22443  0.010415349   0.00906741         2121 
 1619000   0.59459875   -8.7794233    202.09102  0.010402049 0.0090583539         2090 
 1620000   0.60872934   -8.7553472    202.49795  0.010416561 0.0090492962         2040 
 1621000   0.60869867   -8.7649527    202.37934  0.010404037 0.0090402638         2102 
 1622000   0.60760159   -8.7571029    202.15007  0.010385844 0.0090312393         2079 
 1623000   0.61079827   -8.7674564    202.63039  0.010404107 0.0090222366         2080 
 1624000    0.6100767   -8.7768496     202.1501  0.010373055 0.0090132418         2116 
 1625000   0.61618682   -8.7700514    202.47415   0.01038329 0.0090042502         2129 
 1626000   0.59078086   -8.7706658    202.75671  0.010391385 0.0089952732         2066 
 1627000   0.61323908   -8.7542859    202.59273  0.010376599 0.0089863005         2096 
 1628000    0.5993741   -8.7917128    202.26721  0.010353563 0.0089773483         2176 
 1629000   0.59334123   -8.7814181    202.44848  0.010356481 0.0089684031         2123 
 1630000   0.59862469   -8.7706521    202.15402  0.010335073 0.0089594648         2065 
 1631000   0.59919941   -8.7509603    202.56162  0.010349562 0.0089505426         2050 
 1632000   0.61173338   -8.7776069    202.28948  0.010329324 0.0089416266         2093 
 1633000   0.61471595   -8.7731735     202.4119  0.010329246 0.0089327316         2122 
 1634000   0.60161506   -8.7580221    202.28824  0.010316617 0.0089238358         2124 
 1635000   0.60988024    -8.757771    202.73578  0.010333118 0.0089149574         2034 
 1636000   0.59794793   -8.7806317    202.15887  0.010297416 0.0089060906         2089 
 1637000   0.60500138   -8.7594945    202.37548  0.010302152 0.0088972309         2143 
 1638000   0.59845869   -8.7974919    202.27841  0.010290924 0.0088883813         2121 
 1639000   0.59051112   -8.7607481     202.3772  0.010289668 0.0088795424         2099 
 1640000   0.59379131   -8.7728691    202.15511  0.010272109  0.008870718         2198 
 1641000   0.60169122   -8.7668479    202.46177  0.010281422 0.0088619104         2153 
 1642000   0.59126687   -8.7813443    202.66225  0.010285336 0.0088531143         2160 
 1643000   0.59530418   -8.7794941     202.3471  0.010263091 0.0088443298         2143 
 1644000   0.59907564   -8.7928125    202.31446  0.010255194  0.008835545         2069 
 1645000    0.5950839   -8.7822663    202.08351   0.01023726  0.008826782         2119 
 1646000   0.59360746   -8.7805025    202.01213  0.010227426 0.0088180414         2149 
 1647000   0.59205494   -8.7822726     202.4766  0.010244717 0.0088092916         2050 
 1648000   0.60717797   -8.7821533    202.05317   0.01021709  0.008800553         2104 
 1649000   0.59772177   -8.7886444    202.23222  0.010219942 0.0087918306         2116 
 1650000   0.59543516   -8.7774105    202.38692  0.010221562 0.0087831295         2075 
 1651000   0.59584882   -8.7878712    201.83323  0.010187423 0.0087744306         2126 
 1652000   0.59467286   -8.7907168    202.37256  0.010208463   0.00876576         2129 
 1653000   0.59618473   -8.7818969    202.24304  0.010195757 0.0087570779         2146 
 1654000   0.59232611   -8.7989049    202.24158  0.010189519 0.0087484048         2134 
 1655000   0.57832299   -8.7873806    201.77448  0.010159843  0.008739733         2132 
 1656000   0.59583871    -8.788766    202.21846   0.01017605 0.0087310863         2044 
 1657000   0.57759541   -8.7877361    202.14285  0.010166106 0.0087224441         2114 
 1658000   0.58726195   -8.7853812    202.32354  0.010169056 0.0087138184         2122 
 1659000   0.58420544   -8.7825925    202.06073  0.010149725 0.0087052033         2112 
 1660000   0.58102004   -8.7918217    202.04488  0.010142815 0.0086965835         2081 
 1661000   0.60483283   -8.8060176    202.04197  0.010136563 0.0086879759         2112 
 1662000   0.58022243   -8.7846987    201.78513  0.010117586 0.0086793928         2143 
 1663000   0.61033663   -8.7969349     202.3652  0.010140569 0.0086708269         2125 
 1664000   0.57934825   -8.8087737    202.14052  0.010123223 0.0086622578         2118 
 1665000   0.59427361   -8.7795702    201.71321  0.010095756 0.0086536946         2142 
 1666000   0.59852896   -8.8106832    202.16463  0.010112276  0.008645146         2100 
 1667000   0.56996008   -8.8094441    202.12055  0.010104007 0.0086366172         2067 
 1668000   0.57837215   -8.7822807    201.73148  0.010078511 0.0086280871         2086 
 1669000   0.60646976   -8.8034713    202.09448  0.010090597 0.0086195721         2090 
 1670000   0.58511354   -8.8054031    201.97092  0.010078389 0.0086110677         2185 
 1671000   0.58814571   -8.7881115    202.10433  0.010079011 0.0086025726         2025 
 1672000    0.5928908   -8.8100396    201.74384  0.010055016 0.0085940909         2149 
 1673000   0.59952979   -8.7993884    201.93727  0.010058641  0.008585618         2169 
 1674000   0.59258935    -8.792331    201.84689  0.010048133 0.0085771616         2152 
 1675000   0.56551217   -8.7960553    202.30495  0.010064923 0.0085687148         2086 
 1676000    0.5810707    -8.806591    201.75866  0.010031755 0.0085602682         2051 
 1677000   0.57958849    -8.793985    201.98121  0.010036832 0.0085518455         2132 
 1678000    0.5838979   -8.7944585    202.09928  0.010036714 0.0085434239         2080 
 1679000   0.58074439   -8.7982038    201.95797  0.010023723 0.0085350157         2144 
 1680000   0.58236625    -8.810159    202.28977  0.010034215 0.0085266293         2062 
 1681000   0.57513899   -8.8241877    201.85651  0.010006767 0.0085182463         2052 
 1682000   0.57893082   -8.8278879    201.93455  0.010004684 0.0085098793         2131 
 1683000   0.58359605   -8.8086436    201.84924 0.0099945156 0.0085015198         2182 
 1684000   0.57306281   -8.7946049     201.6893 0.0099806663 0.0084931613         2125 
 1685000   0.58030307   -8.8271014    201.92547  0.009986423 0.0084848155         2112 
 1686000   0.57414652   -8.7927012     202.1441 0.0099913061 0.0084764895         2141 
 1687000   0.57494351   -8.8080616    201.88753 0.0099727097 0.0084681685         2160 
 1688000   0.56378215   -8.8130375     202.1816 0.0099813189 0.0084598534         2157 
 1689000   0.57963874   -8.8035118    202.08279 0.0099705342 0.0084515516         2165 
 1690000    0.5726813     -8.81521    201.83798 0.0099525632 0.0084432593         2170 
 1691000    0.5773866     -8.82801    201.94622 0.0099520115 0.0084349704         2170 
 1692000   0.57863979   -8.8115679    201.75204 0.0099365662 0.0084266928         2171 
 1693000   0.59003274   -8.8218349    202.02844 0.0099443021  0.008418427         2140 
 1694000   0.58146098   -8.8107934    202.13249 0.0099435505 0.0084101699         2119 
 1695000   0.58865491   -8.8206086    202.11681 0.0099369128 0.0084019192         2142 
 1696000   0.56546943   -8.8170461    201.83263 0.0099170905 0.0083936961         2145 
 1697000   0.58600644   -8.8127128    201.77801 0.0099085648 0.0083854758         2075 
 1698000   0.57627086   -8.8034267    201.67831 0.0098978363 0.0083772621         2074 
 1699000   0.57050447   -8.8416962    201.68592  0.009892384 0.0083690629         2135 
 1700000   0.56269823   -8.8179831    201.93166 0.0098986108 0.0083608667         2109 
 1701000   0.57031245    -8.824601    201.69937 0.0098814114 0.0083526886         2182 
 1702000   0.56546013   -8.8175405    201.92238 0.0098865248 0.0083445165         2113 
 1703000   0.57686042   -8.8167831    201.89345 0.0098793036  0.008336353         2157 
 1704000   0.57101417   -8.8217654    201.47595 0.0098530883 0.0083282016         2210 
 1705000   0.58079548   -8.8420219    201.96376 0.0098711515 0.0083200649         2114 
 1706000   0.56864118   -8.8211573    201.64546 0.0098498173 0.0083119311         2150 
 1707000    0.5716264   -8.8260749     201.7172 0.0098475495  0.008303817         2162 
 1708000   0.56889637   -8.8246961    201.78353 0.0098450199 0.0082956952         2123 
 1709000   0.57130185   -8.8171248    201.47203 0.0098240703 0.0082875871         2155 
 1710000   0.56922289   -8.8415748     201.4306  0.009816306 0.0082795001         2149 
 1711000   0.57599698   -8.8251869    201.96065 0.0098363847 0.0082714111         2177 
 1712000   0.56551182   -8.8273854    201.63737 0.0098149033 0.0082633421         2155 
 1713000    0.5648742   -8.8440859    201.40449 0.0097978444 0.0082552816         2177 
 1714000   0.56743668   -8.8311481    201.55668 0.0097995276 0.0082472298         2138 
 1715000   0.56326777   -8.8313887    201.85129 0.0098081286 0.0082391964         2174 
 1716000   0.56404388   -8.8324453    201.68798 0.0097944824 0.0082311715         2158 
 1717000    0.5653933   -8.8355501     201.6906  0.009788905 0.0082231569         2154 
 1718000   0.56488885   -8.8407086    201.78062 0.0097875738 0.0082151569         2162 
 1719000   0.56616075   -8.8154675    201.63506 0.0097748233 0.0082071604         2143 
 1720000   0.57447788   -8.8504846    201.22142    0.0097491 0.0081991686         2211 
 1721000   0.56983865   -8.8414762    201.41708  0.009752909  0.008191189         2144 
 1722000   0.57177824   -8.8142746    201.38644 0.0097457627 0.0081832234         2147 
 1723000   0.56447776   -8.8263682    201.79272 0.0097597563 0.0081752655         2190 
 1724000   0.56746232   -8.8503521    201.61103 0.0097453128 0.0081673203         2150 
 1725000   0.56428233   -8.8520741    201.64244 0.0097411807 0.0081593735         2175 
 1726000   0.56909853   -8.8388238    201.29248 0.0097186403 0.0081514357         2189 
 1727000   0.56990286   -8.8415778    201.63589 0.0097295838 0.0081435076         2208 
 1728000   0.56768373   -8.8342437     201.8576 0.0097346452 0.0081355993         2237 
 1729000   0.56624081   -8.8433684    201.58581 0.0097159152 0.0081277031         2076 
 1730000   0.55690862   -8.8311204    201.60604 0.0097112734 0.0081198016         2139 
 1731000   0.55524206   -8.8383963    201.41394 0.0096964154 0.0081119066         2209 
 1732000   0.54432316   -8.8599218    201.43948 0.0096920459 0.0081040229         2237 
 1733000   0.55342829   -8.8565876    201.29367 0.0096794417 0.0080961421         2234 
 1734000   0.57035336   -8.8445511     201.6313 0.0096900853 0.0080882818         2231 
 1735000   0.57416658   -8.8515093    201.54724 0.0096804632 0.0080804245         2241 
 1736000   0.55403157   -8.8657923    201.10733 0.0096537697 0.0080725781         2264 
 1737000   0.55824593   -8.8590127     201.4787 0.0096660287 0.0080647439         2232 
 1738000    0.5499621   -8.8274785     201.6999 0.0096710732 0.0080569209         2203 
 1739000   0.56285914   -8.8459136    201.47742 0.0096548507 0.0080491121         2160 
 1740000   0.55259428    -8.869249    201.42265 0.0096466785 0.0080413023         2215 
 1741000   0.55922143   -8.8638936    201.48394 0.0096440713 0.0080335113         2228 
 1742000   0.56152387   -8.8358637     201.7166 0.0096496653 0.0080257307         2179 
 1743000   0.56402797   -8.8509313    201.63537 0.0096402453 0.0080179548         2261 
 1744000   0.56565431   -8.8543944    201.68738 0.0096372027 0.0080101919         2232 
 1745000   0.56617743   -8.8562716    201.44396 0.0096200555 0.0080024408         2260 
 1746000   0.55666267   -8.8623429    201.46957 0.0096157678 0.0079946918         2232 
 1747000   0.55571195   -8.8644515    201.33512 0.0096038504 0.0079869578         2270 
 1748000   0.55729956   -8.8461621    201.13777  0.009588948 0.0079792245         2299 
 1749000   0.55237818   -8.8612792    201.37717 0.0095948719 0.0079715049         2199 
 1750000   0.54774457   -8.8701201    201.38942 0.0095899725 0.0079637972         2280 
 1751000   0.55318655   -8.8686152    201.41428 0.0095856786 0.0079560948         2246 
 1752000   0.55915063   -8.8721447    201.35585 0.0095774284 0.0079484065         2347 
 1753000   0.55034864   -8.8877913    201.29118 0.0095688903 0.0079407245         2204 
 1754000   0.55081938    -8.871647    201.24437 0.0095612109  0.007933046         2280 
 1755000   0.54479575   -8.8735171    201.25978 0.0095564948 0.0079253735         2272 
 1756000   0.53691833   -8.8584506    200.89529 0.0095337551 0.0079177198         2293 
 1757000   0.55548323   -8.8825884    201.31463 0.0095482181 0.0079100697         2252 
 1758000   0.54313122   -8.8711835     201.4688 0.0095500947 0.0079024382         2245 
 1759000   0.55659173   -8.8848207    201.37435 0.0095401908 0.0078948164         2288 
 1760000   0.53271303   -8.8650199    201.17411 0.0095252895 0.0078872032         2215 
 1761000   0.55144068   -8.8801751    201.28857 0.0095252966 0.0078795987         2235 
 1762000   0.54125476   -8.8799102     200.8772 0.0095004351 0.0078720034         2250 
 1763000   0.56134173   -8.8922002    200.95709 0.0094988226 0.0078644152         2253 
 1764000   0.54235361   -8.8835306    201.25789 0.0095076479  0.007856829         2276 
 1765000   0.55248281   -8.8787607    200.97183  0.009488755 0.0078492489         2251 
 1766000   0.54398824     -8.86684    201.30353 0.0094990342 0.0078416831         2230 
 1767000   0.54629103   -8.8832542    201.29716 0.0094933579 0.0078341398         2320 
 1768000   0.54978672   -8.8911244    201.31831 0.0094889851 0.0078265911         2308 
 1769000   0.54113859   -8.8577439    200.99153 0.0094682272 0.0078190586         2246 
 1770000    0.5493952   -8.8950898     201.2338 0.0094742841 0.0078115307         2268 
 1771000   0.54848358   -8.8762603    201.13082  0.009464089 0.0078040202         2277 
 1772000   0.54199712   -8.8835288    201.17711  0.009460925  0.007796512         2257 
 1773000   0.54409754   -8.8675209     201.1459 0.0094541222 0.0077890215         2277 
 1774000    0.5475584   -8.8911936    201.47804 0.0094643951 0.0077815319         2272 
 1775000   0.53647062   -8.8703065    201.20657  0.009446318 0.0077740583         2269 
 1776000   0.54314336    -8.887821    201.29221 0.0094450171 0.0077665905         2275 
 1777000   0.54282215   -8.8589635    201.39714 0.0094446231 0.0077591363         2312 
 1778000    0.5415921   -8.8873949    200.81959 0.0094122418 0.0077516844         2294 
 1779000   0.54893101   -8.8772156    201.24626 0.0094269376 0.0077442439         2325 
 1780000   0.56075693   -8.8835419    201.15942 0.0094175759  0.007736812         2359 
 1781000   0.54616004   -8.8796342    201.06721 0.0094079737 0.0077293952         2250 
 1782000   0.53499916   -8.8837917    201.05442 0.0094020958 0.0077219892         2277 
 1783000   0.54182838   -8.8945103    201.40238 0.0094130858 0.0077145929         2301 
 1784000   0.53300405   -8.9042651     201.1031 0.0093938293 0.0077071988         2218 
 1785000   0.54416939   -8.8886462    200.83294 0.0093759544 0.0076998141         2315 
 1786000    0.5445348   -8.8862761    201.12228 0.0093842049  0.007692445         2283 
 1787000    0.5359136   -8.8863802     201.0311 0.0093747017 0.0076850801         2274 
 1788000   0.54538463    -8.908924     201.2552 0.0093799029 0.0076777275         2312 
 1789000   0.53701147    -8.895994    200.82046 0.0093544094 0.0076703849         2303 
 1790000   0.53934164    -8.874764    201.22488 0.0093680112 0.0076630568         2301 
 1791000   0.53697734   -8.9063957    201.09422 0.0093567013 0.0076557333         2268 
 1792000    0.5408583   -8.8963078    200.90684  0.009342766  0.007648416         2306 
 1793000   0.53733917   -8.8983773    200.71175 0.0093284883 0.0076411077         2309 
 1794000    0.5372161   -8.8886544    200.96329 0.0093349726 0.0076338101         2292 
 1795000   0.53409097   -8.8895427    201.09588 0.0093359274 0.0076265264         2272 
 1796000   0.52639621    -8.901474    200.95009  0.009323965 0.0076192428         2315 
 1797000   0.53218491   -8.9136967     201.0602 0.0093238823 0.0076119628         2315 
 1798000   0.53497418    -8.902305    201.04933 0.0093181929 0.0076046954         2297 
 1799000   0.52480629   -8.8893875    201.03052 0.0093121421 0.0075974358         2300 
 1800000   0.53818702   -8.8916252    201.29683 0.0093192975 0.0075901869         2369 
 1801000   0.53764324   -8.8967498    200.85322 0.0092935972 0.0075829474         2343 
 1802000   0.52885679   -8.9049842    200.64781 0.0092789404 0.0075757133         2297 
 1803000   0.53690914   -8.8961421    200.77775 0.0092797998 0.0075684957         2254 
 1804000   0.53286483   -8.8952817    200.90009 0.0092803072 0.0075612714         2294 
 1805000   0.51776945   -8.8897342    200.94031 0.0092770227 0.0075540609         2266 
 1806000   0.53783516   -8.9089991    200.69041 0.0092603549 0.0075468595         2322 
 1807000   0.53700927   -8.8990404    201.24165 0.0092806517 0.0075396721         2279 
 1808000   0.53379724   -8.8929864    201.15645 0.0092715917  0.007532492         2337 
 1809000   0.53724237   -8.9109915    200.92043 0.0092555936 0.0075253255         2372 
 1810000   0.52632327   -8.8954389    200.98202 0.0092533159 0.0075181757         2238 
 1811000   0.52677932   -8.8993499    201.27604 0.0092617355 0.0075110189         2298 
 1812000   0.53077878   -8.9356698    200.44674  0.009218485 0.0075038798         2334 
 1813000   0.53109855   -8.9231815    200.65719 0.0092230735 0.0074967391         2225 
 1814000   0.53597197   -8.8877192    200.94103 0.0092310286 0.0074896152         2249 
 1815000   0.51749281   -8.9143488    201.06963 0.0092318471 0.0074825047         2279 
 1816000   0.53223671   -8.9208511    200.86443 0.0092173473 0.0074754039         2247 
 1817000   0.51999932   -8.9219758    200.91902 0.0092147778 0.0074683134         2276 
 1818000    0.5297512   -8.9176619    201.10463 0.0092182175 0.0074612232         2322 
 1819000   0.51994882   -8.9199344    200.82909 0.0092005266 0.0074541447         2310 
 1820000   0.52629103   -8.9177358    200.82962 0.0091954953 0.0074470783         2301 
 1821000   0.52462771   -8.9221819    201.18666 0.0092067846 0.0074400194         2274 
 1822000   0.52147075   -8.9139501    200.50951 0.0091707605 0.0074329667         2358 
 1823000    0.5195702   -8.9151977    200.60247 0.0091699795 0.0074259246         2317 
 1824000    0.5090009   -8.9217756    200.72054 0.0091703465 0.0074188854         2272 
 1825000    0.5196886   -8.9128948    200.84642 0.0091710694 0.0074118583         2304 
 1826000   0.52771756   -8.9305411    200.64787 0.0091569858 0.0074048391         2332 
 1827000   0.52040363   -8.9235435       200.32  0.009137019 0.0073978294         2285 
 1828000   0.52693674   -8.9301944     200.7199 0.0091502506 0.0073908274         2355 
 1829000   0.52352551   -8.9246082    200.79013 0.0091484475 0.0073838409         2307 
 1830000     0.525351    -8.912747    200.90882 0.0091488533 0.0073768516         2346 
 1831000   0.52980945   -8.9152893    200.74426 0.0091363674 0.0073698766         2323 
 1832000   0.50695985   -8.8989936    200.64513 0.0091268711 0.0073629082         2345 
 1833000   0.51887943   -8.9194255    200.66092 0.0091226096 0.0073559536         2361 
 1834000   0.51805355   -8.9247709    201.02335 0.0091341033 0.0073489991         2362 
 1835000   0.52574659   -8.9340282    200.98595 0.0091274273 0.0073420557         2369 
 1836000   0.51424119   -8.9176572    200.56925 0.0091035427 0.0073351129         2375 
 1837000   0.51080823   -8.9284849    200.52725 0.0090966815 0.0073281792         2348 
 1838000   0.52281905   -8.9446466    200.40065 0.0090859925 0.0073212534         2384 
 1839000   0.52179943   -8.9229296    200.47507 0.0090844238 0.0073143368         2384 
 1840000   0.50490039   -8.9451892    200.63829 0.0090868789 0.0073074343         2394 
 1841000   0.52458281   -8.9251025    201.13658 0.0091044985 0.0073005419         2343 
 1842000   0.52357173   -8.9188189    200.57124 0.0090739796 0.0072936618         2362 
 1843000     0.511298   -8.9198402    200.68683 0.0090742824 0.0072867878         2366 
 1844000   0.51231157   -8.9404097    200.73976 0.0090717536 0.0072799185         2410 
 1845000   0.52943112    -8.914701    201.13076 0.0090844969 0.0072730571         2440 
 1846000   0.52266779   -8.9460785    200.57307 0.0090544002 0.0072662098         2425 
 1847000   0.52303987   -8.9434691    200.34522 0.0090392176 0.0072593693         2422 
 1848000   0.52737626    -8.930085    200.72668 0.0090515276 0.0072525376         2404 
 1849000   0.51224401   -8.9283769    200.77791 0.0090489415 0.0072457107         2377 
 1850000   0.51717709    -8.923612    201.05399 0.0090564862 0.0072388967         2366 
 1851000   0.50773128   -8.9443928    200.68324 0.0090349017 0.0072320889         2402 
 1852000   0.52288173   -8.9330784    200.59364 0.0090259916 0.0072252834         2471 
 1853000    0.5103321   -8.9268401    200.68962  0.009025437 0.0072184888         2360 
 1854000   0.51476878   -8.9384174    200.57906 0.0090155998 0.0072117072         2398 
 1855000   0.51966204   -8.9444973    200.63267 0.0090131479 0.0072049271         2373 
 1856000    0.5182336   -8.9365443    200.52058 0.0090032588 0.0071981616         2391 
 1857000   0.51740015   -8.9343611     200.3967 0.0089928514  0.007191399         2421 
 1858000   0.52209707   -8.9472286    200.63634 0.0089987595  0.007184651         2439 
 1859000   0.51471608   -8.9497584    200.61245  0.008992848 0.0071779149         2334 
 1860000   0.51127423   -8.9486159    200.31303  0.008974598 0.0071711822         2377 
 1861000   0.51043151   -8.9357359    200.38645 0.0089730635 0.0071644614         2301 
 1862000   0.51692198    -8.935997    200.56536 0.0089762512  0.007157749         2388 
 1863000   0.50833076   -8.9323311    200.37291 0.0089628248 0.0071510455         2329 
 1864000    0.5059083   -8.9374065    200.62552 0.0089693098  0.007144343         2357 
 1865000   0.49906181    -8.956498    200.42479 0.0089555315 0.0071376488         2435 
 1866000   0.50866311   -8.9494697    200.69501 0.0089627996 0.0071309697         2361 
 1867000   0.50276507    -8.965382    200.57553 0.0089526661 0.0071242961         2375 
 1868000   0.50422043    -8.949475    200.68283   0.00895266 0.0071176338         2335 
 1869000   0.50594226   -8.9421308    200.61784 0.0089449724 0.0071109791         2379 
 1870000   0.51238046   -8.9561271    200.28203 0.0089252243 0.0071043349         2391 
 1871000   0.51020992   -8.9586791     200.4952 0.0089299485 0.0070976897         2392 
 1872000    0.5023125   -8.9625672    200.59516 0.0089296277 0.0070910601         2389 
 1873000    0.5045795   -8.9466113    200.51997 0.0089215149 0.0070844362         2454 
 1874000   0.50277465    -8.958446    200.60458 0.0089205168 0.0070778198         2407 
 1875000   0.51126995   -8.9319361    200.30512 0.0089024498  0.007071216         2354 
 1876000     0.508757   -8.9538467    200.44668 0.0089039926 0.0070646217         2452 
 1877000    0.4988833   -8.9578901    200.55486 0.0089040519 0.0070580364         2358 
 1878000   0.51239161   -8.9601435    200.41596 0.0088931471 0.0070514543         2408 
 1879000   0.49507868   -8.9647511    200.43402 0.0088892148 0.0070448761         2375 
 1880000   0.49487725   -8.9543254    200.59472 0.0088916098 0.0070383064         2327 
 1881000    0.5008808   -8.9514029    200.45032 0.0088804857 0.0070317437         2388 
 1882000   0.50887787   -8.9704286    200.29835 0.0088690378 0.0070251891         2395 
 1883000   0.50131635   -8.9570624    200.42151 0.0088697784 0.0070186496         2308 
 1884000   0.49738018   -8.9569242    200.60052 0.0088729883 0.0070121141         2312 
 1885000   0.50078275    -8.944118    200.55266 0.0088661655 0.0070055867         2441 
 1886000   0.49551548   -8.9614732    200.58237 0.0088627769 0.0069990639         2429 
 1887000   0.50031123   -8.9576864    200.54529 0.0088564428 0.0069925526         2327 
 1888000   0.51049183   -8.9651355    200.61186 0.0088546903 0.0069860499         2415 
 1889000   0.49664452   -8.9613744    200.30996 0.0088366844 0.0069795567         2388 
 1890000   0.49741612    -8.956553     200.5018 0.0088404675 0.0069730731         2338 
 1891000   0.50567399   -8.9744637    200.47077 0.0088344248 0.0069666003         2399 
 1892000   0.49655611   -8.9721397    200.64534 0.0088374446 0.0069601311         2362 
 1893000    0.4857663   -8.9792628    200.36195 0.0088203005 0.0069536632         2325 
 1894000   0.49710535   -8.9658671    200.42299 0.0088183296 0.0069472043         2339 
 1895000   0.49094338   -8.9632046    200.22733 0.0088050717 0.0069407549         2359 
 1896000    0.5003427   -8.9699924    200.41183 0.0088085366  0.006934316         2378 
 1897000   0.48752372   -8.9776739    200.36364 0.0088017766 0.0069278836         2391 
 1898000   0.48959362   -8.9685018    200.58865 0.0088070182 0.0069214566         2411 
 1899000   0.49452644   -8.9730994    200.52325 0.0087995106 0.0069150468         2440 
 1900000   0.50059226   -8.9606097    200.44666   0.00879152 0.0069086416         2388 
 1901000   0.49933199   -8.9648457    200.49581 0.0087890503 0.0069022413         2351 
 1902000    0.4825597   -8.9657204    200.36434 0.0087786691 0.0068958507         2367 
 1903000   0.49792044   -8.9739762    200.19169 0.0087664953 0.0068894665         2411 
 1904000   0.49639549   -8.9706302    200.48271 0.0087746286 0.0068830861         2379 
 1905000   0.49961545    -8.978336    200.30848 0.0087624008 0.0068767206         2439 
 1906000   0.48799376   -8.9647397    200.22912 0.0087543337 0.0068703582         2398 
 1907000   0.48449193   -8.9773471    199.97787 0.0087387637  0.006864009         2434 
 1908000   0.50029635   -8.9695688    200.56923 0.0087600119 0.0068576658         2414 
 1909000    0.4934575   -8.9900749    200.12273 0.0087359322 0.0068513285         2384 
 1910000   0.49245841   -8.9647245    200.15246 0.0087326552  0.006844996         2426 
 1911000      0.50443   -8.9771405    200.14196 0.0087276276 0.0068386787         2384 
 1912000   0.48988666   -8.9627501    200.13646 0.0087228236 0.0068323633         2336 
 1913000   0.49668541   -8.9900828    200.28846  0.008724885 0.0068260606         2404 
 1914000    0.4946461   -8.9834315    200.21883 0.0087172951 0.0068197615         2406 
 1915000    0.4952892   -8.9680577    200.29416 0.0087160211 0.0068134683         2376 
 1916000   0.48525967   -8.9527411    200.09986 0.0087030212 0.0068071923         2337 
 1917000   0.47740762   -9.0047961     200.3122 0.0087077117 0.0068009161         2403 
 1918000   0.49133666   -8.9743938    200.27988 0.0087017674  0.006794645         2373 
 1919000   0.49083683   -8.9752346    200.15548 0.0086918309 0.0067883853         2457 
 1920000    0.4814102   -9.0038487    200.02215 0.0086815171 0.0067821336         2404 
 1921000   0.48044931   -8.9910299     200.2827 0.0086883003  0.006775883         2409 
 1922000   0.47995967    -8.971331    199.84751 0.0086649111 0.0067696495         2453 
 1923000   0.49522165   -8.9881314    200.20917 0.0086760779 0.0067634165         2427 
 1924000   0.47798529   -8.9772611    200.04312 0.0086643762  0.006757191         2377 
 1925000   0.49145992   -8.9989522    200.26041  0.008669282 0.0067509756         2465 
 1926000   0.48953044   -8.9941318    199.83279 0.0086462787  0.006744765         2438 
 1927000   0.47831478   -8.9834639    200.26469 0.0086604692 0.0067385543         2434 
 1928000   0.47804055   -8.9976183    200.12253 0.0086498329 0.0067323546         2406 
 1929000    0.4825093   -9.0126142    200.03341 0.0086414985 0.0067261625         2378 
 1930000   0.47899751    -8.980175    200.07802 0.0086389473 0.0067199764         2382 
 1931000   0.48855813   -8.9894625    200.12678 0.0086365776 0.0067138007         2445 
 1932000   0.48304105     -8.99349    200.27218  0.008638379 0.0067076378         2439 
 1933000   0.48516309   -8.9952764    200.24795 0.0086328656 0.0067014733         2354 
 1934000   0.48166224   -9.0052566    200.01606 0.0086184102 0.0066953181         2424 
 1935000   0.48462755   -9.0010539    200.00498 0.0086134789 0.0066891741         2395 
 1936000   0.48507774   -9.0063313     200.0342 0.0086102877 0.0066830372         2371 
 1937000   0.47434315   -9.0003585    200.01687 0.0086050967  0.006676906         2410 
 1938000   0.48253875   -8.9847662    200.02662 0.0086010757 0.0066707863         2383 
 1939000   0.48436694   -8.9899214    199.72242 0.0085835662 0.0066646703         2375 
 1940000    0.4895483   -8.9996906    199.81545 0.0085831378 0.0066585638         2408 
 1941000   0.49482545   -8.9948377     199.8997  0.008582333 0.0066524616         2469 
 1942000   0.47229043   -9.0021437    200.14207 0.0085883139 0.0066463689         2435 
 1943000   0.47538379   -9.0057318    200.18049 0.0085855416 0.0066402862         2420 
 1944000   0.47525651   -8.9944677    199.96345 0.0085718215 0.0066342064         2414 
 1945000   0.47632048   -9.0019259    199.86452 0.0085631756 0.0066281325         2407 
 1946000   0.47109753   -8.9852633    199.86812 0.0085589293 0.0066220679         2439 
 1947000   0.47019434   -8.9991089    199.70332   0.00854748 0.0066160096         2450 
 1948000    0.4786744   -9.0077003    200.08622 0.0085594719 0.0066099656         2484 
 1949000   0.47930092   -8.9987229    200.13896 0.0085573354 0.0066039193         2426 
 1950000   0.47995289   -9.0095071    199.98454 0.0085463477   0.00659789         2461 
 1951000   0.47075564   -9.0016857     199.9178 0.0085391168 0.0065918654         2385 
 1952000    0.4732982   -9.0043012     199.7437 0.0085273095 0.0065858418         2453 
 1953000   0.47217428   -9.0017354    199.85755 0.0085278012  0.006579831         2406 
 1954000   0.47305319   -9.0030251    199.94986 0.0085273736 0.0065738216         2416 
 1955000   0.47988585   -9.0121272    199.77403 0.0085155169 0.0065678185         2406 
 1956000   0.46416728   -8.9974623    199.90655 0.0085168093 0.0065618235         2354 
 1957000   0.47874482   -9.0117438    199.77755 0.0085069645 0.0065558443         2386 
 1958000   0.46835171   -8.9982066    199.72546 0.0085004027 0.0065498642         2377 
 1959000   0.47433742   -9.0061434    199.85613 0.0085016218 0.0065438985         2391 
 1960000   0.46325707   -9.0088695     199.4942 0.0084818961 0.0065379333         2395 
 1961000   0.47476307   -9.0067991    199.77738 0.0084896048 0.0065319742         2453 
 1962000   0.47363814   -9.0101208    199.98255 0.0084939921 0.0065260264         2390 
 1963000   0.46295271   -9.0143022    199.95018 0.0084882909 0.0065200851         2395 
 1964000   0.47225301   -9.0047043    200.00678 0.0084863703 0.0065141507         2385 
 1965000   0.46964959   -8.9999578    199.66353 0.0084674951  0.006508227         2410 
 1966000    0.4619901   -9.0279922    199.86761 0.0084718385  0.006502309         2424 
 1967000    0.4637015   -9.0212341    200.00007  0.008473143  0.006496394         2454 
 1968000   0.46203583   -9.0094162    199.69754 0.0084560271 0.0064904872         2402 
 1969000   0.47664314   -9.0187697    199.69067 0.0084514421 0.0064845894         2372 
 1970000   0.47309768   -9.0300036    199.89343 0.0084557289 0.0064786988         2419 
 1971000   0.46115238   -9.0186821    199.65599 0.0084413998 0.0064728145         2369 
 1972000   0.46567579   -9.0187207    199.49724 0.0084304107 0.0064669336         2419 
 1973000   0.45858732   -9.0189956    199.99969 0.0084473597 0.0064610582         2389 
 1974000   0.46611179   -9.0014891    199.55222 0.0084241903 0.0064551863         2435 
 1975000   0.45986441   -9.0256864    199.55871 0.0084201988 0.0064493216         2464 
 1976000   0.46652151    -9.012127    199.64387 0.0084195288 0.0064434671         2450 
 1977000   0.46661797   -9.0078059      200.017 0.0084309982 0.0064376209         2435 
 1978000     0.459066   -9.0160492    199.82558 0.0084186711 0.0064317826         2418 
 1979000   0.46397401   -9.0289319    199.80113 0.0084133877 0.0064259561         2431 
 1980000   0.46328866   -9.0410759    199.83222 0.0084104471 0.0064201304         2437 
 1981000   0.46044949   -9.0198648    199.58686   0.00839588 0.0064143113         2420 
 1982000   0.45830308    -9.039137    199.72922 0.0083976296 0.0064085006         2450 
 1983000   0.46068855   -9.0222616    199.83449 0.0083978186 0.0064026972         2452 
 1984000   0.46431319   -9.0304685      199.613 0.0083842826 0.0063968992         2423 
 1985000   0.47150622   -9.0213496    199.89115 0.0083917361 0.0063911105         2420 
 1986000   0.46796403   -9.0302196    199.89656 0.0083877377  0.006385326         2455 
 1987000   0.45576512   -9.0307369    199.79178 0.0083791217 0.0063795498         2444 
 1988000   0.45468939    -9.033195    199.88105  0.008378649  0.006373782         2361 
 1989000   0.45310826   -9.0155758     199.7098 0.0083672617 0.0063680228         2416 
 1990000     0.467009   -9.0344425    199.59781 0.0083583671 0.0063622662         2470 
 1991000   0.46685266   -9.0168709    199.48167 0.0083493082 0.0063565212         2394 
 1992000   0.45363172   -9.0380157    199.73546 0.0083557336 0.0063507804         2441 
 1993000   0.46134437   -9.0277691    199.55492 0.0083439923 0.0063450508         2453 
 1994000   0.45762525   -9.0245067    199.69519 0.0083456699  0.006339322         2366 
 1995000   0.44863746   -9.0274351    199.82644 0.0083469691 0.0063336045         2381 
 1996000   0.45034946   -9.0280599    199.78021 0.0083408573 0.0063278956         2390 
 1997000    0.4588368   -9.0325189    199.29512 0.0083164381 0.0063221892         2391 
 1998000   0.45842798   -9.0366086    199.53257 0.0083221792 0.0063164888         2435 
 1999000   0.47032863   -9.0222403    199.83676  0.008330697  0.006310798         2427 
 2000000   0.46201473   -9.0283608    199.67859 0.0083199412 0.0063051142         2404 
 2001000   0.46351257   -9.0324586    199.57001 0.0083112615 0.0062994374         2471 
 2002000   0.45840341   -9.0357981    199.44096 0.0083017383 0.0062937616         2417 
 2003000   0.45099922    -9.041236    199.64552 0.0083061042  0.006288096         2431 
 2004000   0.46253454   -9.0352939    199.93706 0.0083140825 0.0062824406         2443 
 2005000   0.45323543   -9.0232088    199.52886 0.0082929699 0.0062767844         2462 
 2006000   0.44149483   -9.0412874     199.5201 0.0082884721  0.006271141         2450 
 2007000   0.44530132   -9.0420216    199.68212 0.0082910694 0.0062655003         2443 
 2008000   0.45272016   -9.0301836    199.67357 0.0082865857  0.006259867         2433 
 2009000   0.45587315   -9.0478432    199.55275 0.0082774496  0.006254241         2439 
 2010000   0.44755482   -9.0290177    199.47951 0.0082702948 0.0062486217         2413 
 2011000   0.45422543    -9.052669    199.21051 0.0082550353 0.0062430098         2477 
 2012000   0.44583919    -9.061036    199.50022 0.0082629315 0.0062374051         2452 
Loop time of 5281.79 on 48 procs for 2000000 steps with 4000 atoms

Performance: 65432.360 tau/day, 378.659 timesteps/s
99.4% CPU use with 48 MPI tasks x no OpenMP threads

MPI task timing breakdown:
Section |  min time  |  avg time  |  max time  |%varavg| %total
---------------------------------------------------------------
Pair    | 388.14     | 423.26     | 465.73     |  93.1 |  8.01
Neigh   | 36.54      | 38.177     | 39.768     |  11.8 |  0.72
Comm    | 331.05     | 372.64     | 407.7      |  93.8 |  7.06
Output  | 8.063      | 8.0651     | 8.1089     |   0.2 |  0.15
Modify  | 4376.6     | 4389.2     | 4404.1     |  10.6 | 83.10
Other   |            | 50.47      |            |       |  0.96

Nlocal:        83.3333 ave          88 max          76 min
Histogram: 2 1 2 5 4 8 4 10 4 8
Nghost:        2423.92 ave        2446 max        2403 min
Histogram: 6 5 2 1 9 6 10 5 0 4
Neighs:        16801.8 ave       19504 max       13699 min
Histogram: 1 3 3 6 6 10 8 5 4 2
FullNghs:      33606.0 ave       35935 max       30107 min
Histogram: 2 0 3 8 5 3 6 8 7 6

Total # of neighbors = 1613087
Ave neighs/atom = 403.27175
Neighbor list builds = 106438
Dangerous builds = 0

#clear
#
#next RN
#
#jump SELF
Total wall time: 1:28:05
