
units lj                  # Use reduced LJ style units
atom_style atomic         # Uncharged point particles
atom_modify map hash      # Needed for indexing of clusters etc
                          # Used to be able to find where atoms are in relation to each other.

lattice fcc 1.0 spacing 1 1 1
Lattice spacing in x,y,z = 1.5874011 1.5874011 1.5874011
region box block 0 10 0 10 0 10 units lattice
create_box 2 box
Created orthogonal box = (0.0000000 0.0000000 0.0000000) to (15.874011 15.874011 15.874011)
  3 by 4 by 4 MPI processor grid
create_atoms 1 box
Created 4000 atoms
  using lattice units in orthogonal box = (0.0000000 0.0000000 0.0000000) to (15.874011 15.874011 15.874011)
  create_atoms CPU = 0.002 seconds
set type 1 type/fraction 2 0.83 78393
Setting atom values ...
  3314 settings made for type/fraction
mass 1 1.0
mass 2 1.0
pair_style lj/cut  3.5
pair_modify tail  yes
pair_coeff 1  1  1.0  1.0   # Intearaction between 1 and 1 set with epsilon = 1 and sigma = 1
pair_coeff 1  2  1.5  0.8
pair_coeff 2  2  0.5  0.88

write_data data.0
System init for write_data ...
Neighbor list info ...
  update every 1 steps, delay 10 steps, check yes
  max neighbors/atom: 2000, page size: 100000
  master list distance cutoff = 3.8
  ghost atom cutoff = 3.8
  binsize = 1.9, bins = 9 9 9
  1 neighbor lists, perpetual/occasional/extra = 1 0 0
  (1) pair lj/cut, perpetual
      attributes: half, newton on
      pair build: half/bin/atomonly/newton
      stencil: half/bin/3d
      bin: standard
WARNING: Not all mixed pair coeffs generated from mixing. Use write_data with 'pair ij' option to store all pair coeffs. (../write_data.cpp:312)


#############################
#   M E L T   S Y S T E M   #
#############################

velocity all create 2.4 1741580 mom yes dist gaussian # Assign velocities
                                                    # Temperature 2.4, random number seed, zero linear momentum
                                                                                # Gaussian distribution

timestep 0.002   # simulation timestep
thermo 1000       # output thermodynamic data every 1000 steps bf 100

# Define a fix  in this case with index 1 applied to all
# particles in the simulation. This fix is for simulations
# in the anisotropic NPT ensemble. Note that we use the MTK
# correction.
fix 1 all npt temp 2.4 2.4 0.1 iso 5.68 5.68 0.5 mtk yes tchain 5 pchain 5 # Use NPT ensemble
                                                                         # Set temperature and pressure and damping
                                                                         # Numbers of thermostats in chain and in barostat
run 10000          # run for 10000 steps
Per MPI rank memory allocation (min/avg/max) = 3.642 | 3.644 | 3.648 Mbytes
Step Temp E_pair E_mol TotEng Press Volume 
       0          2.4   -3.5381599            0  0.060940148   -3.0801753         4000 
    1000    2.3918637   -2.8191307            0   0.76776784     5.672709    3841.1347 
    2000    2.3976317   -2.8091765            0   0.78637191    5.7948817    3838.1877 
    3000    2.4021392   -2.8345737            0    0.7677343    5.9371136    3805.8714 
    4000    2.4249359   -2.7832102            0   0.85328435    5.7683765    3861.9702 
    5000    2.4379764   -2.8121245            0   0.84392585    5.6137721    3859.9171 
    6000    2.3924256   -2.7814666            0   0.80627473    5.6281099    3860.6301 
    7000    2.4387428   -2.8063149            0   0.85088478    5.6726924    3856.4248 
    8000    2.4073089   -2.7854955            0   0.82456511    5.9253399    3839.7855 
    9000     2.404079   -2.8157282            0   0.78948885    5.4846607    3859.4796 
   10000    2.3941211   -2.8282029            0    0.7620809    5.3348012    3884.8762 
Loop time of 2.541 on 48 procs for 10000 steps with 4000 atoms

Performance: 680047.433 tau/day, 3935.460 timesteps/s
99.6% CPU use with 48 MPI tasks x no OpenMP threads

MPI task timing breakdown:
Section |  min time  |  avg time  |  max time  |%varavg| %total
---------------------------------------------------------------
Pair    | 1.1489     | 1.2039     | 1.2618     |   2.4 | 47.38
Neigh   | 0.21478    | 0.22045    | 0.23177    |   0.7 |  8.68
Comm    | 0.78126    | 0.86175    | 0.93468    |   3.8 | 33.91
Output  | 0.00024848 | 0.00025287 | 0.00032163 |   0.0 |  0.01
Modify  | 0.20523    | 0.2394     | 0.26551    |   3.2 |  9.42
Other   |            | 0.01521    |            |       |  0.60

Nlocal:        83.3333 ave          91 max          77 min
Histogram: 6 4 5 7 4 6 5 6 3 2
Nghost:        1674.35 ave        1704 max        1649 min
Histogram: 4 2 6 10 6 7 4 6 1 2
Neighs:        9823.44 ave       11031 max        8678 min
Histogram: 1 6 6 5 11 4 3 6 4 2

Total # of neighbors = 471525
Ave neighs/atom = 117.88125
Neighbor list builds = 911
Dangerous builds = 237

# Equilibrate just above the melting temperature to avoid step fn in T

fix 1 all npt temp 1.25 1.25 0.1 iso 5.68 5.68 0.5 mtk yes tchain 5 pchain 5
run 2000
Per MPI rank memory allocation (min/avg/max) = 3.643 | 3.645 | 3.649 Mbytes
Step Temp E_pair E_mol TotEng Press Volume 
   10000    2.3941211   -2.8282029            0    0.7620809    5.3348012    3884.8762 
   11000    1.2433053   -4.1504809            0   -2.2859892    5.7443269    2953.4874 
   12000    1.2280189   -4.1282779            0   -2.2867101    5.5630271    2980.2589 
Loop time of 0.628655 on 48 procs for 2000 steps with 4000 atoms

Performance: 549745.397 tau/day, 3181.397 timesteps/s
99.6% CPU use with 48 MPI tasks x no OpenMP threads

MPI task timing breakdown:
Section |  min time  |  avg time  |  max time  |%varavg| %total
---------------------------------------------------------------
Pair    | 0.28306    | 0.30894    | 0.33376    |   2.2 | 49.14
Neigh   | 0.040251   | 0.042963   | 0.047483   |   0.7 |  6.83
Comm    | 0.19603    | 0.22774    | 0.25744    |   3.0 | 36.23
Output  | 5.1443e-05 | 5.3323e-05 | 7.0894e-05 |   0.0 |  0.01
Modify  | 0.040987   | 0.04396    | 0.046643   |   0.8 |  6.99
Other   |            | 0.004992   |            |       |  0.79

Nlocal:        83.3333 ave          91 max          75 min
Histogram: 1 3 4 4 5 13 10 2 3 3
Nghost:        2001.25 ave        2025 max        1974 min
Histogram: 2 3 4 2 10 7 8 6 2 4
Neighs:        12823.8 ave       14687 max       11306 min
Histogram: 5 4 4 6 8 7 7 4 1 2

Total # of neighbors = 615541
Ave neighs/atom = 153.88525
Neighbor list builds = 143
Dangerous builds = 18

#############################
# L I N E A R  Q U E N C H  #
#############################

# Define solid atoms. This closely follows ten Wolde  Ruiz-Montero and Frenkel  Faraday Discuss  1996  104  93-110
# Compute components of the per-atom q6 vector
compute q6 all orientorder/atom degrees 1 6 components 6 nnn NULL cutoff 1.3 # compute the Q6 parameter.
                                                                             # Use all neighbours within 1.3 unit cell.

# get number of connections
compute coord_number all coord/atom orientorder q6 0.5

# An atom is solid if it has 8 or more connections (of a possible 14)
variable is_solid atom c_coord_number>=8
group solid dynamic all var is_solid    # Must be dynamic to update
dynamic group solid defined

# do clustering
compute cluster solid cluster/atom 1.3 # Create a cluster where all atoms within are solid and max 1.3 units from another member

# define chunks one chunk per cluster
compute clus_chunks solid chunk/atom c_cluster nchunk every compress yes  # Says which atoms are in which chunk

# count the size of each chunk
compute size_chunks solid property/chunk clus_chunks count


# Find the maximum entry in the vector of chunk sizes
variable max_n equal max(c_size_chunks)


# Thermo style which includes this variable
# thermo_style custom step temp pe vol v_max_n

thermo ${N}  # Print the thermo information every 100 steps
thermo 1000  

# Reset the npt fix at a lower temperature (below freezing)
fix 1  all npt temp  ${temp} ${temp}  0.1  iso  5.68  5.68  0.5  mtk yes tchain  5  pchain  5
fix 1  all npt temp  0.45 ${temp}  0.1  iso  5.68  5.68  0.5  mtk yes tchain  5  pchain  5
fix 1  all npt temp  0.45 0.45  0.1  iso  5.68  5.68  0.5  mtk yes tchain  5  pchain  5

dump dmp2 all dcd ${N} traj.dcd
dump dmp2 all dcd 1000 traj.dcd


compute msd all msd com yes
variable twopoint equal c_msd[4]/6/(step*dt+1.0e-6)
fix 9 all vector 10 c_msd[4]
variable fit equal slope(f_9)/6/(10*dt)
thermo_style custom step temp pe c_msd[4] v_twopoint v_fit v_max_n

fix 1 all npt temp 1.25 ${temp} 0.1 iso 5.68 5.68 0.5 mtk yes tchain 5 pchain 5
fix 1 all npt temp 1.25 0.45 0.1 iso 5.68 5.68 0.5 mtk yes tchain 5 pchain 5
run 2000000 # 5000000  # Run for this many steps
Neighbor list info ...
  update every 1 steps, delay 10 steps, check yes
  max neighbors/atom: 2000, page size: 100000
  master list distance cutoff = 3.8
  ghost atom cutoff = 3.8
  binsize = 1.9, bins = 8 8 8
  4 neighbor lists, perpetual/occasional/extra = 1 3 0
  (1) pair lj/cut, perpetual
      attributes: half, newton on
      pair build: half/bin/atomonly/newton
      stencil: half/bin/3d
      bin: standard
  (2) compute orientorder/atom, occasional
      attributes: full, newton on
      pair build: full/bin/atomonly
      stencil: full/bin/3d
      bin: standard
  (3) compute coord/atom, occasional
      attributes: full, newton on
      pair build: full/bin/atomonly
      stencil: full/bin/3d
      bin: standard
  (4) compute cluster/atom, occasional
      attributes: full, newton on
      pair build: full/bin/atomonly
      stencil: full/bin/3d
      bin: standard
Per MPI rank memory allocation (min/avg/max) = 9.830 | 9.835 | 9.838 Mbytes
Step Temp PotEng c_msd[4] v_twopoint v_fit v_max_n 
   12000    1.2280189   -4.1282779 7.3285178e-31 5.0892483e-33 8.3333333e+20            2 
   13000     1.262447   -4.1383558   0.83833866 0.0053739655  0.071102578            2 
   14000    1.2471496   -4.1768392     1.752538  0.010431773  0.073895268            6 
   15000    1.2486605   -4.1594888    2.6141299  0.014522944  0.073579053            4 
   16000    1.2177086   -4.1526053    3.4558772   0.01799936  0.072827278            3 
   17000    1.2205647   -4.1633808    4.3169007  0.021161277  0.071950645            2 
   18000    1.2584693   -4.1655082    5.2338107  0.024230604  0.072398237            5 
   19000     1.251412     -4.11346    6.1911892  0.027154338  0.072814028            3 
   20000    1.2623739   -4.1423261    7.1790294  0.029912622  0.073830787            1 
   21000    1.2528263   -4.1450361    8.0748477  0.032043046  0.074551047            1 
   22000    1.2581564   -4.1449363    8.8955645  0.033695319  0.074830707            2 
   23000    1.2292686    -4.145625    9.7433903  0.035302138  0.074793155            3 
   24000    1.2130188   -4.1800054     10.52862  0.036557707  0.074536556            2 
   25000    1.2385383   -4.1592597    11.468414  0.038228047  0.074165882            1 
   26000    1.2558151    -4.207806    12.337601  0.039543592  0.074115839            1 
   27000    1.2145581   -4.1566866    13.243813  0.040875966  0.073940931            2 
   28000    1.2485696   -4.1521785    14.151183  0.042116616  0.073852033            2 
   29000    1.2288229   -4.1608829    14.933787  0.042913181  0.073747227            6 
   30000    1.2616291   -4.1884389    15.771397  0.043809435  0.073624424            2 
   31000    1.2414624   -4.1292255    16.776704  0.045098665  0.073550737            2 
   32000    1.2454364   -4.1638403    17.524693   0.04563722  0.073418831            2 
   33000    1.2520964   -4.1373378    18.469904  0.046641171   0.07331216            1 
   34000    1.2351616    -4.187416    19.173885  0.046994816  0.073277414            1 
   35000    1.2384549   -4.1385767    20.248931  0.048211739  0.073225363            1 
   36000    1.2430468   -4.1537616    21.321042  0.049354262  0.073299145            1 
   37000    1.2544065   -4.1863091    22.103614  0.049782913  0.073438663            3 
   38000    1.2377422   -4.1764221    23.210122   0.05089939  0.073603064            4 
   39000    1.2130493   -4.1822709    24.239159  0.051793075  0.073815187            1 
   40000     1.259612   -4.1866687     25.10658  0.052305375  0.074043161            2 
   41000    1.2326074   -4.1894957    25.986405  0.052817896  0.074219982            4 
   42000    1.2250116   -4.2011511    26.827256  0.053228683  0.074401125            4 
   43000    1.2615028   -4.1591824    27.802421   0.05388066   0.07453338            2 
   44000    1.2068491   -4.1500764    28.534899  0.054043369  0.074579791            3 
   45000    1.2289175   -4.1828423    29.483729  0.054599498  0.074583265            2 
   46000    1.2465474    -4.178352    30.437017  0.055139523  0.074655411            1 
   47000    1.2401943   -4.1607991    31.642419  0.056103579  0.074779454            4 
   48000    1.2431908   -4.1924639    32.039248  0.055623695   0.07483598            2 
   49000    1.1887892   -4.2182055    32.660528  0.055545115  0.074743141            4 
   50000     1.272977   -4.1470707    33.823938   0.05637323  0.074644892            4 
   51000    1.2553669   -4.1802128    34.661148  0.056635862  0.074622431            3 
   52000    1.2478226   -4.1982285    35.499366   0.05689001  0.074583407            2 
   53000    1.2481583    -4.162601     36.58533  0.057524104  0.074578771            2 
   54000       1.2456   -4.1886646      37.5012  0.057872222  0.074573083            2 
   55000    1.2425933   -4.1596103    38.635354  0.058538415  0.074614317            1 
   56000    1.2292727   -4.1891568    39.389492  0.058615315  0.074655644            1 
   57000    1.2069611   -4.2061608    40.224233  0.058807358  0.074689561            2 
   58000    1.2047787    -4.198952    41.249273  0.059266197   0.07474241            2 
   59000    1.2040062    -4.159553    42.054296  0.059398723  0.074770109            2 
   60000    1.2184442   -4.1752552    43.039918  0.059777663  0.074770709            2 
   61000     1.232434   -4.2331961    43.787655    0.0598192  0.074791167            6 
   62000    1.2330344   -4.1610689    44.765637  0.060168866  0.074830631            1 
   63000    1.2461007    -4.176967     45.73191  0.060491943  0.074864383            1 
   64000    1.2085846   -4.2314472    46.438817  0.060467209  0.074869557            1 
   65000    1.2392126    -4.175682    47.342383  0.060695363  0.074835309            3 
   66000    1.2151953   -4.1789261    48.082919  0.060710756  0.074812746            2 
   67000    1.2311563   -4.1723787    49.135842  0.061114231  0.074797313            1 
   68000    1.2048764   -4.1701843    49.939224  0.061200029  0.074787147            2 
   69000    1.2583268   -4.2069805    50.646459   0.06116722  0.074766595            2 
   70000    1.2086757    -4.199362    51.129143  0.060868028  0.074691856            4 
   71000    1.2501349   -4.1624493    52.273533  0.061353911  0.074608824            1 
   72000    1.1990837    -4.176818    52.934947    0.0612673  0.074524497            2 
   73000    1.2116789   -4.2002423    53.980537  0.061621617  0.074458473            2 
   74000    1.2504138   -4.2171807    54.748155  0.061653327   0.07440122            2 
   75000    1.2135921   -4.2077851    55.583217  0.061759129  0.074347208            1 
   76000    1.2248046   -4.1899093    56.577959  0.062037236  0.074265113            1 
   77000    1.2134135   -4.2572652    57.014101  0.061703572  0.074198273            2 
   78000    1.1960777   -4.1751579    58.275457  0.062260103  0.074128317            1 
   79000    1.2238181   -4.1702918    59.035286  0.062273508  0.074065259            3 
   80000    1.2215694    -4.178284    59.718479  0.062206749  0.074000742            1 
   81000    1.2436577   -4.1888567    61.022469  0.062780318  0.073936225            4 
   82000    1.2086666    -4.200312    61.689652  0.062692735  0.073898949            4 
   83000    1.2375015   -4.2229087    62.690162   0.06294193  0.073875769            4 
   84000    1.2138875   -4.2067513    64.008554   0.06350055  0.073866444            2 
   85000    1.2096959   -4.1878719    64.767613   0.06349766   0.07385436            2 
   86000    1.2264565   -4.2171843    65.704531  0.063667181  0.073846796            2 
   87000    1.2185697   -4.1994005    66.589906  0.063783434  0.073853274            2 
   88000    1.2087284   -4.2151023    67.704941  0.064114527  0.073861751            1 
   89000    1.2070448   -4.1807349     68.71286  0.064337884  0.073883799            4 
   90000    1.2152418   -4.1983542    69.341501  0.064205093  0.073886281            4 
   91000    1.2189991   -4.2006476    69.985334  0.064089133  0.073881514            2 
   92000    1.2042658   -4.1730304    70.767348  0.064100858  0.073852743            3 
   93000    1.2138661   -4.2196337    71.631085  0.064185559  0.073831834            2 
   94000    1.1956024   -4.1971028    72.222288  0.064026851  0.073804241            3 
   95000    1.2313306   -4.1981535    72.871675  0.063922521  0.073771765            3 
   96000    1.2011435   -4.1675137    74.188579  0.064399808  0.073717562            3 
   97000    1.2260079    -4.214104    74.251841  0.063790242  0.073650846            3 
   98000    1.2102854   -4.1938114    75.119972  0.063877527   0.07359705            1 
   99000    1.2129418   -4.2003765    75.992956  0.063967134  0.073533824            4 
  100000    1.2096491   -4.2377688    76.852949  0.064044124  0.073472774            4 
  101000    1.2190445   -4.1940543    77.936932  0.064304399  0.073411418            1 
  102000    1.2027152   -4.1779163    78.536023  0.064163417  0.073355369            3 
  103000    1.2252738   -4.2234276    79.435388  0.064268113   0.07330675            2 
  104000    1.2157638   -4.1787431    80.576292  0.064564336  0.073252233            3 
  105000    1.2085752   -4.2243757    81.420692  0.064619597  0.073205794            2 
  106000    1.1894534   -4.1978188    82.084932  0.064532179  0.073168031            1 
  107000    1.1980278   -4.1954769    83.070955  0.064697005   0.07312891            2 
  108000    1.2037164   -4.2093535    83.623449  0.064524266  0.073079959            3 
  109000    1.2109858   -4.2018852    84.808647  0.064838415  0.073030971            4 
  110000    1.2222509   -4.2407427    85.140713  0.064500539  0.072983848            1 
  111000    1.2110325    -4.218155    86.590844  0.065008141  0.072943693            2 
  112000    1.2109221   -4.2036464    86.429516  0.064307675  0.072889388            1 
  113000    1.1979258   -4.2137931     87.43323  0.064478783  0.072828926            2 
  114000     1.195371   -4.2220974    88.194526  0.064469683  0.072768734            2 
  115000    1.2001091   -4.2571305    88.506876  0.064135417  0.072706687            1 
  116000    1.2168755   -4.2550963    89.419983  0.064238493  0.072640027            3 
  117000    1.1908013   -4.2150183    90.953127  0.064781429  0.072578192            1 
  118000    1.2025077   -4.2289652    91.675305  0.064742447  0.072530653            1 
  119000    1.2183031   -4.2235696    92.479209  0.064761351  0.072475839            2 
  120000    1.1864001   -4.2206718    93.099673  0.064652551  0.072425933            1 
  121000    1.2077839   -4.2271515    93.814665  0.064610651  0.072368298            1 
  122000     1.171946   -4.2407299    94.425432  0.064498246  0.072305932            3 
  123000    1.2050772   -4.2256137    95.293062  0.064561695  0.072234666            4 
  124000    1.2239526   -4.2067948    95.970477  0.064496288  0.072165192            2 
  125000    1.2219439   -4.2126478    96.796521  0.064531013  0.072101992            2 
  126000    1.2018418   -4.2245952    97.944862  0.064778347  0.072044921            6 
  127000    1.1856468   -4.2655085    98.666931  0.064742081  0.071998742            4 
  128000    1.1985177   -4.2339532    99.806158  0.064977967  0.071949594            2 
  129000    1.2104047   -4.2037063    100.64788  0.065018008  0.071903761            1 
  130000    1.2201606    -4.250475    101.03967  0.064769019  0.071858424            2 
  131000    1.2063835   -4.2331507    101.86925  0.064802324  0.071814599            3 
  132000    1.2072588   -4.2271617    103.51013  0.065347301  0.071785699            6 
  133000    1.2154781    -4.210774    104.24643  0.065317309  0.071756866            2 
  134000    1.1877731   -4.2464305    105.37805  0.065533613  0.071742037            1 
  135000    1.1836316   -4.2385313    106.28609  0.065608697  0.071715571            3 
  136000     1.189227   -4.2565953    106.60106  0.065319276  0.071689151            1 
  137000    1.1779166   -4.2706898    107.32005  0.065279833  0.071664602            4 
  138000    1.1880815   -4.1873085    108.29695  0.065396708  0.071641989            2 
  139000    1.1919888   -4.2147147    109.42438  0.065602145  0.071612754            2 
  140000    1.1874741   -4.2737764    109.52063   0.06519085  0.071581315            2 
  141000    1.2122797   -4.2092759    110.97254   0.06558661  0.071549597            3 
  142000    1.1861819    -4.217184    111.84408  0.065636196  0.071523561            2 
  143000    1.1945433   -4.2674593    112.83291  0.065753441  0.071497995            4 
  144000    1.1860805   -4.2857791       113.59  0.065734951  0.071477535            4 
  145000    1.1976784   -4.2451172    114.34523  0.065715648  0.071463572            3 
  146000    1.2014978   -4.2602868    115.49634  0.065922568  0.071457583            2 
  147000    1.1976099   -4.2100792    117.18456  0.066431156  0.071455046            2 
  148000    1.2082458   -4.2626134    117.36628  0.066084615  0.071451399            4 
  149000    1.1750228   -4.2250375    117.89839  0.065938695  0.071446886            1 
  150000    1.2152267   -4.2356041    118.67051  0.065928062  0.071431762            3 
  151000    1.1784815    -4.255361    119.26888  0.065821675    0.0714123            6 
  152000     1.197175   -4.2560365    120.44096  0.066031227  0.071398674            2 
  153000    1.1794117   -4.1805022    121.47941  0.066165256  0.071381423            3 
  154000    1.2034483     -4.22546    121.27371  0.065624304  0.071359401            1 
  155000    1.1855329   -4.2116137    122.44956  0.065833096  0.071327324            3 
  156000     1.197707    -4.243904    122.81038  0.065603838  0.071290924            2 
  157000    1.1776991   -4.2314358    123.41257  0.065505608  0.071252491            4 
  158000    1.1934339   -4.2257427    124.90909   0.06588032  0.071219255            2 
  159000    1.2208422   -4.2552023    124.92008  0.065471742  0.071188523            2 
  160000    1.1818191   -4.2683823    125.43568  0.065331085  0.071148432            3 
  161000    1.1907196   -4.2316546     126.0218  0.065228675   0.07110633            5 
  162000    1.1990797   -4.2212012    127.57056  0.065622715  0.071067959            1 
  163000    1.1870002   -4.2353683     128.3401  0.065613548  0.071035023            1 
  164000      1.20168   -4.2400086    128.64323  0.065367494  0.070993324            2 
  165000    1.1856511   -4.3044702    129.12457   0.06521443   0.07094838            2 
  166000    1.1988202   -4.2887281     130.1911  0.065356976  0.070906141            1 
  167000    1.1525549   -4.2546834    131.35988   0.06554884  0.070867275            2 
  168000    1.2040666   -4.2300589    132.59679  0.065772216  0.070829919            6 
  169000    1.1632207   -4.3276985    133.22588  0.065693236  0.070794069            2 
  170000    1.1790341    -4.232311    134.00992  0.065691137  0.070759932            7 
  171000    1.1858918   -4.2488952    135.11489  0.065845464   0.07072631            2 
  172000     1.168663   -4.2536336    135.81097   0.06579989  0.070694321            1 
  173000    1.1868611   -4.2325052     137.6876  0.066323507  0.070669545            2 
  174000    1.1926666   -4.2606074    137.70073  0.065948627  0.070645768            3 
  175000    1.1937937    -4.240721    138.52939  0.065966378  0.070620951            2 
  176000    1.1870732   -4.2677097    139.47089  0.066037355  0.070597253            2 
  177000    1.2007832   -4.2520733    140.49734  0.066147525  0.070575821            2 
  178000    1.1681676   -4.2850741    140.42614  0.065742573  0.070557157            2 
  179000    1.1920652   -4.2411417    141.75508  0.065993984  0.070540513            2 
  180000    1.1843709   -4.2788451    142.41043  0.065930756  0.070521046            1 
  181000    1.1841081   -4.2616707    143.77836  0.066196297  0.070504796            4 
  182000    1.1741063   -4.2357534    144.17521  0.066014292  0.070490428            6 
  183000    1.1859403   -4.2469466    145.42429  0.066222354  0.070476285            3 
  184000    1.1784873   -4.2534588    146.70577  0.066442831  0.070467962            3 
  185000     1.200202   -4.2668864    147.45555  0.066421421  0.070457566            1 
  186000    1.1736009   -4.2585201    148.98834   0.06675105  0.070449309            3 
  187000    1.1719787    -4.267636    149.37167  0.066564916  0.070447556            2 
  188000    1.1432635   -4.2574257    150.56666  0.066740541  0.070445765            2 
  189000    1.1792639   -4.2478381    151.90479   0.06697742  0.070451609            1 
  190000    1.1831707   -4.2572813    152.10964  0.066714756  0.070453253            3 
  191000    1.1704121   -4.2730763    153.15198  0.066820235  0.070453357            5 
  192000    1.1979409    -4.241593    154.08857  0.066878718  0.070465227            1 
  193000    1.1529513    -4.266744    155.62425   0.06719527  0.070477596            1 
  194000    1.1686501   -4.2981211    156.34134  0.067156934  0.070490719            4 
  195000    1.1697275   -4.2495699    157.35126  0.067244129  0.070502782            1 
  196000    1.1727055   -4.2525907    158.15286  0.067241864  0.070513354            2 
  197000    1.1470643   -4.2558805    159.20858  0.067347113  0.070529032            2 
  198000    1.1901654   -4.3087085    159.68519  0.067207572  0.070546721            2 
  199000    1.1675021   -4.2373695    161.29305  0.067543152  0.070561476            3 
  200000    1.1649387   -4.2661707    161.94924  0.067478848  0.070575064            1 
  201000     1.188958   -4.2752061     162.8959  0.067535612   0.07058747            3 
  202000    1.1675777    -4.271558    163.28979  0.067363773  0.070596341            3 
  203000     1.162759   -4.3031307    163.50296  0.067119441  0.070604218            3 
  204000    1.1552639   -4.2820332    164.20139  0.067075733  0.070607578            2 
  205000    1.1597796   -4.3048539    164.64786  0.066930026  0.070607955            2 
  206000     1.159403   -4.2614067    166.34487  0.067291612  0.070608521            2 
  207000    1.2044814   -4.2822666    167.12569  0.067280873   0.07060649            1 
  208000    1.1755254   -4.2753333    167.08965  0.066942967  0.070604131            2 
  209000    1.1873552   -4.2743912    167.57426  0.066815893  0.070596677            2 
  210000    1.1858919   -4.2789696    168.43596  0.066839667   0.07058744            4 
  211000    1.1509646   -4.2667877     169.2885  0.066859599  0.070575843            6 
  212000    1.1777981   -4.2756982    169.50816  0.066630565  0.070561984            2 
  213000    1.1480661   -4.2846687    171.00427  0.066903081  0.070546128            4 
  214000    1.1740619   -4.2615144    171.08714  0.066622717  0.070528779            1 
  215000    1.1742182   -4.2737016    171.80329  0.066590422  0.070505073            2 
  216000    1.1810634   -4.2881609    171.74103  0.066258113    0.0704769            3 
  217000    1.1553622   -4.2916699    172.39959  0.066205679  0.070447334            3 
  218000    1.1563356   -4.2809278    173.19791  0.066207152  0.070417601            3 
  219000    1.1991058   -4.2851298    174.19742  0.066285169  0.070387429            3 
  220000    1.1709707   -4.2977631    175.08764  0.066321074  0.070358531            3 
  221000    1.1536291   -4.2590356    176.56061    0.0665764  0.070329979            2 
  222000    1.1405009   -4.3035662    176.26731  0.066166406  0.070302631            3 
  223000    1.1782238   -4.2746982    177.15262  0.066200529  0.070270996            1 
  224000    1.1687232   -4.2617918    178.39488  0.066367141  0.070240037            3 
  225000    1.1603935   -4.3097086    178.24869  0.066018032   0.07020816            2 
  226000    1.1538955   -4.2898103    179.38632  0.066145397  0.070175299            6 
  227000     1.159074   -4.2708991     179.5223  0.065903926  0.070142198            1 
  228000     1.181392      -4.3096    181.11854  0.066198298  0.070106271            1 
  229000    1.1476873   -4.3043067     180.5496  0.065702185  0.070069252            1 
  230000    1.1456373   -4.2768836    181.72509  0.065842423  0.070030157            1 
  231000    1.1712621   -4.3216274    181.60419  0.065513777  0.069990907            2 
  232000    1.1862588   -4.3202311    182.23409  0.065457647  0.069952207            2 
  233000    1.1910575   -4.2818136     184.3472  0.065932475  0.069913765            2 
  234000    1.1449412   -4.2790796    184.53677  0.065718222  0.069875064            3 
  235000    1.1679904   -4.2492155    185.77831  0.065878832  0.069838082            2 
  236000    1.1768259   -4.3040956    185.69713   0.06557102  0.069801644            3 
  237000     1.162412   -4.2847925    187.94962  0.066086364  0.069767317            2 
  238000     1.136485   -4.3093497     187.9221  0.065799055  0.069732727            2 
  239000    1.1666743   -4.2942696     188.7721  0.065820119  0.069698207            4 
  240000    1.1799814   -4.2873316    189.80127  0.065903219  0.069664625            1 
  241000    1.1492546   -4.2892326    190.78967   0.06597153  0.069635356            2 
  242000    1.1414799   -4.2930185    191.99423  0.066113716  0.069605423            2 
  243000    1.1476945   -4.2949348    193.18438  0.066249786  0.069579822            1 
  244000    1.1849573   -4.3182406    193.05465  0.065933964  0.069554859            6 
  245000    1.1649769   -4.2952075    193.51831  0.065822554  0.069531571            2 
  246000    1.1705132   -4.2361324    196.21059  0.066467003  0.069510143            1 
  247000    1.1360022   -4.2951974    195.18802  0.065852908  0.069485968            2 
  248000    1.1394117    -4.294081    197.18419  0.066258129  0.069459753            1 
  249000    1.1560607   -4.2983821    197.16727  0.065986369  0.069434321            3 
  250000    1.1439288   -4.2999222    198.44431  0.066148104  0.069411314            2 
  251000    1.1629707   -4.2559341    200.30604  0.066502669  0.069389705            2 
  252000    1.1555381   -4.2916396    199.88327  0.066098965  0.069369302            3 
  253000    1.1390157   -4.3219121    200.43749  0.066020252  0.069345512            4 
  254000    1.1576907   -4.3260411    201.01972  0.065951353  0.069321064            3 
  255000    1.1527411   -4.2871962    203.36436  0.066458942   0.06929899            1 
  256000    1.1546932   -4.3190787    202.89924  0.066047928  0.069275485            1 
  257000    1.1479358   -4.3137479    202.59834  0.065693366  0.069249931            4 
  258000    1.1488123   -4.2966829    203.49387  0.065727995  0.069222212            2 
  259000    1.1661513   -4.3194882    204.40205  0.065766426  0.069193857            6 
  260000    1.1608211   -4.3263552     204.8197   0.06564734  0.069162779            1 
  261000    1.1347651   -4.3432767    204.48804  0.065289923  0.069130008            3 
  262000     1.167982   -4.3330129    205.36224  0.065318779  0.069095625            1 
  263000    1.1451251   -4.3186142     206.2844  0.065362611  0.069059091            3 
  264000    1.1446965   -4.3194415    206.50638  0.065185094  0.069021855            3 
  265000    1.1195182   -4.3031185    207.40324  0.065221143  0.068983925            2 
  266000    1.1355235   -4.3448934    207.81035  0.065103493  0.068943385            3 
  267000    1.1126775   -4.3122547    209.16201  0.065281526  0.068902648            3 
  268000    1.1611258   -4.3254328    208.72623  0.064902435  0.068857636            2 
  269000    1.1804541   -4.3489605    209.96146  0.065043821  0.068817753            2 
  270000    1.1576009   -4.3165239     210.8783  0.065085894  0.068775297            3 
  271000    1.1439052   -4.2940244    212.12118  0.065227915   0.06873664            1 
  272000    1.1307355   -4.3005578      213.283  0.065344057  0.068700288            2 
  273000    1.1586749   -4.3164767     214.9113  0.065601739   0.06866778            2 
  274000    1.1553995   -4.3004587    215.55035  0.065556677  0.068636019            4 
  275000    1.1519377   -4.3175941    215.16157  0.065200475  0.068607176            2 
  276000    1.1432126   -4.3411071     217.3064  0.065611834  0.068577489            3 
  277000    1.1217514   -4.3141741     217.6927  0.065491186  0.068551728            3 
  278000    1.1342014   -4.3441349    217.44476  0.065181284  0.068522087            2 
  279000    1.1445192   -4.3232648    218.74432  0.065335817  0.068489499            2 
  280000    1.1647331   -4.3353964    218.63899  0.065071129   0.06845665            2 
  281000    1.1172542   -4.3104881    219.58497  0.065120098  0.068418892            1 
  282000    1.1117893    -4.298938    220.64957  0.065203772  0.068381859            3 
  283000    1.1335058    -4.338322    220.04694  0.064795918  0.068346161            3 
  284000    1.1537125   -4.3280931     221.4966  0.064993135  0.068308863            2 
  285000    1.1486474   -4.3068903     221.8518  0.064868946  0.068269627            2 
  286000    1.1335669    -4.346592    223.07603  0.064998842  0.068234097            2 
  287000    1.1425314   -4.3656311      224.123  0.065076365  0.068199709            2 
  288000    1.1433097   -4.3475332    223.38831  0.064637821  0.068165849            3 
  289000    1.1667347   -4.3068999    225.49846  0.065022625   0.06813115            1 
  290000    1.1250724   -4.2957516    225.94254  0.064926017   0.06809342            3 
  291000    1.1462274   -4.3336011    225.86491  0.064680673  0.068057007            2 
  292000    1.1475824   -4.2958982    227.64187  0.064966287  0.068021035            1 
  293000    1.1414438    -4.348029    227.41803  0.064680894  0.067986376            2 
  294000    1.1304577   -4.3491307    228.43216  0.064748346  0.067946521            1 
  295000    1.1201422   -4.3277173    229.15002  0.064731644   0.06790836            2 
  296000     1.110977   -4.3490442    228.64077  0.064369585   0.06786931            2 
  297000    1.1312685    -4.319489    230.21938  0.064595784  0.067831584            3 
  298000    1.1664944   -4.3513658    230.93983  0.064580488  0.067794286            2 
  299000    1.1428441   -4.3495421    231.15518   0.06442452  0.067753336            1 
  300000    1.1259096    -4.343454    231.92097  0.064422492  0.067716604            2 
  301000    1.1478598   -4.3294855    233.21268   0.06456608  0.067680721            5 
  302000    1.1349421   -4.3541668    232.69846  0.064210393  0.067644398            3 
  303000    1.1274499   -4.3283959    235.16947  0.064678072  0.067612337            2 
  304000    1.1166195    -4.353801    236.21642  0.064752308  0.067580112            5 
  305000    1.1500059   -4.3703985    236.81788  0.064704338  0.067549591            6 
  306000    1.1266503   -4.3165696    238.19261  0.064867268   0.06751859            2 
  307000    1.1269273   -4.3390686    238.36772  0.064703506    0.0674885            2 
  308000    1.1542277   -4.3231722     238.9488  0.064650648  0.067456874            2 
  309000    1.1356686   -4.3498789    239.53964  0.064600766  0.067426328            2 
  310000     1.129961   -4.3438229    240.49108   0.06464814   0.06739303            2 
  311000    1.1432113   -4.3194894     240.9602  0.064565969  0.067360358            4 
  312000     1.132047   -4.3649464    241.34035  0.064460563  0.067326508            3 
  313000    1.1231223   -4.3545757    240.27661  0.063971408  0.067295083            2 
  314000    1.1183471   -4.3146108    243.55081  0.064636627  0.067262242            2 
  315000     1.105969   -4.3292628    243.87118  0.064516186  0.067231932            2 
  316000    1.1389434   -4.3583006    244.06646  0.064363517  0.067199541            2 
  317000    1.1270384   -4.3472583    244.09323  0.064167516  0.067168439            2 
  318000    1.1322339   -4.3670136     246.1001   0.06449164  0.067140135            2 
  319000      1.10853   -4.3599931    246.85255  0.064486037  0.067110468            4 
  320000    1.1458059   -4.3596676    248.00303  0.064584123  0.067079724            2 
  321000    1.1685642   -4.3243458    249.25526  0.064708012   0.06705336            2 
  322000    1.1243224   -4.3386341    250.43343  0.064811965  0.067026337            1 
  323000    1.1248271   -4.3360241    250.56792  0.064646006  0.066998132            1 
  324000    1.1538369   -4.3727733    250.14526  0.064337771  0.066971086            3 
  325000    1.1143238   -4.3243924    252.83483  0.064829444  0.066944576            4 
  326000    1.1315217   -4.3320009    252.64055  0.064580918  0.066919675            2 
  327000    1.0946641   -4.3565964    252.56542  0.064364277  0.066892435            1 
  328000    1.1161477   -4.3407319    253.51567   0.06440947  0.066865681            2 
  329000    1.1453871   -4.3854843    254.28065  0.064407458  0.066837924            2 
  330000    1.1230356   -4.3293243    255.07154  0.064412004  0.066809842            2 
  331000    1.1101344   -4.3498671    256.42682  0.064558616  0.066782689            3 
  332000    1.1232001   -4.3498993    256.19148  0.064305091  0.066754606            3 
  333000    1.1094104   -4.3558069    257.48022   0.06443449  0.066727796            1 
  334000     1.136061   -4.3599614    256.69534  0.064045743  0.066698844            1 
  335000    1.1596816   -4.3249087    258.26687   0.06424549  0.066668214            2 
  336000    1.0948635   -4.3838394    257.89071  0.063960988  0.066638372            2 
  337000    1.1483029   -4.3958138    258.28143  0.063867812  0.066609248            3 
  338000    1.1121063   -4.3472655    259.30469  0.063931138  0.066577947            1 
  339000    1.0884541   -4.3317474     260.3838  0.064007818  0.066549324            3 
  340000    1.1115777   -4.3979541    261.37926  0.064063545  0.066519571            2 
  341000    1.0998399   -4.3697639    261.92407  0.064008815  0.066491115            3 
  342000    1.1291329    -4.378948    262.55113  0.063974448  0.066465477            5 
  343000    1.1285819   -4.3481088    264.41921  0.064241792  0.066438212            2 
  344000    1.1472851   -4.3605101    263.91551  0.063933021  0.066409496            3 
  345000    1.0889129   -4.3392168    265.29517   0.06408096  0.066379827            2 
  346000    1.1231286    -4.347217    265.03162  0.063832279  0.066351493            1 
  347000    1.1360512    -4.354882    266.83744  0.064081999  0.066324152            2 
  348000    1.1325067   -4.3316708     268.1522  0.064212692  0.066297539            2 
  349000    1.0820441   -4.3723214    267.83745  0.063953545  0.066268375            2 
  350000    1.1246821   -4.3831004    268.20816  0.063859086    0.0662392            3 
  351000    1.1037318   -4.3709643    268.24944  0.063686951  0.066209242            3 
  352000    1.0963208   -4.3436036    269.73091  0.063856749   0.06617955            2 
  353000    1.0989248   -4.4146251    269.97672  0.063733881  0.066149974            3 
  354000     1.134493   -4.3474511    271.49094  0.063910296  0.066118151            4 
  355000    1.1214883   -4.4179639    270.97543  0.063609255  0.066084671            4 
  356000    1.1146012   -4.3639424    271.32956  0.063513473   0.06605205            1 
  357000    1.1326648   -4.3470796    272.72703  0.063661772  0.066020228            3 
  358000    1.0906249   -4.3719724    272.81674  0.063504828  0.065989444            2 
  359000    1.1070721   -4.3708153    274.33822  0.063681108  0.065956999            2 
  360000    1.1108615   -4.3563895    274.64123  0.063574358  0.065926368            2 
  361000    1.1334269   -4.3876545    274.54874  0.063376902  0.065893634            3 
  362000    1.1081873    -4.341509    275.55628  0.063433767  0.065862209            3 
  363000    1.0970162   -4.3632737    277.29804  0.063658871  0.065828954            3 
  364000    1.1288274   -4.4237882    275.65835  0.063108596  0.065795186            2 
  365000    1.1189823   -4.3813673    277.79852  0.063424319  0.065761271            4 
  366000    1.1178066   -4.4077411    277.55502  0.063195588  0.065729949            2 
  367000    1.0951346   -4.3760155    278.53962  0.063246963  0.065696659            7 
  368000    1.1319782   -4.3748097     278.2618  0.063012182  0.065663199            2 
  369000    1.0884653   -4.3867761    279.94143  0.063220737  0.065630509            4 
  370000    1.1065195   -4.3772924    280.80997  0.063245488  0.065599229            1 
  371000    1.1135637   -4.3851273    281.05044   0.06312903  0.065564074            2 
  372000    1.1155098   -4.3941947    281.09082  0.062968374  0.065531126            2 
  373000    1.1231286   -4.4125514     282.7355  0.063167001   0.06549812            3 
  374000    1.1114103   -4.3878011    283.37858  0.063141396  0.065466867            3 
  375000    1.1095914   -4.4043506    285.35727  0.063412726   0.06543494            3 
  376000    1.1004615   -4.3938503    284.91983  0.063147125  0.065404339            3 
  377000    1.1188437   -4.4058754    285.75173  0.063163512  0.065372348            4 
  378000    1.0907032   -4.4267831    284.41207  0.062701073  0.065341744            1 
  379000     1.114972   -4.3506297    288.52329  0.063439597  0.065313867            3 
  380000    1.1089896   -4.3621871    288.58021  0.063285135  0.065286056            3 
  381000     1.132508   -4.4137472    289.02931  0.063217259  0.065256421            2 
  382000    1.1366399   -4.3795884    290.29206  0.063327239  0.065228597            2 
  383000    1.1167909   -4.4011459    289.27515  0.062940633  0.065197433            2 
  384000    1.0773001   -4.4027433    289.94799   0.06292274  0.065165746            4 
  385000    1.0913213   -4.4173854    290.53551  0.062886473  0.065134831            1 
  386000    1.0883537   -4.3959296    291.94832  0.063028567  0.065102243            8 
  387000     1.094301   -4.4333376    292.23746  0.062927963  0.065073401            6 
  388000    1.1205349   -4.4210635    292.50246  0.062822693  0.065042447            5 
  389000    1.0999857   -4.3962759    293.39981   0.06285343  0.065011543            4 
  390000     1.116998   -4.4070545    293.16543  0.062642185  0.064980268            3 
  391000    1.0968095   -4.4255989     293.7305  0.062602409  0.064949121            5 
  392000    1.0921211    -4.398661    295.32394  0.062781451   0.06491924            2 
  393000    1.0867647   -4.4226983    296.67663  0.062908531  0.064889186            2 
  394000    1.1327325   -4.3819605    297.45835  0.062914202  0.064859148            1 
  395000    1.1169176   -4.3983294     296.4852  0.062549621  0.064829217            2 
  396000    1.1018842   -4.3873603    298.48846  0.062813228  0.064799551            3 
  397000    1.1004577    -4.407759    298.72778  0.062705242  0.064770448            3 
  398000    1.0968218   -4.3662071    300.34771  0.062886874  0.064742323            3 
  399000     1.096726   -4.3854559    300.11055   0.06267973   0.06471391            2 
  400000    1.0566401    -4.413076    301.46482  0.062805172  0.064684765            2 
  401000    1.0879864   -4.4300644    301.53041   0.06266218  0.064654975            3 
  402000    1.0971291    -4.399097    301.97895  0.062599284  0.064626171            4 
  403000    1.0832653   -4.4029363    301.89774   0.06242716  0.064596855            2 
  404000     1.106205   -4.4113801    303.42614    0.0625879   0.06456937            2 
  405000    1.0949854    -4.412141    304.31495  0.062616246  0.064541894            1 
  406000    1.1012762   -4.4092706    305.37059  0.062678693  0.064514606            2 
  407000    1.0669928   -4.4336603    305.21946  0.062493747  0.064486763            3 
  408000    1.0928236   -4.3879211    308.37328  0.062984739  0.064459708            1 
  409000    1.0940754   -4.4185348    307.49261  0.062651305  0.064433472            2 
  410000    1.0889903   -4.4198783    307.50744  0.062501513  0.064405488            2 
  411000    1.1028684   -4.3860493    309.38984  0.062731111  0.064379186            3 
  412000    1.0784425   -4.4049334    309.85323  0.062672579  0.064352892            4 
  413000    1.0920188   -4.4331842    309.41128  0.062431654  0.064326036            4 
  414000    1.0703612   -4.4198698    309.98601  0.062396539  0.064298177            3 
  415000    1.0768257   -4.4331986    310.17345  0.062283825  0.064270269            3 
  416000    1.1110006   -4.3780319    311.91016  0.062482002  0.064242772            2 
  417000    1.0881591   -4.4191009    311.73746  0.062297655  0.064214653           11 
  418000    1.0759225    -4.420069      311.563  0.062113835  0.064184822            2 
  419000    1.0990978   -4.4256993     312.9827  0.062247952  0.064156113            2 
  420000    1.1096943   -4.4243112    313.81549  0.062264977  0.064125845            2 
  421000    1.0849098   -4.4305521    313.62753  0.062079875  0.064094324            3 
  422000    1.0939107   -4.3847689    315.96998  0.062395336   0.06406464            7 
  423000    1.0894726   -4.4200509    315.07123  0.062070771  0.064035834            5 
  424000     1.096218    -4.415568    315.82998  0.062073503  0.064006246            2 
  425000    1.1001909   -4.4092021    316.19569  0.061999155  0.063975377            4 
  426000    1.0975009   -4.4216521    315.67924  0.061752589  0.063943295            7 
  427000    1.0719023   -4.4047674    317.66745  0.061995989  0.063909855            1 
  428000    1.0763532   -4.4317439    316.68364  0.061659587  0.063877521            2 
  429000    1.1137269   -4.4255282    319.30822  0.062025683  0.063847709            1 
  430000    1.0919909   -4.4113492    319.81648  0.061979938   0.06381866            5 
  431000    1.0969874   -4.4443765    320.78606  0.062023601  0.063789138            2 
  432000    1.0877123   -4.4321964    321.58361  0.062033876  0.063761868            3 
  433000    1.0747105   -4.4236335     323.0414   0.06217117  0.063733236            4 
  434000    1.0656427   -4.4188396    322.32644  0.061890637  0.063703869            3 
  435000    1.0446647   -4.4453418    321.58259   0.06160586  0.063673042            2 
  436000    1.0581161   -4.4477172    322.99053  0.061733664  0.063642449            3 
  437000    1.0776037   -4.4267951    324.52032  0.061884118   0.06361263            2 
  438000    1.1061278   -4.4339051     325.1914  0.061870511  0.063583121            3 
  439000    1.0737079    -4.436042    325.04942  0.061702623  0.063553043            3 
  440000    1.0744589   -4.4490575    325.46306  0.061640731  0.063523301            3 
  441000    1.0711835   -4.4365032    325.63931   0.06153426  0.063492986            2 
  442000    1.0991296   -4.4218837    327.11861  0.061673946   0.06346388            3 
  443000    1.0717402    -4.459334    327.93047  0.061687448  0.063433731            3 
  444000    1.0893889   -4.4461509    328.91757  0.061733779  0.063405591            2 
  445000    1.0660057   -4.4205312    330.35513  0.061864256  0.063377528            2 
  446000    1.0969131   -4.4489267    330.14855  0.061686949  0.063349065            2 
  447000    1.0736177   -4.4657214    329.05065  0.061344268  0.063322702            3 
  448000    1.0831375   -4.4194976    333.41511   0.06201918  0.063295719            2 
  449000    1.0321234   -4.4723587    332.35517  0.061684331  0.063269711            4 
  450000    1.0740461   -4.4396628    333.31321  0.061724669  0.063243322            2 
  451000    1.0618577   -4.4544114    332.60209   0.06145641  0.063216621            5 
  452000    1.0630937   -4.4276435     334.6641  0.061700609  0.063188706            1 
  453000      1.08781   -4.4564496    333.59064  0.061366931  0.063162817            2 
  454000    1.0684732   -4.4342612    336.79107  0.061819212  0.063135887            4 
  455000    1.0940167   -4.4367015    335.07501  0.061369049  0.063108565            6 
  456000    1.0860688   -4.4384789     335.0668  0.061232968  0.063080444            2 
  457000    1.0825601   -4.4109098    337.13475  0.061476068  0.063052959            4 
  458000    1.0877115    -4.450505     336.4762  0.061222016   0.06302419            1 
  459000    1.0938914    -4.427648     337.7872  0.061326652  0.062994797            3 
  460000    1.0832108   -4.4185649     337.0475  0.061059329  0.062963313            3 
  461000    1.0906674    -4.420839    337.76484  0.061056551  0.062931135            3 
  462000     1.075538   -4.4397774    337.81442  0.060933338  0.062900487            6 
  463000    1.0772346   -4.4427246    338.85573  0.060989152  0.062869548            3 
  464000    1.0664294   -4.4513993    339.37163  0.060950364  0.062836535            1 
  465000    1.0477509   -4.4386634    341.30617   0.06116598   0.06280403            3 
  466000    1.0591929   -4.4598674    340.21041  0.060838771  0.062772552            4 
  467000    1.0645783   -4.4636374    341.23163  0.060890726  0.062739239            3 
  468000    1.0734947    -4.452284    340.77791  0.060679827  0.062706576            4 
  469000    1.0704641   -4.4354873    341.26307   0.06063665  0.062673852            2 
  470000     1.062659   -4.4644547    341.28362  0.060511281  0.062641645            2 
  471000    1.0496966   -4.4781794    342.67056  0.060628195  0.062608698            3 
  472000    1.0418777    -4.439782    343.46921   0.06064075  0.062575668            2 
  473000    1.0866349   -4.4513004    344.41535  0.060679237  0.062542658            3 
  474000    1.0999472   -4.4308476    344.16539  0.060507277  0.062509198            4 
  475000    1.0525403   -4.4323957    345.35249  0.060588156  0.062475799            3 
  476000    1.0524875   -4.4675075    344.44721  0.060302382  0.062441892            2 
  477000    1.0637654   -4.4615055    345.40524  0.060343333  0.062408044            3 
  478000    1.0552838   -4.4660782    346.52718  0.060412689   0.06237428            2 
  479000    1.0632755   -4.4760222    346.48549  0.060279313  0.062339903            2 
  480000    1.0833884    -4.459834    347.81751  0.060384984  0.062306509            2 
  481000    1.0653517   -4.4527985    347.52762  0.060209221  0.062274043            2 
  482000    1.0513553   -4.4233767    347.79977  0.060131357  0.062239726            4 
  483000    1.0497907   -4.4497731    349.61743  0.060320467   0.06220553            2 
  484000    1.0537464   -4.4868037    349.81081  0.060229134  0.062170608            2 
  485000    1.0746756   -4.4450526    348.96076  0.059958893  0.062135427            2 
  486000    1.0717816   -4.4631438     350.8784  0.060164335  0.062099974            2 
  487000    1.0619031   -4.4628249    350.85896  0.060037468   0.06206401            3 
  488000    1.0478934   -4.4555055    352.63873  0.060218362  0.062029923            2 
  489000    1.0727902   -4.4821509    353.07665  0.060169844  0.061995818            3 
  490000    1.0505829   -4.4568217    352.50387  0.059949638  0.061962794            4 
  491000    1.0458161   -4.5106396    353.23845  0.059952215  0.061930227            3 
  492000    1.0429569   -4.4636925    355.63989  0.060237108  0.061898488            4 
  493000    1.0589798   -4.4721158    356.17662  0.060205649  0.061866964            2 
  494000    1.0512681   -4.4742262    357.26511  0.060267394  0.061835834            3 
  495000    1.0698117   -4.4424557    357.07201  0.060113134  0.061804714            5 
  496000    1.0526227   -4.4786516    357.76601  0.060108537  0.061774459            4 
  497000     1.054485   -4.4729063    358.38814  0.060091908  0.061744584            2 
  498000     1.043564   -4.4540358    361.01473  0.060410765  0.061715511            3 
  499000    1.0595609   -4.4670852    360.93968  0.060277168  0.061686506            4 
  500000    1.0443016   -4.5019195    360.17301  0.060028834  0.061657291            4 
  501000    1.0710462   -4.4629678    362.24453  0.060253581  0.061627387            5 
  502000    1.0485722   -4.4318879    362.74441  0.060216535  0.061597647            2 
  503000     1.028654   -4.4985697    362.08747  0.059987984  0.061567489            1 
  504000    1.0741872   -4.4945871     362.3407   0.05991083  0.061537455            3 
  505000    1.0624025     -4.50452    363.06669  0.059911995   0.06150945            2 
  506000    1.0537112   -4.4989446    364.69068  0.060061047  0.061480837            2 
  507000    1.0430456   -4.4868364    366.88262  0.060302863  0.061453687            2 
  508000    1.0429958   -4.4901319    367.14317  0.060226897  0.061427143            6 
  509000    1.0656145   -4.4867567    366.97648  0.060081283  0.061400927            4 
  510000    1.0497531   -4.4831004    368.56453  0.060222962  0.061375349            6 
  511000    1.0408923    -4.472574    369.81328  0.060308755  0.061349261            3 
  512000    1.0458438    -4.490432     370.0589   0.06023094  0.061323898            3 
  513000    1.0618511   -4.4738273    370.61739  0.060204254  0.061297124            2 
  514000    1.0431645    -4.464059    370.53175   0.06007324  0.061270494            2 
  515000    1.0882975   -4.4578311     371.3553  0.060089855  0.061243969            2 
  516000    1.0410559    -4.480573    371.32674  0.059968789  0.061217564            6 
  517000    1.0379369   -4.4945357    370.76614  0.059762434  0.061189336            2 
  518000    1.0592133   -4.4971377    371.76397  0.059807589  0.061161186            3 
  519000    1.0679446   -4.5164469    371.35626  0.059626888  0.061132594            3 
  520000    1.0572124   -4.4966558    371.73796  0.059573391  0.061104019            3 
  521000    1.0558113   -4.4958342    372.27826  0.059545466  0.061074916            2 
  522000    1.0453641   -4.5246206    371.73075  0.059343989  0.061044814            2 
  523000    1.0704101   -4.5132921    371.74379  0.059232598  0.061014789            2 
  524000    1.0435455   -4.4537366    374.78573  0.059603328  0.060986121            2 
  525000     1.044784   -4.4836164    374.09569  0.059380268  0.060957602            2 
  526000     1.018652   -4.4850129    375.73414  0.059526955  0.060927077            4 
  527000    1.0471174   -4.4470374    376.30423  0.059504148  0.060896856            3 
  528000    1.0672527    -4.491793    377.23832  0.059538876  0.060867278            4 
  529000    1.0511318    -4.485045    376.91812  0.059375886  0.060836671            6 
  530000    1.0594909   -4.5050702    376.10233  0.059135586  0.060805989            2 
  531000     1.051195   -4.4790511    377.69776  0.059274601  0.060774899            3 
  532000     1.064425   -4.5108367    377.77825  0.059175791  0.060744436            5 
  533000    1.0464208   -4.5117214    378.29631  0.059145765  0.060713523            2 
  534000    1.0451537   -4.4844719    380.01504  0.059303221  0.060683084            3 
  535000    1.0349048   -4.4872445    379.39724  0.059096143  0.060651588            3 
  536000     1.021121   -4.4985224    381.43062  0.059302025  0.060621282            2 
  537000     1.036745   -4.5071147    381.01951  0.059127794    0.0605904            3 
  538000    1.0489837   -4.5173998    380.99778  0.059014526  0.060559209            3 
  539000    1.0328098   -4.4971916    381.04856  0.058912887  0.060528075            3 
  540000    1.0213173   -4.5062196    380.82452  0.058769215  0.060497149            2 
  541000     1.079554   -4.4923614    382.58211  0.058931317  0.060466706            2 
  542000    1.0375362   -4.4694889    385.28968   0.05923888  0.060436209            1 
  543000    1.0218833    -4.505605    383.68699  0.058883822  0.060405335            5 
  544000    1.0479797   -4.5243746    384.30063  0.058869581  0.060373568            3 
  545000    1.0637713   -4.4571405    385.05522  0.058876945  0.060341805            2 
  546000    1.0229823   -4.4864746    385.90978  0.058899539  0.060310281            4 
  547000     1.036843     -4.50606    385.71308  0.058761895  0.060280976            7 
  548000    1.0291481    -4.517771    386.42215  0.058762492  0.060249744            2 
  549000    1.0459353   -4.5208013    386.94108  0.058734227  0.060219237            3 
  550000    1.0428804   -4.4976615     388.7304  0.058898545  0.060188467            2 
  551000    1.0452167   -4.5253573    387.67585  0.058632161  0.060158499            4 
  552000    1.0192662   -4.5440978    387.47264  0.058495266  0.060127993            2 
  553000     1.043283   -4.4987811    388.92675  0.058608611  0.060097439            4 
  554000    1.0529223   -4.5293993    389.24815  0.058551165  0.060067614            3 
  555000    1.0250939   -4.5216432    391.48931  0.058782179  0.060037139            4 
  556000    1.0257697   -4.5237087    391.24867  0.058640388  0.060006447            7 
  557000    1.0266729   -4.4887166    392.60232   0.05873763   0.05997568            2 
  558000     1.037436   -4.4838962     391.5523  0.058475552  0.059945329            7 
  559000    1.0244263   -4.5330294    392.92454  0.058575513  0.059915295            4 
  560000    1.0554284   -4.5306929    393.44775  0.058548772   0.05988579            9 
  561000    1.0369515     -4.51159    395.85213  0.058801564   0.05985579            5 
  562000    1.0406316   -4.5213621    394.11041  0.058438672  0.059826584            2 
  563000    1.0241648   -4.5346269    394.45358  0.058385669  0.059797131            2 
  564000    1.0297511   -4.5081136    396.24552  0.058546915  0.059768617            8 
  565000    1.0121878   -4.5163545    396.65128  0.058503139  0.059740648            4 
  566000    1.0294971   -4.5548246    395.82547  0.058278191   0.05971198            2 
  567000    1.0451458   -4.5228184    397.63063  0.058440716  0.059681923            1 
  568000     1.044103    -4.563102     397.2331  0.058279504  0.059651122            2 
  569000    1.0149349   -4.5304556    398.26042  0.058327537  0.059620243            5 
  570000    1.0413169   -4.5183889    397.69771   0.05814294  0.059589695            7 
  571000    1.0309796   -4.5322603    398.07653    0.0580964  0.059559366            5 
  572000     1.026304   -4.5264756    397.70381  0.057940532  0.059529052            2 
  573000    1.0544958   -4.5253213    399.49148  0.058099401  0.059499313            3 
  574000    1.0149186   -4.5107727     400.6217  0.058162268  0.059469084            4 
  575000    1.0175667   -4.5422511    400.73772   0.05807793  0.059440147            5 
  576000   0.98092294   -4.5768468    400.35757  0.057922101  0.059409881            2 
  577000    1.0190846   -4.5539915    401.47031  0.057982424  0.059378715            4 
  578000    1.0388905   -4.5499623    402.09209  0.057971755  0.059348138            1 
  579000    1.0460979   -4.5768508    402.62152  0.057947829  0.059317277            2 
  580000    1.0253637   -4.5481566    403.87207  0.058027596  0.059286282            1 
  581000    1.0298035   -4.5455135    404.43337  0.058008229  0.059256345            3 
  582000    1.0522667    -4.516513    404.79764  0.057960716  0.059226603            3 
  583000    1.0096489   -4.5394129    405.48581  0.057959665  0.059197429            3 
  584000    1.0107959   -4.5121622    406.13017  0.057952364  0.059166862            3 
  585000    1.0393402   -4.5380873    405.91792  0.057823065  0.059136614            2 
  586000    1.0010903   -4.5491306    406.86396  0.057858925   0.05910598            3 
  587000    1.0349926   -4.5299057    407.94567  0.057913922   0.05907624            3 
  588000    1.0026661     -4.52682    409.66066  0.058058483  0.059046737            4 
  589000    1.0396787   -4.5351339     410.0468  0.058014544  0.059018169            4 
  590000    1.0184708    -4.548938    410.13816  0.057929119  0.058989494            3 
  591000    1.0182233   -4.5053344    410.85252  0.057931828  0.058961199            2 
  592000    1.0269897   -4.5228231    409.53288  0.057648209  0.058931862            3 
  593000     1.016925   -4.5012615    410.43102  0.057677209  0.058901641            3 
  594000    1.0265443   -4.5560423    409.10209  0.057393671  0.058872478            4 
  595000    1.0334318   -4.5312174    410.94651  0.057555534  0.058842809            3 
  596000    1.0151502   -4.5291158    412.04959  0.057613197  0.058812886            3 
  597000    1.0171901   -4.5873098    412.10366  0.057524241   0.05878381            4 
  598000    1.0070945   -4.5625418    412.15815  0.057435639  0.058754496            2 
  599000    1.0269752   -4.5520295    413.15301  0.057478159  0.058724606            2 
  600000    1.0019657   -4.5389725    414.96397  0.057633885  0.058695266            5 
  601000    1.0189114   -4.5495064    413.71123  0.057364286    0.0586657            6 
  602000    1.0104199   -4.5359437     414.8831  0.057431216  0.058636046            4 
  603000    1.0037883     -4.54588    416.56488  0.057568392  0.058606657            6 
  604000    1.0053595   -4.5492877    416.74215  0.057497537  0.058578584            4 
  605000   0.99120244   -4.5470259     417.8341  0.057552906  0.058550076            2 
  606000   0.99587386   -4.5679779    417.76338  0.057448209  0.058521399            7 
  607000    1.0191748    -4.569843    416.23131  0.057143233  0.058492692            3 
  608000   0.98260007   -4.5374976    419.15085  0.057449404  0.058464224            3 
  609000    1.0253683   -4.5485851    419.50905  0.057404085  0.058435342            3 
  610000    1.0098426    -4.520144    418.50417  0.057172701  0.058406227            2 
  611000   0.99804014   -4.5547469     419.6835  0.057239976  0.058376738            3 
  612000    1.0088997     -4.56869    419.40914  0.057109088  0.058346747            5 
  613000    1.0253949   -4.5962971    418.99415  0.056959509   0.05831705            7 
  614000    1.0157263   -4.6066917    418.89687  0.056853539   0.05828681            5 
  615000    1.0056768   -4.5797112    420.42829  0.056968602  0.058256961            3 
  616000    1.0101759   -4.5434293    422.60728  0.057170898  0.058226904            2 
  617000    1.0311523    -4.513951    423.06774  0.057140429  0.058197447            6 
  618000    1.0137807   -4.5506599    423.44579  0.057098947  0.058167431            2 
  619000   0.98767886    -4.561788    423.28014  0.056984402  0.058137472            2 
  620000    1.0267849   -4.5285984    423.64951  0.056942139  0.058107307            2 
  621000    1.0244061   -4.5655206    422.54446  0.056702156  0.058077349            2 
  622000   0.99082755   -4.5480516    423.48951  0.056737609   0.05804715            3 
  623000     1.029933   -4.5696733    422.63532   0.05653228  0.058015955            3 
  624000    1.0133487   -4.5940564    423.22942  0.056521023   0.05798401            4 
  625000    1.0104839   -4.5504339     425.6006  0.056746746    0.0579526            2 
  626000    1.0216463   -4.5727235    425.77764  0.056679664  0.057922301            6 
  627000    1.0176252   -4.5594751     425.5347  0.056556977  0.057891186            2 
  628000   0.99787059   -4.5657192    427.66123  0.056749101  0.057860437            4 
  629000     1.012989   -4.5335795    428.08677  0.056715258  0.057830254            2 
  630000    1.0163253   -4.5770309     425.9618  0.056344154  0.057799027            8 
  631000   0.98834942   -4.5878065     426.2218  0.056289197  0.057767758            4 
  632000    1.0279873   -4.5677189    429.57617  0.056642427  0.057736957            4 
  633000     1.015869    -4.578703    429.89072  0.056594354  0.057706171            4 
  634000    1.0034084   -4.5718612    429.16824  0.056410126  0.057675559            5 
  635000    1.0037853   -4.5802655    430.49808  0.056495811  0.057645461            4 
  636000    1.0013154   -4.5924618    431.59046  0.056550113  0.057615656            3 
  637000   0.97521284   -4.5847584    432.16041  0.056535899  0.057585287            2 
  638000   0.99883058   -4.6017208    431.21293  0.056323528  0.057555404            3 
  639000   0.99774686   -4.5661814    431.86478  0.056320394  0.057525333            5 
  640000   0.99684263   -4.5749755    433.20022  0.056406279   0.05749575            5 
  641000   0.98047311   -4.5703743     434.0583  0.056429836  0.057465586            4 
  642000   0.99681541   -4.5818845    433.42863  0.056260206  0.057435403            4 
  643000   0.99008353   -4.5814863    433.95501  0.056240929  0.057404975            2 
  644000   0.98007456   -4.5815211    433.59316  0.056106775  0.057374899            5 
  645000    0.9843355   -4.5831779    433.42093  0.055997536  0.057343893            4 
  646000    1.0031551   -4.5896318    433.86095  0.055967615  0.057312399            2 
  647000    1.0152449   -4.5540264    434.76225  0.055997199  0.057280862            3 
  648000    1.0042882   -4.5680701     434.9798   0.05593876  0.057249745            2 
  649000    1.0063641   -4.5701675    435.95508  0.055977796  0.057218839            4 
  650000   0.98274247    -4.605466    434.85379  0.055750486   0.05718746            2 
  651000    1.0008589   -4.5802282      437.869   0.05605082  0.057156023            3 
  652000    1.0011708   -4.6175888    437.27933  0.055889485  0.057125075            3 
  653000    1.0212826   -4.5818484    438.59978  0.055972407  0.057094316            3 
  654000   0.97460299   -4.5802637    439.34033  0.055981184  0.057063874            3 
  655000   0.98707375    -4.587222    439.52932  0.055919761  0.057033294            5 
  656000      0.99036   -4.6118195    438.66654  0.055724916  0.057002376            2 
  657000     1.020803   -4.6255983    440.56941  0.055881458  0.056971373            3 
  658000   0.98101059   -4.6152546     439.0437  0.055603305  0.056939657            3 
  659000   0.99263372   -4.6007981    439.15239  0.055532674  0.056908543            3 
  660000   0.98964623   -4.6035342    439.87675  0.055539993  0.056876835            3 
  661000    0.9982043   -4.5997186     440.8073  0.055573285  0.056845486            4 
  662000    1.0080366   -4.5988112    440.22797  0.055416411  0.056814365            3 
  663000   0.96971224   -4.5926174    441.59368  0.055504484  0.056783198            2 
  664000   0.97277264   -4.5938743    441.29035  0.055382825  0.056751663            3 
  665000   0.99117598   -4.6070463    442.20913  0.055414678  0.056719302           12 
  666000    0.9708696   -4.5615288    443.60678  0.055506354  0.056687109            3 
  667000   0.98395595   -4.5680335    441.74506  0.055190537  0.056655082            4 
  668000   0.98327137   -4.6198338    441.79186  0.055113756  0.056622185            2 
  669000   0.99207623   -4.5676789    443.39855  0.055231509  0.056589437            3 
  670000   0.97922546   -4.5884813    443.22399  0.055127361  0.056557083            4 
  671000   0.99950315   -4.5612938    445.07975  0.055275677  0.056524592            4 
  672000   0.98289251   -4.5995843    443.26939  0.054968922  0.056492742            2 
  673000    0.9817374   -4.5996689    445.42602  0.055154287  0.056460423            4 
  674000   0.97076255   -4.5883381    445.27283  0.055053515  0.056427248            2 
  675000   0.98138568   -4.6381979    443.49012  0.054751867  0.056394259            2 
  676000   0.99032474    -4.608497    445.05883  0.054864254  0.056360929            3 
  677000   0.97738557   -4.5765424     446.6736   0.05498198  0.056327817            4 
  678000    0.9981325   -4.5989419    446.28632  0.054853284   0.05629519            2 
  679000     1.003377   -4.5939546    448.20861   0.05500842  0.056262735            4 
  680000   0.97061213    -4.627172    447.82584  0.054880617  0.056229584            4 
  681000   0.98863097   -4.6047421    449.11857   0.05495822  0.056196824            3 
  682000     0.988614   -4.5877296    448.76966  0.054835002  0.056164423            3 
  683000   0.95948818   -4.6217108    449.06606   0.05479088  0.056131964            5 
  684000   0.98382662   -4.5960035    451.01282  0.054947955  0.056099635            4 
  685000   0.97746831   -4.6043013     452.7782  0.055082506  0.056067456            3 
  686000   0.96538265   -4.6086088    451.29804  0.054822405  0.056035322            5 
  687000   0.99026954   -4.6101546    451.88252  0.054813504  0.056003199            3 
  688000   0.98408331   -4.6494561    451.97916  0.054745538  0.055971288            3 
  689000    1.0018331   -4.6149096    451.30508  0.054584552  0.055939818            3 
  690000   0.98909399   -4.5970801    453.42303  0.054761236  0.055908162            5 
  691000   0.99387636   -4.6087428    454.89163  0.054859097  0.055877179            3 
  692000     1.000431   -4.6201346    453.62617  0.054627429  0.055845534            2 
  693000   0.96919197   -4.5986704    454.23739  0.054622101  0.055814425            2 
  694000   0.96552254   -4.6018736    455.12824  0.054650365  0.055783069            5 
  695000   0.98095605   -4.5967075    454.30592  0.054473132  0.055752201            3 
  696000   0.96162285   -4.5762589    456.71489  0.054683296   0.05572151            4 
  697000   0.96776712    -4.591265    457.77664  0.054731783  0.055689939            3 
  698000   0.97790219   -4.5658007    459.03998    0.0548042  0.055659098            3 
  699000   0.97945642   -4.6003339     457.8855  0.054588162  0.055628201            5 
  700000   0.96655758   -4.6254835    457.61426  0.054477888  0.055596729            4 
  701000   0.97714331   -4.6345351     456.9256  0.054318307  0.055565313            5 
  702000   0.95796729   -4.5908542    459.01653  0.054489142  0.055533801            3 
  703000    1.0031796   -4.6230064     458.9457  0.054403237  0.055502638            4 
  704000   0.93642715   -4.6317402    458.53272  0.054277074  0.055472151            3 
  705000   0.95964995   -4.6067603    460.57569  0.054441571  0.055441662            3 
  706000   0.96368767   -4.6054852    460.25663  0.054326798  0.055411244            7 
  707000   0.98688092   -4.6369621    460.69145  0.054301208  0.055381041            3 
  708000   0.94746383   -4.6313619    462.08972  0.054389091  0.055350941            2 
  709000   0.97035839   -4.6016279     463.1458  0.054436507  0.055320971            6 
  710000   0.98821447   -4.6133679    462.18927  0.054247567  0.055291305            5 
  711000   0.96886592   -4.6142915    462.89533  0.054254024  0.055261906            3 
  712000   0.98059749   -4.6348315    463.17328  0.054210356  0.055231608            3 
  713000   0.96100574   -4.6086802    463.83602  0.054211784  0.055200801            6 
  714000    0.9579038   -4.6243878    464.34064  0.054194752  0.055169878            4 
  715000   0.96395529   -4.6439275    463.52853  0.054024304  0.055138883            2 
  716000   0.98465804   -4.6118477      465.622  0.054192505  0.055108635            4 
  717000   0.97283098   -4.6201674     466.2412  0.054188889  0.055078757            3 
  718000   0.96877961   -4.6375368    466.91343  0.054191438  0.055048946            4 
  719000   0.97642446   -4.6369768    465.84507  0.053992243  0.055018578            4 
  720000   0.98426408   -4.6000147    466.51342  0.053994609  0.054989019            2 
  721000   0.98290582   -4.6301324     468.0938  0.054102381  0.054959144            3 
  722000   0.97316709    -4.620323    468.09154  0.054027186   0.05492919            9 
  723000   0.97341881   -4.6488174    467.19747  0.053849408  0.054899541            7 
  724000   0.95351987   -4.6410594    467.88548  0.053854222  0.054869795            2 
  725000    0.9640037   -4.6310881    469.07179  0.053916298  0.054840273            7 
  726000   0.97917571   -4.6567163    468.89128  0.053821313    0.0548108            4 
  727000   0.97208057   -4.6158098    470.89067  0.053976464   0.05478183            3 
  728000   0.96933421   -4.6378654    469.83814  0.053781838  0.054752803            5 
  729000   0.97182153   -4.6536221    472.85375  0.054052783  0.054723721            3 
  730000   0.96183124   -4.6134509    472.60712  0.053950584   0.05469446            4 
  731000    0.9690568   -4.6437055    472.30843   0.05384273  0.054664701            5 
  732000   0.94980076    -4.658601    472.90231  0.053836784  0.054635168            1 
  733000   0.94904123   -4.6450899    473.12797  0.053788991  0.054606252            6 
  734000   0.96581814   -4.6382126    476.20154  0.054064661  0.054577782            7 
  735000    0.9448777   -4.6355982    474.86236   0.05383927  0.054549266            3 
  736000   0.96852668   -4.6322091    475.14684  0.053798329  0.054521189            1 
  737000   0.94378429   -4.6611629    475.56517  0.053772634  0.054492849            5 
  738000   0.93600756     -4.67172    474.79674  0.053613001  0.054464803            5 
  739000   0.96498248   -4.6230573    478.20335    0.0539246  0.054436576            3 
  740000   0.94800267   -4.6576909    477.77064     0.053803  0.054408733            2 
  741000   0.96441975   -4.6265574    478.90843  0.053858348  0.054380315            2 
  742000   0.94744664   -4.6382953    479.64585  0.053868581  0.054352563            3 
  743000    0.9585404   -4.6594205    477.92442  0.053603008  0.054325091            3 
  744000   0.96725256   -4.6665382    479.10293  0.053662963  0.054297319            4 
  745000   0.96570739   -4.6406465    479.02482  0.053582194  0.054269501            3 
  746000   0.95141273   -4.6467664    478.84693  0.053490497  0.054241191            6 
  747000   0.94335227   -4.6815014     478.7061  0.053403179  0.054212481            5 
  748000   0.96460441    -4.670308    481.35669  0.053627083  0.054183597            3 
  749000   0.94986594   -4.6606947    478.91442  0.053283758  0.054155332            4 
  750000   0.95886263   -4.6593794    480.55634  0.053395149  0.054127112            3 
  751000   0.96170734   -4.6599912    480.32828  0.053298744  0.054098968            3 
  752000    0.9408957   -4.6632875     480.0722   0.05319949  0.054070732            4 
  753000     0.949489   -4.6477597    482.94417  0.053446676  0.054042668            6 
  754000   0.93865516   -4.6452889    485.14731  0.053619287   0.05401487            2 
  755000   0.95233266   -4.6493436    482.21058  0.053224126  0.053986222            3 
  756000   0.96413992   -4.6587738    483.21634  0.053264588  0.053957985            5 
  757000   0.98194555   -4.6390893    483.32222  0.053205881  0.053929974            3 
  758000   0.93599837   -4.6470737    486.02382  0.053432698  0.053901626            6 
  759000   0.95911515   -4.7061507    483.51957  0.053087349  0.053873178            1 
  760000   0.96445277   -4.6600562    486.16859  0.053307959  0.053844533            6 
  761000   0.94666749   -4.7096471    484.91176   0.05310028  0.053815836            1 
  762000   0.95938454   -4.6887994    484.98558  0.053038668  0.053787376            4 
  763000   0.95764059    -4.667007    486.59443   0.05314487   0.05375908            3 
  764000   0.93698573   -4.6735822    485.96084    0.0530062  0.053731136            4 
  765000   0.94143854   -4.6434445    488.75803  0.053241616  0.053703627            5 
  766000   0.94755635   -4.6550945    489.73738  0.053278654  0.053676984           10 
  767000   0.95786293   -4.6564131    489.08905  0.053138749  0.053649935            4 
  768000   0.92432545   -4.6559314    490.36535  0.053208046  0.053623052            6 
  769000   0.95818834    -4.666698    490.27364  0.053128916  0.053596159            4 
  770000   0.95465948   -4.6396273    492.75187  0.053328124   0.05356953            3 
  771000   0.95564988   -4.6472921    490.79731  0.053047699  0.053542799            5 
  772000   0.94644438   -4.6881005     490.9987  0.053000723  0.053516829            8 
  773000   0.95498781   -4.6838982    492.18659  0.053060219  0.053490069            3 
  774000   0.93290475   -4.6808947    492.88528   0.05306689  0.053463795            2 
  775000   0.94778446   -4.6669887    492.34642  0.052940475  0.053436953            4 
  776000   0.96269018   -4.6975457    494.48024    0.0531014  0.053410749            4 
  777000   0.95287492   -4.6925142    492.23605  0.052792369  0.053384018            3 
  778000   0.96513297   -4.6762846    493.44702  0.052854222   0.05335749            9 
  779000   0.95456149   -4.6727065    494.75434  0.052926224  0.053331219            4 
  780000   0.93357322   -4.6618832    495.04555  0.052889482  0.053305045            6 
  781000   0.94727881   -4.6565799    496.30597  0.052956249   0.05327915            3 
  782000   0.95230258    -4.716809    495.75704  0.052830035  0.053253246            5 
  783000   0.95958817   -4.7038787     498.6418  0.053069583   0.05322736            3 
  784000   0.93882769   -4.6699587    496.93642  0.052820623  0.053201781            7 
  785000   0.95155216    -4.677716    498.15783  0.052882997  0.053176189            7 
  786000   0.94029207   -4.7321763    496.31933  0.052620794  0.053150525            5 
  787000   0.93847034   -4.6798675    497.71201  0.052701398  0.053124667            3 
  788000   0.94645131   -4.6991891    500.47429  0.052926639   0.05309886            2 
  789000   0.93897657   -4.6987856    500.24784   0.05283564   0.05307372            3 
  790000   0.93448843   -4.7068636    501.10899  0.052859598  0.053048997            5 
  791000   0.93424482   -4.6838789    501.38862  0.052822231  0.053024207            3 
  792000   0.92611949    -4.704031    501.70287  0.052788601  0.052999918            6 
  793000   0.91795015   -4.7211445    502.46009  0.052801607  0.052975834            3 
  794000   0.95622815   -4.6969783    501.48658  0.052632933  0.052951162            4 
  795000   0.93561308   -4.6654169    503.32049  0.052758961  0.052925844            2 
  796000   0.92123996    -4.673515    504.65618  0.052832515  0.052901306            3 
  797000   0.93333712   -4.6993179    502.90382     0.052583  0.052876921            4 
  798000   0.93841385   -4.6870727    502.31147   0.05245525   0.05285196            5 
  799000   0.92695866   -4.6926744    503.99979  0.052565686  0.052826885            4 
  800000   0.95248509   -4.6921357    503.91737  0.052491392  0.052801749            3 
  801000   0.93798785   -4.6900442    506.15401  0.052658553  0.052776596            3 
  802000   0.94184062   -4.6975115    503.66794  0.052334574  0.052751189            4 
  803000   0.92502895   -4.6941979    506.34101  0.052546805  0.052725944            7 
  804000   0.92885723   -4.6731092    506.01236  0.052447384  0.052700772            3 
  805000    0.9057369   -4.7086356    506.68531  0.052451895  0.052675616            3 
  806000   0.94137943   -4.6895376    506.22223   0.05233894  0.052650453            2 
  807000   0.94222758   -4.6881108    507.52486  0.052408598  0.052624889            4 
  808000   0.92083302    -4.687672    508.12758  0.052405898  0.052599378            2 
  809000   0.92280421   -4.7095078    507.76712  0.052303989  0.052574451            5 
  810000     0.943195   -4.6846139    510.96918  0.052568846  0.052549366            2 
  811000   0.91795435   -4.7097439    506.43406  0.052038025  0.052523951            2 
  812000   0.94139949   -4.7429195     508.6481   0.05220116  0.052497596            5 
  813000   0.92000236   -4.6952255    508.48908  0.052120651  0.052471975            3 
  814000   0.93239083   -4.7013741    509.11303  0.052120499  0.052446076            4 
  815000   0.92955312   -4.6802059    511.19957  0.052269894  0.052420211            4 
  816000   0.92958516   -4.6851559     510.6861  0.052153401  0.052394814            6 
  817000   0.92532529    -4.688133    511.35865  0.052158166  0.052369541            2 
  818000   0.94009267   -4.6944354    511.57829  0.052116778  0.052343886            4 
  819000   0.92645669    -4.690794    511.83986  0.052079757  0.052318702            2 
  820000   0.92090653   -4.6899218    512.45002  0.052078254  0.052293819            6 
  821000   0.93478529   -4.7057816    513.36657  0.052107853  0.052268948            2 
  822000   0.92155161   -4.6899666    512.58367  0.051965092  0.052244527            3 
  823000   0.93153188   -4.6986796      514.203  0.052065918  0.052219701            1 
  824000   0.91685726   -4.7216959    513.61783  0.051943551  0.052194943            1 
  825000   0.93265086   -4.6862482    513.40343  0.051858932  0.052169456            6 
  826000   0.92056063   -4.7332293    513.47085  0.051802951  0.052144213            1 
  827000   0.93421437   -4.7315076    514.63714  0.051857834   0.05211884            4 
  828000   0.90864503   -4.7281794    514.31405  0.051762687  0.052093442            3 
  829000   0.91970903   -4.7153148    514.82235  0.051751342  0.052068443            5 
  830000   0.92018277   -4.7122941    515.03709  0.051710551  0.052043001            3 
  831000   0.91713097   -4.7200906    517.52528  0.051897842  0.052018169            3 
  832000   0.93099038   -4.7148918    517.57309  0.051840253  0.051992991            3 
  833000   0.90601615   -4.7099466    519.00001  0.051920769  0.051968015            6 
  834000   0.92410334   -4.7275493    517.76068   0.05173468  0.051942757            3 
  835000   0.92806464   -4.7115994    517.86444  0.051683078  0.051917056            2 
  836000   0.90831296    -4.689666    518.99564  0.051734015     0.051892            5 
  837000   0.92473763   -4.7391529    516.67215  0.051440875  0.051866363            8 
  838000   0.92507449   -4.7459299    515.62151  0.051275011  0.051840526            6 
  839000    0.9192319   -4.7076607    517.87191  0.051437416  0.051815082            3 
  840000   0.90245136   -4.7223324    519.47478  0.051535196  0.051789923            3 
  841000   0.94348993   -4.7317239    520.82998  0.051608202  0.051764666            3 
  842000   0.93644435   -4.7366343     520.0704  0.051471734  0.051739322            2 
  843000   0.90401954   -4.7186108    520.74578   0.05147744  0.051714469            3 
  844000   0.93571404    -4.777719    520.21172  0.051363717  0.051689023            5 
  845000   0.91316937   -4.7357907    522.68679   0.05154702  0.051664546            6 
  846000   0.89809451   -4.7380533    523.30034  0.051546526  0.051639765            2 
  847000    0.9249929   -4.7151779     523.5745  0.051512643  0.051614981            3 
  848000   0.93580178   -4.7164646    526.34914  0.051724562  0.051589819            3 
  849000   0.92146447   -4.6971619    523.67311  0.051400973  0.051565038            6 
  850000   0.93094791   -4.7273423    523.56322  0.051329728  0.051540186            3 
  851000   0.91194833   -4.7364697    522.69526  0.051184416  0.051514844            2 
  852000   0.92534356   -4.6975946    524.28049  0.051279391  0.051488985            4 
  853000   0.90243036   -4.7410154    523.62024  0.051154772  0.051463507            3 
  854000   0.91243301   -4.7491256     525.7145  0.051299229  0.051438331            5 
  855000   0.93123132   -4.7457922    526.32494  0.051298727  0.051413091            5 
  856000   0.90363356    -4.772233    522.21774  0.050838954  0.051387593            5 
  857000   0.91957196   -4.7426145    526.37074  0.051183463  0.051362002            4 
  858000   0.90982401   -4.7171752    526.51404  0.051137727  0.051336687            4 
  859000   0.92190909   -4.7312971    527.31139  0.051155548  0.051311276            4 
  860000   0.90910733    -4.748196    526.46255  0.051013813  0.051286338            3 
  861000   0.90497853   -4.7520036    527.88699   0.05109243  0.051261065            4 
  862000   0.90168859   -4.7429248     528.9938  0.051140159  0.051235796            1 
  863000   0.91581278   -4.7395804    526.90224  0.050878934  0.051210811            6 
  864000   0.92004668    -4.701107      529.328  0.051054012  0.051185417            8 
  865000   0.91925454   -4.7698231    528.46994  0.050912325  0.051159931            3 
  866000   0.92265897   -4.7468216    528.35599   0.05084257   0.05113418            3 
  867000    0.9272643   -4.7551523    527.48681  0.050700385  0.051108032            7 
  868000   0.90569424   -4.7504133    529.35258    0.0508211  0.051082238            3 
  869000   0.91029429   -4.7472849     528.2239  0.050654383  0.051056517            4 
  870000   0.90442287   -4.7488139    527.93921   0.05056889  0.051030567            3 
  871000   0.89383384   -4.7501574    528.50244  0.050564718   0.05100474            2 
  872000   0.89617092    -4.744406    529.77893   0.05062872  0.050978831            6 
  873000   0.91116836   -4.7415176    531.31993  0.050717825  0.050952431            3 
  874000   0.91007217   -4.7375975    530.86641  0.050616553   0.05092629            3 
  875000   0.90607448   -4.7378349    530.13691   0.05048923   0.05090078            8 
  876000   0.90944049   -4.7479618    531.68645     0.050579  0.050875516            6 
  877000   0.92164881   -4.7596466    531.56956   0.05051022  0.050849897            8 
  878000   0.88929973   -4.7826233    532.12113  0.050505043  0.050824475            4 
  879000   0.90413214   -4.7543996    533.54307  0.050582392  0.050799007            5 
  880000   0.91268399   -4.7481636    532.95907  0.050469608  0.050773181            5 
  881000   0.92178224   -4.7493068     531.6762  0.050290976  0.050746948            3 
  882000   0.91019193   -4.7486136    534.94703  0.050542992  0.050720988            5 
  883000   0.91825953   -4.7357099    533.94035  0.050390747  0.050694848            6 
  884000   0.89328358   -4.7588473    532.50352  0.050198296  0.050668513            7 
  885000   0.89975815   -4.7086787    534.72219  0.050350489  0.050642349            5 
  886000   0.89556486   -4.7413826    534.85323  0.050305985  0.050616159            3 
  887000   0.89388057   -4.7603769    533.70813  0.050141688  0.050589818            3 
  888000    0.9033893   -4.7759396    535.01954   0.05020829  0.050562812            2 
  889000   0.89659892   -4.7460531    536.67221  0.050306732  0.050536817            4 
  890000   0.89694806   -4.7643082    536.05174   0.05019211  0.050510663            5 
  891000   0.89441618   -4.7491263    537.78247   0.05029765  0.050484817            3 
  892000   0.89487586   -4.7654514    536.29509  0.050102307  0.050458544            4 
  893000   0.89345247    -4.754577    537.74774   0.05018176  0.050432331            3 
  894000   0.90685446   -4.7595507    536.20352  0.049981686  0.050406363            2 
  895000   0.89927061   -4.7488925    536.41835  0.049945843  0.050380592            5 
  896000   0.89390351   -4.7556644    535.65921  0.049819495  0.050354288            3 
  897000   0.89713307   -4.7218649    539.23933  0.050096556  0.050328527            3 
  898000    0.9068273   -4.7600999    537.32399  0.049863028  0.050302177            2 
  899000   0.87872243   -4.7528161    538.26362  0.049894663  0.050275407            3 
  900000   0.88432293   -4.7690693    538.42688  0.049854341  0.050249279            6 
  901000   0.90180709   -4.7444023    537.14648  0.049680585   0.05022287            5 
  902000   0.90044311   -4.7444251     541.5101   0.05002865  0.050196695            3 
  903000   0.88530792   -4.7858344    537.93707   0.04964351  0.050170291            4 
  904000   0.90771469   -4.7747727    539.79638  0.049759991  0.050143272            3 
  905000   0.89308399   -4.7957084    538.93327  0.049625531  0.050116777           15 
  906000   0.89669221   -4.7764718    540.48992  0.049713937  0.050089525            7 
  907000   0.88422786    -4.772256    541.40389  0.049743099   0.05006286            2 
  908000   0.89756735   -4.7667379    540.97283  0.049648755  0.050036225            2 
  909000   0.88448676   -4.7791773    542.20843   0.04970741  0.050010006            5 
  910000   0.88818308   -4.7841789    541.75283  0.049611065  0.049983396            8 
  911000   0.88363793   -4.7720715    540.24642  0.049418809  0.049956602            6 
  912000   0.90533225    -4.788819    541.84509  0.049510699  0.049929962            3 
  913000   0.88265101   -4.7906811    541.54042  0.049428662  0.049903292            3 
  914000   0.87981424   -4.8029732    541.91789  0.049408998  0.049876671            6 
  915000    0.9013088   -4.7816472    543.52427  0.049501299  0.049849864            5 
  916000   0.87461209    -4.786612    542.54003  0.049357717  0.049823262            4 
  917000   0.87926595   -4.7468614    544.68263  0.049498603  0.049796882            5 
  918000   0.87522817   -4.7904408    544.72552  0.049448577  0.049770255            6 
  919000   0.90384256   -4.7593471    546.05679  0.049515487  0.049744048            2 
  920000   0.88413789   -4.8285325    542.71569  0.049159029  0.049717772            5 
  921000   0.86989719    -4.769222    544.14933  0.049235372  0.049691598            2 
  922000   0.86745576   -4.7630883    547.41262  0.049476918  0.049665307           16 
  923000   0.90606894   -4.7802976    545.41168  0.049242658  0.049638977            5 
  924000   0.89744075   -4.7812361    545.69313  0.049214748  0.049612326            2 
  925000   0.88764384   -4.8075901    544.78655  0.049079869  0.049585929            5 
  926000   0.89714571   -4.7744292    547.88197  0.049305432  0.049559368            9 
  927000   0.88042486   -4.7902044    547.27769  0.049197922  0.049532846            3 
  928000   0.87490026   -4.8117438    547.36494  0.049152742  0.049506528            3 
  929000   0.88484119   -4.7947734    548.95137  0.049242139  0.049480427           10 
  930000   0.87161265   -4.8014731    547.58314  0.049066589  0.049454482            5 
  931000   0.87716143   -4.7773077     550.3527  0.049261789  0.049428672           10 
  932000   0.88368976   -4.8200302    548.45954  0.049039659  0.049402953            3 
  933000    0.8672606   -4.7887169    552.12176  0.049314198  0.049376939            4 
  934000   0.86967398   -4.8209408    550.33632  0.049102099  0.049351381            4 
  935000   0.89364127    -4.773877    552.51187  0.049243482  0.049325742            3 
  936000    0.8729246   -4.7977694    550.08012  0.048974369  0.049300148            6 
  937000   0.87531481   -4.8091967    551.06511  0.049009704  0.049274649            5 
  938000   0.88625128   -4.7900154    551.64056  0.049008579  0.049249171            5 
  939000   0.87533431   -4.7936808    553.61624  0.049131721  0.049223701            3 
  940000   0.88088838   -4.8111536    554.02749  0.049115912  0.049198736            8 
  941000   0.89054883   -4.8382562    552.30608  0.048911272  0.049173743            2 
  942000   0.88317079    -4.807074     554.6394  0.049065764  0.049148522            4 
  943000   0.89332406   -4.8164794    555.19908  0.049063192  0.049124197            4 
  944000   0.89814775   -4.8250443    555.35317  0.049024821  0.049099437            5 
  945000   0.89909078     -4.76129     556.5144  0.049075344  0.049075148            3 
  946000   0.88204218   -4.7797393    557.12998  0.049077694   0.04905067            2 
  947000   0.88095296    -4.787931     555.8993  0.048917573  0.049025451            3 
  948000   0.88307838   -4.7851396    556.62217  0.048929516  0.048999866            5 
  949000    0.8618323   -4.8198473    556.19479  0.048840428  0.048974539            5 
  950000   0.88555133   -4.7877076    557.51215  0.048904575  0.048949217            3 
  951000   0.87060605   -4.7837299    557.80838  0.048879108  0.048923719            3 
  952000   0.86833101   -4.8235695    555.37055  0.048614369  0.048897869            5 
  953000    0.8624103   -4.8126813    555.96265  0.048615132  0.048871952            4 
  954000   0.87476843   -4.8267351    555.63652  0.048535684  0.048846082            3 
  955000   0.87193766   -4.7950752    557.77141  0.048671153  0.048820178            5 
  956000   0.87450262   -4.7755848    557.07739  0.048559744  0.048794314           10 
  957000   0.88794312   -4.8046429     557.8276   0.04857433  0.048768336            5 
  958000   0.87467211   -4.7914536     559.0874  0.048633212  0.048742597           11 
  959000   0.86653285   -4.8153822    557.76961  0.048467988  0.048716915            5 
  960000   0.85529572   -4.8148573    557.73203  0.048414239  0.048691263            4 
  961000   0.87154889   -4.8218325    559.41023  0.048509385  0.048665546            5 
  962000   0.88211407   -4.8142439    559.39922  0.048458006  0.048640182            5 
  963000   0.86462242   -4.8193015    560.87149  0.048535089  0.048614815            3 
  964000   0.88504597   -4.8155094    559.55354  0.048370811  0.048589401            5 
  965000   0.88066072   -4.8160244    560.10602  0.048368395  0.048563917            8 
  966000   0.87891344    -4.801266    562.30941  0.048508404  0.048538914            3 
  967000   0.85982502   -4.8094344    560.62158  0.048312787  0.048513677            5 
  968000   0.86957144   -4.8294623    561.15535  0.048308829  0.048488573            3 
  969000   0.86256281   -4.8064627     562.4422  0.048369642  0.048463408            3 
  970000   0.86794631   -4.8177421    562.77691  0.048348532  0.048438111            7 
  971000   0.85748701   -4.8080697    562.47418  0.048272758  0.048412971            4 
  972000   0.86933616   -4.7765584    564.47207  0.048394382  0.048387802            6 
  973000   0.88314465   -4.7721503     565.0351  0.048392866  0.048363225            5 
  974000   0.84252535    -4.794151    564.63344  0.048308816   0.04833876            9 
  975000   0.86484011   -4.8482532    565.02795  0.048292987  0.048313969            6 
  976000   0.86363255    -4.876143    564.06615  0.048161385  0.048288941            5 
  977000   0.85488959   -4.8168627    565.84105  0.048263481   0.04826412            6 
  978000   0.87397902   -4.8364362    566.30897  0.048254002  0.048239328            3 
  979000   0.86660461   -4.8179165    565.97743  0.048176492  0.048214728            6 
  980000   0.86145261   -4.7933078    564.86046  0.048032352  0.048190179            4 
  981000   0.85705565   -4.8442467    565.63243  0.048048966  0.048165587            3 
  982000   0.87034202   -4.8463049    566.60649  0.048082696   0.04814108           10 
  983000   0.88171339   -4.8426454    566.12765  0.047993188  0.048116531            8 
  984000   0.87788104   -4.8262907    565.66388  0.047905139  0.048091772            3 
  985000   0.88065833    -4.818349    568.50983  0.048097278  0.048067045            6 
  986000   0.86362884   -4.8294897    567.02222   0.04792277  0.048042052            7 
  987000   0.87905242   -4.8343546    568.24228  0.047977228  0.048017096            6 
  988000   0.84083741   -4.8241254    568.95225   0.04798855  0.047992513            7 
  989000   0.86580883   -4.8528491    569.00081  0.047944119  0.047967699            6 
  990000   0.86893741   -4.8511895    568.57738  0.047860049  0.047942778            4 
  991000   0.88009767    -4.824284    568.60676  0.047814224  0.047918412            5 
  992000   0.85617697   -4.8415504    568.75711  0.047778655  0.047893731            3 
  993000   0.86558457   -4.8590007    569.74301  0.047813277  0.047869059           10 
  994000   0.86092153   -4.8414834    571.50721   0.04791308  0.047844785            4 
  995000   0.85732065   -4.8410617    569.44592  0.047692288  0.047820467            5 
  996000   0.86397547   -4.8844537    569.92993    0.0476849  0.047796135            3 
  997000   0.84293255   -4.8586434    569.50184   0.04760129  0.047771339            5 
  998000   0.85216984   -4.8421331    570.89574  0.047669985   0.04774687            3 
  999000   0.85900212   -4.8168713    572.55506  0.047760682  0.047722361            8 
 1000000   0.84748364   -4.8700097    572.30743  0.047692286  0.047698198            3 
 1001000   0.84180921    -4.822019    574.26536  0.047807639  0.047673899            4 
 1002000   0.85363285   -4.8289604    574.70248  0.047796281  0.047649704            6 
 1003000   0.84805753   -4.8391329    571.73464  0.047502047  0.047625382            4 
 1004000   0.87131401   -4.8858967    572.29388  0.047501152  0.047601163            6 
 1005000    0.8432444   -4.8418723    571.99474  0.047429083   0.04757635            3 
 1006000   0.84113088   -4.8701262    573.35666  0.047494753  0.047551395            4 
 1007000   0.85781985   -4.8526465    572.75039  0.047397417  0.047526937            5 
 1008000   0.86185378    -4.873106    573.28517  0.047394607  0.047502104            4 
 1009000    0.8385258   -4.8656594    574.12029  0.047416608  0.047477589            3 
 1010000   0.84639798   -4.8554989    573.85379  0.047347672    0.0474528            6 
 1011000   0.85190847   -4.8607909    575.03016  0.047397804  0.047427858            8 
 1012000   0.83813443   -4.8804237     574.5186  0.047308843   0.04740282            3 
 1013000   0.84213983   -4.8493142    576.04771  0.047387932  0.047377781            3 
 1014000   0.85126127   -4.8580773    576.94696  0.047415102  0.047352947            3 
 1015000   0.87610161   -4.8364606    575.33196  0.047235793  0.047327955           12 
 1016000   0.84789593   -4.8307029    576.58666  0.047292213  0.047303368            3 
 1017000    0.8317506   -4.8725378    575.12298  0.047125776  0.047278364            3 
 1018000   0.84925847   -4.8873372    575.29568  0.047093622  0.047253296            6 
 1019000    0.8401651   -4.8477905     576.7688  0.047167877  0.047228572            7 
 1020000   0.84447606   -4.8594301     576.2032  0.047075425  0.047203776            5 
 1021000   0.85292641   -4.8921929     576.5517  0.047057762  0.047178999            9 
 1022000   0.86839313    -4.854057    578.38349   0.04716108   0.04715426            3 
 1023000   0.84721881   -4.8382452    580.00132  0.047246767  0.047129661            4 
 1024000   0.84688244   -4.8735863    578.30934  0.047062934  0.047104935            3 
 1025000   0.85554862   -4.8724777    580.17403   0.04716862  0.047080473            5 
 1026000   0.82642471   -4.8492357    580.46426   0.04714622  0.047055331            4 
 1027000   0.84839411   -4.8479585    581.37698  0.047174373  0.047030656            4 
 1028000   0.83714515    -4.886706    579.97609  0.047014923  0.047005744            2 
 1029000   0.85941982    -4.865505    580.10543  0.046979707  0.046981425            8 
 1030000   0.84447675   -4.9005895    577.43874  0.046718345    0.0469566            5 
 1031000   0.83483446   -4.8888493     580.2421   0.04689962  0.046931247            4 
 1032000   0.82334402   -4.8597369     579.8501  0.046822521  0.046906004            5 
 1033000   0.83798449    -4.876415    578.38832  0.046659271  0.046880365            4 
 1034000   0.82154558   -4.8830773    579.08951  0.046670657  0.046855115            6 
 1035000   0.85056612   -4.8681989    579.37892  0.046648867  0.046829966            7 
 1036000   0.85218241   -4.8814214    579.58187  0.046620163  0.046804788            9 
 1037000   0.83558491   -4.8892803    580.49764  0.046648798  0.046779632            5 
 1038000   0.83514167   -4.8490981     581.4546  0.046680684  0.046754661            4 
 1039000   0.84946333    -4.894745    580.85809  0.046587912  0.046729351            5 
 1040000   0.84013502   -4.8994664    582.05528  0.046639045  0.046703948            3 
 1041000   0.83796497    -4.881167    581.97938  0.046588167  0.046678718            9 
 1042000   0.83313249   -4.9262764    579.95341   0.04638143  0.046653273            8 
 1043000   0.83280548   -4.8918372    580.38908   0.04637177  0.046627814            5 
 1044000   0.84581729   -4.8317601    583.17136  0.046549438  0.046602747            5 
 1045000   0.85369121   -4.8725583    581.86821  0.046400973  0.046577434           10 
 1046000   0.83739147   -4.8751717    581.46821  0.046324746  0.046552332            5 
 1047000   0.84311135   -4.8718129    582.15681  0.046335308    0.0465274            4 
 1048000    0.8303554   -4.8857798    583.10935  0.046366837  0.046502248            7 
 1049000   0.83428459   -4.8674566    582.12596  0.046244516  0.046476969            8 
 1050000   0.83226777   -4.8778328    584.23717   0.04636803  0.046451649            9 
 1051000   0.83229654   -4.8926133     582.1213  0.046156145  0.046426351            5 
 1052000   0.82471431   -4.8689205    584.29913  0.046284785   0.04640115            9 
 1053000   0.83899768   -4.8767645    585.32655  0.046322139  0.046376109            8 
 1054000   0.81664607   -4.8979331    585.53399  0.046294592  0.046350963            6 
 1055000   0.84079873     -4.86144    587.05361  0.046370743  0.046325655            6 
 1056000   0.83737877   -4.9160407    584.93952      0.04616  0.046300548            7 
 1057000   0.84975775   -4.8990294    585.17302  0.046134738  0.046275412            4 
 1058000   0.84466669   -4.9168941    584.53067  0.046040538  0.046250061            7 
 1059000   0.84565143   -4.8829958    586.48137  0.046150564  0.046224926            9 
 1060000    0.8363373   -4.9008767    585.10323  0.045998682  0.046199574            4 
 1061000   0.83353933   -4.8836656    588.24597  0.046202165  0.046174163            5 
 1062000   0.82385717   -4.8850643     586.7853  0.046044045  0.046148947            8 
 1063000    0.8286901   -4.9114432    587.64174  0.046067869  0.046123604            7 
 1064000   0.83545748   -4.8790244    587.33728  0.046000727  0.046098491            3 
 1065000   0.84245451   -4.8944359    586.77624  0.045913634   0.04607321            8 
 1066000   0.82206733   -4.9071869     586.1402  0.045820841  0.046048126            7 
 1067000   0.83162081   -4.8924775    588.80185  0.045985774  0.046022783            7 
 1068000   0.84467386   -4.9137206     589.1684  0.045971317  0.045997487            4 
 1069000   0.84229866   -4.8751879    589.26156  0.045935575  0.045972105            9 
 1070000   0.82943169   -4.9029824    586.83151  0.045703389  0.045946742            5 
 1071000   0.82408483    -4.919555    589.07215  0.045835057  0.045921132            6 
 1072000   0.82372863   -4.8934116    588.57762  0.045753857  0.045895747            4 
 1073000   0.81060251   -4.8935802      588.207  0.045682432  0.045870144            7 
 1074000    0.8148285    -4.886345    590.28311  0.045800986  0.045844637            3 
 1075000   0.83403505   -4.9198814    587.64851  0.045554148  0.045819259            3 
 1076000   0.81992834   -4.8979745    589.77845  0.045676769  0.045793589            6 
 1077000   0.82467934   -4.9016561    589.64068  0.045623699  0.045768109           10 
 1078000   0.84866645    -4.912927    588.57241  0.045498795  0.045742461            6 
 1079000   0.84092335   -4.9171129    591.10087  0.045651906   0.04571696           11 
 1080000   0.80920983    -4.917961     588.4125  0.045402199  0.045691248            8 
 1081000   0.81482088   -4.9247388    588.77183  0.045387899   0.04566525            8 
 1082000   0.82150699   -4.9108186    590.04678  0.045444145  0.045639563            5 
 1083000   0.80741094   -4.9273104    589.40401  0.045352725  0.045613608            6 
 1084000   0.81979994   -4.9161495    591.37766  0.045462612  0.045587797            4 
 1085000   0.82263617   -4.9256497    590.96041  0.045388664  0.045562105            5 
 1086000   0.81772699   -4.9080735    590.85404  0.045338708  0.045536331            4 
 1087000   0.82234431   -4.8956426    592.86444  0.045451122  0.045510699            4 
 1088000   0.81800517   -4.9088344    590.24613  0.045208803  0.045484696            3 
 1089000   0.80826335   -4.9210207    591.73942   0.04528156  0.045458891            4 
 1090000   0.83054905    -4.909138    592.04436   0.04526333  0.045433016            7 
 1091000   0.81479401   -4.9462906    589.47494  0.045025584  0.045406757            8 
 1092000   0.80590097   -4.9117162     591.3227  0.045125358  0.045380381            8 
 1093000   0.81813045    -4.919225     592.1676   0.04514849  0.045354294            4 
 1094000   0.82019508   -4.9105273    591.57096  0.045061773   0.04532829            7 
 1095000   0.81799852   -4.9172045    591.47602  0.045013396  0.045302025            3 
 1096000   0.81433192   -4.9167497    592.03163   0.04501457  0.045276087            8 
 1097000   0.80181477   -4.9300712    593.72523   0.04510219  0.045250059            7 
 1098000   0.83676302   -4.9373984    591.51693  0.044893513  0.045223733            3 
 1099000   0.79828727   -4.9104574    593.43922  0.044998425  0.045197594            4 
 1100000   0.82221078   -4.9310716    592.67264  0.044899443  0.045171406            5 
 1101000   0.82708874   -4.9482527    592.05244  0.044811719  0.045144792            7 
 1102000   0.79340734   -4.9543287    591.61449  0.044737938   0.04511834            7 
 1103000   0.84616419   -4.8842644    594.38822  0.044906937  0.045091897            4 
 1104000    0.8151332   -4.9543316    592.49933  0.044723681   0.04506582            5 
 1105000   0.81573395   -4.9182586    595.19429  0.044886447  0.045039348            5 
 1106000   0.81056106   -4.9196855    593.29425  0.044702701  0.045012612            8 
 1107000   0.82302826   -4.9322287     592.8437  0.044628403  0.044986063           13 
 1108000   0.82487702   -4.9130303    592.63154  0.044572168  0.044959493            4 
 1109000   0.80438744   -4.9456341    592.16911  0.044497228  0.044933006            4 
 1110000    0.8109485   -4.9216978    594.83797  0.044657506  0.044906165            2 
 1111000   0.80926065   -4.9020417     592.7802  0.044462961  0.044879724            6 
 1112000   0.82079451   -4.9351164    592.83943  0.044427415  0.044853053           14 
 1113000   0.82394834   -4.9244446    594.92951  0.044543988  0.044826222            5 
 1114000   0.81882379   -4.9439888    592.89231  0.044351609  0.044799623            4 
 1115000   0.81040629   -4.9519837    594.51212  0.044432894  0.044772821            7 
 1116000   0.81506341   -4.9975227    592.57628  0.044248528  0.044746217            5 
 1117000   0.79697723   -4.9637967    594.96916  0.044387434   0.04471956            5 
 1118000   0.79483802   -4.9273628    597.67527  0.044549438  0.044693504            4 
 1119000   0.79713976   -4.9196766    595.64712  0.044358588   0.04466693            4 
 1120000   0.79307199   -4.9238728    595.81628  0.044331569   0.04464062            9 
 1121000   0.79155029   -4.9436119    599.00489  0.044529058  0.044614623           14 
 1122000   0.80449076   -4.9594362    596.77177  0.044323512  0.044588611            6 
 1123000   0.80205141   -4.9552477    598.41361  0.044405878  0.044562884            4 
 1124000    0.7982803   -4.9464331    597.13776   0.04427178  0.044536902            5 
 1125000    0.8140216   -4.9612314    596.64429  0.044195873  0.044510761            5 
 1126000   0.79177592   -4.9373637    598.63338  0.044303832  0.044484981            5 
 1127000   0.79383121   -4.9634307    599.01716  0.044292898  0.044459393            4 
 1128000   0.80757718    -4.945151    599.27488  0.044272672  0.044433632            7 
 1129000   0.80746604   -4.9641871    599.64802     0.044261   0.04440806            5 
 1130000   0.78968911   -4.9543259     599.8023  0.044233208  0.044382564            5 
 1131000   0.79702861   -4.9564655    599.43198  0.044166813  0.044356897            4 
 1132000   0.79851834   -4.9673306    602.16101  0.044328696  0.044331218            3 
 1133000   0.81792854   -4.9462951    601.55544  0.044245031  0.044305542            8 
 1134000   0.80460261   -4.9243486    602.22242  0.044255028  0.044280369            5 
 1135000   0.81589293   -4.9395473    601.26478  0.044145725  0.044255003            5 
 1136000   0.80289508   -4.9810006    598.96204  0.043937943  0.044229502            5 
 1137000   0.78849967   -4.9689897    600.70455  0.044027012  0.044203906            5 
 1138000   0.80046492   -4.9272132    601.30713  0.044032449  0.044178319            4 
 1139000   0.78989322   -4.9604508    602.27558  0.044064646  0.044152784            3 
 1140000   0.78814313   -4.9230816    603.05792  0.044083181  0.044127285            3 
 1141000   0.80047749   -4.9609295    602.30191  0.043989331  0.044101892            5 
 1142000   0.81203002   -4.9546012    601.36357  0.043882339  0.044076516            5 
 1143000   0.80297981   -4.9617362    602.17991  0.043903464  0.044050743            2 
 1144000   0.80047341   -4.9443233    601.50265  0.043815753   0.04402495            4 
 1145000   0.79796279   -4.9610962    602.36086  0.043839946  0.043999219           13 
 1146000   0.79463429   -4.9752611    600.80659   0.04368867  0.043973601            6 
 1147000   0.79683334   -4.9519014    602.64565  0.043784194  0.043947998            6 
 1148000   0.80033605   -4.9584196    601.90769  0.043692486  0.043922325            5 
 1149000   0.79173971   -4.9605681    603.12755  0.043742932  0.043896755            4 
 1150000   0.79307491   -4.9759384    603.58385   0.04373796  0.043871217            4 
 1151000   0.79723484   -4.9700251    604.68531  0.043779707  0.043845713            4 
 1152000   0.79317057    -4.942222    602.64482  0.043594099  0.043820197            4 
 1153000   0.80030739   -4.9397826    606.25988  0.043817569  0.043794636            5 
 1154000    0.7998414   -4.9639591     605.0274  0.043690598  0.043769281            6 
 1155000   0.79413013   -4.9504815    606.53539  0.043761572   0.04374392           11 
 1156000   0.78783882   -4.9595252    605.41904  0.043643241  0.043718729            4 
 1157000   0.78175184   -4.9676993    605.97958  0.043645893   0.04369362            5 
 1158000   0.79884601   -4.9685376    606.59045  0.043652162  0.043668429            6 
 1159000     0.797234   -4.9260113    607.85897  0.043705707  0.043643448            9 
 1160000   0.79308841   -4.9630473    606.42805  0.043565234  0.043618521            6 
 1161000   0.79136607   -4.9718179    608.55025  0.043680035  0.043593605            6 
 1162000   0.78377345   -4.9679839    607.55673  0.043571194  0.043568481            5 
 1163000   0.79224064   -4.9760985    606.71944  0.043473735  0.043543194            5 
 1164000   0.78726631   -4.9930744    605.45996  0.043346217  0.043517958            5 
 1165000    0.7881486   -4.9763231    610.15639  0.043644949  0.043492613           12 
 1166000   0.78095767   -4.9862774    607.33843   0.04340612  0.043467593            3 
 1167000   0.80239297   -4.9501467    610.84174   0.04361909  0.043442387            4 
 1168000   0.80258381   -4.9679866    607.76258  0.043362056  0.043417669            7 
 1169000   0.79401032   -4.9937585     607.8049   0.04332798  0.043392938            5 
 1170000   0.79114768   -5.0125643    607.42104  0.043263607  0.043367799            9 
 1171000   0.77615655   -4.9766402    608.20872  0.043282716  0.043342746            5 
 1172000   0.79522501   -4.9915133    609.14915  0.043312653  0.043317723            6 
 1173000   0.78108186    -4.997983    608.18459  0.043207203  0.043292406            3 
 1174000   0.76599611   -4.9935727    608.56336  0.043197286   0.04326696            5 
 1175000   0.78816765   -4.9807569    610.03343  0.043264783  0.043241655            4 
 1176000   0.78546283   -4.9976168    609.56634  0.043194894  0.043216551            4 
 1177000   0.76003262   -4.9620987    611.05186  0.043263371  0.043191568            6 
 1178000   0.79571737   -5.0023949    609.24581  0.043098883  0.043166615            7 
 1179000   0.76920761   -4.9994904     608.8441  0.043033934  0.043141497            8 
 1180000   0.78389091   -4.9796955    612.14115  0.043230307  0.043116443            7 
 1181000   0.77307624   -4.9982409    610.73791  0.043094688  0.043091593            7 
 1182000   0.78053443   -4.9962474    610.32852  0.043029365  0.043066736            7 
 1183000   0.79375767   -4.9800631    610.70028   0.04301918  0.043041613            4 
 1184000     0.791614   -5.0120052    609.85684  0.042923482  0.043016498           10 
 1185000   0.78130133   -4.9818587    609.21678  0.042842249  0.042991088           10 
 1186000   0.78504205   -4.9868405    610.60952  0.042903985  0.042966019            6 
 1187000   0.76816008   -4.9893023    610.60846  0.042867766  0.042940908            5 
 1188000   0.79894671   -4.9841606    612.48979   0.04296365  0.042915911            4 
 1189000    0.7840091   -5.0260962    609.77184  0.042737023  0.042890827            9 
 1190000   0.77988553   -5.0069608    609.78913   0.04270232  0.042865582            3 
 1191000   0.77765302   -5.0321874    611.16071  0.042762434  0.042840366            6 
 1192000   0.78119648   -5.0135449    612.75565  0.042838063  0.042814987            4 
 1193000    0.7849817   -5.0255662    612.75273  0.042801951  0.042789627            6 
 1194000    0.7643565   -5.0095687    613.47022   0.04281618  0.042764578            5 
 1195000   0.77666168   -5.0038378    614.01082  0.042818049  0.042739794            4 
 1196000   0.75876462   -4.9954706    612.75657  0.042694856  0.042714814            5 
 1197000   0.78211522   -5.0037687    612.93284  0.042671459  0.042689848           12 
 1198000   0.77222547   -4.9991757    612.55233  0.042609372  0.042664714           10 
 1199000   0.77005315   -5.0172932    614.53728  0.042711793  0.042639646           10 
 1200000   0.77499847   -5.0087664    613.88482   0.04263089  0.042614677            8 
 1201000   0.77711756   -5.0152926    614.69827  0.042651836  0.042589744            4 
 1202000    0.7758982   -5.0143562     613.4945  0.042532897  0.042564965            5 
 1203000   0.77743632   -4.9813617    615.20257  0.042615861  0.042540403           10 
 1204000   0.77265693   -5.0178134     613.2286   0.04244384   0.04251569            8 
 1205000   0.75597632   -5.0094473    614.48568  0.042495552  0.042490737           12 
 1206000   0.76139985   -5.0153376    615.39627  0.042523236  0.042465829            8 
 1207000   0.77103358   -5.0205345    614.38065  0.042417885  0.042440924            8 
 1208000   0.77140101   -5.0303461    615.90034  0.042487606  0.042415946            6 
 1209000   0.77188814   -4.9991829    615.82212  0.042447072  0.042391135            7 
 1210000   0.78375792   -5.0274083    614.59232  0.042327294  0.042366375            4 
 1211000   0.75745627   -5.0254404    615.14991  0.042330712  0.042341289            6 
 1212000   0.76798721   -5.0217332    614.99407  0.042285071  0.042316513            8 
 1213000   0.76244945   -5.0445597    613.22948  0.042128983  0.042291612            7 
 1214000   0.76827449   -5.0063006    617.06857   0.04235781  0.042266754            3 
 1215000   0.76388007   -5.0150011    617.12739  0.042326981  0.042242242            9 
 1216000   0.76519142   -5.0183485     615.3993  0.042173746  0.042217587            6 
 1217000   0.76044812   -5.0023106    617.54164  0.042285787  0.042192974            6 
 1218000   0.75642495   -5.0164812    616.38246  0.042171761   0.04216786            7 
 1219000   0.75972792   -5.0124066    615.08213  0.042048272  0.042142702            8 
 1220000   0.75664054   -5.0256222    618.69214  0.042260392  0.042117597            3 
 1221000   0.78195149   -5.0301404    618.02506  0.042180252  0.042092663            3 
 1222000   0.75095076   -5.0238629    618.12731  0.042152708  0.042068046            6 
 1223000   0.74882631   -5.0146618    618.51072  0.042144366  0.042043548            4 
 1224000    0.7647765   -5.0270502    619.12825  0.042151978  0.042018975            7 
 1225000   0.75011003   -5.0570471    618.14622  0.042050763   0.04199421            3 
 1226000   0.74842963   -5.0383673    618.52155  0.042041976  0.041969333            4 
 1227000   0.75946762   -5.0542426    617.43332  0.041933804  0.041944599            7 
 1228000   0.74868118   -5.0341826     618.2065  0.041952124  0.041919745            6 
 1229000   0.77240412   -5.0210833    617.60475  0.041877186  0.041894896            4 
 1230000   0.75052241   -5.0470521    617.11669  0.041810074  0.041870067           10 
 1231000    0.7751928   -5.0288027    619.68045  0.041949665  0.041845248            3 
 1232000    0.7687132   -5.0129481     619.6339  0.041912466  0.041820556            7 
 1233000   0.75977873   -5.0331992     619.7483  0.041886206  0.041795908            5 
 1234000   0.75507073   -5.0353702    618.38143  0.041759956  0.041770962            6 
 1235000   0.75793049   -5.0266985    618.44182  0.041730217  0.041746109            4 
 1236000   0.74951003    -5.039773    618.18128  0.041678889   0.04172122            9 
 1237000   0.74919752   -5.0374375    620.05948  0.041771725  0.041696309            4 
 1238000   0.75397468   -5.0445838     619.5126  0.041701171    0.0416715            5 
 1239000    0.7501657    -5.034911    621.34815  0.041790971  0.041646832            8 
 1240000   0.74786229   -5.0267807    619.40951  0.041626983  0.041622021            6 
 1241000   0.76208858   -5.0411751    620.45925   0.04166393  0.041597212            7 
 1242000   0.75960939   -5.0416807    621.61449  0.041707896  0.041572364            3 
 1243000   0.75747425   -5.0433649    619.15213   0.04150926   0.04154762            4 
 1244000   0.73959878   -5.0503375    620.36027  0.041556824  0.041522836           17 
 1245000   0.76743714    -5.044158    617.94623  0.041361863  0.041497963            6 
 1246000   0.73705614   -5.0522115     620.5687  0.041504059  0.041473284            7 
 1247000   0.76076662    -5.047563    620.42188  0.041460965  0.041448655            5 
 1248000    0.7605156   -5.0645719    620.65026  0.041442993  0.041423821            6 
 1249000   0.76428579    -5.029867     622.5619  0.041537357  0.041398918            5 
 1250000   0.75779616   -5.0387493    621.26141  0.041417427  0.041373938            8 
 1251000   0.76066184   -5.0547535    620.24026  0.041316298    0.0413489           12 
 1252000   0.76124176   -5.0515289    622.24065  0.041416444  0.041323744            5 
 1253000   0.73117961   -5.0689103    619.66505  0.041212094  0.041298884            4 
 1254000   0.75597648   -5.0509011    621.99355  0.041333968  0.041273791            4 
 1255000   0.74262657   -5.0472986    622.85786  0.041358424  0.041248848            6 
 1256000   0.75302329   -5.0551597    620.02219  0.041137353  0.041223896            8 
 1257000   0.74603823   -5.0309118    622.96857  0.041299958  0.041199129            6 
 1258000   0.76224808   -5.0668225    622.03415   0.04120523  0.041174359           10 
 1259000    0.7323013    -5.034152    622.12616  0.041178591   0.04114959            4 
 1260000   0.74676138   -5.0603109    622.42559  0.041165713  0.041124724            8 
 1261000   0.73814218   -5.0455618    622.25781  0.041121981  0.041099926            8 
 1262000   0.74336333   -5.0570124    622.66762  0.041116456  0.041075044            7 
 1263000   0.74077284   -5.0547414    622.04552  0.041042856  0.041050435            7 
 1264000   0.74671628   -5.0733253    623.30927  0.041093702  0.041025553           15 
 1265000   0.76399552   -5.0663183    623.23308  0.041056198  0.041000924            5 
 1266000   0.74956257   -5.0715091    624.55765  0.041110957  0.040976068            7 
 1267000   0.75285743   -5.0338334    623.43217  0.041004483   0.04095133           10 
 1268000   0.74272941   -5.1053031    622.86081  0.040934596  0.040926583           18 
 1269000    0.7474192   -5.0776808     622.2998  0.040865498  0.040901649            6 
 1270000   0.75880252   -5.0674529     625.1773  0.041022132  0.040877053            7 
 1271000   0.74840135   -5.0521141    624.77863  0.040963718  0.040852587            5 
 1272000   0.76325146   -5.0515235    625.72546  0.040993544  0.040827945            4 
 1273000   0.75551039   -5.0667163    623.10628  0.040789885  0.040803233           14 
 1274000   0.74827718   -5.0843437    625.67418  0.040925836   0.04077849            5 
 1275000   0.75102646   -5.0518677     626.4547  0.040944751  0.040753838            6 
 1276000   0.74894839   -5.0742411    625.48126  0.040849089  0.040729366           18 
 1277000   0.73280261   -5.0783538    625.78977  0.040837233  0.040704719           11 
 1278000   0.73616502   -5.0540712    625.37565  0.040778277  0.040680105            9 
 1279000   0.74116306   -5.0773151     626.1471  0.040796658  0.040655804           12 
 1280000    0.7354767   -5.0596898     625.8841  0.040747663  0.040631661            5 
 1281000   0.75654777   -5.0763446     626.9791  0.040787087  0.040607301            6 
 1282000    0.7436168   -5.0751229    627.34589  0.040779114  0.040583044            4 
 1283000   0.74364611   -5.0826348    627.38742  0.040750027  0.040558907            2 
 1284000   0.75309822    -5.077238    626.56642  0.040665006  0.040534737            8 
 1285000   0.73306699   -5.0846735    626.59686  0.040635335  0.040510544            6 
 1286000    0.7313795   -5.0984046    626.81239  0.040617703  0.040486328           10 
 1287000   0.74059539   -5.0817086    627.53388  0.040632859  0.040462144           10 
 1288000   0.73586461   -5.0851253    627.73608  0.040614394  0.040437927            6 
 1289000    0.7570166   -5.0846607     629.2727  0.040682228  0.040413803            2 
 1290000   0.73540444   -5.0751897    629.80374  0.040684996  0.040389658           15 
 1291000   0.73878587   -5.0747224    628.19763  0.040549808  0.040365534            4 
 1292000    0.7553261   -5.0877509    629.41685  0.040597062  0.040341362            8 
 1293000     0.729694   -5.0673279    628.73887  0.040521969  0.040317429           10 
 1294000   0.75288505     -5.10705    626.77088  0.040363915  0.040293533            7 
 1295000   0.73506472   -5.0566772    629.05612  0.040479802  0.040269526            7 
 1296000   0.74029135   -5.0883626    630.96951  0.040571599  0.040245672            9 
 1297000   0.72896277   -5.0802564    629.67875  0.040457386  0.040221734            5 
 1298000   0.74321569   -5.0900836    631.17101  0.040522021  0.040197981            4 
 1299000   0.72663314   -5.0929335     628.5779  0.040324474   0.04017407            6 
 1300000   0.73654084    -5.090325    630.72444  0.040431054  0.040150189            8 
 1301000   0.73665458   -5.0784509    630.93504  0.040413467  0.040126339            5 
 1302000    0.7412289   -5.0815144     631.3532  0.040409191  0.040102542            5 
 1303000   0.72839084   -5.0769787    628.92824   0.04022309  0.040078538           12 
 1304000   0.72397789   -5.1097596    628.01369  0.040133799  0.040054326           10 
 1305000   0.72630011   -5.1140283    629.07971  0.040171118  0.040030098           12 
 1306000     0.738371   -5.1008482    629.62342  0.040175052  0.040006057            7 
 1307000   0.73248412   -5.0898742    631.53987  0.040266505  0.039982178            3 
 1308000   0.72217652   -5.0837434    632.49352  0.040296478  0.039958328           14 
 1309000   0.72773038   -5.0931316    631.72713  0.040216904  0.039934393            4 
 1310000   0.73709524   -5.0954612    630.46192   0.04010572  0.039910397            6 
 1311000   0.74496797   -5.1243554    628.86966  0.039973917  0.039886396           16 
 1312000   0.71546825    -5.118036    631.40967  0.040104781  0.039862256            4 
 1313000   0.73286033    -5.099222    632.47243  0.040141687  0.039838302            5 
 1314000   0.72840438   -5.0977737    630.31437  0.039974275   0.03981438            8 
 1315000   0.73413547   -5.0991481    632.67841  0.040093689  0.039790487           13 
 1316000   0.72634229   -5.1063479    631.74607  0.040004184  0.039766376            8 
 1317000   0.73609449   -5.0837325    631.78168  0.039976061  0.039742392            9 
 1318000   0.73506303   -5.0740233    632.37699   0.03998337  0.039718443            5 
 1319000   0.73534575   -5.1005589    630.25291  0.039818859  0.039694469            9 
 1320000   0.71875633   -5.1023159    630.50813  0.039804806  0.039670155            6 
 1321000   0.75060028   -5.1209207     631.2958  0.039824363  0.039645869            8 
 1322000   0.72879761   -5.1226411    632.32218  0.039858937  0.039621465            7 
 1323000   0.74283613    -5.118725    631.98652  0.039807667  0.039597205            4 
 1324000   0.73210101   -5.1514235    633.24012  0.039856503  0.039572862            7 
 1325000   0.72673299   -5.1303887    631.80125  0.039735928  0.039548594            8 
 1326000   0.71360967   -5.1410967    629.20365  0.039542713   0.03952429            6 
 1327000   0.72694861   -5.1066805    630.58682  0.039599775  0.039500254            5 
 1328000   0.74478473   -5.1423563    631.70541  0.039640149  0.039475957            6 
 1329000   0.71813857   -5.1191542    632.33303  0.039649676  0.039451734            3 
 1330000   0.71191925   -5.1199355    631.29608  0.039554892  0.039427382            8 
 1331000   0.71939314   -5.1254558    631.30467  0.039525712  0.039403214           14 
 1332000   0.70956739   -5.0860188     631.7414  0.039523361  0.039379175            4 
 1333000   0.71120291   -5.1294696    631.75566  0.039494602  0.039354981            6 
 1334000   0.72505885   -5.1011909     632.3872  0.039504448  0.039330744            6 
 1335000   0.70894354   -5.1397471    632.72708  0.039496072  0.039306525            8 
 1336000   0.71922045   -5.1249925    633.34184  0.039504855  0.039282304            5 
 1337000   0.70412198   -5.1272049    632.80814  0.039442043  0.039258227           13 
 1338000   0.72440523   -5.1359733    634.17978  0.039497993  0.039234149            6 
 1339000   0.71423513   -5.1353005    632.57124  0.039368387  0.039210212            5 
 1340000   0.71802615   -5.1176314    632.03378  0.039305583  0.039186037            5 
 1341000   0.71798022   -5.1406168    631.90519  0.039268281  0.039161818           10 
 1342000    0.6995176   -5.1082493    634.39472  0.039393612  0.039137517            5 
 1343000   0.71475532   -5.1315246    634.31104  0.039359087  0.039113564            6 
 1344000   0.72503577   -5.1390372    633.86644  0.039302235  0.039089643            5 
 1345000   0.71226102   -5.1207404    633.46825  0.039248343  0.039065497            6 
 1346000   0.73342882   -5.1316075    635.03957  0.039316467  0.039041594           17 
 1347000   0.70392551   -5.1318714    634.04657  0.039225846  0.039017658            6 
 1348000   0.71658307   -5.1364931    634.67349  0.039235503   0.03899373            4 
 1349000   0.71694748   -5.1459997    633.35532  0.039124989  0.038969835            5 
 1350000    0.7207156   -5.1125947    634.02335  0.039137244  0.038946011            9 
 1351000    0.7089943   -5.1201816    637.00096  0.039291942  0.038922225            8 
 1352000   0.72745274   -5.1375809    635.80406  0.039189106  0.038898469            3 
 1353000    0.7090574   -5.1613592    634.97219  0.039108906  0.038874557            7 
 1354000   0.72216335    -5.140419    634.15969  0.039030015  0.038850785            5 
 1355000   0.70874472   -5.1652704    634.74437  0.039037169   0.03882684           13 
 1356000   0.72852394   -5.1069468    636.46503  0.039114124  0.038803128            6 
 1357000   0.70387279   -5.1560309     634.3157   0.03895331  0.038779292           11 
 1358000   0.70611293   -5.1469594    636.43379  0.039054602  0.038755291           13 
 1359000   0.71611008   -5.1296222    637.82649  0.039111264  0.038731405            8 
 1360000   0.70957242   -5.1284637    634.46645   0.03887662  0.038707417            5 
 1361000   0.70180972   -5.1868958    635.45848  0.038908797  0.038683328            9 
 1362000   0.72044474   -5.1543922    633.67347  0.038771015  0.038659244            5 
 1363000   0.69246053   -5.1344667    635.88001  0.038877477  0.038635308           10 
 1364000   0.71272518   -5.1508351    635.61295  0.038832658  0.038611234            6 
 1365000   0.71716605   -5.1565096    635.63918  0.038805811  0.038587253           13 
 1366000   0.69363629   -5.1540747     634.0516  0.038680551  0.038563041            5 
 1367000    0.6999174   -5.1716215    633.97429  0.038647543  0.038538972            7 
 1368000   0.72243587   -5.1398213    635.82754  0.038732185  0.038514898            6 
 1369000   0.69990522   -5.1410671    637.00389  0.038775499  0.038491088            6 
 1370000   0.71514454   -5.1410039    638.80273  0.038856614  0.038467412            7 
 1371000   0.70411089   -5.1303383    636.89503  0.038712316   0.03844366            7 
 1372000   0.69890492   -5.1511479    638.16622  0.038761311  0.038419894            6 
 1373000    0.7107163   -5.1610013    635.27868  0.038557822  0.038395883           16 
 1374000   0.70081217   -5.1962336    635.34063  0.038533517  0.038371856            9 
 1375000   0.70231575    -5.169687    635.78259  0.038532278  0.038347916            8 
 1376000   0.69910236   -5.1472351    637.94737  0.038635379   0.03832395           11 
 1377000   0.70238974   -5.1529552    637.20721  0.038562528  0.038300006            8 
 1378000   0.70084319   -5.1636114    636.96106  0.038519657  0.038275858           14 
 1379000   0.69660554   -5.1389878    637.24306  0.038508766  0.038251792            9 
 1380000     0.711759   -5.1356023    638.19661  0.038538443  0.038227762           10 
 1381000   0.71045563   -5.1668737    636.74618  0.038423014  0.038203667           24 
 1382000   0.70273736    -5.156798    636.07404  0.038354682    0.0381796            8 
 1383000   0.71633866   -5.1644443    636.26718  0.038338587  0.038155673            4 
 1384000   0.70510449   -5.1614578    638.65446  0.038454628  0.038131741            5 
 1385000   0.69198595   -5.1549084     638.2541  0.038402774  0.038108008            8 
 1386000   0.71416598   -5.1401214     639.3597   0.03844154  0.038084323            9 
 1387000   0.70359046   -5.1613973    637.20435  0.038284328  0.038060578           11 
 1388000   0.70477563   -5.1565012    637.08323  0.038249474   0.03803693            3 
 1389000   0.68822174   -5.1992741    638.47862  0.038305653  0.038013309           16 
 1390000   0.69612059   -5.1563459    637.58474  0.038224505  0.037989672            8 
 1391000   0.70784887   -5.1645151     640.1914  0.038353187  0.037966117            8 
 1392000    0.7046918   -5.1714372    638.27979  0.038211194  0.037942373            5 
 1393000   0.70219011   -5.1333423    640.00618  0.038287041  0.037918718            5 
 1394000   0.69319333   -5.1901749     637.5417  0.038112249  0.037895036           10 
 1395000    0.6996003   -5.1471102    639.79498  0.038219533  0.037871321            4 
 1396000   0.70165073   -5.1398244    639.74323  0.038189066  0.037847697            7 
 1397000   0.69420486   -5.1880743    638.19072   0.03806912  0.037824058            7 
 1398000   0.68941468   -5.1336737    640.85692  0.038200818  0.037800482            9 
 1399000   0.70136442   -5.1701806    639.28037  0.038079603  0.037777037            6 
 1400000   0.70477077   -5.1737641    639.61856  0.038072533   0.03775352            6 
 1401000   0.69353422   -5.1639268    640.78703   0.03811486  0.037730053           11 
 1402000   0.68906813   -5.1491668    641.34909  0.038121082  0.037706606           18 
 1403000   0.68184474   -5.1817681    639.37079  0.037976407  0.037683123            3 
 1404000   0.70528324   -5.1772604    639.76061  0.037972496  0.037659723            6 
 1405000   0.67805235   -5.1900727    639.46495  0.037927933  0.037636226            8 
 1406000    0.6995941   -5.1844087    641.94702  0.038048069  0.037612818            8 
 1407000   0.69113095   -5.1856011    641.32618  0.037984256  0.037589453            6 
 1408000   0.68808382   -5.1875199     640.2637  0.037894395  0.037566056            7 
 1409000    0.7063766   -5.2101042    641.76681    0.0379564  0.037542633            9 
 1410000   0.69893604   -5.1865002     641.4963  0.037913493  0.037519156            3 
 1411000   0.68565172   -5.1883658    640.85391  0.037848684  0.037495837            6 
 1412000   0.69403661   -5.1793084    641.64723  0.037868699  0.037472543            7 
 1413000   0.70278638   -5.1664203    642.50619  0.037892556  0.037449314           10 
 1414000   0.71051931   -5.1891089    640.83918  0.037767514  0.037426003           11 
 1415000   0.67226852   -5.2042944    639.10287  0.037638567  0.037402519            8 
 1416000   0.69532673   -5.2009963    639.75428  0.037650322  0.037379067           10 
 1417000   0.68088851   -5.1972089    640.40346   0.03766193  0.037355407           15 
 1418000   0.69646063   -5.1856315    642.37018  0.037750951  0.037331958            5 
 1419000     0.694439   -5.2248506    642.40284  0.037726265  0.037308503            7 
 1420000   0.67650111   -5.2157911    640.10677  0.037564951  0.037284901            6 
 1421000   0.69836316   -5.1713865     641.2832  0.037607506   0.03726127            9 
 1422000   0.68783398    -5.187219    641.13142  0.037572165  0.037237823            9 
 1423000   0.66961939   -5.2000523    641.36177  0.037559251  0.037214348            7 
 1424000   0.68520994   -5.1953522     640.8034  0.037500199  0.037190972            5 
 1425000   0.68872003   -5.2081267    640.24279  0.037441099  0.037167486            8 
 1426000   0.67446183   -5.2001275    641.55284    0.0374914  0.037143921           16 
 1427000   0.67521037   -5.2058307    640.99444  0.037432518  0.037120279           11 
 1428000   0.69638553   -5.2125759    640.25347  0.037363064  0.037096802            5 
 1429000   0.68766947   -5.1964893     643.1083    0.0375034  0.037073342            4 
 1430000   0.67456626   -5.1876447    641.79215  0.037400475  0.037049927            8 
 1431000   0.69206725   -5.1840723    642.85453  0.037436206  0.037026636           17 
 1432000   0.69639917   -5.2323785     640.3741  0.037265718  0.037003191            8 
 1433000   0.69596031   -5.2024953     643.2915  0.037409369  0.036979846            4 
 1434000   0.68066392   -5.2136202    641.96854    0.0373064  0.036956408            7 
 1435000   0.68680109   -5.1997814    642.64874  0.037319903  0.036932948            9 
 1436000   0.70055309   -5.2070687    642.30809  0.037274146  0.036909577            9 
 1437000   0.66383879   -5.2037553    643.28827  0.037305049  0.036886329            5 
 1438000   0.66703016    -5.215054    641.54813  0.037178264  0.036863007           11 
 1439000   0.69015033   -5.1981494    644.01367  0.037295209  0.036839725           14 
 1440000   0.67148812   -5.2145532    643.68111  0.037250064  0.036816356            9 
 1441000   0.68050909    -5.187081    643.69721  0.037225145  0.036793042            8 
 1442000   0.68469545   -5.1900381     643.8602  0.037208749  0.036769914            7 
 1443000   0.67261277   -5.2282546    643.10183  0.037139168  0.036746703            6 
 1444000   0.68421579   -5.2510203    642.43835  0.037075159  0.036723338           10 
 1445000   0.66535513   -5.2157261    642.95813  0.037079477  0.036700029            9 
 1446000   0.67793753   -5.2360854    642.43223  0.037023526  0.036676582           17 
 1447000   0.67715101   -5.2107059    642.10994  0.036979379  0.036653015            5 
 1448000   0.66840231   -5.2228386    643.82616   0.03705261  0.036629661           11 
 1449000   0.66774416   -5.2277205    643.53167  0.037010103  0.036606403           15 
 1450000   0.66736835   -5.1932145     642.5423  0.036927718  0.036583172            9 
 1451000   0.65779538   -5.2289915    641.93067  0.036867142  0.036559928            8 
 1452000   0.67193932   -5.2408955    643.30663   0.03692072   0.03653669           12 
 1453000   0.68776689   -5.2236798     644.2519  0.036949524   0.03651346           10 
 1454000   0.68032572   -5.2329243    645.36626  0.036987979  0.036490415           12 
 1455000   0.67410817   -5.1898251    646.46427  0.037025445  0.036467348           11 
 1456000   0.67198177   -5.2381331    644.77525  0.036903346  0.036444308           20 
 1457000   0.67218747   -5.2432136    644.15588  0.036842592  0.036421233           11 
 1458000   0.67140649   -5.2157229    646.21879   0.03693523  0.036398291           14 
 1459000   0.66507819   -5.2173131    645.14922  0.036848825  0.036375465            8 
 1460000   0.66840555   -5.2199145    645.83275    0.0368626  0.036352526            7 
 1461000   0.66922495   -5.2393129    642.63332  0.036654878  0.036329602           16 
 1462000   0.67538535   -5.2524719    647.96072  0.036933465  0.036306794            6 
 1463000    0.6658527   -5.2370646    643.50351  0.036654335  0.036283863           20 
 1464000   0.65290098   -5.2425539    645.68484  0.036753463  0.036261024           20 
 1465000   0.66510325   -5.2498019     646.0508  0.036749192  0.036238189           22 
 1466000   0.66131481   -5.2324701    646.61846  0.036756392  0.036215472            6 
 1467000   0.66127727   -5.2199704    646.61863  0.036731347  0.036192665           11 
 1468000   0.67008211   -5.2280384    647.67581  0.036766338  0.036170068            7 
 1469000   0.66615571   -5.2486761    646.06752  0.036650075  0.036147621            8 
 1470000   0.66172109   -5.2448704    646.50351  0.036649859  0.036124982            9 
 1471000   0.65381183   -5.2485401    648.02556  0.036711169  0.036102331            7 
 1472000   0.68093939   -5.2366173    647.63145  0.036663918  0.036079776            6 
 1473000   0.66228993   -5.2411456    644.69799  0.036473071  0.036057268           10 
 1474000   0.67046755   -5.2400645    647.10689  0.036584514  0.036034772           10 
 1475000   0.67346994   -5.2419851    647.23405  0.036566896  0.036012259           11 
 1476000   0.66775161   -5.2630077     648.3232  0.036603613  0.035989729           13 
 1477000   0.66447392   -5.2699346    646.46447   0.03647396  0.035967039            6 
 1478000   0.66271611   -5.2772407    646.50814  0.036451744  0.035944222            9 
 1479000   0.66573032   -5.2724022    646.43819  0.036423157  0.035921603           12 
 1480000   0.65837779   -5.2489862    647.37669   0.03645139  0.035898972           14 
 1481000   0.66314862   -5.2424678    648.49777  0.036489859  0.035876553            9 
 1482000   0.66969012    -5.244678    649.60926  0.036527736  0.035854189            9 
 1483000   0.66501032   -5.2105411     648.0602   0.03641606  0.035831884           10 
 1484000   0.64674947    -5.255121    648.87635  0.036437351  0.035809482            6 
 1485000   0.65035778   -5.2480307    649.74902  0.036461785  0.035787096            7 
 1486000   0.67103746   -5.2507529     649.1541  0.036403886  0.035764722            9 
 1487000    0.6378503   -5.2651801    647.14396  0.036266754   0.03574228            8 
 1488000   0.65044915   -5.2648861      648.487  0.036317597  0.035719805           10 
 1489000   0.66279216   -5.2895333    648.19715  0.036276984  0.035697291            6 
 1490000   0.66289584   -5.2486653    647.35251  0.036205398  0.035674932            6 
 1491000   0.64869061   -5.2772048     648.7095  0.036256958  0.035652419           12 
 1492000   0.66272017   -5.2544652    649.03067  0.036250596  0.035630088           13 
 1493000    0.6441766   -5.2506806    648.99377  0.036224256  0.035607755            5 
 1494000   0.65616489   -5.2570824    649.23891  0.036213683  0.035585448            8 
 1495000   0.65528392    -5.254748    646.92001  0.036060201  0.035563137           27 
 1496000   0.64699137   -5.2429794    649.20637  0.036163457  0.035540847            5 
 1497000   0.64612767   -5.2189267    649.59427  0.036160893  0.035518514           17 
 1498000   0.65854296   -5.2654241    649.66087  0.036140458  0.035496091           12 
 1499000    0.6730801   -5.3041393    648.19593  0.036034908  0.035473524           15 
 1500000    0.6499325   -5.2803403    648.64799     0.036036  0.035451034           10 
 1501000   0.65890263   -5.2719461    649.76054  0.036073759  0.035428742            7 
 1502000   0.67124077   -5.2607288    651.05079  0.036121326  0.035406434           10 
 1503000   0.65521456   -5.2780512    648.48154  0.035954843  0.035384079           12 
 1504000     0.645895   -5.2444135    648.82802  0.035950134  0.035361583           12 
 1505000   0.67209017   -5.2751928    648.40449  0.035902796     0.035339           13 
 1506000   0.66315677   -5.2852888     647.5156   0.03582977  0.035316502           11 
 1507000   0.65164902   -5.2539539    649.28653  0.035903922     0.035294            7 
 1508000     0.664027   -5.2470979    649.55623  0.035895017  0.035271591            7 
 1509000   0.64939931   -5.2741487    647.10823  0.035736041  0.035249073            8 
 1510000   0.66166526   -5.2541451    649.17728  0.035826561  0.035226627           22 
 1511000   0.64363785   -5.2698749     649.4851  0.035819827  0.035204287            6 
 1512000   0.64822675   -5.2881591    647.98713  0.035713576  0.035181853            8 
 1513000   0.66195803   -5.2732612    647.31815  0.035653126  0.035159449           10 
 1514000   0.64963207   -5.2852013    650.34791   0.03579634  0.035136866            8 
 1515000   0.65442736   -5.3071277    650.45422   0.03577856  0.035114379           13 
 1516000   0.64498659   -5.2716004    648.60074  0.035653075  0.035091972            9 
 1517000    0.6528193   -5.2821302    651.13521  0.035768799  0.035069601            8 
 1518000    0.6451057   -5.2908195    646.78269  0.035506296  0.035047138            6 
 1519000   0.64226738    -5.304141    647.87639  0.035542922  0.035024603            4 
 1520000   0.63370527   -5.2663413    648.59752  0.035559074  0.035002066           13 
 1521000   0.64822089   -5.3090266    648.01363  0.035503705  0.034979486            5 
 1522000   0.65062804   -5.2708687    650.12986  0.035596247  0.034956961            5 
 1523000   0.63884581   -5.2786914     648.8234   0.03550139  0.034934674           14 
 1524000   0.64349137   -5.3004176    648.53565  0.035462361  0.034912246           13 
 1525000   0.65706266   -5.2631037     649.0618  0.035467858  0.034889747           16 
 1526000   0.64336182   -5.2903085    650.10822   0.03550176  0.034867398           20 
 1527000    0.6489571      -5.2803    650.51887  0.035500921  0.034845091           10 
 1528000    0.6551136   -5.2963658    649.80684  0.035438854  0.034822789            9 
 1529000   0.62170222   -5.2927958    648.90255  0.035366392   0.03480049            9 
 1530000   0.64171175   -5.2624083    651.25165  0.035471223  0.034778224           12 
 1531000   0.63712909   -5.3030383    649.30733  0.035342224  0.034755867           11 
 1532000   0.65420921   -5.2649901    650.98223  0.035410261  0.034733644            8 
 1533000    0.6492884   -5.2683668    650.93124   0.03538439  0.034711475            7 
 1534000   0.65016201   -5.2597798    650.57061  0.035341732  0.034689223           11 
 1535000   0.63368983   -5.3086486    649.46533  0.035258704  0.034666939           13 
 1536000   0.63772059       -5.298    650.45338  0.035289354  0.034644638           12 
 1537000   0.63729613    -5.331483    649.43989  0.035211445  0.034622378            8 
 1538000   0.63318164   -5.3171995    649.27025  0.035179359  0.034600157           19 
 1539000   0.64738456   -5.3070152    649.77518  0.035183841  0.034577983           10 
 1540000   0.62662877   -5.2826546    650.96847  0.035225566  0.034555844           20 
 1541000   0.63558481   -5.3227764    649.94317  0.035147262   0.03453375            9 
 1542000   0.63257392   -5.3021009    651.73815  0.035221474  0.034511588            9 
 1543000    0.6389851   -5.3052939    650.46909  0.035130108  0.034489373           12 
 1544000   0.63501692   -5.2962995    649.82123  0.035072389  0.034467236           18 
 1545000   0.62174945    -5.295366    649.72044  0.035044252  0.034445052           20 
 1546000   0.63441369    -5.307565    650.60374  0.035069197  0.034422943           16 
 1547000   0.63222254   -5.3167275    649.99334  0.035013647  0.034400879           11 
 1548000   0.64104008   -5.2876942    651.96126  0.035096967  0.034378748            7 
 1549000   0.63477477   -5.3121643    650.50843   0.03499615  0.034356628           15 
 1550000   0.62614334   -5.3127384    650.85992  0.034992469  0.034334436           17 
 1551000   0.63519369   -5.3210135     649.7942  0.034912648  0.034312168            9 
 1552000   0.64650549   -5.3323048    648.05822   0.03479694  0.034289835            5 
 1553000   0.63219054   -5.3058659    650.17203  0.034887961  0.034267501           12 
 1554000   0.63551055   -5.3120142    650.55631  0.034886117  0.034245142           20 
 1555000   0.61732919   -5.3244291    650.44524   0.03485773  0.034222789           12 
 1556000   0.64222495   -5.3160507    649.19888  0.034768578  0.034200406            8 
 1557000   0.62489545   -5.3399767    648.02299  0.034683311  0.034177935            7 
 1558000   0.63200751   -5.3033311    649.61435  0.034746168  0.034155493            8 
 1559000   0.63952809   -5.3281618    650.24978  0.034757846  0.034133149           13 
 1560000   0.61974148   -5.3319406    649.15345     0.034677  0.034110704           12 
 1561000   0.63359691   -5.3211531    651.39476  0.034774437  0.034088239           13 
 1562000   0.62270136   -5.3211699    650.02501  0.034679098  0.034065761           14 
 1563000   0.63373448   -5.3182117    649.22862   0.03461445  0.034043228            6 
 1564000   0.63771757   -5.3131139    649.39384  0.034601121  0.034020854           11 
 1565000   0.62070223   -5.3426105    649.97243  0.034609821  0.033998472            7 
 1566000   0.62480153   -5.3232324    650.65261  0.034623915  0.033976232           12 
 1567000    0.6230655   -5.3162448    651.04798  0.034622845  0.033953953           20 
 1568000   0.61905294   -5.3085811    650.00976  0.034545587  0.033931585           28 
 1569000   0.63555024   -5.3110371    649.20735  0.034480951  0.033909226           13 
 1570000   0.62586165   -5.3109296    650.37165  0.034520788  0.033886969            7 
 1571000   0.63379276   -5.3308724     650.3482  0.034497571  0.033864716            9 
 1572000   0.62120112   -5.3138403    652.18273  0.034572876   0.03384247           11 
 1573000   0.62606875   -5.3160778    651.35816  0.034507213  0.033820191           25 
 1574000   0.63416752   -5.3201099    649.78397  0.034401947  0.033797873           10 
 1575000   0.61981464   -5.3304921    648.80694  0.034328409  0.033775619           14 
 1576000   0.61998729   -5.3343665    649.17171  0.034325915  0.033753323           13 
 1577000    0.6297242   -5.3506733    648.54289   0.03427092  0.033731026           19 
 1578000   0.62048116   -5.3184115    650.10801  0.034331855  0.033708661           14 
 1579000    0.6245231   -5.3471526    649.90769   0.03429954  0.033686375            8 
 1580000   0.63145498   -5.3213724    650.86332  0.034328234  0.033664087           13 
 1581000   0.62117662   -5.3484384    649.22347  0.034220086  0.033641899           18 
 1582000   0.61858531   -5.3437809    648.07365  0.034137887  0.033619535            8 
 1583000   0.62802118   -5.3370847    648.85936  0.034157684  0.033597383            8 
 1584000    0.6171981   -5.3538326    649.42904   0.03416609  0.033575192            7 
 1585000   0.62261186   -5.3829416    649.32223  0.034138919  0.033552872           21 
 1586000   0.62143026   -5.3357774    648.48977  0.034073653   0.03353046           19 
 1587000   0.63173325   -5.3545001    651.04519  0.034186368  0.033508248           15 
 1588000    0.6288964   -5.3184905    650.57555  0.034140195   0.03348608            8 
 1589000   0.62792214   -5.3571919    650.40414   0.03410972  0.033464009           10 
 1590000   0.61037024   -5.3221461    652.36155  0.034190857  0.033441978           10 
 1591000   0.62912082   -5.3379712    650.95157  0.034095515  0.033419934           28 
 1592000   0.61579147   -5.3441729    649.60189  0.034003449  0.033397943           30 
 1593000   0.60908918   -5.3386748    650.92329  0.034051229  0.033375905           10 
 1594000   0.60574469   -5.3342391    648.52575  0.033904525  0.033353825            6 
 1595000   0.62097673   -5.3680998    650.76293  0.034000153  0.033331737            7 
 1596000    0.6376539   -5.3626529    649.74021   0.03392545  0.033309607           18 
 1597000   0.61460012   -5.3727592    649.60359  0.033897077    0.0332875           23 
 1598000   0.62043088   -5.3665207    648.92418  0.033840435  0.033265305           22 
 1599000   0.60419264   -5.3650135    648.93986  0.033820089  0.033243031            9 
 1600000   0.60326903   -5.3753166    650.87304  0.033899637  0.033220911           17 
 1601000   0.62460448   -5.3567213    650.72328  0.033870668  0.033198891           19 
 1602000   0.60430317   -5.3526116    650.36532  0.033830905  0.033176791           11 
 1603000   0.61478295   -5.3505741    650.38906  0.033811034  0.033154815           15 
 1604000     0.601538   -5.3579131    650.18582  0.033779396  0.033132795           11 
 1605000   0.61519398   -5.3497102    649.55045  0.033725361  0.033110806            9 
 1606000    0.6117312   -5.3477554    648.91597  0.033671439  0.033088868            7 
 1607000   0.62553571   -5.3309502    651.79226   0.03379964  0.033066967            7 
 1608000   0.61111878   -5.3584619    649.47758  0.033658664  0.033045018           11 
 1609000   0.61553323   -5.3469945    650.62308  0.033697073  0.033023116            9 
 1610000    0.6226305   -5.3534433    652.42025  0.033769164  0.033001173           10 
 1611000   0.61349624   -5.3621356      650.535  0.033650683  0.032979267            6 
 1612000   0.61547488   -5.3713198    649.63801  0.033583437  0.032957301           11 
 1613000   0.62137527   -5.3641197    651.69281  0.033668775  0.032935291           12 
 1614000   0.60015439    -5.384608    650.59034  0.033590993  0.032913256           14 
 1615000    0.6068787   -5.3779887    649.47993  0.033512896  0.032891224           13 
 1616000   0.59795594    -5.389874      647.548  0.033392533  0.032869032           28 
 1617000   0.60620783   -5.3869706    650.30153  0.033513787  0.032846806           14 
 1618000   0.61494285   -5.3920072     649.1042  0.033431407  0.032824681           17 
 1619000   0.61496664   -5.3826058     650.3102  0.033472833  0.032802572           25 
 1620000    0.5984372   -5.3810705    650.30748  0.033452031  0.032780618           31 
 1621000   0.61411714   -5.3681537    651.69014  0.033502475  0.032758731           25 
 1622000   0.59476753   -5.3800158    651.61621  0.033478022   0.03273686            9 
 1623000   0.60653743   -5.3560148    651.11465  0.033431642  0.032714973           11 
 1624000   0.59777378   -5.3839282    649.78823  0.033342992  0.032693048           27 
 1625000   0.59458747   -5.3768177    649.93743  0.033330124  0.032671094           24 
 1626000   0.62454501   -5.3639015    652.26683  0.033429009  0.032649173           20 
 1627000   0.60294125   -5.3803329    650.18989  0.033302084  0.032627311           21 
 1628000    0.6096251   -5.3600519    650.90085   0.03331802  0.032605477           14 
 1629000   0.61264204   -5.3629346    651.18521  0.033312114  0.032583566            9 
 1630000   0.59692247   -5.3834938    649.82124  0.033221945  0.032561717           17 
 1631000   0.60112217   -5.3757664     650.9463  0.033259059  0.032539834           11 
 1632000   0.59866375   -5.3719259    650.11605  0.033196285  0.032517934            7 
 1633000   0.60601434   -5.3876702    649.88879  0.033164359  0.032496038           17 
 1634000   0.59989818   -5.3612741    651.27105  0.033214558  0.032474243            8 
 1635000   0.57955857   -5.3715635    650.22147  0.033140748  0.032452428           12 
 1636000   0.59695428   -5.3887527    649.85896  0.033102025  0.032430589           11 
 1637000   0.58680717   -5.4036622    651.22995  0.033151596  0.032408844           25 
 1638000   0.59556213   -5.4054817    650.88741   0.03311393  0.032387049           18 
 1639000   0.61017328    -5.415654    650.47096  0.033072552  0.032365279            9 
 1640000   0.59524635    -5.390332    650.67571   0.03306279  0.032343516           12 
 1641000   0.58488101   -5.3739768    649.99386  0.033008016  0.032321812           10 
 1642000   0.59549728   -5.3866015    652.17619   0.03309867  0.032300074           20 
 1643000   0.59250221   -5.3993677    650.01937   0.03296913  0.032278268           24 
 1644000   0.59155558    -5.421333    650.14062  0.032955222  0.032256485           13 
 1645000   0.60753289   -5.3823306    650.92776  0.032975064  0.032234741           12 
 1646000   0.60329928   -5.3816941    650.65712  0.032941328   0.03221307           12 
 1647000   0.59507186    -5.402158    649.58804  0.032867236  0.032191332           12 
 1648000   0.58915028   -5.3872968    651.57016   0.03294752  0.032169688           10 
 1649000   0.59162214    -5.415027     649.6326  0.032829624  0.032148118           15 
 1650000   0.60147627   -5.4035718    649.87963  0.032822203  0.032126482           10 
 1651000   0.59390098    -5.404169    652.78163    0.0329488  0.032104864           17 
 1652000   0.59740503   -5.3913913    652.78094   0.03292882  0.032083338           11 
 1653000   0.59475192   -5.3996503    651.05827  0.032822054  0.032061939            7 
 1654000    0.5888701   -5.4006482    651.83746  0.032841468   0.03204042            8 
 1655000   0.58991201   -5.3988962    651.92978  0.032826273  0.032018973           18 
 1656000   0.60162492   -5.4131613     650.5419  0.032736609  0.031997476           15 
 1657000   0.59072164   -5.4060772    652.45795  0.032813214   0.03197598           14 
 1658000   0.59211584   -5.4128063    651.08406   0.03272437  0.031954494            5 
 1659000   0.59133535   -5.4018921    651.43484  0.032722265  0.031933069           12 
 1660000   0.58889015   -5.4113842    652.38986  0.032750495  0.031911635            9 
 1661000   0.59557612   -5.3837386    653.19232  0.032771038  0.031890219           12 
 1662000   0.60241834    -5.407563    652.44756  0.032713977  0.031868874           17 
 1663000   0.58952444   -5.4084115    652.19968  0.032681884  0.031847397            6 
 1664000   0.58601874   -5.4104771    651.13046  0.032608697  0.031825948           15 
 1665000   0.59030786   -5.4320766    649.70084   0.03251756  0.031804481           20 
 1666000   0.58560619   -5.4108299     650.0872  0.032517367  0.031782979           19 
 1667000   0.58032002   -5.4189393    651.29693  0.032558335  0.031761548           30 
 1668000   0.59227004   -5.4178697    651.05847  0.032526902  0.031740017           49 
 1669000   0.59300172   -5.4067372    650.63383  0.032486211  0.031718548           17 
 1670000   0.58105889     -5.40518    650.73252  0.032471683  0.031697149           13 
 1671000   0.59156847   -5.4127282    651.23287  0.032477203  0.031675771            9 
 1672000    0.5841706   -5.4217676    651.29886  0.032461068   0.03165436            8 
 1673000   0.58946252   -5.4307775    651.50455   0.03245191  0.031632964           10 
 1674000   0.58018351   -5.4050197    651.70012   0.03244226  0.031611602           12 
 1675000    0.5900778    -5.388526    650.78817  0.032377521  0.031590253            9 
 1676000   0.59070444    -5.403885    653.11997  0.032474144   0.03156889           52 
 1677000   0.58766111   -5.4180239    651.47382  0.032372979  0.031547615           36 
 1678000   0.58741433   -5.4203959    650.28974  0.032294882  0.031526256           56 
 1679000   0.59032095   -5.4331085    650.16514  0.032269463  0.031504879           35 
 1680000    0.5752101   -5.4032623    652.01711  0.032342118  0.031483547           44 
 1681000   0.59305368   -5.4037809    652.02241  0.032323141  0.031462233           24 
 1682000   0.59168242   -5.4333776    650.83133  0.032244913  0.031440987           13 
 1683000   0.59205822   -5.4154079    653.21015  0.032343541  0.031419704           14 
 1684000   0.59163559   -5.4156083      652.079  0.032268359  0.031398411           15 
 1685000   0.58304298   -5.4101543    651.31247  0.032211299  0.031377112           11 
 1686000   0.58542088   -5.4298286     649.3814  0.032096748  0.031355809           16 
 1687000   0.57994647   -5.4125626    652.30501   0.03222214  0.031334592           14 
 1688000   0.58502975   -5.4363831     650.2564  0.032101915  0.031313374           18 
 1689000   0.57683766   -5.4199645    650.72517  0.032106038  0.031292126           19 
 1690000   0.58606082   -5.4397472    652.58869  0.032178929  0.031270883            9 
 1691000   0.58606359   -5.4284426    653.05962  0.032183107  0.031249706           22 
 1692000   0.56895969   -5.4117044    653.43515  0.032182582  0.031228592           28 
 1693000   0.57429151   -5.4276644     651.8948  0.032087754  0.031207463           20 
 1694000    0.5783388   -5.4248104    652.22782  0.032085194  0.031186416            9 
 1695000   0.56738174   -5.4295834    653.76318  0.032141749  0.031165357           13 
 1696000   0.57023557    -5.427569    650.54122  0.031964486  0.031144266           25 
 1697000   0.56889762   -5.4411129    652.53519  0.032043567  0.031123134           15 
 1698000   0.58448393   -5.4695979    650.49932   0.03192478  0.031102028           35 
 1699000   0.57055334   -5.4692715    650.83234  0.031922324  0.031080757           35 
 1700000   0.57704816   -5.4592865    650.74787  0.031899406   0.03105947           24 
 1701000   0.57502629   -5.4407528    651.59933  0.031922366  0.031038216           15 
 1702000   0.57300062   -5.4369613    651.93813  0.031920199  0.031017003           25 
 1703000   0.55888227   -5.4471177    650.35553  0.031824013  0.030995858           30 
 1704000   0.56616801   -5.4723095    652.02519  0.031886991  0.030974682           39 
 1705000   0.58240827   -5.4684263    651.44206  0.031839788  0.030953532           29 
 1706000   0.57572263   -5.4574571    650.20103  0.031760504  0.030932397           45 
 1707000   0.57112234   -5.4431236    651.33108  0.031797065  0.030911374           11 
 1708000   0.57084304   -5.4690184    651.67095  0.031795031  0.030890297           15 
 1709000   0.56655039   -5.4485949    650.20193  0.031704795  0.030869201           20 
 1710000   0.56846025   -5.4556288    651.55801   0.03175234  0.030848167           22 
 1711000   0.55760228   -5.4462435    652.24049  0.031767022  0.030827231           14 
 1712000    0.5750406   -5.4725828    650.93337  0.031684841  0.030806292           68 
 1713000   0.56740603   -5.4594732    652.97401  0.031765616  0.030785287           49 
 1714000   0.57766373   -5.4719612    652.08289  0.031703758  0.030764297           19 
 1715000   0.57139366   -5.4741196    651.27329  0.031645932  0.030743273           19 
 1716000   0.57719158    -5.467739    652.87297  0.031705175  0.030722235           26 
 1717000   0.56288796   -5.4592281    651.53611  0.031621826  0.030701335           20 
 1718000   0.56202312   -5.4734768     650.6937  0.031562558  0.030680409           17 
 1719000   0.55733738   -5.4723162    650.87518  0.031552995  0.030659512           25 
 1720000   0.56412652   -5.4631568    652.26185  0.031601834  0.030638536           11 
 1721000     0.571676    -5.445246     652.7347  0.031606367  0.030617734           19 
 1722000   0.56819728   -5.4569159    653.83237  0.031641133   0.03059698           40 
 1723000   0.55663969   -5.4609499    652.09378  0.031538681   0.03057617           47 
 1724000   0.56948574   -5.4904754    650.76419  0.031456119  0.030555336           23 
 1725000   0.56814102   -5.4741932    653.10954  0.031551186  0.030534525           37 
 1726000   0.56480496   -5.4747562    651.12152  0.031436922  0.030513685           46 
 1727000   0.55976028   -5.4867751    650.85792  0.031405999  0.030492783           28 
 1728000   0.56022012   -5.4797687    652.91026  0.031486799  0.030471959           16 
 1729000   0.56624216   -5.4618168    652.14149  0.031431535  0.030451072           15 
 1730000   0.57066236   -5.4763855    650.76133  0.031346885  0.030430231           35 
 1731000   0.55947166   -5.4831993     651.0162  0.031341046  0.030409394           18 
 1732000   0.56811696   -5.4682685     651.0763  0.031325842  0.030388601           21 
 1733000   0.55680877   -5.4777512    651.39429  0.031323057  0.030367942           24 
 1734000   0.56648772   -5.4652414    653.35661  0.031399299  0.030347317           28 
 1735000   0.56860406   -5.4533931    651.62877  0.031298212  0.030326729           17 
 1736000   0.56000305   -5.4686667    651.84527  0.031290575  0.030306105           14 
 1737000   0.56418159   -5.4711315    651.29891  0.031246349  0.030285407           19 
 1738000   0.57149222    -5.483353    651.48493   0.03123729  0.030264738           37 
 1739000   0.54814278   -5.4736946    652.02299  0.031245112  0.030244036           22 
 1740000   0.56296527   -5.4782329    652.32909  0.031241815  0.030223393           24 
 1741000   0.55471486   -5.4670272    652.30841   0.03122288  0.030202663           38 
 1742000   0.55456418   -5.4539019     652.1112  0.031195522  0.030182036           10 
 1743000   0.55198003   -5.4584304    651.60784  0.031153559  0.030161436           12 
 1744000    0.5659062   -5.4896927    652.33061  0.031170232  0.030140895           15 
 1745000   0.55898804    -5.465853     652.2115  0.031146681  0.030120264           13 
 1746000   0.55826161   -5.4734457    651.40594  0.031090394  0.030099668           12 
 1747000   0.56558727   -5.4843324    651.44401  0.031074414  0.030079072           18 
 1748000   0.56010668   -5.4807609     653.6518   0.03116189  0.030058518           18 
 1749000   0.54598548    -5.490083    652.07619  0.031069001  0.030037983           42 
 1750000   0.55205979   -5.4769511    651.34118  0.031016247   0.03001742           36 
 1751000   0.54894793   -5.4685545    652.55103  0.031056112  0.029996806           26 
 1752000   0.55313605   -5.4812555    651.89353  0.031007113  0.029976218           22 
 1753000   0.55508726   -5.4955664    650.93318  0.030943772  0.029955611           26 
 1754000    0.5437317   -5.5134691    649.72003  0.030868493  0.029934967           27 
 1755000   0.55621872   -5.4916197    651.18517  0.030920474  0.029914319            7 
 1756000   0.55983881    -5.513648    650.34797  0.030863135  0.029893762           30 
 1757000   0.55198958   -5.5083064    650.91952  0.030872677  0.029873124           31 
 1758000   0.54921327   -5.4917054    651.24827  0.030870699  0.029852575           24 
 1759000   0.54655376   -5.5065528    652.15517  0.030896114  0.029832028           27 
 1760000    0.5582879   -5.4972813    650.91049  0.030819625   0.02981145           30 
 1761000   0.54101671   -5.5129219    651.77063  0.030842827  0.029790833           18 
 1762000   0.55675814   -5.5254565    651.16899  0.030796869  0.029770174           19 
 1763000   0.54454549   -5.5221444     650.5332  0.030749348  0.029749541            9 
 1764000   0.54200753   -5.5004749    650.49228  0.030729983  0.029728957            9 
 1765000    0.5617863   -5.4996462     650.1369  0.030695793  0.029708323           38 
 1766000   0.54124632   -5.5190434    650.71728  0.030705799  0.029687625           14 
 1767000   0.54398635   -5.5266802    650.00849  0.030654994  0.029666976           23 
 1768000   0.55747218   -5.5122369    649.62982  0.030619807  0.029646314           30 
 1769000   0.53603485   -5.5149223    648.84026  0.030565303  0.029625693           29 
 1770000   0.54494652   -5.5245945    650.28562  0.030616084  0.029605123           18 
 1771000    0.5466628   -5.4927964    648.85177  0.030531327  0.029584538            8 
 1772000   0.54178606   -5.5079768    650.32265   0.03058327  0.029564009           21 
 1773000   0.53923101   -5.4894456    651.33861  0.030613772  0.029543501           12 
 1774000   0.54104409   -5.5080089    650.49639  0.030556952   0.02952299           10 
 1775000   0.53738894   -5.5275475    648.58895  0.030450185  0.029502459           31 
 1776000   0.54269094   -5.5268603    650.66289  0.030530353  0.029481912           22 
 1777000   0.54734994   -5.5033653    649.60228  0.030463434  0.029461376           27 
 1778000   0.53848483   -5.5318275    650.07003  0.030468224  0.029440913           39 
 1779000   0.55329851   -5.5318318    651.13878  0.030501161  0.029420415           25 
 1780000   0.54486298   -5.5174563    649.82916  0.030422713  0.029399936           42 
 1781000   0.54717981    -5.539313    648.90762  0.030362513  0.029379418           21 
 1782000   0.54173064   -5.5338036    648.76966  0.030339023  0.029358925           31 
 1783000   0.53269249   -5.5415011    648.93448   0.03032971  0.029338399           25 
 1784000   0.52681501   -5.5330151    648.99964  0.030315753  0.029317917           22 
 1785000   0.53292349   -5.5330653    650.47048  0.030367436  0.029297491           17 
 1786000   0.54352243   -5.5285086    651.33225  0.030390643  0.029277128           21 
 1787000    0.5295857    -5.537957    649.30483  0.030279091  0.029256699           15 
 1788000   0.53894254   -5.5329564    651.22009  0.030351421  0.029236343           14 
 1789000   0.53856478   -5.5084442    652.31687  0.030385544  0.029216073           12 
 1790000   0.54995135    -5.527855    651.29881  0.030321173  0.029195858            8 
 1791000   0.53726437   -5.5409508    651.24904  0.030301928  0.029175635           17 
 1792000   0.54090921   -5.5384529    649.87136  0.030220952  0.029155384            6 
 1793000   0.54099119   -5.5323491    650.41522  0.030229375  0.029135171            9 
 1794000    0.5351028   -5.5302393     651.1697  0.030247571  0.029114902           14 
 1795000   0.53779869   -5.5369041    649.27827   0.03014291  0.029094615           27 
 1796000   0.54394961   -5.5338456    650.02501  0.030160774  0.029074368            9 
 1797000    0.5394786   -5.5277328     650.4525  0.030163815   0.02905409           17 
 1798000   0.53671738   -5.5201135    650.38964  0.030144125  0.029033821           37 
 1799000   0.53635705   -5.5303637    649.42706   0.03008278  0.029013532           49 
 1800000   0.52608304   -5.5329793    649.52435  0.030070572  0.028993327           29 
 1801000    0.5445429   -5.5083087    650.78824  0.030112356  0.028973164           24 
 1802000   0.54203039   -5.5209851    652.23008  0.030162323  0.028953045           33 
 1803000   0.53960918   -5.5195064     650.2951  0.030056161  0.028932896           30 
 1804000     0.537421   -5.5246116    650.58251  0.030052777  0.028912813           66 
 1805000   0.53401766    -5.516117    650.39627  0.030027529  0.028892706           36 
 1806000   0.51431449   -5.5263071    651.37178  0.030055915  0.028872621           56 
 1807000    0.5374794   -5.5458914    650.58973  0.030003216   0.02885256           33 
 1808000   0.53679671   -5.5518943    649.92146   0.02995582    0.0288325           42 
 1809000   0.53547657   -5.5271378    650.86445    0.0299827  0.028812373           64 
 1810000   0.52814632   -5.5422458    649.03879   0.02988208   0.02879227           47 
 1811000   0.53528757   -5.5397034    648.96522  0.029862195   0.02877217           46 
 1812000   0.53022695   -5.5503963    650.21922  0.029903386  0.028752049           29 
 1813000   0.53072179   -5.5636785    650.11852  0.029882263  0.028731908           46 
 1814000   0.53213078   -5.5251789    649.51547  0.029838087  0.028711836           47 
 1815000   0.51453553   -5.5590776    649.60344  0.029825686  0.028691807           73 
 1816000   0.53394214   -5.5480845    650.06019  0.029830222  0.028671752           75 
 1817000   0.51987601   -5.5429999    649.55938  0.029790836  0.028651687           84 
 1818000   0.52935725   -5.5569947    651.12359  0.029846149  0.028631643           70 
 1819000   0.52875904   -5.5528199    649.84839  0.029771321  0.028611678           37 
 1820000   0.52276256   -5.5504651    648.70663  0.029702685  0.028591717           46 
 1821000   0.53031121   -5.5621874    649.96505  0.029743962  0.028571803           75 
 1822000   0.52164205   -5.5610783    648.42964  0.029657411  0.028551883           78 
 1823000    0.5288837   -5.5559651    649.83576   0.02970542  0.028531963          134 
 1824000   0.51622629    -5.546718    650.51799  0.029720303  0.028512121           57 
 1825000   0.52676041    -5.545172    651.91542  0.029767828  0.028492279          122 
 1826000   0.52653256   -5.5687775     649.9181  0.029660373  0.028472485          101 
 1827000   0.50919115    -5.553956    651.17844  0.029701626  0.028452677           58 
 1828000   0.51867563   -5.5645294    648.87075  0.029580176  0.028432855          124 
 1829000   0.52055704   -5.5616498    649.23212  0.029580468  0.028412965           90 
 1830000   0.53021037   -5.5667398    648.81605  0.029545358  0.028393055          152 
 1831000   0.51515951   -5.5458179    651.18484  0.029637031  0.028373215           81 
 1832000    0.5231568   -5.5625068      649.607  0.029549081  0.028353316           60 
 1833000    0.5240182   -5.5740106    650.10469  0.029555587  0.028333437           31 
 1834000   0.52912909   -5.5557109    649.98297  0.029533941  0.028313551           53 
 1835000   0.51269571   -5.5678703    649.87075   0.02951275  0.028293679           89 
 1836000   0.52413371   -5.5790346    648.60475  0.029439214   0.02827376           60 
 1837000   0.51247393   -5.5811255    648.36946  0.029412514  0.028253859           51 
 1838000   0.52538541   -5.5798003     648.6546   0.02940944  0.028233968           57 
 1839000   0.51714351   -5.6012674    647.68801  0.029349647  0.028214087           49 
 1840000   0.51034424   -5.5768553    648.78774  0.029383503  0.028194236           27 
 1841000   0.50850006   -5.5683916    649.34608  0.029392815    0.0281744           36 
 1842000   0.52824868   -5.5884032    649.32786  0.029376034  0.028154605           21 
 1843000   0.51159756   -5.5648312    649.13909  0.029351559  0.028134796           34 
 1844000   0.51530237    -5.576401    647.64602  0.029268168  0.028114981           37 
 1845000   0.50628857   -5.5850409    648.90287  0.029309073  0.028095172           39 
 1846000   0.50821898   -5.5766456    648.77102  0.029287244  0.028075392           23 
 1847000   0.51506267   -5.5904888    648.56206  0.029261959  0.028055598           55 
 1848000   0.53541755   -5.5780432    649.04986  0.029268122  0.028035831           47 
 1849000   0.50933639   -5.5728343     647.5398  0.029184235  0.028016095           25 
 1850000   0.52029245   -5.5749442    649.99501  0.029279054  0.027996454           27 
 1851000   0.51437539   -5.5956793    648.91996  0.029214837  0.027976757           42 
 1852000    0.5119894   -5.5873419    648.41563  0.029176369   0.02795707           27 
 1853000    0.5132828   -5.5837569    647.89904  0.029137392  0.027937396           47 
 1854000   0.50434826    -5.571109    647.57461  0.029107093  0.027917742           20 
 1855000   0.50836551   -5.5892499    648.23874  0.029121237  0.027898038           33 
 1856000   0.51519613   -5.5782261    648.24175  0.029105682  0.027878334           19 
 1857000   0.52696409   -5.5867155    648.38304  0.029096349  0.027858666           30 
 1858000   0.51032917   -5.5677173     647.9501  0.029061271  0.027839027           31 
 1859000   0.50760025   -5.5968104    648.47183  0.029069026  0.027819383           26 
 1860000   0.50677363   -5.6040284    648.07997  0.029035841  0.027799727           40 
 1861000   0.51356716   -5.5928851    647.97195  0.029015402  0.027780056           35 
 1862000   0.51995691   -5.6127424    647.32384  0.028970813  0.027760449           39 
 1863000   0.50893469   -5.6098903    648.98161  0.029029415  0.027740857           25 
 1864000   0.50939943   -5.6180603    647.30044  0.028938682  0.027721242           32 
 1865000   0.51025764    -5.598489    647.78651  0.028944884  0.027701657           68 
 1866000   0.49637652   -5.6012335    647.93524  0.028936015   0.02768206           58 
 1867000   0.51397618   -5.6104828     647.0945   0.02888299  0.027662511           63 
 1868000   0.50947257   -5.6158337    648.12477  0.028913489  0.027642967           67 
 1869000   0.50085178   -5.6072439    648.70803  0.028924025  0.027623447           29 
 1870000   0.50753508   -5.6076861    648.30543  0.028890616  0.027603929           50 
 1871000   0.49893814   -5.6200479    647.74638  0.028850275  0.027584407           68 
 1872000   0.50474478   -5.6033499    649.06389  0.028893514  0.027564941           61 
 1873000   0.52544006   -5.5995252    647.18136   0.02879433  0.027545557           32 
 1874000   0.50900963    -5.624526    648.45998  0.028835823  0.027526138           98 
 1875000   0.50423799   -5.6113724    648.67128  0.028829835  0.027506716          126 
 1876000   0.50745105   -5.6090933    648.34733  0.028800077  0.027487313          126 
 1877000   0.50450772   -5.6144676    646.86283  0.028718826  0.027467898           91 
 1878000   0.50863409   -5.6113649    648.74963  0.028787257  0.027448566           82 
 1879000   0.50710264   -5.6049887    647.40857  0.028712461   0.02742926          128 
 1880000   0.51511554   -5.6148942    647.99059  0.028722987  0.027409927          108 
 1881000   0.50167223   -5.6195902     648.8376  0.028745242  0.027390638          148 
 1882000   0.49288673   -5.6176962    648.84297  0.028730206   0.02737132          151 
 1883000   0.50234062   -5.6101231    649.42276  0.028740607  0.027352064          189 
 1884000    0.5037635   -5.6132331     647.8512  0.028655839  0.027332809          227 
 1885000   0.49658993    -5.631694    647.29092  0.028615867  0.027313548          188 
 1886000   0.50300016   -5.6119658    647.87861  0.028626662  0.027294305          181 
 1887000   0.49652744   -5.6209098      648.554  0.028641318  0.027275109          204 
 1888000   0.50116822   -5.6017825    648.47287  0.028622567  0.027255896          113 
 1889000   0.49547163   -5.6194249    647.13238  0.028548279  0.027236661          100 
 1890000    0.4894939   -5.6146533    646.80316  0.028518658  0.027217463           58 
 1891000   0.49758103   -5.6047087    648.26102  0.028567822  0.027198273           61 
 1892000   0.48932694   -5.5983621    647.99192   0.02854087  0.027179092           85 
 1893000   0.49205424   -5.6153614    646.92802  0.028478958  0.027159886          221 
 1894000   0.49458573   -5.6410092    646.58857  0.028448986  0.027140691          243 
 1895000   0.50285362    -5.626868    647.40584  0.028469914  0.027121482          109 
 1896000   0.50987639   -5.6266172    646.88552  0.028432029   0.02710227           98 
 1897000   0.49473516   -5.6365017    649.30996  0.028523544  0.027083077          155 
 1898000   0.50021799    -5.634252    647.25508  0.028418294  0.027063889           78 
 1899000   0.49025126   -5.6384853    646.68393  0.028378266  0.027044733           56 
 1900000   0.50174671   -5.6209753    647.48377  0.028398411  0.027025587           99 
 1901000   0.49986307   -5.6169421    646.62417   0.02834579  0.027006447           70 
 1902000    0.4981326   -5.6386325    646.86894  0.028341611  0.026987371          126 
 1903000    0.4925546   -5.6308536    647.09139   0.02833646  0.026968271          112 
 1904000   0.49213958   -5.6627948    646.04611  0.028275827  0.026949159           61 
 1905000   0.50535372   -5.6430113    646.25246  0.028270011  0.026930049          132 
 1906000   0.49817702   -5.6442126    647.69799   0.02831838  0.026910969          116 
 1907000   0.49246301   -5.6660524    647.71668  0.028304347  0.026891866          124 
 1908000   0.49291673   -5.6534513    647.07514  0.028261493  0.026872756           67 
 1909000   0.49346699   -5.6549903    646.28232   0.02821208  0.026853685          143 
 1910000    0.4905702   -5.6238519    646.55418   0.02820917  0.026834591          142 
 1911000   0.48987996   -5.6472523    647.17061  0.028221289   0.02681553          206 
 1912000   0.49547636   -5.6667845    645.64411  0.028139998  0.026796439           88 
 1913000   0.48952602   -5.6475344     646.5984  0.028166858  0.026777386          177 
 1914000   0.48349819   -5.6503453    647.21976  0.028179195  0.026758317          158 
 1915000   0.48233511   -5.6506226     647.4469  0.028174365  0.026739316           84 
 1916000   0.47892597   -5.6442412    648.49885  0.028205413  0.026720394          190 
 1917000   0.48944594   -5.6604365    647.05891  0.028128104  0.026701505          230 
 1918000   0.48313461    -5.636707    648.48479  0.028175391  0.026682597          115 
 1919000   0.47930292   -5.6372452    647.34148   0.02811106  0.026663676           96 
 1920000   0.49026084   -5.6507702    647.84056   0.02811808  0.026644751           81 
 1921000   0.48032966   -5.6505348    645.61426  0.028006865  0.026625847           94 
 1922000   0.48588556   -5.6459875    645.87157   0.02800345  0.026606951          107 
 1923000   0.49411596   -5.6307701    647.16312  0.028044857  0.026588081           56 
 1924000    0.4942504   -5.6639363    646.62587  0.028007011  0.026569187           95 
 1925000   0.48975968   -5.6574359    646.53384  0.027988478   0.02655032           85 
 1926000   0.49391681   -5.6435486    646.58593    0.0279762  0.026531463          170 
 1927000   0.48592044   -5.6521538    647.55577  0.028003623  0.026512643           83 
 1928000   0.48205804   -5.6591132    645.98977  0.027921411  0.026493819          132 
 1929000   0.47297114   -5.6573552    646.39168  0.027924299  0.026474989           76 
 1930000   0.47822631   -5.6637194    646.17643  0.027900537  0.026456146          117 
 1931000   0.47393188   -5.6616899    646.33308  0.027892848  0.026437313          112 
 1932000   0.47967403   -5.6523212    647.39514  0.027924221  0.026418516           81 
 1933000   0.48750327   -5.6607805    645.49055  0.027827666   0.02639974           75 
 1934000   0.47876346   -5.6663802    645.80318  0.027826749  0.026381003           68 
 1935000   0.48328475   -5.6642112    646.21536  0.027830119  0.026362278           73 
 1936000   0.47767439   -5.6477378    646.33204  0.027820766  0.026343595           96 
 1937000   0.46681509   -5.6571591    647.85355  0.027871862  0.026324868           79 
 1938000   0.47002408   -5.6587426    646.47293  0.027798113  0.026306188           70 
 1939000   0.47720435   -5.6588615    646.58967  0.027788794  0.026287497           77 
 1940000   0.48334498   -5.6699644     646.3631  0.027764738  0.026268876           92 
 1941000   0.47021414   -5.6725881    646.74523   0.02776684  0.026250204          191 
 1942000   0.48330779   -5.6640233    646.60646  0.027746587  0.026231517           90 
 1943000   0.47728279   -5.6555446    645.46839  0.027683496  0.026212881          100 
 1944000   0.47916828   -5.6578038    646.33252  0.027706298   0.02619426          130 
 1945000   0.47578956   -5.6780851     646.5847  0.027702858  0.026175621           82 
 1946000    0.4700012   -5.6642116    645.61764   0.02764721  0.026157019           88 
 1947000   0.47596375   -5.6873268     645.7168  0.027637254  0.026138406          191 
 1948000   0.46735591   -5.6805639     646.3287  0.027649243  0.026119848          101 
 1949000   0.47018869   -5.6733338    645.88095  0.027615912  0.026101271          103 
 1950000   0.47984283   -5.6585704    645.78442  0.027597625  0.026082728           97 
 1951000   0.47716612   -5.6738845    645.32989  0.027564065  0.026064185          125 
 1952000   0.47015354    -5.693072    645.13615  0.027541673  0.026045624           73 
 1953000   0.47651879   -5.6844489    645.55598  0.027545485  0.026027082           72 
 1954000   0.47900106   -5.6803652    645.17454   0.02751512  0.026008518           82 
 1955000   0.47309446   -5.6851567    647.15354  0.027585402  0.025989974           83 
 1956000   0.47010149   -5.6700331    645.24083  0.027489811  0.025971497          141 
 1957000   0.47127489   -5.6784784    645.32902  0.027479519  0.025953056           98 
 1958000   0.46115882   -5.6827268    645.56708  0.027475616  0.025934564          126 
 1959000   0.47139253   -5.6786848    645.05622  0.027439859  0.025916053          108 
 1960000    0.4635317   -5.7037477    645.32698  0.027437372   0.02589755          194 
 1961000   0.45612085   -5.6904314    644.29846  0.027379673  0.025879032          114 
 1962000   0.46430317   -5.6854579    647.08441  0.027484047  0.025860568          141 
 1963000   0.46943929   -5.6875138    645.13577  0.027387323   0.02584213           74 
 1964000   0.46317722   -5.7039221    644.13911  0.027331089  0.025823687          189 
 1965000   0.47771567   -5.7002262     644.9807  0.027352871  0.025805227          171 
 1966000   0.46215917   -5.6931558    644.41029   0.02731478  0.025786788          127 
 1967000   0.46830199   -5.6975728    645.53731   0.02734864  0.025768357          111 
 1968000   0.46591716   -5.6992835    645.40991  0.027329349  0.025749983          172 
 1969000   0.46260212   -5.6903352    645.32089  0.027311702  0.025731638          289 
 1970000   0.46590682   -5.6866264    645.23105  0.027294038  0.025713293          224 
 1971000   0.46177308   -5.6987249     647.0297  0.027356236  0.025694991          163 
 1972000     0.463612   -5.6926439    645.34479  0.027271163  0.025676701          167 
 1973000   0.47283148   -5.6858194    644.39016   0.02721702  0.025658391          248 
 1974000   0.47247386   -5.6890697    644.86556  0.027223301  0.025640095          245 
 1975000   0.46335808    -5.669639    644.48361  0.027193401  0.025621861          223 
 1976000   0.47228267   -5.6892017    645.69319  0.027230651  0.025603645          234 
 1977000   0.47390923   -5.6852152    644.83663  0.027180772  0.025585382          285 
 1978000   0.46207229   -5.6871508    643.88603  0.027126981   0.02556719          285 
 1979000   0.46840238   -5.7026052    644.86858  0.027154648  0.025549002          363 
 1980000   0.46081447   -5.7024438     645.0169  0.027147176  0.025530789          341 
 1981000   0.46415776   -5.6895803    644.81037  0.027124784  0.025512564          334 
 1982000     0.463853   -5.7003992    644.64933  0.027104328  0.025494335          348 
 1983000   0.46269981   -5.7211724    644.19932  0.027071748   0.02547611          308 
 1984000   0.46052565    -5.715039    644.13869  0.027055557  0.025457881          425 
 1985000   0.46943437   -5.7148611    644.78681  0.027069136  0.025439663          375 
 1986000   0.45791258    -5.710925    643.94857  0.027020333  0.025421418          396 
 1987000   0.46825294   -5.7265714    644.00866  0.027009254  0.025403198          399 
 1988000   0.46193148   -5.7025243    644.80968  0.027029246  0.025384991          422 
 1989000   0.45427227   -5.7256028    644.10373  0.026986079  0.025366799          414 
 1990000   0.46666114   -5.7113033    642.78336  0.026917226  0.025348595          451 
 1991000   0.46254901   -5.7007486    645.08227  0.026999928  0.025330437          362 
 1992000   0.45797499   -5.7193194    643.70208  0.026928635  0.025312311          435 
 1993000   0.46192059    -5.711815     643.7382  0.026916633  0.025294192          400 
 1994000   0.45879838    -5.707134     644.2066   0.02692271  0.025276093          504 
 1995000   0.45838624   -5.7008405    644.02265  0.026901531   0.02525798          446 
 1996000   0.44522899   -5.7091603    643.95872  0.026885384   0.02523992          474 
 1997000   0.45453282   -5.7235136    645.94088  0.026954635  0.025221855          518 
 1998000   0.44354701   -5.7191032    644.51511  0.026881678  0.025203817          482 
 1999000   0.45825295   -5.7211835    644.07578  0.026849916  0.025185785          524 
 2000000   0.45453573   -5.7130396    644.23686  0.026843203  0.025167759          455 
 2001000   0.45902458   -5.7129338    644.39192  0.026836245  0.025149752          451 
 2002000   0.45586524   -5.7156476    642.53217  0.026745428  0.025131731          317 
 2003000   0.46319518   -5.7186992    642.55961  0.026733217  0.025113688          414 
 2004000   0.45640222   -5.7350191    642.84907  0.026731914  0.025095709          415 
 2005000   0.45044965   -5.7362317     643.3049  0.026737527  0.025077743          479 
 2006000   0.45122308   -5.7240409    643.31804  0.026724744  0.025059766          462 
 2007000   0.45366275    -5.733848    643.47547  0.026717965  0.025041794          468 
 2008000   0.45348885   -5.7391211    643.97567  0.026725418  0.025023831          574 
 2009000   0.44108153   -5.7373398    643.04971  0.026673706  0.025005878          475 
 2010000   0.46257033   -5.7491905    643.35028  0.026672897  0.024987917          530 
 2011000   0.45447228   -5.7311929    643.61803  0.026670729  0.024969976          501 
 2012000   0.46046424   -5.7405352    642.31162  0.026603364  0.024952081          566 
Loop time of 5047.29 on 48 procs for 2000000 steps with 4000 atoms

Performance: 68472.378 tau/day, 396.252 timesteps/s
99.4% CPU use with 48 MPI tasks x no OpenMP threads

MPI task timing breakdown:
Section |  min time  |  avg time  |  max time  |%varavg| %total
---------------------------------------------------------------
Pair    | 355.11     | 374.15     | 389.33     |  44.6 |  7.41
Neigh   | 34.19      | 35.551     | 37.119     |  12.2 |  0.70
Comm    | 326.14     | 345.36     | 365.84     |  54.7 |  6.84
Output  | 5.2652     | 5.267      | 5.2982     |   0.2 |  0.10
Modify  | 4227.3     | 4241       | 4251.4     |   9.1 | 84.02
Other   |            | 46         |            |       |  0.91

Nlocal:        83.3333 ave          91 max          74 min
Histogram: 1 1 6 2 4 15 8 7 3 1
Nghost:        2333.46 ave        2357 max        2310 min
Histogram: 2 0 2 10 10 12 6 3 2 1
Neighs:        15917.2 ave       17967 max       14355 min
Histogram: 5 5 5 9 5 5 7 5 1 1
FullNghs:      31836.2 ave       35171 max       27861 min
Histogram: 1 1 4 5 3 15 11 6 1 1

Total # of neighbors = 1528140
Ave neighs/atom = 382.03500
Neighbor list builds = 107688
Dangerous builds = 0

#clear
#
#next RN
#
#jump SELF
Total wall time: 1:24:10
